<?xml version="1.0"?>
<VTKFile type="UnstructuredGrid" version="0.1" byte_order="LittleEndian">
<UnstructuredGrid>
<Piece NumberOfPoints="29749" NumberOfCells="10413">
<Points>
<DataArray type="Float64" NumberOfComponents="3" format="ascii">
-0.5 -0.5 0 -0.47765332813019518 -0.48066783237241062 0 -0.5 -0.46133566474482152 0 -0.5 -0.5 0 -0.47765332813019518 -0.48066783237241062 0 -0.43667459435064709 -0.5 0 -0.47765332813019518 -0.48066783237241062 0 -0.45006521032947061 -0.47697739455631899 0 -0.43667459435064709 -0.5 0 -0.47765332813019518 -0.48066783237241062 0 -0.45006521032947061 -0.47697739455631899 0 -0.45930554681936248 -0.45750611029032429 0 -0.45006521032947061 -0.47697739455631899 0 -0.44441352584897648 -0.46623011903712153 0 -0.43227905649817178 -0.48048291108173879 0 -0.45006521032947061 -0.47697739455631899 0 -0.43667459435064709 -0.5 0 -0.43227905649817178 -0.48048291108173879 0 -0.45004425664809111 -0.44067880333552611 0 -0.44022217446643502 -0.45252312413386592 0 -0.43220330901473503 -0.4389024895360395 0 -0.45004425664809111 -0.44067880333552611 0 -0.44022217446643502 -0.45252312413386592 0 -0.45930554681936248 -0.45750611029032429 0 -0.45006521032947061 -0.47697739455631899 0 -0.44441352584897648 -0.46623011903712153 0 -0.45930554681936248 -0.45750611029032429 0 -0.44022217446643502 -0.45252312413386592 0 -0.44441352584897648 -0.46623011903712153 0 -0.45930554681936248 -0.45750611029032429 0 -0.44022217446643502 -0.45252312413386592 0 -0.44441352584897648 -0.46623011903712153 0 -0.4319321311576646 -0.46579800380839931 0 -0.45930554681936248 -0.45750611029032429 0 -0.46375940697514939 -0.44096548134392438 0 -0.47871110661077548 -0.44597540092606608 0 -0.45004425664809111 -0.44067880333552611 0 -0.45930554681936248 -0.45750611029032429 0 -0.46375940697514939 -0.44096548134392438 0 -0.47765332813019518 -0.48066783237241062 0 -0.45930554681936248 -0.45750611029032429 0 -0.47871110661077548 -0.44597540092606608 0 -0.47765332813019518 -0.48066783237241062 0 -0.5 -0.46133566474482152 0 -0.47871110661077548 -0.44597540092606608 0 -0.46375940697514939 -0.44096548134392438 0 -0.47871110661077548 -0.44597540092606608 0 -0.46945570918978019 -0.42623951144999639 0 -0.5 -0.46133566474482152 0 -0.47871110661077548 -0.44597540092606608 0 -0.50000000000000044 -0.4070478360789056 0 -0.47871110661077548 -0.44597540092606608 0 -0.50000000000000044 -0.4070478360789056 0 -0.46945570918978019 -0.42623951144999639 0 -0.47626439332656501 -0.4085938199887974 0 -0.46945570918978019 -0.42623951144999639 0 -0.50000000000000044 -0.4070478360789056 0 -0.47626439332656501 -0.4085938199887974 0 -0.46945570918978019 -0.42623951144999639 0 -0.48706601898926388 -0.38059984201975372 0 -0.49999999999999989 -0.4008287514473039 0 -0.5 -0.37395415382665842 0 -0.48706601898926388 -0.38059984201975372 0 -0.48307307746335099 -0.39094812852759903 0 -0.50000000000000044 -0.4070478360789056 0 -0.49999999999999989 -0.4008287514473039 0 -0.48307307746335099 -0.39094812852759903 0 -0.50000000000000044 -0.4070478360789056 0 -0.48307307746335099 -0.39094812852759903 0 -0.48706601898926388 -0.38059984201975372 0 -0.49999999999999989 -0.4008287514473039 0 -0.50000000000000044 -0.4070478360789056 0 -0.47626439332656501 -0.4085938199887974 0 -0.48307307746335099 -0.39094812852759903 0 -0.48706601898926388 -0.38059984201975372 0 -0.49999999999999989 -0.4008287514473039 0 -0.48307307746335099 -0.39094812852759903 0 -0.47626439332656501 -0.4085938199887974 0 -0.47345761097166578 -0.39287125545237728 0 -0.48307307746335099 -0.39094812852759903 0 -0.47626439332656501 -0.4085938199887974 0 -0.48307307746335099 -0.39094812852759903 0 -0.47626439332656501 -0.4085938199887974 0 -0.47345761097166578 -0.39287125545237728 0 -0.45970617698602229 -0.40821500014693152 0 -0.48706601898926388 -0.38059984201975372 0 -0.48307307746335099 -0.39094812852759903 0 -0.46592657403084559 -0.37463957095057171 0 -0.48307307746335099 -0.39094812852759903 0 -0.46592657403084559 -0.37463957095057171 0 -0.47345761097166578 -0.39287125545237728 0 -0.48307307746335099 -0.39094812852759903 0 -0.46592657403084559 -0.37463957095057171 0 -0.46068981917532831 -0.38747401928870701 0 -0.44800318446103699 -0.3930593541208558 0 -0.45590312218418833 -0.37013778641326411 0 -0.46068981917532831 -0.38747401928870701 0 -0.46592657403084559 -0.37463957095057171 0 -0.45590312218418833 -0.37013778641326411 0 -0.47345761097166578 -0.39287125545237728 0 -0.46068981917532831 -0.38747401928870701 0 -0.46592657403084559 -0.37463957095057171 0 -0.46068981917532831 -0.38747401928870701 0 -0.44800318446103699 -0.3930593541208558 0 -0.45970617698602229 -0.40821500014693152 0 -0.47345761097166578 -0.39287125545237728 0 -0.46068981917532831 -0.38747401928870701 0 -0.45970617698602229 -0.40821500014693152 0 -0.47345761097166578 -0.39287125545237728 0 -0.45970617698602229 -0.40821500014693152 0 -0.44800318446103699 -0.3930593541208558 0 -0.44010324673788581 -0.41598092182844759 0 -0.44800318446103699 -0.3930593541208558 0 -0.44010324673788581 -0.41598092182844759 0 -0.43550128798834481 -0.40149410703910871 0 -0.44800318446103699 -0.3930593541208558 0 -0.45970617698602229 -0.40821500014693152 0 -0.44010324673788581 -0.41598092182844759 0 -0.44800318446103699 -0.3930593541208558 0 -0.45590312218418833 -0.37013778641326411 0 -0.44800318446103699 -0.3930593541208558 0 -0.45590312218418833 -0.37013778641326411 0 -0.44451837708036163 -0.36992655364482091 0 -0.44800318446103699 -0.3930593541208558 0 -0.43554396603905171 -0.37587354725390743 0 -0.44451837708036163 -0.36992655364482091 0 -0.45004425664809111 -0.44067880333552611 0 -0.46375940697514939 -0.44096548134392438 0 -0.45709511850740669 -0.43024764216568129 0 -0.46375940697514939 -0.44096548134392438 0 -0.46945570918978019 -0.42623951144999639 0 -0.45709511850740669 -0.43024764216568129 0 -0.45709511850740669 -0.43024764216568129 0 -0.45970617698602229 -0.40821500014693152 0 -0.44595474300037891 -0.4235587448414857 0 -0.46945570918978019 -0.42623951144999639 0 -0.45709511850740669 -0.43024764216568129 0 -0.45970617698602229 -0.40821500014693152 0 -0.47626439332656501 -0.4085938199887974 0 -0.46945570918978019 -0.42623951144999639 0 -0.45970617698602229 -0.40821500014693152 0 -0.45970617698602229 -0.40821500014693152 0 -0.44010324673788581 -0.41598092182844759 0 -0.44595474300037891 -0.4235587448414857 0 -0.45970617698602229 -0.40821500014693152 0 -0.44595474300037891 -0.4235587448414857 0 -0.44010324673788581 -0.41598092182844759 0 -0.44595474300037891 -0.4235587448414857 0 -0.43220330901473503 -0.4389024895360395 0 -0.45004425664809111 -0.44067880333552611 0 -0.45709511850740669 -0.43024764216568129 0 -0.44595474300037891 -0.4235587448414857 0 -0.45004425664809111 -0.44067880333552611 0 -0.44595474300037891 -0.4235587448414857 0 -0.43220330901473503 -0.4389024895360395 0 -0.44595474300037891 -0.4235587448414857 0 -0.43220330901473503 -0.4389024895360395 0 -0.42331108675446438 -0.42842995627097319 0 -0.42988028826542218 -0.42182658606581003 0 -0.43220330901473503 -0.4389024895360395 0 -0.44010324673788581 -0.41598092182844759 0 -0.42988028826542218 -0.42182658606581003 0 -0.43220330901473503 -0.4389024895360395 0 -0.44010324673788581 -0.41598092182844759 0 -0.43220330901473503 -0.4389024895360395 0 -0.42331108675446438 -0.42842995627097319 0 -0.43220330901473503 -0.4389024895360395 0 -0.41741435186197567 -0.43837084661835679 0 -0.44010324673788581 -0.41598092182844759 0 -0.42988028826542218 -0.42182658606581003 0 -0.43108881441353131 -0.41054627792573001 0 -0.44010324673788581 -0.41598092182844759 0 -0.43108881441353131 -0.41054627792573001 0 -0.43550128798834481 -0.40149410703910871 0 -0.43108881441353131 -0.41054627792573001 0 -0.42269498440649461 -0.4152732847678598 0 -0.42378080139464952 -0.40062134223449047 0 -0.42331108675446438 -0.42842995627097319 0 -0.42988028826542218 -0.42182658606581003 0 -0.42269498440649461 -0.4152732847678598 0 -0.42988028826542218 -0.42182658606581003 0 -0.43108881441353131 -0.41054627792573001 0 -0.42269498440649461 -0.4152732847678598 0 -0.41294211707652712 -0.4101778617618318 0 -0.41000155023325752 -0.42502381368666459 0 -0.40055338038779198 -0.40802447264505459 0 -0.42269498440649461 -0.4152732847678598 0 -0.41294211707652712 -0.4101778617618318 0 -0.41000155023325752 -0.42502381368666459 0 -0.42269498440649461 -0.4152732847678598 0 -0.41294211707652712 -0.4101778617618318 0 -0.42378080139464952 -0.40062134223449047 0 -0.41000155023325752 -0.42502381368666459 0 -0.40595359375612122 -0.44207211561595922 0 -0.41741435186197567 -0.43837084661835679 0 -0.42331108675446438 -0.42842995627097319 0 -0.41000155023325752 -0.42502381368666459 0 -0.41741435186197567 -0.43837084661835679 0 -0.42331108675446438 -0.42842995627097319 0 -0.42269498440649461 -0.4152732847678598 0 -0.41000155023325752 -0.42502381368666459 0 -0.44800318446103699 -0.3930593541208558 0 -0.43554396603905171 -0.37587354725390743 0 -0.42877636842359468 -0.38669085669920489 0 -0.42877636842359468 -0.38669085669920489 0 -0.41594545757327728 -0.37705367544898649 0 -0.42599115964757778 -0.37269041887145182 0 -0.43554396603905171 -0.37587354725390743 0 -0.42877636842359468 -0.38669085669920489 0 -0.42599115964757778 -0.37269041887145182 0 -0.44800318446103699 -0.3930593541208558 0 -0.42877636842359468 -0.38669085669920489 0 -0.43550128798834481 -0.40149410703910871 0 -0.42877636842359468 -0.38669085669920489 0 -0.42378080139464952 -0.40062134223449047 0 -0.41747147193682083 -0.38960997988657942 0 -0.42877636842359468 -0.38669085669920489 0 -0.43550128798834481 -0.40149410703910871 0 -0.42378080139464952 -0.40062134223449047 0 -0.43108881441353131 -0.41054627792573001 0 -0.43550128798834481 -0.40149410703910871 0 -0.42378080139464952 -0.40062134223449047 0 -0.41294211707652712 -0.4101778617618318 0 -0.42378080139464952 -0.40062134223449047 0 -0.41171098128918598 -0.39910339066472889 0 -0.41294211707652712 -0.4101778617618318 0 -0.41171098128918598 -0.39910339066472889 0 -0.40055338038779198 -0.40802447264505459 0 -0.41171098128918598 -0.39910339066472889 0 -0.41747147193682083 -0.38960997988657942 0 -0.40398989801211121 -0.38699373300617268 0 -0.42378080139464952 -0.40062134223449047 0 -0.41171098128918598 -0.39910339066472889 0 -0.41747147193682083 -0.38960997988657942 0 -0.41594545757327728 -0.37705367544898649 0 -0.40398989801211121 -0.38699373300617268 0 -0.40286774108191992 -0.36906688324343928 0 -0.42877636842359468 -0.38669085669920489 0 -0.41747147193682083 -0.38960997988657942 0 -0.41594545757327728 -0.37705367544898649 0 -0.41747147193682083 -0.38960997988657942 0 -0.41594545757327728 -0.37705367544898649 0 -0.40398989801211121 -0.38699373300617268 0 -0.39429133477182338 -0.37860228211916108 0 -0.40398989801211121 -0.38699373300617268 0 -0.40286774108191992 -0.36906688324343928 0 -0.40398989801211121 -0.38699373300617268 0 -0.39110521054232572 -0.3910251316034451 0 -0.39429133477182338 -0.37860228211916108 0 -0.40398989801211121 -0.38699373300617268 0 -0.39110521054232572 -0.3910251316034451 0 -0.40398989801211121 -0.38699373300617268 0 -0.39110521054232572 -0.3910251316034451 0 -0.40055338038779198 -0.40802447264505459 0 -0.41171098128918598 -0.39910339066472889 0 -0.40398989801211121 -0.38699373300617268 0 -0.40055338038779198 -0.40802447264505459 0 -0.39110521054232572 -0.3910251316034451 0 -0.40055338038779198 -0.40802447264505459 0 -0.39110521054232572 -0.3910251316034451 0 -0.40055338038779198 -0.40802447264505459 0 -0.38383730972191221 -0.40816379704660782 0 -0.39110521054232572 -0.3910251316034451 0 -0.37588511873671032 -0.39578723832115981 0 -0.38383730972191221 -0.40816379704660782 0 -0.37588511873671032 -0.39578723832115981 0 -0.38383730972191221 -0.40816379704660782 0 -0.37337547552811517 -0.4071185345939986 0 -0.39110521054232572 -0.3910251316034451 0 -0.37588511873671032 -0.39578723832115981 0 -0.39110521054232572 -0.3910251316034451 0 -0.37588511873671032 -0.39578723832115981 0 -0.37829145733642849 -0.36797036392538218 0 -0.39110521054232572 -0.3910251316034451 0 -0.37829145733642849 -0.36797036392538218 0 -0.39429133477182338 -0.37860228211916108 0 -0.39110521054232572 -0.3910251316034451 0 -0.37829145733642849 -0.36797036392538218 0 -0.39909635535565913 -0.43149350568098888 0 -0.38730465939326331 -0.43762731768794338 0 -0.40595359375612122 -0.44207211561595922 0 -0.41000155023325752 -0.42502381368666459 0 -0.39909635535565913 -0.43149350568098888 0 -0.39380339571563872 -0.4214628915900952 0 -0.39909635535565913 -0.43149350568098888 0 -0.39380339571563872 -0.4214628915900952 0 -0.38730465939326331 -0.43762731768794338 0 -0.41000155023325752 -0.42502381368666459 0 -0.39909635535565913 -0.43149350568098888 0 -0.40595359375612122 -0.44207211561595922 0 -0.41000155023325752 -0.42502381368666459 0 -0.40055338038779198 -0.40802447264505459 0 -0.39380339571563872 -0.4214628915900952 0 -0.40055338038779198 -0.40802447264505459 0 -0.39380339571563872 -0.4214628915900952 0 -0.38383730972191221 -0.40816379704660782 0 -0.41000155023325752 -0.42502381368666459 0 -0.40055338038779198 -0.40802447264505459 0 -0.39380339571563872 -0.4214628915900952 0 -0.38346845953167052 -0.4199158514479992 0 -0.38383730972191221 -0.40816379704660782 0 -0.38346845953167052 -0.4199158514479992 0 -0.38383730972191221 -0.40816379704660782 0 -0.37841208966535822 -0.41323691955194192 0 -0.37841208966535822 -0.41323691955194192 0 -0.37398484316218 -0.41908833136340767 0 -0.37337547552811517 -0.4071185345939986 0 -0.38383730972191221 -0.40816379704660782 0 -0.37841208966535822 -0.41323691955194192 0 -0.37337547552811517 -0.4071185345939986 0 -0.38346845953167052 -0.4199158514479992 0 -0.37841208966535822 -0.41323691955194192 0 -0.37398484316218 -0.41908833136340767 0 -0.37615477046041917 -0.42339688842039752 0 -0.38730465939326331 -0.43762731768794338 0 -0.37398484316218 -0.41908833136340767 0 -0.38730465939326331 -0.43762731768794338 0 -0.37398484316218 -0.41908833136340767 0 -0.39380339571563872 -0.4214628915900952 0 -0.38346845953167052 -0.4199158514479992 0 -0.38730465939326331 -0.43762731768794338 0 -0.38346845953167052 -0.4199158514479992 0 -0.38730465939326331 -0.43762731768794338 0 -0.37398484316218 -0.41908833136340767 0 -0.37615477046041917 -0.42339688842039752 0 -0.38730465939326331 -0.43762731768794338 0 -0.37174577125441671 -0.43795663612180469 0 -0.38047752685315128 -0.45103525846515541 0 -0.38730465939326331 -0.43762731768794338 0 -0.39546778920765852 -0.45608172856416879 0 -0.38047752685315128 -0.45103525846515541 0 -0.38730465939326331 -0.43762731768794338 0 -0.37174577125441671 -0.43795663612180469 0 -0.40595359375612122 -0.44207211561595922 0 -0.39546778920765852 -0.45608172856416879 0 -0.41560221955130039 -0.45742585798214758 0 -0.38730465939326331 -0.43762731768794338 0 -0.40595359375612122 -0.44207211561595922 0 -0.39546778920765852 -0.45608172856416879 0 -0.39546778920765852 -0.45608172856416879 0 -0.39900113008786531 -0.47594922642825532 0 -0.41560221955130039 -0.45742585798214758 0 -0.38047752685315128 -0.45103525846515541 0 -0.39546778920765852 -0.45608172856416879 0 -0.37564327495589078 -0.46593730494344132 0 -0.39546778920765852 -0.45608172856416879 0 -0.37564327495589078 -0.46593730494344132 0 -0.39900113008786531 -0.47594922642825532 0 -0.38240004062443028 -0.49447259487436301 0 -0.39900113008786531 -0.47594922642825532 0 -0.37361736850328481 -0.4814846115631144 0 -0.37564327495589078 -0.46593730494344132 0 -0.39900113008786531 -0.47594922642825532 0 -0.37361736850328481 -0.4814846115631144 0 -0.38240004062443028 -0.49447259487436301 0 -0.38856408620983052 -0.5 0 -0.39900113008786531 -0.47594922642825532 0 -0.38240004062443028 -0.49447259487436301 0 -0.39900113008786531 -0.47594922642825532 0 -0.38856408620983052 -0.5 0 -0.39900113008786531 -0.47594922642825532 0 -0.43667459435064709 -0.5 0 -0.39900113008786531 -0.47594922642825532 0 -0.43667459435064709 -0.5 0 -0.43227905649817178 -0.48048291108173879 0 -0.39900113008786531 -0.47594922642825532 0 -0.42078936225106628 -0.47201990928323012 0 -0.43227905649817178 -0.48048291108173879 0 -0.42078936225106628 -0.47201990928323012 0 -0.43227905649817178 -0.48048291108173879 0 -0.4319321311576646 -0.46579800380839931 0 -0.44441352584897648 -0.46623011903712153 0 -0.43227905649817178 -0.48048291108173879 0 -0.4319321311576646 -0.46579800380839931 0 -0.42078936225106628 -0.47201990928323012 0 -0.4319321311576646 -0.46579800380839931 0 -0.4264963356329004 -0.4554611994096347 0 -0.42078936225106628 -0.47201990928323012 0 -0.4264963356329004 -0.4554611994096347 0 -0.44022217446643502 -0.45252312413386592 0 -0.4319321311576646 -0.46579800380839931 0 -0.4264963356329004 -0.4554611994096347 0 -0.4264963356329004 -0.4554611994096347 0 -0.43220330901473503 -0.4389024895360395 0 -0.44022217446643502 -0.45252312413386592 0 -0.4264963356329004 -0.4554611994096347 0 -0.43220330901473503 -0.4389024895360395 0 -0.4264963356329004 -0.4554611994096347 0 -0.43220330901473503 -0.4389024895360395 0 -0.41560221955130039 -0.45742585798214758 0 -0.43220330901473503 -0.4389024895360395 0 -0.41560221955130039 -0.45742585798214758 0 -0.43220330901473503 -0.4389024895360395 0 -0.41741435186197567 -0.43837084661835679 0 -0.41560221955130039 -0.45742585798214758 0 -0.40595359375612122 -0.44207211561595922 0 -0.41741435186197567 -0.43837084661835679 0 -0.41560221955130039 -0.45742585798214758 0 -0.39900113008786531 -0.47594922642825532 0 -0.41560221955130039 -0.45742585798214758 0 -0.39900113008786531 -0.47594922642825532 0 -0.42078936225106628 -0.47201990928323012 0 -0.41560221955130039 -0.45742585798214758 0 -0.42078936225106628 -0.47201990928323012 0 -0.4264963356329004 -0.4554611994096347 0 -0.41560221955130039 -0.45742585798214758 0 -0.43961191115899823 -0.26270834032427598 0 -0.46188033193972461 -0.26737389386009308 0 -0.44700065867768829 -0.24526925556255891 0 -0.43911832139975898 -0.28062088838241339 0 -0.46188033193972461 -0.26737389386009308 0 -0.43911832139975898 -0.28062088838241339 0 -0.46188033193972461 -0.26737389386009308 0 -0.44418854728455248 -0.28655485962977068 0 -0.43961191115899823 -0.26270834032427598 0 -0.43911832139975898 -0.28062088838241339 0 -0.46188033193972461 -0.26737389386009308 0 -0.46188033193972461 -0.26737389386009308 0 -0.4581817719175052 -0.28764689356364881 0 -0.44418854728455248 -0.28655485962977068 0 -0.46188033193972461 -0.26737389386009308 0 -0.47503396018956812 -0.2376627704341352 0 -0.44700065867768829 -0.24526925556255891 0 -0.46188033193972461 -0.26737389386009308 0 -0.48314728129858109 -0.26440307029013671 0 -0.47503396018956812 -0.2376627704341352 0 -0.48314728129858109 -0.26440307029013671 0 -0.5 -0.27857372964304372 0 -0.5 -0.24938474699269531 0 -0.48314728129858109 -0.26440307029013671 0 -0.5 -0.24938474699269531 0 -0.47503396018956812 -0.2376627704341352 0 -0.48314728129858109 -0.26440307029013671 0 -0.5 -0.27857372964304372 0 -0.47263373786438279 -0.29504201518268658 0 -0.46188033193972461 -0.26737389386009308 0 -0.48314728129858109 -0.26440307029013671 0 -0.47263373786438279 -0.29504201518268658 0 -0.5 -0.27857372964304372 0 -0.47263373786438279 -0.29504201518268658 0 -0.5 -0.30776271229339192 0 -0.47263373786438279 -0.29504201518268658 0 -0.5 -0.30776271229339192 0 -0.47356394415921049 -0.32471178755713009 0 -0.47263373786438279 -0.29504201518268658 0 -0.44712788831842459 -0.31247188017051902 0 -0.47356394415921049 -0.32471178755713009 0 -0.47263373786438279 -0.29504201518268658 0 -0.45099481737130659 -0.29671693839943669 0 -0.44712788831842459 -0.31247188017051902 0 -0.46188033193972461 -0.26737389386009308 0 -0.47263373786438279 -0.29504201518268658 0 -0.4581817719175052 -0.28764689356364881 0 -0.47263373786438279 -0.29504201518268658 0 -0.4581817719175052 -0.28764689356364881 0 -0.45099481737130659 -0.29671693839943669 0 -0.4581817719175052 -0.28764689356364881 0 -0.45099481737130659 -0.29671693839943669 0 -0.44418854728455248 -0.28655485962977068 0 -0.43911832139975898 -0.28062088838241339 0 -0.44418854728455248 -0.28655485962977068 0 -0.43911832139975898 -0.28062088838241339 0 -0.44418854728455248 -0.28655485962977068 0 -0.43669184367370811 -0.28779783394495417 0 -0.45099481737130659 -0.29671693839943669 0 -0.44418854728455248 -0.28655485962977068 0 -0.4378077974384687 -0.29555800591496922 0 -0.44418854728455248 -0.28655485962977068 0 -0.4378077974384687 -0.29555800591496922 0 -0.43669184367370811 -0.28779783394495417 0 -0.45099481737130659 -0.29671693839943669 0 -0.4378077974384687 -0.29555800591496922 0 -0.44712788831842459 -0.31247188017051902 0 -0.44712788831842459 -0.31247188017051902 0 -0.44002137803550562 -0.33343104338888968 0 -0.43043854266607451 -0.31919655925931262 0 -0.44002137803550562 -0.33343104338888968 0 -0.46025029925747879 -0.33865971815235019 0 -0.44577348286855001 -0.34650371471221769 0 -0.44002137803550562 -0.33343104338888968 0 -0.44577348286855001 -0.34650371471221769 0 -0.43293433743221571 -0.34937094633185278 0 -0.44712788831842459 -0.31247188017051902 0 -0.44002137803550562 -0.33343104338888968 0 -0.46025029925747879 -0.33865971815235019 0 -0.44712788831842459 -0.31247188017051902 0 -0.47356394415921049 -0.32471178755713009 0 -0.44712788831842459 -0.31247188017051902 0 -0.46025029925747879 -0.33865971815235019 0 -0.47356394415921049 -0.32471178755713009 0 -0.5 -0.30776271229339192 0 -0.47356394415921049 -0.32471178755713009 0 -0.499999999999997 -0.33695169494374011 0 -0.47356394415921049 -0.32471178755713009 0 -0.499999999999997 -0.33695169494374011 0 -0.48766665758560751 -0.34068391326689551 0 -0.47356394415921049 -0.32471178755713009 0 -0.499999999999997 -0.33695169494374011 0 -0.499999999999997 -0.33695169494374011 0 -0.48766665758560751 -0.34068391326689551 0 -0.50000000000000089 -0.34707955620601288 0 -0.46025029925747879 -0.33865971815235019 0 -0.47356394415921049 -0.32471178755713009 0 -0.47752610998807138 -0.34346966285969099 0 -0.47356394415921049 -0.32471178755713009 0 -0.48766665758560751 -0.34068391326689551 0 -0.47752610998807138 -0.34346966285969099 0 -0.46025029925747879 -0.33865971815235019 0 -0.47752610998807138 -0.34346966285969099 0 -0.47365815912337172 -0.35962978008605179 0 -0.47752610998807138 -0.34346966285969099 0 -0.48724323378075568 -0.35120686476790319 0 -0.47365815912337172 -0.35962978008605179 0 -0.48766665758560751 -0.34068391326689551 0 -0.47752610998807138 -0.34346966285969099 0 -0.48724323378075568 -0.35120686476790319 0 -0.48766665758560751 -0.34068391326689551 0 -0.48724323378075568 -0.35120686476790319 0 -0.50000000000000089 -0.34707955620601288 0 -0.48724323378075568 -0.35120686476790319 0 -0.49353300949463219 -0.36383969911288322 0 -0.47365815912337172 -0.35962978008605179 0 -0.50000000000000089 -0.34707955620601288 0 -0.49353300949463219 -0.36383969911288322 0 -0.48724323378075568 -0.35120686476790319 0 -0.50000000000000089 -0.34707955620601288 0 -0.49353300949463219 -0.36383969911288322 0 -0.48706601898926388 -0.38059984201975372 0 -0.5 -0.37395415382665842 0 -0.49353300949463219 -0.36383969911288322 0 -0.50000000000000089 -0.34707955620601288 0 -0.5 -0.37395415382665842 0 -0.49353300949463219 -0.36383969911288322 0 -0.48706601898926388 -0.38059984201975372 0 -0.49353300949463219 -0.36383969911288322 0 -0.47365815912337172 -0.35962978008605179 0 -0.48706601898926388 -0.38059984201975372 0 -0.49353300949463219 -0.36383969911288322 0 -0.48706601898926388 -0.38059984201975372 0 -0.47365815912337172 -0.35962978008605179 0 -0.48706601898926388 -0.38059984201975372 0 -0.47365815912337172 -0.35962978008605179 0 -0.46592657403084559 -0.37463957095057171 0 -0.46592657403084559 -0.37463957095057171 0 -0.46167187463697368 -0.3608289672818441 0 -0.44878007059833991 -0.35833101337354473 0 -0.46592657403084559 -0.37463957095057171 0 -0.44878007059833991 -0.35833101337354473 0 -0.46592657403084559 -0.37463957095057171 0 -0.45590312218418833 -0.37013778641326411 0 -0.44878007059833991 -0.35833101337354473 0 -0.47365815912337172 -0.35962978008605179 0 -0.46592657403084559 -0.37463957095057171 0 -0.46167187463697368 -0.3608289672818441 0 -0.46025029925747879 -0.33865971815235019 0 -0.47365815912337172 -0.35962978008605179 0 -0.46025029925747879 -0.33865971815235019 0 -0.47365815912337172 -0.35962978008605179 0 -0.45799953495558599 -0.35220300040926189 0 -0.47365815912337172 -0.35962978008605179 0 -0.46167187463697368 -0.3608289672818441 0 -0.45799953495558599 -0.35220300040926189 0 -0.46025029925747879 -0.33865971815235019 0 -0.45799953495558599 -0.35220300040926189 0 -0.44577348286855001 -0.34650371471221769 0 -0.46167187463697368 -0.3608289672818441 0 -0.45799953495558599 -0.35220300040926189 0 -0.44878007059833991 -0.35833101337354473 0 -0.45799953495558599 -0.35220300040926189 0 -0.44878007059833991 -0.35833101337354473 0 -0.44577348286855001 -0.34650371471221769 0 -0.44878007059833991 -0.35833101337354473 0 -0.43224308004396611 -0.36198836928838829 0 -0.43293433743221571 -0.34937094633185278 0 -0.44878007059833991 -0.35833101337354473 0 -0.44577348286855001 -0.34650371471221769 0 -0.43293433743221571 -0.34937094633185278 0 -0.44878007059833991 -0.35833101337354473 0 -0.44451837708036163 -0.36992655364482091 0 -0.43224308004396611 -0.36198836928838829 0 -0.45590312218418833 -0.37013778641326411 0 -0.44878007059833991 -0.35833101337354473 0 -0.44451837708036163 -0.36992655364482091 0 -0.42599115964757778 -0.37269041887145182 0 -0.43224308004396611 -0.36198836928838829 0 -0.41744692615799911 -0.36184564566677202 0 -0.43554396603905171 -0.37587354725390743 0 -0.42599115964757778 -0.37269041887145182 0 -0.43224308004396611 -0.36198836928838829 0 -0.43554396603905171 -0.37587354725390743 0 -0.44451837708036163 -0.36992655364482091 0 -0.43224308004396611 -0.36198836928838829 0 -0.43293433743221571 -0.34937094633185278 0 -0.42213359970326553 -0.35040556488972979 0 -0.42343766009627198 -0.33577537067784857 0 -0.43224308004396611 -0.36198836928838829 0 -0.42213359970326553 -0.35040556488972979 0 -0.41744692615799911 -0.36184564566677202 0 -0.43224308004396611 -0.36198836928838829 0 -0.43293433743221571 -0.34937094633185278 0 -0.42213359970326553 -0.35040556488972979 0 -0.42213359970326553 -0.35040556488972979 0 -0.41071566875569759 -0.34791301149099457 0 -0.41744692615799911 -0.36184564566677202 0 -0.42213359970326553 -0.35040556488972979 0 -0.41071566875569759 -0.34791301149099457 0 -0.42343766009627198 -0.33577537067784857 0 -0.41071566875569759 -0.34791301149099457 0 -0.40700484069764598 -0.35848297412392838 0 -0.41744692615799911 -0.36184564566677202 0 -0.40700484069764598 -0.35848297412392838 0 -0.41744692615799911 -0.36184564566677202 0 -0.40286774108191992 -0.36906688324343928 0 -0.41594545757327728 -0.37705367544898649 0 -0.42599115964757778 -0.37269041887145182 0 -0.41744692615799911 -0.36184564566677202 0 -0.41594545757327728 -0.37705367544898649 0 -0.41744692615799911 -0.36184564566677202 0 -0.40286774108191992 -0.36906688324343928 0 -0.39429133477182338 -0.37860228211916108 0 -0.40286774108191992 -0.36906688324343928 0 -0.37829145733642849 -0.36797036392538218 0 -0.40286774108191992 -0.36906688324343928 0 -0.37829145733642849 -0.36797036392538218 0 -0.3969890267949675 -0.35510635609450769 0 -0.40700484069764598 -0.35848297412392838 0 -0.40286774108191992 -0.36906688324343928 0 -0.3969890267949675 -0.35510635609450769 0 -0.37829145733642849 -0.36797036392538218 0 -0.38410324061007722 -0.34586996552147409 0 -0.3969890267949675 -0.35510635609450769 0 -0.37829145733642849 -0.36797036392538218 0 -0.38410324061007722 -0.34586996552147409 0 -0.3654777041305306 -0.34491559624731971 0 -0.38410324061007722 -0.34586996552147409 0 -0.3969890267949675 -0.35510635609450769 0 -0.39782606034120011 -0.34122420517370189 0 -0.41071566875569759 -0.34791301149099457 0 -0.40700484069764598 -0.35848297412392838 0 -0.3969890267949675 -0.35510635609450769 0 -0.41071566875569759 -0.34791301149099457 0 -0.3969890267949675 -0.35510635609450769 0 -0.39782606034120011 -0.34122420517370189 0 -0.41071566875569759 -0.34791301149099457 0 -0.39782606034120011 -0.34122420517370189 0 -0.4090431148761472 -0.33329326442410578 0 -0.39811467514918791 -0.33161728688745401 0 -0.39782606034120011 -0.34122420517370189 0 -0.4090431148761472 -0.33329326442410578 0 -0.39811467514918791 -0.33161728688745401 0 -0.40581560224427232 -0.32396865527429691 0 -0.4090431148761472 -0.33329326442410578 0 -0.39811467514918791 -0.33161728688745401 0 -0.39782606034120011 -0.34122420517370189 0 -0.38920507500059442 -0.33150463973152727 0 -0.39811467514918791 -0.33161728688745401 0 -0.38920507500059442 -0.33150463973152727 0 -0.39791610347991763 -0.32367040328120689 0 -0.38410324061007722 -0.34586996552147409 0 -0.39782606034120011 -0.34122420517370189 0 -0.38920507500059442 -0.33150463973152727 0 -0.38410324061007722 -0.34586996552147409 0 -0.37607551325299871 -0.33470188853158461 0 -0.3654777041305306 -0.34491559624731971 0 -0.38410324061007722 -0.34586996552147409 0 -0.38920507500059442 -0.33150463973152727 0 -0.37607551325299871 -0.33470188853158461 0 -0.38920507500059442 -0.33150463973152727 0 -0.37607551325299871 -0.33470188853158461 0 -0.37896736642263279 -0.32566253852475191 0 -0.37607551325299871 -0.33470188853158461 0 -0.37896736642263279 -0.32566253852475191 0 -0.37382184767927368 -0.3272014293304808 0 -0.39081276691352951 -0.30873366930539847 0 -0.37306203922921982 -0.31906420631962162 0 -0.39081276691352951 -0.30873366930539847 0 -0.3838607219164264 -0.31071178259820842 0 -0.37306203922921982 -0.31906420631962162 0 -0.38356634602149892 -0.3187163045868765 0 -0.39081276691352951 -0.30873366930539847 0 -0.37306203922921982 -0.31906420631962162 0 -0.3838607219164264 -0.31071178259820842 0 -0.36915031774030022 -0.31489743531701653 0 -0.3838607219164264 -0.31071178259820842 0 -0.36915031774030022 -0.31489743531701653 0 -0.37306203922921982 -0.31906420631962162 0 -0.37896736642263279 -0.32566253852475191 0 -0.37382184767927368 -0.3272014293304808 0 -0.37306203922921982 -0.31906420631962162 0 -0.37896736642263279 -0.32566253852475191 0 -0.38356634602149892 -0.3187163045868765 0 -0.37306203922921982 -0.31906420631962162 0 -0.37896736642263279 -0.32566253852475191 0 -0.38589328379406851 -0.32271860305639738 0 -0.38356634602149892 -0.3187163045868765 0 -0.38920507500059442 -0.33150463973152727 0 -0.37896736642263279 -0.32566253852475191 0 -0.38589328379406851 -0.32271860305639738 0 -0.38920507500059442 -0.33150463973152727 0 -0.38589328379406851 -0.32271860305639738 0 -0.39193722187817542 -0.32149287661954568 0 -0.38589328379406851 -0.32271860305639738 0 -0.38909627374804401 -0.31740250572821321 0 -0.39193722187817542 -0.32149287661954568 0 -0.38909627374804401 -0.31740250572821321 0 -0.38356634602149892 -0.3187163045868765 0 -0.39081276691352951 -0.30873366930539847 0 -0.38589328379406851 -0.32271860305639738 0 -0.38909627374804401 -0.31740250572821321 0 -0.38356634602149892 -0.3187163045868765 0 -0.39744165018285871 -0.31461755261158297 0 -0.39791610347991763 -0.32367040328120689 0 -0.39193722187817542 -0.32149287661954568 0 -0.38909627374804401 -0.31740250572821321 0 -0.39744165018285871 -0.31461755261158297 0 -0.39081276691352951 -0.30873366930539847 0 -0.38909627374804401 -0.31740250572821321 0 -0.39744165018285871 -0.31461755261158297 0 -0.39193722187817542 -0.32149287661954568 0 -0.38920507500059442 -0.33150463973152727 0 -0.39791610347991763 -0.32367040328120689 0 -0.39193722187817542 -0.32149287661954568 0 -0.39811467514918791 -0.33161728688745401 0 -0.39791610347991763 -0.32367040328120689 0 -0.40581560224427232 -0.32396865527429691 0 -0.39791610347991763 -0.32367040328120689 0 -0.40581560224427232 -0.32396865527429691 0 -0.40190585817324143 -0.31906717631486531 0 -0.39744165018285871 -0.31461755261158297 0 -0.40190585817324143 -0.31906717631486531 0 -0.40729257812157549 -0.31436269956853757 0 -0.40581560224427232 -0.32396865527429691 0 -0.40190585817324143 -0.31906717631486531 0 -0.40729257812157549 -0.31436269956853757 0 -0.39744165018285871 -0.31461755261158297 0 -0.39791610347991763 -0.32367040328120689 0 -0.40190585817324143 -0.31906717631486531 0 -0.40581560224427232 -0.32396865527429691 0 -0.40729257812157549 -0.31436269956853757 0 -0.41636072739306412 -0.3209304274922129 0 -0.40581560224427232 -0.32396865527429691 0 -0.41636072739306412 -0.3209304274922129 0 -0.4090431148761472 -0.33329326442410578 0 -0.41071566875569759 -0.34791301149099457 0 -0.4090431148761472 -0.33329326442410578 0 -0.42343766009627198 -0.33577537067784857 0 -0.41636072739306412 -0.3209304274922129 0 -0.4090431148761472 -0.33329326442410578 0 -0.42343766009627198 -0.33577537067784857 0 -0.44002137803550562 -0.33343104338888968 0 -0.43293433743221571 -0.34937094633185278 0 -0.42343766009627198 -0.33577537067784857 0 -0.44002137803550562 -0.33343104338888968 0 -0.42343766009627198 -0.33577537067784857 0 -0.43043854266607451 -0.31919655925931262 0 -0.41636072739306412 -0.3209304274922129 0 -0.42343766009627198 -0.33577537067784857 0 -0.43043854266607451 -0.31919655925931262 0 -0.41636072739306412 -0.3209304274922129 0 -0.43043854266607451 -0.31919655925931262 0 -0.42069183247763831 -0.30023197278390878 0 -0.44712788831842459 -0.31247188017051902 0 -0.42069183247763831 -0.30023197278390878 0 -0.4378077974384687 -0.29555800591496922 0 -0.44712788831842459 -0.31247188017051902 0 -0.42474419240144562 -0.29907892687642917 0 -0.44712788831842459 -0.31247188017051902 0 -0.42474419240144562 -0.29907892687642917 0 -0.42069183247763831 -0.30023197278390878 0 -0.44712788831842459 -0.31247188017051902 0 -0.43043854266607451 -0.31919655925931262 0 -0.42069183247763831 -0.30023197278390878 0 -0.42474419240144562 -0.29907892687642917 0 -0.42069183247763831 -0.30023197278390878 0 -0.4378077974384687 -0.29555800591496922 0 -0.43669184367370811 -0.28779783394495417 0 -0.42565270857205229 -0.28845758185266368 0 -0.43911832139975898 -0.28062088838241339 0 -0.43669184367370811 -0.28779783394495417 0 -0.42565270857205229 -0.28845758185266368 0 -0.43911832139975898 -0.28062088838241339 0 -0.42565270857205229 -0.28845758185266368 0 -0.42474419240144562 -0.29907892687642917 0 -0.42565270857205229 -0.28845758185266368 0 -0.42069183247763831 -0.30023197278390878 0 -0.4378077974384687 -0.29555800591496922 0 -0.42474419240144562 -0.29907892687642917 0 -0.42565270857205229 -0.28845758185266368 0 -0.42565270857205229 -0.28845758185266368 0 -0.41218709574434498 -0.29629427532291319 0 -0.42565270857205229 -0.28845758185266368 0 -0.41218709574434498 -0.29629427532291319 0 -0.42069183247763831 -0.30023197278390878 0 -0.42565270857205229 -0.28845758185266368 0 -0.41218709574434498 -0.29629427532291319 0 -0.41099804640911819 -0.27876398334595792 0 -0.41218709574434498 -0.29629427532291319 0 -0.39686130949347831 -0.28919842844365812 0 -0.41099804640911819 -0.27876398334595792 0 -0.41218709574434498 -0.29629427532291319 0 -0.42069183247763831 -0.30023197278390878 0 -0.40008071057927641 -0.30609659739780731 0 -0.40729257812157549 -0.31436269956853757 0 -0.41636072739306412 -0.3209304274922129 0 -0.42069183247763831 -0.30023197278390878 0 -0.42069183247763831 -0.30023197278390878 0 -0.40008071057927641 -0.30609659739780731 0 -0.40729257812157549 -0.31436269956853757 0 -0.42069183247763831 -0.30023197278390878 0 -0.40008071057927641 -0.30609659739780731 0 -0.41218709574434498 -0.29629427532291319 0 -0.42069183247763831 -0.30023197278390878 0 -0.39744165018285871 -0.31461755261158297 0 -0.40729257812157549 -0.31436269956853757 0 -0.40008071057927641 -0.30609659739780731 0 -0.40008071057927641 -0.30609659739780731 0 -0.3986111074756713 -0.30419520489653212 0 -0.41218709574434498 -0.29629427532291319 0 -0.3986111074756713 -0.30419520489653212 0 -0.41218709574434498 -0.29629427532291319 0 -0.40008071057927641 -0.30609659739780731 0 -0.3986111074756713 -0.30419520489653212 0 -0.40008071057927641 -0.30609659739780731 0 -0.3986111074756713 -0.30419520489653212 0 -0.39081276691352951 -0.30873366930539847 0 -0.3986111074756713 -0.30419520489653212 0 -0.39081276691352951 -0.30873366930539847 0 -0.3863133925730215 -0.30470666810263092 0 -0.39744165018285871 -0.31461755261158297 0 -0.40008071057927641 -0.30609659739780731 0 -0.39081276691352951 -0.30873366930539847 0 -0.40008071057927641 -0.30609659739780731 0 -0.39081276691352951 -0.30873366930539847 0 -0.3986111074756713 -0.30419520489653212 0 -0.39081276691352951 -0.30873366930539847 0 -0.39081276691352951 -0.30873366930539847 0 -0.3838607219164264 -0.31071178259820842 0 -0.39081276691352951 -0.30873366930539847 0 -0.3838607219164264 -0.31071178259820842 0 -0.3863133925730215 -0.30470666810263092 0 -0.3986111074756713 -0.30419520489653212 0 -0.3863133925730215 -0.30470666810263092 0 -0.38300775435235568 -0.2968946507939238 0 -0.3863133925730215 -0.30470666810263092 0 -0.38300775435235568 -0.2968946507939238 0 -0.37536305059907388 -0.30330884811988851 0 -0.3838607219164264 -0.31071178259820842 0 -0.3863133925730215 -0.30470666810263092 0 -0.37536305059907388 -0.30330884811988851 0 -0.3986111074756713 -0.30419520489653212 0 -0.38300775435235568 -0.2968946507939238 0 -0.38153552324261047 -0.28210258156440537 0 -0.3986111074756713 -0.30419520489653212 0 -0.38153552324261047 -0.28210258156440537 0 -0.38300775435235568 -0.2968946507939238 0 -0.37536305059907388 -0.30330884811988851 0 -0.36905487214980731 -0.2897604701109977 0 -0.38300775435235568 -0.2968946507939238 0 -0.38153552324261047 -0.28210258156440537 0 -0.36905487214980731 -0.2897604701109977 0 -0.38153552324261047 -0.28210258156440537 0 -0.39686130949347831 -0.28919842844365812 0 -0.3986111074756713 -0.30419520489653212 0 -0.38153552324261047 -0.28210258156440537 0 -0.39686130949347831 -0.28919842844365812 0 -0.41218709574434498 -0.29629427532291319 0 -0.39686130949347831 -0.28919842844365812 0 -0.41218709574434498 -0.29629427532291319 0 -0.3986111074756713 -0.30419520489653212 0 -0.39686130949347831 -0.28919842844365812 0 -0.38153552324261047 -0.28210258156440537 0 -0.39686130949347831 -0.28919842844365812 0 -0.3983810539941271 -0.26862186889882972 0 -0.39686130949347831 -0.28919842844365812 0 -0.3983810539941271 -0.26862186889882972 0 -0.41099804640911819 -0.27876398334595792 0 -0.38153552324261047 -0.28210258156440537 0 -0.38231869682077468 -0.26312310610702772 0 -0.36621241412009409 -0.26227733438689432 0 -0.38153552324261047 -0.28210258156440537 0 -0.3983810539941271 -0.26862186889882972 0 -0.38231869682077468 -0.26312310610702772 0 -0.38231869682077468 -0.26312310610702772 0 -0.39858603900394202 -0.25367878501820618 0 -0.38556897538264612 -0.24732553156195691 0 -0.38231869682077468 -0.26312310610702772 0 -0.36621241412009409 -0.26227733438689432 0 -0.38556897538264612 -0.24732553156195691 0 -0.36621241412009409 -0.26227733438689432 0 -0.38556897538264612 -0.24732553156195691 0 -0.3983810539941271 -0.26862186889882972 0 -0.39858603900394202 -0.25367878501820618 0 -0.42091305903881571 -0.25931424330286468 0 -0.3983810539941271 -0.26862186889882972 0 -0.38231869682077468 -0.26312310610702772 0 -0.39858603900394202 -0.25367878501820618 0 -0.39858603900394202 -0.25367878501820618 0 -0.42091305903881571 -0.25931424330286468 0 -0.40270779667787232 -0.23800759822331599 0 -0.42565270857205229 -0.28845758185266368 0 -0.42091305903881571 -0.25931424330286468 0 -0.41099804640911819 -0.27876398334595792 0 -0.3983810539941271 -0.26862186889882972 0 -0.42091305903881571 -0.25931424330286468 0 -0.41099804640911819 -0.27876398334595792 0 -0.43961191115899823 -0.26270834032427598 0 -0.43911832139975898 -0.28062088838241339 0 -0.42091305903881571 -0.25931424330286468 0 -0.43911832139975898 -0.28062088838241339 0 -0.42091305903881571 -0.25931424330286468 0 -0.43911832139975898 -0.28062088838241339 0 -0.42565270857205229 -0.28845758185266368 0 -0.42091305903881571 -0.25931424330286468 0 -0.43961191115899823 -0.26270834032427598 0 -0.42091305903881571 -0.25931424330286468 0 -0.44700065867768829 -0.24526925556255891 0 -0.32177140514550862 -0.25468963724256349 0 -0.3173301118646002 -0.26776022454190512 0 -0.33606009633485212 -0.26104743562773952 0 -0.32177140514550862 -0.25468963724256349 0 -0.31250493720576761 -0.25430844488098953 0 -0.31741397077774391 -0.24514327763567981 0 -0.32177140514550862 -0.25468963724256349 0 -0.31250493720576761 -0.25430844488098953 0 -0.3173301118646002 -0.26776022454190512 0 -0.3173301118646002 -0.26776022454190512 0 -0.33060930736305982 -0.27318031153023797 0 -0.33606009633485212 -0.26104743562773952 0 -0.3173301118646002 -0.26776022454190512 0 -0.3204715368490425 -0.28129879679529068 0 -0.30629399580468902 -0.27801073437529839 0 -0.3173301118646002 -0.26776022454190512 0 -0.33060930736305982 -0.27318031153023797 0 -0.3204715368490425 -0.28129879679529068 0 -0.33060930736305982 -0.27318031153023797 0 -0.33970281947791892 -0.28275443394412031 0 -0.3204715368490425 -0.28129879679529068 0 -0.33060930736305982 -0.27318031153023797 0 -0.34055121376092351 -0.27182615876987781 0 -0.33606009633485212 -0.26104743562773952 0 -0.33060930736305982 -0.27318031153023797 0 -0.34055121376092351 -0.27182615876987781 0 -0.33970281947791892 -0.28275443394412031 0 -0.33606009633485212 -0.26104743562773952 0 -0.35090124233420011 -0.25697080578385828 0 -0.3315482569673085 -0.2435068249102926 0 -0.32177140514550862 -0.25468963724256349 0 -0.33606009633485212 -0.26104743562773952 0 -0.3315482569673085 -0.2435068249102926 0 -0.33606009633485212 -0.26104743562773952 0 -0.35090124233420011 -0.25697080578385828 0 -0.35590788816516311 -0.2702369734050416 0 -0.35090124233420011 -0.25697080578385828 0 -0.36468429718368273 -0.26030023589218299 0 -0.34824087933049058 -0.2390255180280613 0 -0.35090124233420011 -0.25697080578385828 0 -0.3624724288472273 -0.26516625259966953 0 -0.35590788816516311 -0.2702369734050416 0 -0.35090124233420011 -0.25697080578385828 0 -0.3624724288472273 -0.26516625259966953 0 -0.36468429718368273 -0.26030023589218299 0 -0.36621241412009409 -0.26227733438689432 0 -0.36468429718368273 -0.26030023589218299 0 -0.38556897538264612 -0.24732553156195691 0 -0.3624724288472273 -0.26516625259966953 0 -0.36621241412009409 -0.26227733438689432 0 -0.36468429718368273 -0.26030023589218299 0 -0.3624724288472273 -0.26516625259966953 0 -0.36468429718368273 -0.26030023589218299 0 -0.3624724288472273 -0.26516625259966953 0 -0.36621241412009409 -0.26227733438689432 0 -0.36621241412009409 -0.26227733438689432 0 -0.36468429718368273 -0.26030023589218299 0 -0.38153552324261047 -0.28210258156440537 0 -0.36621241412009409 -0.26227733438689432 0 -0.35942690355036278 -0.27186627932973267 0 -0.38153552324261047 -0.28210258156440537 0 -0.35942690355036278 -0.27186627932973267 0 -0.38153552324261047 -0.28210258156440537 0 -0.36621241412009409 -0.26227733438689432 0 -0.35942690355036278 -0.27186627932973267 0 -0.35585031082871682 -0.27973463191319098 0 -0.36905487214980731 -0.2897604701109977 0 -0.38153552324261047 -0.28210258156440537 0 -0.35942690355036278 -0.27186627932973267 0 -0.36905487214980731 -0.2897604701109977 0 -0.3624724288472273 -0.26516625259966953 0 -0.36621241412009409 -0.26227733438689432 0 -0.35942690355036278 -0.27186627932973267 0 -0.3624724288472273 -0.26516625259966953 0 -0.35942690355036278 -0.27186627932973267 0 -0.35590788816516311 -0.2702369734050416 0 -0.33970281947791892 -0.28275443394412031 0 -0.34055121376092351 -0.27182615876987781 0 -0.35590788816516311 -0.2702369734050416 0 -0.33970281947791892 -0.28275443394412031 0 -0.35942690355036278 -0.27186627932973267 0 -0.35585031082871682 -0.27973463191319098 0 -0.35590788816516311 -0.2702369734050416 0 -0.34055121376092351 -0.27182615876987781 0 -0.33606009633485212 -0.26104743562773952 0 -0.35590788816516311 -0.2702369734050416 0 -0.33606009633485212 -0.26104743562773952 0 -0.35590788816516311 -0.2702369734050416 0 -0.35942690355036278 -0.27186627932973267 0 -0.35585031082871682 -0.27973463191319098 0 -0.35585031082871682 -0.27973463191319098 0 -0.35590788816516311 -0.2702369734050416 0 -0.33970281947791892 -0.28275443394412031 0 -0.3624724288472273 -0.26516625259966953 0 -0.35590788816516311 -0.2702369734050416 0 -0.3624724288472273 -0.26516625259966953 0 -0.35942690355036278 -0.27186627932973267 0 -0.35590788816516311 -0.2702369734050416 0 -0.35942690355036278 -0.27186627932973267 0 -0.35590788816516311 -0.2702369734050416 0 -0.35585031082871682 -0.27973463191319098 0 -0.3495744863094607 -0.28960883291557288 0 -0.33970281947791892 -0.28275443394412031 0 -0.3495744863094607 -0.28960883291557288 0 -0.35191630484270081 -0.29695949585801901 0 -0.34024229457184479 -0.29595996960750892 0 -0.3495744863094607 -0.28960883291557288 0 -0.36016070182612192 -0.29263563325502562 0 -0.35191630484270081 -0.29695949585801901 0 -0.35585031082871682 -0.27973463191319098 0 -0.3495744863094607 -0.28960883291557288 0 -0.36016070182612192 -0.29263563325502562 0 -0.35585031082871682 -0.27973463191319098 0 -0.36016070182612192 -0.29263563325502562 0 -0.36905487214980731 -0.2897604701109977 0 -0.36016070182612192 -0.29263563325502562 0 -0.36905487214980731 -0.2897604701109977 0 -0.36650006892487152 -0.30085497051207188 0 -0.3838607219164264 -0.31071178259820842 0 -0.37536305059907388 -0.30330884811988851 0 -0.3552563718388031 -0.31369248421273871 0 -0.37536305059907388 -0.30330884811988851 0 -0.36650006892487152 -0.30085497051207188 0 -0.3552563718388031 -0.31369248421273871 0 -0.3838607219164264 -0.31071178259820842 0 -0.3552563718388031 -0.31369248421273871 0 -0.37536305059907388 -0.30330884811988851 0 -0.36905487214980731 -0.2897604701109977 0 -0.36650006892487152 -0.30085497051207188 0 -0.36016070182612192 -0.29263563325502562 0 -0.36650006892487152 -0.30085497051207188 0 -0.35662877430906142 -0.30212973313733199 0 -0.36650006892487152 -0.30085497051207188 0 -0.35662877430906142 -0.30212973313733199 0 -0.3552563718388031 -0.31369248421273871 0 -0.35662877430906142 -0.30212973313733199 0 -0.34872507590690638 -0.30325165857189512 0 -0.3552563718388031 -0.31369248421273871 0 -0.34872507590690638 -0.30325165857189512 0 -0.33958163397212221 -0.30751661004387709 0 -0.3552563718388031 -0.31369248421273871 0 -0.36016070182612192 -0.29263563325502562 0 -0.35662877430906142 -0.30212973313733199 0 -0.35191630484270081 -0.29695949585801901 0 -0.35662877430906142 -0.30212973313733199 0 -0.35191630484270081 -0.29695949585801901 0 -0.34872507590690638 -0.30325165857189512 0 -0.35191630484270081 -0.29695949585801901 0 -0.34872507590690638 -0.30325165857189512 0 -0.34024229457184479 -0.29595996960750892 0 -0.33958163397212221 -0.30751661004387709 0 -0.34024229457184479 -0.29595996960750892 0 -0.3234977507906745 -0.29527189448319852 0 -0.33958163397212221 -0.30751661004387709 0 -0.3234977507906745 -0.29527189448319852 0 -0.3267404601531293 -0.3169840010280654 0 -0.34872507590690638 -0.30325165857189512 0 -0.33958163397212221 -0.30751661004387709 0 -0.34024229457184479 -0.29595996960750892 0 -0.34024229457184479 -0.29595996960750892 0 -0.33970281947791892 -0.28275443394412031 0 -0.3234977507906745 -0.29527189448319852 0 -0.33970281947791892 -0.28275443394412031 0 -0.3234977507906745 -0.29527189448319852 0 -0.3495744863094607 -0.28960883291557288 0 -0.34024229457184479 -0.29595996960750892 0 -0.33970281947791892 -0.28275443394412031 0 -0.33970281947791892 -0.28275443394412031 0 -0.3234977507906745 -0.29527189448319852 0 -0.3204715368490425 -0.28129879679529068 0 -0.3204715368490425 -0.28129879679529068 0 -0.31229703124422831 -0.29095023684131199 0 -0.30629399580468902 -0.27801073437529839 0 -0.3234977507906745 -0.29527189448319852 0 -0.3204715368490425 -0.28129879679529068 0 -0.31229703124422831 -0.29095023684131199 0 -0.3234977507906745 -0.29527189448319852 0 -0.31113284332559121 -0.30653535373365498 0 -0.31229703124422831 -0.29095023684131199 0 -0.3234977507906745 -0.29527189448319852 0 -0.3267404601531293 -0.3169840010280654 0 -0.31113284332559121 -0.30653535373365498 0 -0.3267404601531293 -0.3169840010280654 0 -0.31424391427650578 -0.33054502469540858 0 -0.29822454846745539 -0.32027551784339209 0 -0.3267404601531293 -0.3169840010280654 0 -0.31424391427650578 -0.33054502469540858 0 -0.32933271347883619 -0.33023625617935221 0 -0.31424391427650578 -0.33054502469540858 0 -0.31580789852771468 -0.3412828579230463 0 -0.32037292283033347 -0.33554429903985922 0 -0.31580789852771468 -0.3412828579230463 0 -0.31310671159481052 -0.34765417923009401 0 -0.3086789512719133 -0.33972172373473691 0 -0.31424391427650578 -0.33054502469540858 0 -0.31580789852771468 -0.3412828579230463 0 -0.3086789512719133 -0.33972172373473691 0 -0.31580789852771468 -0.3412828579230463 0 -0.3234612815548526 -0.34057048400417328 0 -0.32037292283033347 -0.33554429903985922 0 -0.31580789852771468 -0.3412828579230463 0 -0.3234612815548526 -0.34057048400417328 0 -0.32030625652701022 -0.34776887297598308 0 -0.3234612815548526 -0.34057048400417328 0 -0.32933271347883619 -0.33023625617935221 0 -0.32960229451594941 -0.34120057322217462 0 -0.3234612815548526 -0.34057048400417328 0 -0.32960229451594941 -0.34120057322217462 0 -0.32647742503423688 -0.34680927334991202 0 -0.31424391427650578 -0.33054502469540858 0 -0.32037292283033347 -0.33554429903985922 0 -0.32933271347883619 -0.33023625617935221 0 -0.3234612815548526 -0.34057048400417328 0 -0.32037292283033347 -0.33554429903985922 0 -0.32933271347883619 -0.33023625617935221 0 -0.32933271347883619 -0.33023625617935221 0 -0.33621915163272359 -0.33983878324033029 0 -0.34200885785715962 -0.33164731619678411 0 -0.32960229451594941 -0.34120057322217462 0 -0.33621915163272359 -0.33983878324033029 0 -0.33252090087909753 -0.3485480693371053 0 -0.32933271347883619 -0.33023625617935221 0 -0.32960229451594941 -0.34120057322217462 0 -0.33621915163272359 -0.33983878324033029 0 -0.33621915163272359 -0.33983878324033029 0 -0.34251477104182232 -0.33975244950562478 0 -0.34268475135785892 -0.34779379963226648 0 -0.33621915163272359 -0.33983878324033029 0 -0.34251477104182232 -0.33975244950562478 0 -0.34200885785715962 -0.33164731619678411 0 -0.34200885785715962 -0.33164731619678411 0 -0.33664813384574199 -0.32216185730061841 0 -0.3474878685670707 -0.32106120132863458 0 -0.3267404601531293 -0.3169840010280654 0 -0.33664813384574199 -0.32216185730061841 0 -0.3552563718388031 -0.31369248421273871 0 -0.33958163397212221 -0.30751661004387709 0 -0.3267404601531293 -0.3169840010280654 0 -0.3552563718388031 -0.31369248421273871 0 -0.3267404601531293 -0.3169840010280654 0 -0.3552563718388031 -0.31369248421273871 0 -0.32933271347883619 -0.33023625617935221 0 -0.34200885785715962 -0.33164731619678411 0 -0.33664813384574199 -0.32216185730061841 0 -0.3267404601531293 -0.3169840010280654 0 -0.32933271347883619 -0.33023625617935221 0 -0.33664813384574199 -0.32216185730061841 0 -0.3474878685670707 -0.32106120132863458 0 -0.3552563718388031 -0.31369248421273871 0 -0.36915031774030022 -0.31489743531701653 0 -0.33664813384574199 -0.32216185730061841 0 -0.3474878685670707 -0.32106120132863458 0 -0.3552563718388031 -0.31369248421273871 0 -0.3474878685670707 -0.32106120132863458 0 -0.36915031774030022 -0.31489743531701653 0 -0.3474878685670707 -0.32106120132863458 0 -0.36915031774030022 -0.31489743531701653 0 -0.35531131154490991 -0.32939474333384472 0 -0.34200885785715962 -0.33164731619678411 0 -0.3474878685670707 -0.32106120132863458 0 -0.35531131154490991 -0.32939474333384472 0 -0.36915031774030022 -0.31489743531701653 0 -0.37306203922921982 -0.31906420631962162 0 -0.35531131154490991 -0.32939474333384472 0 -0.3838607219164264 -0.31071178259820842 0 -0.3552563718388031 -0.31369248421273871 0 -0.36915031774030022 -0.31489743531701653 0 -0.37306203922921982 -0.31906420631962162 0 -0.35531131154490991 -0.32939474333384472 0 -0.37306203922921982 -0.31906420631962162 0 -0.36718247181224389 -0.32937708394596521 0 -0.35531131154490991 -0.32939474333384472 0 -0.37382184767927368 -0.3272014293304808 0 -0.37306203922921982 -0.31906420631962162 0 -0.36718247181224389 -0.32937708394596521 0 -0.37607551325299871 -0.33470188853158461 0 -0.36718247181224389 -0.32937708394596521 0 -0.3654777041305306 -0.34491559624731971 0 -0.37607551325299871 -0.33470188853158461 0 -0.37382184767927368 -0.3272014293304808 0 -0.36718247181224389 -0.32937708394596521 0 -0.36718247181224389 -0.32937708394596521 0 -0.35857537190755062 -0.33818636224964449 0 -0.35531131154490991 -0.32939474333384472 0 -0.36718247181224389 -0.32937708394596521 0 -0.35857537190755062 -0.33818636224964449 0 -0.3654777041305306 -0.34491559624731971 0 -0.35857537190755062 -0.33818636224964449 0 -0.35473344318889338 -0.34782727647900769 0 -0.3654777041305306 -0.34491559624731971 0 -0.35857537190755062 -0.33818636224964449 0 -0.34914632331954693 -0.33972989895311811 0 -0.35473344318889338 -0.34782727647900769 0 -0.35857537190755062 -0.33818636224964449 0 -0.35531131154490991 -0.32939474333384472 0 -0.34914632331954693 -0.33972989895311811 0 -0.34200885785715962 -0.33164731619678411 0 -0.35531131154490991 -0.32939474333384472 0 -0.34914632331954693 -0.33972989895311811 0 -0.34251477104182232 -0.33975244950562478 0 -0.34914632331954693 -0.33972989895311811 0 -0.34268475135785892 -0.34779379963226648 0 -0.34251477104182232 -0.33975244950562478 0 -0.34200885785715962 -0.33164731619678411 0 -0.34914632331954693 -0.33972989895311811 0 -0.34914632331954693 -0.33972989895311811 0 -0.35473344318889338 -0.34782727647900769 0 -0.34268475135785892 -0.34779379963226648 0 -0.3499059827416578 -0.35587538574087968 0 -0.35473344318889338 -0.34782727647900769 0 -0.34268475135785892 -0.34779379963226648 0 -0.3499059827416578 -0.35587538574087968 0 -0.34348509430921198 -0.36106730211681343 0 -0.34190717374034579 -0.35469977603771569 0 -0.3499059827416578 -0.35587538574087968 0 -0.34190717374034579 -0.35469977603771569 0 -0.34268475135785892 -0.34779379963226648 0 -0.3499059827416578 -0.35587538574087968 0 -0.35473344318889338 -0.34782727647900769 0 -0.36014907237630639 -0.361213306557297 0 -0.37829145733642849 -0.36797036392538218 0 -0.3654777041305306 -0.34491559624731971 0 -0.36014907237630639 -0.361213306557297 0 -0.37829145733642849 -0.36797036392538218 0 -0.3654777041305306 -0.34491559624731971 0 -0.35473344318889338 -0.34782727647900769 0 -0.3654777041305306 -0.34491559624731971 0 -0.36014907237630639 -0.361213306557297 0 -0.37829145733642849 -0.36797036392538218 0 -0.36014907237630639 -0.361213306557297 0 -0.36315257769529602 -0.38190036030874419 0 -0.36014907237630639 -0.361213306557297 0 -0.34830766362340398 -0.36910364435348142 0 -0.36315257769529602 -0.38190036030874419 0 -0.34830766362340398 -0.36910364435348142 0 -0.33807518775557288 -0.36910801639868029 0 -0.34937010734333562 -0.38482868071877552 0 -0.3499059827416578 -0.35587538574087968 0 -0.36014907237630639 -0.361213306557297 0 -0.34830766362340398 -0.36910364435348142 0 -0.3499059827416578 -0.35587538574087968 0 -0.34830766362340398 -0.36910364435348142 0 -0.34348509430921198 -0.36106730211681343 0 -0.34830766362340398 -0.36910364435348142 0 -0.3397147091527129 -0.36400802597137522 0 -0.34348509430921198 -0.36106730211681343 0 -0.34830766362340398 -0.36910364435348142 0 -0.33807518775557288 -0.36910801639868029 0 -0.3397147091527129 -0.36400802597137522 0 -0.33807518775557288 -0.36910801639868029 0 -0.3350429745646416 -0.36488767597471738 0 -0.32675880491310061 -0.36742598695705853 0 -0.32958758341326522 -0.35984156436043091 0 -0.3350429745646416 -0.36488767597471738 0 -0.32675880491310061 -0.36742598695705853 0 -0.32958758341326522 -0.35984156436043091 0 -0.3350429745646416 -0.36488767597471738 0 -0.3365890390566097 -0.36025328602772461 0 -0.3350429745646416 -0.36488767597471738 0 -0.3365890390566097 -0.36025328602772461 0 -0.3397147091527129 -0.36400802597137522 0 -0.33807518775557288 -0.36910801639868029 0 -0.3350429745646416 -0.36488767597471738 0 -0.3397147091527129 -0.36400802597137522 0 -0.33807518775557288 -0.36910801639868029 0 -0.3350429745646416 -0.36488767597471738 0 -0.3365890390566097 -0.36025328602772461 0 -0.3397147091527129 -0.36400802597137522 0 -0.34348509430921198 -0.36106730211681343 0 -0.3365890390566097 -0.36025328602772461 0 -0.34348509430921198 -0.36106730211681343 0 -0.34190717374034579 -0.35469977603771569 0 -0.34190717374034579 -0.35469977603771569 0 -0.34268475135785892 -0.34779379963226648 0 -0.33559680413646042 -0.35546963099654222 0 -0.3365890390566097 -0.36025328602772461 0 -0.34190717374034579 -0.35469977603771569 0 -0.33559680413646042 -0.35546963099654222 0 -0.33621915163272359 -0.33983878324033029 0 -0.34268475135785892 -0.34779379963226648 0 -0.33252090087909753 -0.3485480693371053 0 -0.34268475135785892 -0.34779379963226648 0 -0.33252090087909753 -0.3485480693371053 0 -0.33559680413646042 -0.35546963099654222 0 -0.33252090087909753 -0.3485480693371053 0 -0.326015287164931 -0.35324567151382558 0 -0.32647742503423688 -0.34680927334991202 0 -0.32960229451594941 -0.34120057322217462 0 -0.33252090087909753 -0.3485480693371053 0 -0.32647742503423688 -0.34680927334991202 0 -0.32958758341326522 -0.35984156436043091 0 -0.3365890390566097 -0.36025328602772461 0 -0.33559680413646042 -0.35546963099654222 0 -0.33252090087909753 -0.3485480693371053 0 -0.33559680413646042 -0.35546963099654222 0 -0.33086466001376869 -0.35472249262245448 0 -0.33252090087909753 -0.3485480693371053 0 -0.33086466001376869 -0.35472249262245448 0 -0.326015287164931 -0.35324567151382558 0 -0.32958758341326522 -0.35984156436043091 0 -0.33086466001376869 -0.35472249262245448 0 -0.326015287164931 -0.35324567151382558 0 -0.32958758341326522 -0.35984156436043091 0 -0.33559680413646042 -0.35546963099654222 0 -0.33086466001376869 -0.35472249262245448 0 -0.326015287164931 -0.35324567151382558 0 -0.32030625652701022 -0.34776887297598308 0 -0.31670578167418229 -0.35533427814914831 0 -0.32958758341326522 -0.35984156436043091 0 -0.326015287164931 -0.35324567151382558 0 -0.3230210608731926 -0.36048264411048581 0 -0.326015287164931 -0.35324567151382558 0 -0.31670578167418229 -0.35533427814914831 0 -0.3230210608731926 -0.36048264411048581 0 -0.326015287164931 -0.35324567151382558 0 -0.32647742503423688 -0.34680927334991202 0 -0.32030625652701022 -0.34776887297598308 0 -0.3234612815548526 -0.34057048400417328 0 -0.32647742503423688 -0.34680927334991202 0 -0.32030625652701022 -0.34776887297598308 0 -0.31580789852771468 -0.3412828579230463 0 -0.32030625652701022 -0.34776887297598308 0 -0.31310671159481052 -0.34765417923009401 0 -0.32030625652701022 -0.34776887297598308 0 -0.31310671159481052 -0.34765417923009401 0 -0.31670578167418229 -0.35533427814914831 0 -0.31310671159481052 -0.34765417923009401 0 -0.31670578167418229 -0.35533427814914831 0 -0.30845696768319131 -0.35305693747120759 0 -0.31670578167418229 -0.35533427814914831 0 -0.31603784720048372 -0.36656571957196538 0 -0.3230210608731926 -0.36048264411048581 0 -0.33807518775557288 -0.36910801639868029 0 -0.32675880491310061 -0.36742598695705853 0 -0.31751242223942272 -0.3842853459035786 0 -0.31603784720048372 -0.36656571957196538 0 -0.32675880491310061 -0.36742598695705853 0 -0.31751242223942272 -0.3842853459035786 0 -0.31670578167418229 -0.35533427814914831 0 -0.31603784720048372 -0.36656571957196538 0 -0.3095795804381366 -0.35968843111695048 0 -0.31603784720048372 -0.36656571957196538 0 -0.32675880491310061 -0.36742598695705853 0 -0.3230210608731926 -0.36048264411048581 0 -0.32958758341326522 -0.35984156436043091 0 -0.32675880491310061 -0.36742598695705853 0 -0.3230210608731926 -0.36048264411048581 0 -0.31603784720048372 -0.36656571957196538 0 -0.30092444660305218 -0.37322198752773572 0 -0.31751242223942272 -0.3842853459035786 0 -0.30024248845946538 -0.36085849320557428 0 -0.30092444660305218 -0.37322198752773572 0 -0.2909120862960427 -0.36614821541812997 0 -0.30024248845946538 -0.36085849320557428 0 -0.30092444660305218 -0.37322198752773572 0 -0.3095795804381366 -0.35968843111695048 0 -0.31603784720048372 -0.36656571957196538 0 -0.30092444660305218 -0.37322198752773572 0 -0.3095795804381366 -0.35968843111695048 0 -0.30024248845946538 -0.36085849320557428 0 -0.3095795804381366 -0.35968843111695048 0 -0.30845696768319131 -0.35305693747120759 0 -0.31670578167418229 -0.35533427814914831 0 -0.3095795804381366 -0.35968843111695048 0 -0.30845696768319131 -0.35305693747120759 0 -0.31310671159481052 -0.34765417923009401 0 -0.30719264851840011 -0.34727183594257449 0 -0.3086789512719133 -0.33972172373473691 0 -0.31310671159481052 -0.34765417923009401 0 -0.30845696768319131 -0.35305693747120759 0 -0.30719264851840011 -0.34727183594257449 0 -0.30845696768319131 -0.35305693747120759 0 -0.30719264851840011 -0.34727183594257449 0 -0.30145003372282408 -0.35126622683062148 0 -0.30145003372282408 -0.35126622683062148 0 -0.2947461034867298 -0.34602424092375939 0 -0.30353488894336877 -0.34368121038847732 0 -0.30719264851840011 -0.34727183594257449 0 -0.30145003372282408 -0.35126622683062148 0 -0.30353488894336877 -0.34368121038847732 0 -0.30024248845946538 -0.36085849320557428 0 -0.30145003372282408 -0.35126622683062148 0 -0.29319906967378678 -0.35491846170836272 0 -0.30024248845946538 -0.36085849320557428 0 -0.30845696768319131 -0.35305693747120759 0 -0.30145003372282408 -0.35126622683062148 0 -0.30145003372282408 -0.35126622683062148 0 -0.29319906967378678 -0.35491846170836272 0 -0.2947461034867298 -0.34602424092375939 0 -0.2947461034867298 -0.34602424092375939 0 -0.2866831818217952 -0.34988548758167681 0 -0.28719363919173291 -0.34328055491477061 0 -0.29319906967378678 -0.35491846170836272 0 -0.2947461034867298 -0.34602424092375939 0 -0.2866831818217952 -0.34988548758167681 0 -0.2866831818217952 -0.34988548758167681 0 -0.27517054365902982 -0.34493759947757918 0 -0.28719363919173291 -0.34328055491477061 0 -0.2866831818217952 -0.34988548758167681 0 -0.28437617404836768 -0.35764344748590238 0 -0.27517054365902982 -0.34493759947757918 0 -0.29319906967378678 -0.35491846170836272 0 -0.2866831818217952 -0.34988548758167681 0 -0.28437617404836768 -0.35764344748590238 0 -0.28437617404836768 -0.35764344748590238 0 -0.2909120862960427 -0.36614821541812997 0 -0.27972758136676878 -0.36942489596340022 0 -0.30024248845946538 -0.36085849320557428 0 -0.29319906967378678 -0.35491846170836272 0 -0.2909120862960427 -0.36614821541812997 0 -0.29319906967378678 -0.35491846170836272 0 -0.28437617404836768 -0.35764344748590238 0 -0.2909120862960427 -0.36614821541812997 0 -0.30092444660305218 -0.37322198752773572 0 -0.2909120862960427 -0.36614821541812997 0 -0.29143192544442559 -0.37830939140971631 0 -0.2909120862960427 -0.36614821541812997 0 -0.27972758136676878 -0.36942489596340022 0 -0.29143192544442559 -0.37830939140971631 0 -0.27779359472890391 -0.37090433286147828 0 -0.25572153309435902 -0.36166841305120412 0 -0.26987499325780412 -0.3590912381277217 0 -0.27779359472890391 -0.37090433286147828 0 -0.25572153309435902 -0.36166841305120412 0 -0.27779359472890391 -0.37090433286147828 0 -0.27972758136676878 -0.36942489596340022 0 -0.26987499325780412 -0.3590912381277217 0 -0.27779359472890391 -0.37090433286147828 0 -0.25572153309435902 -0.36166841305120412 0 -0.26296327372994999 -0.3757779569054257 0 -0.25572153309435902 -0.36166841305120412 0 -0.25202918824685011 -0.37733407344974268 0 -0.26296327372994999 -0.3757779569054257 0 -0.26160153068516961 -0.349687623538596 0 -0.27517054365902982 -0.34493759947757918 0 -0.25853291706347831 -0.3374644783896793 0 -0.25572153309435902 -0.36166841305120412 0 -0.26160153068516961 -0.349687623538596 0 -0.248707666351177 -0.34527638864679572 0 -0.26160153068516961 -0.349687623538596 0 -0.25853291706347831 -0.3374644783896793 0 -0.248707666351177 -0.34527638864679572 0 -0.25572153309435902 -0.36166841305120412 0 -0.26160153068516961 -0.349687623538596 0 -0.26987499325780412 -0.3590912381277217 0 -0.26160153068516961 -0.349687623538596 0 -0.26987499325780412 -0.3590912381277217 0 -0.27517054365902982 -0.34493759947757918 0 -0.27972758136676878 -0.36942489596340022 0 -0.26987499325780412 -0.3590912381277217 0 -0.27517054365902982 -0.34493759947757918 0 -0.27972758136676878 -0.36942489596340022 0 -0.27517054365902982 -0.34493759947757918 0 -0.28437617404836768 -0.35764344748590238 0 -0.27972758136676878 -0.36942489596340022 0 -0.27517054365902982 -0.34493759947757918 0 -0.27517054365902982 -0.34493759947757918 0 -0.27116589262397711 -0.32341855936714692 0 -0.28476061697390392 -0.33497356662038952 0 -0.27517054365902982 -0.34493759947757918 0 -0.26307655362716598 -0.3284963190332173 0 -0.27116589262397711 -0.32341855936714692 0 -0.27116589262397711 -0.32341855936714692 0 -0.28476061697390392 -0.33497356662038952 0 -0.28734094432097479 -0.32875208911967002 0 -0.27517054365902982 -0.34493759947757918 0 -0.27116589262397711 -0.32341855936714692 0 -0.27517054365902982 -0.34493759947757918 0 -0.25853291706347831 -0.3374644783896793 0 -0.26307655362716598 -0.3284963190332173 0 -0.25853291706347831 -0.3374644783896793 0 -0.26307655362716598 -0.3284963190332173 0 -0.25493423496939421 -0.32789114960900062 0 -0.25853291706347831 -0.3374644783896793 0 -0.25493423496939421 -0.32789114960900062 0 -0.2480622944635501 -0.33226812230346248 0 -0.25853291706347831 -0.3374644783896793 0 -0.248707666351177 -0.34527638864679572 0 -0.2480622944635501 -0.33226812230346248 0 -0.25532914616690272 -0.3205128517677826 0 -0.24723028223634069 -0.31404629044833038 0 -0.2484763716152453 -0.32251677582822202 0 -0.25532914616690272 -0.3205128517677826 0 -0.25868939102761518 -0.31545880923526182 0 -0.24723028223634069 -0.31404629044833038 0 -0.25493423496939421 -0.32789114960900062 0 -0.25532914616690272 -0.3205128517677826 0 -0.2484763716152453 -0.32251677582822202 0 -0.26307655362716598 -0.3284963190332173 0 -0.25493423496939421 -0.32789114960900062 0 -0.25532914616690272 -0.3205128517677826 0 -0.25493423496939421 -0.32789114960900062 0 -0.2480622944635501 -0.33226812230346248 0 -0.2484763716152453 -0.32251677582822202 0 -0.26307655362716598 -0.3284963190332173 0 -0.25532914616690272 -0.3205128517677826 0 -0.26193415960892807 -0.32092779161728918 0 -0.26307655362716598 -0.3284963190332173 0 -0.26193415960892807 -0.32092779161728918 0 -0.27061350595129091 -0.32045030299175831 0 -0.26193415960892807 -0.32092779161728918 0 -0.25868939102761518 -0.31545880923526182 0 -0.27061350595129091 -0.32045030299175831 0 -0.25868939102761518 -0.31545880923526182 0 -0.27061350595129091 -0.32045030299175831 0 -0.25820526119347148 -0.30715096883369042 0 -0.25532914616690272 -0.3205128517677826 0 -0.26193415960892807 -0.32092779161728918 0 -0.25868939102761518 -0.31545880923526182 0 -0.26307655362716598 -0.3284963190332173 0 -0.27061350595129091 -0.32045030299175831 0 -0.27116589262397711 -0.32341855936714692 0 -0.27061350595129091 -0.32045030299175831 0 -0.27116589262397711 -0.32341855936714692 0 -0.27660585792773479 -0.31873125209583147 0 -0.27061350595129091 -0.32045030299175831 0 -0.27116589262397711 -0.32341855936714692 0 -0.27116589262397711 -0.32341855936714692 0 -0.27660585792773479 -0.31873125209583147 0 -0.28293231882263159 -0.31911345943756941 0 -0.27061350595129091 -0.32045030299175831 0 -0.27896262847486758 -0.31312579047071909 0 -0.27713927867302501 -0.30544627198898611 0 -0.27061350595129091 -0.32045030299175831 0 -0.27660585792773479 -0.31873125209583147 0 -0.27896262847486758 -0.31312579047071909 0 -0.27660585792773479 -0.31873125209583147 0 -0.28163081180914318 -0.31596384637293001 0 -0.28293231882263159 -0.31911345943756941 0 -0.27660585792773479 -0.31873125209583147 0 -0.27896262847486758 -0.31312579047071909 0 -0.28163081180914318 -0.31596384637293001 0 -0.27116589262397711 -0.32341855936714692 0 -0.28293231882263159 -0.31911345943756941 0 -0.29822454846745539 -0.32027551784339209 0 -0.27896262847486758 -0.31312579047071909 0 -0.28163081180914318 -0.31596384637293001 0 -0.28442590559741898 -0.31032865276832711 0 -0.27116589262397711 -0.32341855936714692 0 -0.28990965622223941 -0.32509036614079662 0 -0.29822454846745539 -0.32027551784339209 0 -0.27116589262397711 -0.32341855936714692 0 -0.29822454846745539 -0.32027551784339209 0 -0.27116589262397711 -0.32341855936714692 0 -0.28990965622223941 -0.32509036614079662 0 -0.28734094432097479 -0.32875208911967002 0 -0.28163081180914318 -0.31596384637293001 0 -0.28675527371494991 -0.31723008186027901 0 -0.28442590559741898 -0.31032865276832711 0 -0.28163081180914318 -0.31596384637293001 0 -0.28293231882263159 -0.31911345943756941 0 -0.28675527371494991 -0.31723008186027901 0 -0.28675527371494991 -0.31723008186027901 0 -0.29049161383615663 -0.31372686685158091 0 -0.28442590559741898 -0.31032865276832711 0 -0.28293231882263159 -0.31911345943756941 0 -0.28675527371494991 -0.31723008186027901 0 -0.29822454846745539 -0.32027551784339209 0 -0.28675527371494991 -0.31723008186027901 0 -0.29049161383615663 -0.31372686685158091 0 -0.29822454846745539 -0.32027551784339209 0 -0.29049161383615663 -0.31372686685158091 0 -0.29822454846745539 -0.32027551784339209 0 -0.29256072756480211 -0.30707321493432521 0 -0.28990965622223941 -0.32509036614079662 0 -0.29459469933025839 -0.32875894102094821 0 -0.2979429867986334 -0.32429868370455789 0 -0.28990965622223941 -0.32509036614079662 0 -0.29822454846745539 -0.32027551784339209 0 -0.2979429867986334 -0.32429868370455789 0 -0.28990965622223941 -0.32509036614079662 0 -0.28734094432097479 -0.32875208911967002 0 -0.29459469933025839 -0.32875894102094821 0 -0.28476061697390392 -0.33497356662038952 0 -0.28734094432097479 -0.32875208911967002 0 -0.29068792988733538 -0.33278169419289738 0 -0.27517054365902982 -0.34493759947757918 0 -0.28476061697390392 -0.33497356662038952 0 -0.28719363919173291 -0.34328055491477061 0 -0.28476061697390392 -0.33497356662038952 0 -0.28719363919173291 -0.34328055491477061 0 -0.29225703227827682 -0.33831740176558861 0 -0.2947461034867298 -0.34602424092375939 0 -0.28719363919173291 -0.34328055491477061 0 -0.29225703227827682 -0.33831740176558861 0 -0.29225703227827682 -0.33831740176558861 0 -0.29761944316516881 -0.33329552875901658 0 -0.29853446096479008 -0.33954882518269852 0 -0.2947461034867298 -0.34602424092375939 0 -0.29225703227827682 -0.33831740176558861 0 -0.29853446096479008 -0.33954882518269852 0 -0.28734094432097479 -0.32875208911967002 0 -0.29068792988733538 -0.33278169419289738 0 -0.29459469933025839 -0.32875894102094821 0 -0.28476061697390392 -0.33497356662038952 0 -0.29225703227827682 -0.33831740176558861 0 -0.29068792988733538 -0.33278169419289738 0 -0.29225703227827682 -0.33831740176558861 0 -0.29068792988733538 -0.33278169419289738 0 -0.29761944316516881 -0.33329552875901658 0 -0.29068792988733538 -0.33278169419289738 0 -0.29459469933025839 -0.32875894102094821 0 -0.29761944316516881 -0.33329552875901658 0 -0.30018349330807609 -0.32886287570764589 0 -0.29761944316516881 -0.33329552875901658 0 -0.30453101233143248 -0.33149931201475952 0 -0.29459469933025839 -0.32875894102094821 0 -0.30018349330807609 -0.32886287570764589 0 -0.29761944316516881 -0.33329552875901658 0 -0.29761944316516881 -0.33329552875901658 0 -0.30453101233143248 -0.33149931201475952 0 -0.30257975133533471 -0.33754932001593768 0 -0.2947461034867298 -0.34602424092375939 0 -0.29853446096479008 -0.33954882518269852 0 -0.30353488894336877 -0.34368121038847732 0 -0.29761944316516881 -0.33329552875901658 0 -0.29853446096479008 -0.33954882518269852 0 -0.30257975133533471 -0.33754932001593768 0 -0.29853446096479008 -0.33954882518269852 0 -0.30257975133533471 -0.33754932001593768 0 -0.30353488894336877 -0.34368121038847732 0 -0.30453101233143248 -0.33149931201475952 0 -0.30257975133533471 -0.33754932001593768 0 -0.3086789512719133 -0.33972172373473691 0 -0.30257975133533471 -0.33754932001593768 0 -0.30353488894336877 -0.34368121038847732 0 -0.3086789512719133 -0.33972172373473691 0 -0.30719264851840011 -0.34727183594257449 0 -0.30353488894336877 -0.34368121038847732 0 -0.3086789512719133 -0.33972172373473691 0 -0.31424391427650578 -0.33054502469540858 0 -0.30453101233143248 -0.33149931201475952 0 -0.3086789512719133 -0.33972172373473691 0 -0.3267404601531293 -0.3169840010280654 0 -0.29822454846745539 -0.32027551784339209 0 -0.31424391427650578 -0.33054502469540858 0 -0.30453101233143248 -0.33149931201475952 0 -0.29822454846745539 -0.32027551784339209 0 -0.3267404601531293 -0.3169840010280654 0 -0.29822454846745539 -0.32027551784339209 0 -0.31113284332559121 -0.30653535373365498 0 -0.29822454846745539 -0.32027551784339209 0 -0.2979429867986334 -0.32429868370455789 0 -0.30018349330807609 -0.32886287570764589 0 -0.29822454846745539 -0.32027551784339209 0 -0.2979429867986334 -0.32429868370455789 0 -0.30018349330807609 -0.32886287570764589 0 -0.30453101233143248 -0.33149931201475952 0 -0.29822454846745539 -0.32027551784339209 0 -0.29459469933025839 -0.32875894102094821 0 -0.30018349330807609 -0.32886287570764589 0 -0.2979429867986334 -0.32429868370455789 0 -0.29822454846745539 -0.32027551784339209 0 -0.3000890294511438 -0.29363440481911729 0 -0.29822454846745539 -0.32027551784339209 0 -0.3000890294511438 -0.29363440481911729 0 -0.29256072756480211 -0.30707321493432521 0 -0.29822454846745539 -0.32027551784339209 0 -0.31113284332559121 -0.30653535373365498 0 -0.3000890294511438 -0.29363440481911729 0 -0.31113284332559121 -0.30653535373365498 0 -0.31229703124422831 -0.29095023684131199 0 -0.3000890294511438 -0.29363440481911729 0 -0.31229703124422831 -0.29095023684131199 0 -0.3000890294511438 -0.29363440481911729 0 -0.30629399580468902 -0.27801073437529839 0 -0.3000890294511438 -0.29363440481911729 0 -0.28342922748573102 -0.29635040784246702 0 -0.28831109788254933 -0.27942432563258901 0 -0.28342922748573102 -0.29635040784246702 0 -0.29256072756480211 -0.30707321493432521 0 -0.28442590559741898 -0.31032865276832711 0 -0.28342922748573102 -0.29635040784246702 0 -0.28442590559741898 -0.31032865276832711 0 -0.27713927867302501 -0.30544627198898611 0 -0.3000890294511438 -0.29363440481911729 0 -0.28342922748573102 -0.29635040784246702 0 -0.29256072756480211 -0.30707321493432521 0 -0.29049161383615663 -0.31372686685158091 0 -0.29256072756480211 -0.30707321493432521 0 -0.28442590559741898 -0.31032865276832711 0 -0.27896262847486758 -0.31312579047071909 0 -0.28442590559741898 -0.31032865276832711 0 -0.27713927867302501 -0.30544627198898611 0 -0.27061350595129091 -0.32045030299175831 0 -0.27713927867302501 -0.30544627198898611 0 -0.26605646824355189 -0.29596300650593721 0 -0.27061350595129091 -0.32045030299175831 0 -0.26605646824355189 -0.29596300650593721 0 -0.28342922748573102 -0.29635040784246702 0 -0.27713927867302501 -0.30544627198898611 0 -0.26605646824355189 -0.29596300650593721 0 -0.27061350595129091 -0.32045030299175831 0 -0.25820526119347148 -0.30715096883369042 0 -0.26605646824355189 -0.29596300650593721 0 -0.25820526119347148 -0.30715096883369042 0 -0.2537013060049445 -0.2894855463759114 0 -0.24513268049050929 -0.30291241594458568 0 -0.25820526119347148 -0.30715096883369042 0 -0.2537013060049445 -0.2894855463759114 0 -0.26605646824355189 -0.29596300650593721 0 -0.25868939102761518 -0.31545880923526182 0 -0.25820526119347148 -0.30715096883369042 0 -0.24723028223634069 -0.31404629044833038 0 -0.25820526119347148 -0.30715096883369042 0 -0.24723028223634069 -0.31404629044833038 0 -0.24513268049050929 -0.30291241594458568 0 -0.2537013060049445 -0.2894855463759114 0 -0.26605646824355189 -0.29596300650593721 0 -0.27105235398862831 -0.28252766835798299 0 -0.28342922748573102 -0.29635040784246702 0 -0.26605646824355189 -0.29596300650593721 0 -0.27105235398862831 -0.28252766835798299 0 -0.28342922748573102 -0.29635040784246702 0 -0.27105235398862831 -0.28252766835798299 0 -0.28831109788254933 -0.27942432563258901 0 -0.27105235398862831 -0.28252766835798299 0 -0.27669240963719488 -0.26654510662329278 0 -0.28831109788254933 -0.27942432563258901 0 -0.27105235398862831 -0.28252766835798299 0 -0.27669240963719488 -0.26654510662329278 0 -0.25482785930297058 -0.26894337223577952 0 -0.2537013060049445 -0.2894855463759114 0 -0.27105235398862831 -0.28252766835798299 0 -0.25482785930297058 -0.26894337223577952 0 -0.27669240963719488 -0.26654510662329278 0 -0.25482785930297058 -0.26894337223577952 0 -0.26402636709236899 -0.25518639310273511 0 -0.25482785930297058 -0.26894337223577952 0 -0.26402636709236899 -0.25518639310273511 0 -0.25080024285403762 -0.24681485756453511 0 -0.27669240963719488 -0.26654510662329278 0 -0.26402636709236899 -0.25518639310273511 0 -0.27916415533116201 -0.25166931560024941 0 -0.27669240963719488 -0.26654510662329278 0 -0.27916415533116201 -0.25166931560024941 0 -0.28780932638019102 -0.26074199198392611 0 -0.28780932638019102 -0.26074199198392611 0 -0.30195351043483248 -0.26699329179484249 0 -0.29391207570369138 -0.24658173919980581 0 -0.27916415533116201 -0.25166931560024941 0 -0.28780932638019102 -0.26074199198392611 0 -0.29391207570369138 -0.24658173919980581 0 -0.28780932638019102 -0.26074199198392611 0 -0.2896852189701688 -0.26886357563122948 0 -0.30195351043483248 -0.26699329179484249 0 -0.27669240963719488 -0.26654510662329278 0 -0.28780932638019102 -0.26074199198392611 0 -0.2896852189701688 -0.26886357563122948 0 -0.3000890294511438 -0.29363440481911729 0 -0.28831109788254933 -0.27942432563258901 0 -0.30195351043483248 -0.26699329179484249 0 -0.27669240963719488 -0.26654510662329278 0 -0.28831109788254933 -0.27942432563258901 0 -0.2896852189701688 -0.26886357563122948 0 -0.28831109788254933 -0.27942432563258901 0 -0.2896852189701688 -0.26886357563122948 0 -0.30195351043483248 -0.26699329179484249 0 -0.3000890294511438 -0.29363440481911729 0 -0.30195351043483248 -0.26699329179484249 0 -0.30629399580468902 -0.27801073437529839 0 -0.3000890294511438 -0.29363440481911729 0 -0.30195351043483248 -0.26699329179484249 0 -0.30195351043483248 -0.26699329179484249 0 -0.30629399580468902 -0.27801073437529839 0 -0.3173301118646002 -0.26776022454190512 0 -0.30195351043483248 -0.26699329179484249 0 -0.30629399580468902 -0.27801073437529839 0 -0.30195351043483248 -0.26699329179484249 0 -0.30405568780615239 -0.2369557931899563 0 -0.30195351043483248 -0.26699329179484249 0 -0.29391207570369138 -0.24658173919980581 0 -0.31250493720576761 -0.25430844488098953 0 -0.3173301118646002 -0.26776022454190512 0 -0.30195351043483248 -0.26699329179484249 0 -0.30195351043483248 -0.26699329179484249 0 -0.30018577843805577 -0.25082089134368207 0 -0.29391207570369138 -0.24658173919980581 0 -0.31250493720576761 -0.25430844488098953 0 -0.30195351043483248 -0.26699329179484249 0 -0.30405568780615239 -0.2369557931899563 0 -0.30195351043483248 -0.26699329179484249 0 -0.30018577843805577 -0.25082089134368207 0 -0.30405568780615239 -0.2369557931899563 0 -0.38856408620983052 -0.5 0 -0.32424259823542467 -0.49999999999999911 0 -0.34137615714224651 -0.48864576831447948 0 -0.32510011203117378 -0.45476661033969629 0 -0.33764261869954809 -0.47257624954497429 0 -0.34623082325979632 -0.45890529726486118 0 -0.32510011203117378 -0.45476661033969629 0 -0.32167426396905302 -0.47738330516984928 0 -0.33764261869954809 -0.47257624954497429 0 -0.33883430658754621 -0.44502913245907127 0 -0.32510011203117378 -0.45476661033969629 0 -0.32852596009329471 -0.43214991550954318 0 -0.33883430658754621 -0.44502913245907127 0 -0.32510011203117378 -0.45476661033969629 0 -0.34623082325979632 -0.45890529726486118 0 -0.32510011203117378 -0.45476661033969629 0 -0.32852596009329471 -0.43214991550954318 0 -0.31325617343786449 -0.43895272988918371 0 -0.32510011203117378 -0.45476661033969629 0 -0.30912429025826732 -0.45931583997824033 0 -0.31325617343786449 -0.43895272988918371 0 -0.32510011203117378 -0.45476661033969629 0 -0.32852596009329471 -0.43214991550954318 0 -0.32510011203117378 -0.45476661033969629 0 -0.32167426396905302 -0.47738330516984928 0 -0.30912429025826732 -0.45931583997824033 0 -0.32510011203117378 -0.45476661033969629 0 -0.32167426396905302 -0.47738330516984928 0 -0.32167426396905302 -0.47738330516984928 0 -0.31824841590693181 -0.50000000000000222 0 -0.30575047093351482 -0.48672524342286272 0 -0.32167426396905302 -0.47738330516984928 0 -0.31824841590693181 -0.50000000000000222 0 -0.32167426396905302 -0.47738330516984928 0 -0.31824841590693181 -0.50000000000000222 0 -0.32424259823542467 -0.49999999999999911 0 -0.32167426396905302 -0.47738330516984928 0 -0.32424259823542467 -0.49999999999999911 0 -0.34137615714224651 -0.48864576831447948 0 -0.32424259823542467 -0.49999999999999911 0 -0.34137615714224651 -0.48864576831447948 0 -0.32167426396905302 -0.47738330516984928 0 -0.34137615714224651 -0.48864576831447948 0 -0.33764261869954809 -0.47257624954497429 0 -0.38240004062443028 -0.49447259487436301 0 -0.34137615714224651 -0.48864576831447948 0 -0.37361736850328481 -0.4814846115631144 0 -0.34137615714224651 -0.48864576831447948 0 -0.35850971604906873 -0.47729153662896029 0 -0.37361736850328481 -0.4814846115631144 0 -0.34137615714224651 -0.48864576831447948 0 -0.33764261869954809 -0.47257624954497429 0 -0.35850971604906873 -0.47729153662896029 0 -0.33764261869954809 -0.47257624954497429 0 -0.35850971604906873 -0.47729153662896029 0 -0.34623082325979632 -0.45890529726486118 0 -0.34137615714224651 -0.48864576831447948 0 -0.35850971604906873 -0.47729153662896029 0 -0.38240004062443028 -0.49447259487436301 0 -0.38856408620983052 -0.5 0 -0.34137615714224651 -0.48864576831447948 0 -0.37564327495589078 -0.46593730494344132 0 -0.35850971604906873 -0.47729153662896029 0 -0.37361736850328481 -0.4814846115631144 0 -0.37564327495589078 -0.46593730494344132 0 -0.35850971604906873 -0.47729153662896029 0 -0.38047752685315128 -0.45103525846515541 0 -0.37564327495589078 -0.46593730494344132 0 -0.36468676309089793 -0.4552871776632515 0 -0.37564327495589078 -0.46593730494344132 0 -0.35850971604906873 -0.47729153662896029 0 -0.36468676309089793 -0.4552871776632515 0 -0.35850971604906873 -0.47729153662896029 0 -0.36468676309089793 -0.4552871776632515 0 -0.34623082325979632 -0.45890529726486118 0 -0.36468676309089793 -0.4552871776632515 0 -0.34623082325979632 -0.45890529726486118 0 -0.35464885879191382 -0.44033486198817978 0 -0.33883430658754621 -0.44502913245907127 0 -0.34623082325979632 -0.45890529726486118 0 -0.35464885879191382 -0.44033486198817978 0 -0.38047752685315128 -0.45103525846515541 0 -0.36468676309089793 -0.4552871776632515 0 -0.37174577125441671 -0.43795663612180469 0 -0.36468676309089793 -0.4552871776632515 0 -0.35464885879191382 -0.44033486198817978 0 -0.37174577125441671 -0.43795663612180469 0 -0.35464885879191382 -0.44033486198817978 0 -0.37174577125441671 -0.43795663612180469 0 -0.36043469369413228 -0.42535231084333219 0 -0.37615477046041917 -0.42339688842039752 0 -0.37174577125441671 -0.43795663612180469 0 -0.36043469369413228 -0.42535231084333219 0 -0.37615477046041917 -0.42339688842039752 0 -0.36043469369413228 -0.42535231084333219 0 -0.36202276623347818 -0.41397154136425818 0 -0.37398484316218 -0.41908833136340767 0 -0.36202276623347818 -0.41397154136425818 0 -0.36066502693109459 -0.40054934503887352 0 -0.37398484316218 -0.41908833136340767 0 -0.37337547552811517 -0.4071185345939986 0 -0.36066502693109459 -0.40054934503887352 0 -0.37398484316218 -0.41908833136340767 0 -0.36066502693109459 -0.40054934503887352 0 -0.37615477046041917 -0.42339688842039752 0 -0.36202276623347818 -0.41397154136425818 0 -0.37615477046041917 -0.42339688842039752 0 -0.37398484316218 -0.41908833136340767 0 -0.36202276623347818 -0.41397154136425818 0 -0.36043469369413228 -0.42535231084333219 0 -0.36202276623347818 -0.41397154136425818 0 -0.35126708122424438 -0.41611018439629688 0 -0.36202276623347818 -0.41397154136425818 0 -0.35126708122424438 -0.41611018439629688 0 -0.34789076200653751 -0.4045461943081185 0 -0.36202276623347818 -0.41397154136425818 0 -0.36066502693109459 -0.40054934503887352 0 -0.34789076200653751 -0.4045461943081185 0 -0.36202276623347818 -0.41397154136425818 0 -0.34789076200653751 -0.4045461943081185 0 -0.35126708122424438 -0.41611018439629688 0 -0.34789076200653751 -0.4045461943081185 0 -0.34275982713347408 -0.41302150745435828 0 -0.35126708122424438 -0.41611018439629688 0 -0.34438851899229778 -0.42428012067965359 0 -0.34275982713347408 -0.41302150745435828 0 -0.33883430658754621 -0.44502913245907127 0 -0.35464885879191382 -0.44033486198817978 0 -0.34438851899229778 -0.42428012067965359 0 -0.35464885879191382 -0.44033486198817978 0 -0.36043469369413228 -0.42535231084333219 0 -0.34438851899229778 -0.42428012067965359 0 -0.36043469369413228 -0.42535231084333219 0 -0.35126708122424438 -0.41611018439629688 0 -0.34438851899229778 -0.42428012067965359 0 -0.37588511873671032 -0.39578723832115981 0 -0.37829145733642849 -0.36797036392538218 0 -0.36315257769529602 -0.38190036030874419 0 -0.37588511873671032 -0.39578723832115981 0 -0.36315257769529602 -0.38190036030874419 0 -0.36066502693109459 -0.40054934503887352 0 -0.37588511873671032 -0.39578723832115981 0 -0.36066502693109459 -0.40054934503887352 0 -0.37588511873671032 -0.39578723832115981 0 -0.37337547552811517 -0.4071185345939986 0 -0.36066502693109459 -0.40054934503887352 0 -0.36066502693109459 -0.40054934503887352 0 -0.34789076200653751 -0.4045461943081185 0 -0.34937010734333562 -0.38482868071877552 0 -0.36066502693109459 -0.40054934503887352 0 -0.34937010734333562 -0.38482868071877552 0 -0.34789076200653751 -0.4045461943081185 0 -0.34937010734333562 -0.38482868071877552 0 -0.33410039787579232 -0.39534870427942292 0 -0.36066502693109459 -0.40054934503887352 0 -0.34789076200653751 -0.4045461943081185 0 -0.36315257769529602 -0.38190036030874419 0 -0.36066502693109459 -0.40054934503887352 0 -0.34937010734333562 -0.38482868071877552 0 -0.34830766362340398 -0.36910364435348142 0 -0.36315257769529602 -0.38190036030874419 0 -0.34937010734333562 -0.38482868071877552 0 -0.33807518775557288 -0.36910801639868029 0 -0.34937010734333562 -0.38482868071877552 0 -0.33410039787579232 -0.39534870427942292 0 -0.33807518775557288 -0.36910801639868029 0 -0.33410039787579232 -0.39534870427942292 0 -0.33807518775557288 -0.36910801639868029 0 -0.34937010734333562 -0.38482868071877552 0 -0.33807518775557288 -0.36910801639868029 0 -0.33410039787579232 -0.39534870427942292 0 -0.31751242223942272 -0.3842853459035786 0 -0.34789076200653751 -0.4045461943081185 0 -0.33410039787579232 -0.39534870427942292 0 -0.33195180815541447 -0.40953322067939002 0 -0.34789076200653751 -0.4045461943081185 0 -0.33410039787579232 -0.39534870427942292 0 -0.33410039787579232 -0.39534870427942292 0 -0.33195180815541447 -0.40953322067939002 0 -0.33410039787579232 -0.39534870427942292 0 -0.31661200298216863 -0.39988501334393012 0 -0.31751242223942272 -0.3842853459035786 0 -0.33410039787579232 -0.39534870427942292 0 -0.31661200298216863 -0.39988501334393012 0 -0.33195180815541447 -0.40953322067939002 0 -0.33410039787579232 -0.39534870427942292 0 -0.31751242223942272 -0.3842853459035786 0 -0.33883430658754621 -0.44502913245907127 0 -0.34438851899229778 -0.42428012067965359 0 -0.32852596009329471 -0.43214991550954318 0 -0.34438851899229778 -0.42428012067965359 0 -0.32852596009329471 -0.43214991550954318 0 -0.33195180815541447 -0.40953322067939002 0 -0.32852596009329471 -0.43214991550954318 0 -0.33195180815541447 -0.40953322067939002 0 -0.34438851899229778 -0.42428012067965359 0 -0.34275982713347408 -0.41302150745435828 0 -0.33195180815541447 -0.40953322067939002 0 -0.34789076200653751 -0.4045461943081185 0 -0.34275982713347408 -0.41302150745435828 0 -0.33195180815541447 -0.40953322067939002 0 -0.34789076200653751 -0.4045461943081185 0 -0.33195180815541447 -0.40953322067939002 0 -0.31661200298216863 -0.39988501334393012 0 -0.33195180815541447 -0.40953322067939002 0 -0.30903418475587252 -0.41670375353417449 0 -0.33195180815541447 -0.40953322067939002 0 -0.30903418475587252 -0.41670375353417449 0 -0.32852596009329471 -0.43214991550954318 0 -0.33195180815541447 -0.40953322067939002 0 -0.30903418475587252 -0.41670375353417449 0 -0.31325617343786449 -0.43895272988918371 0 -0.32852596009329471 -0.43214991550954318 0 -0.30903418475587252 -0.41670375353417449 0 -0.31325617343786449 -0.43895272988918371 0 -0.30016310868727131 -0.42855963971239008 0 -0.30903418475587252 -0.41670375353417449 0 -0.30016310868727131 -0.42855963971239008 0 -0.30903418475587252 -0.41670375353417449 0 -0.28611656135633062 -0.42387428638895958 0 -0.30903418475587252 -0.41670375353417449 0 -0.28884165678224683 -0.41839948893504247 0 -0.30045864376372933 -0.40362889718944861 0 -0.31661200298216863 -0.39988501334393012 0 -0.30903418475587252 -0.41670375353417449 0 -0.30045864376372933 -0.40362889718944861 0 -0.30903418475587252 -0.41670375353417449 0 -0.28611656135633062 -0.42387428638895958 0 -0.28884165678224683 -0.41839948893504247 0 -0.2842846190745078 -0.39391219244922138 0 -0.27900996533882583 -0.41091906548196638 0 -0.30903418475587252 -0.41670375353417449 0 -0.28884165678224683 -0.41839948893504247 0 -0.28611656135633062 -0.42387428638895958 0 -0.28884165678224683 -0.41839948893504247 0 -0.28184009231910051 -0.42023206077247499 0 -0.27900996533882583 -0.41091906548196638 0 -0.28884165678224683 -0.41839948893504247 0 -0.28184009231910051 -0.42023206077247499 0 -0.28611656135633062 -0.42387428638895958 0 -0.28184009231910051 -0.42023206077247499 0 -0.28611656135633062 -0.42387428638895958 0 -0.28048934946301479 -0.42587547347670562 0 -0.28611656135633062 -0.42387428638895958 0 -0.28397932635579842 -0.4314955968724114 0 -0.28997005202766352 -0.4304985128264962 0 -0.28611656135633062 -0.42387428638895958 0 -0.28397932635579842 -0.4314955968724114 0 -0.28048934946301479 -0.42587547347670562 0 -0.28397932635579842 -0.4314955968724114 0 -0.27983480648909759 -0.4390474550445263 0 -0.28962121171125382 -0.43806452833222381 0 -0.28397932635579842 -0.4314955968724114 0 -0.28997005202766352 -0.4304985128264962 0 -0.28962121171125382 -0.43806452833222381 0 -0.30016310868727131 -0.42855963971239008 0 -0.28997005202766352 -0.4304985128264962 0 -0.28962121171125382 -0.43806452833222381 0 -0.30016310868727131 -0.42855963971239008 0 -0.28611656135633062 -0.42387428638895958 0 -0.28997005202766352 -0.4304985128264962 0 -0.30092444660305218 -0.37322198752773572 0 -0.31751242223942272 -0.3842853459035786 0 -0.30131089388175669 -0.38883966569009409 0 -0.30092444660305218 -0.37322198752773572 0 -0.31751242223942272 -0.3842853459035786 0 -0.30092444660305218 -0.37322198752773572 0 -0.30131089388175669 -0.38883966569009409 0 -0.29143192544442559 -0.37830939140971631 0 -0.31661200298216863 -0.39988501334393012 0 -0.31751242223942272 -0.3842853459035786 0 -0.30131089388175669 -0.38883966569009409 0 -0.31661200298216863 -0.39988501334393012 0 -0.30131089388175669 -0.38883966569009409 0 -0.30045864376372933 -0.40362889718944861 0 -0.30131089388175669 -0.38883966569009409 0 -0.30045864376372933 -0.40362889718944861 0 -0.2842846190745078 -0.39391219244922138 0 -0.28884165678224683 -0.41839948893504247 0 -0.2842846190745078 -0.39391219244922138 0 -0.28884165678224683 -0.41839948893504247 0 -0.30045864376372933 -0.40362889718944861 0 -0.2842846190745078 -0.39391219244922138 0 -0.27972758136676878 -0.36942489596340022 0 -0.2842846190745078 -0.39391219244922138 0 -0.29143192544442559 -0.37830939140971631 0 -0.27972758136676878 -0.36942489596340022 0 -0.2842846190745078 -0.39391219244922138 0 -0.30131089388175669 -0.38883966569009409 0 -0.2842846190745078 -0.39391219244922138 0 -0.29143192544442559 -0.37830939140971631 0 -0.27779359472890391 -0.37090433286147828 0 -0.27972758136676878 -0.36942489596340022 0 -0.2842846190745078 -0.39391219244922138 0 -0.27779359472890391 -0.37090433286147828 0 -0.2842846190745078 -0.39391219244922138 0 -0.27293165510749789 -0.38490147432370297 0 -0.27779359472890391 -0.37090433286147828 0 -0.27293165510749789 -0.38490147432370297 0 -0.26296327372994999 -0.3757779569054257 0 -0.27293165510749789 -0.38490147432370297 0 -0.26525420326216459 -0.39172432933882362 0 -0.25921118443639768 -0.38432076003598331 0 -0.2842846190745078 -0.39391219244922138 0 -0.27295721433247377 -0.39975594282023619 0 -0.27900996533882583 -0.41091906548196638 0 -0.27293165510749789 -0.38490147432370297 0 -0.27295721433247377 -0.39975594282023619 0 -0.26525420326216459 -0.39172432933882362 0 -0.27295721433247377 -0.39975594282023619 0 -0.26145687422515812 -0.39942164103094202 0 -0.26525420326216459 -0.39172432933882362 0 -0.2842846190745078 -0.39391219244922138 0 -0.27293165510749789 -0.38490147432370297 0 -0.27295721433247377 -0.39975594282023619 0 -0.27295721433247377 -0.39975594282023619 0 -0.26145687422515812 -0.39942164103094202 0 -0.26968653390753261 -0.41228058464865552 0 -0.26145687422515812 -0.39942164103094202 0 -0.25446511155723628 -0.3929887669131244 0 -0.24743103662798799 -0.40326668407513222 0 -0.26145687422515812 -0.39942164103094202 0 -0.25948059980226229 -0.40940268516744532 0 -0.24743103662798799 -0.40326668407513222 0 -0.26145687422515812 -0.39942164103094202 0 -0.25446511155723628 -0.3929887669131244 0 -0.26525420326216459 -0.39172432933882362 0 -0.25446511155723628 -0.3929887669131244 0 -0.26525420326216459 -0.39172432933882362 0 -0.25921118443639768 -0.38432076003598331 0 -0.25446511155723628 -0.3929887669131244 0 -0.25921118443639768 -0.38432076003598331 0 -0.24543778092586691 -0.38872682055091118 0 -0.25921118443639768 -0.38432076003598331 0 -0.25202918824685011 -0.37733407344974268 0 -0.24543778092586691 -0.38872682055091118 0 -0.25921118443639768 -0.38432076003598331 0 -0.25202918824685011 -0.37733407344974268 0 -0.26296327372994999 -0.3757779569054257 0 -0.27293165510749789 -0.38490147432370297 0 -0.25921118443639768 -0.38432076003598331 0 -0.26296327372994999 -0.3757779569054257 0 -0.26712807434681518 -0.42230234796434313 0 -0.26928726790337548 -0.42896001776470072 0 -0.27504334482859327 -0.42164512795819947 0 -0.26712807434681518 -0.42230234796434313 0 -0.26928726790337548 -0.42896001776470072 0 -0.26193935676228702 -0.42764310321871318 0 -0.26928726790337548 -0.42896001776470072 0 -0.27133097007371282 -0.43712608914649848 0 -0.27606825480226932 -0.4312365721484796 0 -0.26928726790337548 -0.42896001776470072 0 -0.27133097007371282 -0.43712608914649848 0 -0.26407887267197622 -0.43461687277756827 0 -0.27133097007371282 -0.43712608914649848 0 -0.27606825480226932 -0.4312365721484796 0 -0.27983480648909759 -0.4390474550445263 0 -0.28397932635579842 -0.4314955968724114 0 -0.27606825480226932 -0.4312365721484796 0 -0.27983480648909759 -0.4390474550445263 0 -0.26928726790337548 -0.42896001776470072 0 -0.27606825480226932 -0.4312365721484796 0 -0.27504334482859327 -0.42164512795819947 0 -0.28397932635579842 -0.4314955968724114 0 -0.27606825480226932 -0.4312365721484796 0 -0.28048934946301479 -0.42587547347670562 0 -0.27606825480226932 -0.4312365721484796 0 -0.28048934946301479 -0.42587547347670562 0 -0.27504334482859327 -0.42164512795819947 0 -0.28184009231910051 -0.42023206077247499 0 -0.28048934946301479 -0.42587547347670562 0 -0.27504334482859327 -0.42164512795819947 0 -0.28184009231910051 -0.42023206077247499 0 -0.27504334482859327 -0.42164512795819947 0 -0.27900996533882583 -0.41091906548196638 0 -0.27504334482859327 -0.42164512795819947 0 -0.27900996533882583 -0.41091906548196638 0 -0.26968653390753261 -0.41228058464865552 0 -0.27295721433247377 -0.39975594282023619 0 -0.27900996533882583 -0.41091906548196638 0 -0.26968653390753261 -0.41228058464865552 0 -0.26712807434681518 -0.42230234796434313 0 -0.27504334482859327 -0.42164512795819947 0 -0.26968653390753261 -0.41228058464865552 0 -0.26712807434681518 -0.42230234796434313 0 -0.26968653390753261 -0.41228058464865552 0 -0.25951436394309763 -0.41932744172732123 0 -0.26968653390753261 -0.41228058464865552 0 -0.25951436394309763 -0.41932744172732123 0 -0.25948059980226229 -0.40940268516744532 0 -0.26145687422515812 -0.39942164103094202 0 -0.26968653390753261 -0.41228058464865552 0 -0.25948059980226229 -0.40940268516744532 0 -0.25948059980226229 -0.40940268516744532 0 -0.25193438402534069 -0.41442804986807003 0 -0.24743103662798799 -0.40326668407513222 0 -0.25951436394309763 -0.41932744172732123 0 -0.25948059980226229 -0.40940268516744532 0 -0.25193438402534069 -0.41442804986807003 0 -0.25951436394309763 -0.41932744172732123 0 -0.25193438402534069 -0.41442804986807003 0 -0.25172295557359098 -0.42191633082499452 0 -0.25172295557359098 -0.42191633082499452 0 -0.25098710108800032 -0.4291893863882883 0 -0.24729477304586739 -0.42510745780790971 0 -0.25172295557359098 -0.42191633082499452 0 -0.25098710108800032 -0.4291893863882883 0 -0.2554626750994024 -0.42649471714479259 0 -0.25098710108800032 -0.4291893863882883 0 -0.2554626750994024 -0.42649471714479259 0 -0.25624741258576461 -0.43327208832362829 0 -0.25951436394309763 -0.41932744172732123 0 -0.25172295557359098 -0.42191633082499452 0 -0.2554626750994024 -0.42649471714479259 0 -0.25951436394309763 -0.41932744172732123 0 -0.2554626750994024 -0.42649471714479259 0 -0.26193935676228702 -0.42764310321871318 0 -0.26712807434681518 -0.42230234796434313 0 -0.25951436394309763 -0.41932744172732123 0 -0.26193935676228702 -0.42764310321871318 0 -0.2554626750994024 -0.42649471714479259 0 -0.26193935676228702 -0.42764310321871318 0 -0.25624741258576461 -0.43327208832362829 0 -0.26193935676228702 -0.42764310321871318 0 -0.26407887267197622 -0.43461687277756827 0 -0.25624741258576461 -0.43327208832362829 0 -0.26407887267197622 -0.43461687277756827 0 -0.25624741258576461 -0.43327208832362829 0 -0.25982851037902771 -0.43877816173807749 0 -0.26928726790337548 -0.42896001776470072 0 -0.26193935676228702 -0.42764310321871318 0 -0.26407887267197622 -0.43461687277756827 0 -0.25624741258576461 -0.43327208832362829 0 -0.25331209123836562 -0.43873081433363481 0 -0.25982851037902771 -0.43877816173807749 0 -0.25098710108800032 -0.4291893863882883 0 -0.25624741258576461 -0.43327208832362829 0 -0.2494977651774668 -0.43488378854128268 0 -0.25624741258576461 -0.43327208832362829 0 -0.25331209123836562 -0.43873081433363481 0 -0.2494977651774668 -0.43488378854128268 0 -0.25331209123836562 -0.43873081433363481 0 -0.24791624913684951 -0.43944703411039981 0 -0.24999767415375079 -0.44352017804827371 0 -0.25331209123836562 -0.43873081433363481 0 -0.24791624913684951 -0.43944703411039981 0 -0.2494977651774668 -0.43488378854128268 0 -0.25331209123836562 -0.43873081433363481 0 -0.25650486653876847 -0.44261573110966113 0 -0.25982851037902771 -0.43877816173807749 0 -0.25650486653876847 -0.44261573110966113 0 -0.25611828832310812 -0.44884229448454638 0 -0.24999767415375079 -0.44352017804827371 0 -0.25331209123836562 -0.43873081433363481 0 -0.25650486653876847 -0.44261573110966113 0 -0.24999767415375079 -0.44352017804827371 0 -0.25611828832310812 -0.44884229448454638 0 -0.25202111197851479 -0.45433069092509892 0 -0.26131620100864722 -0.4531713269567379 0 -0.25033210390690441 -0.4492977610643461 0 -0.25611828832310812 -0.44884229448454638 0 -0.24999767415375079 -0.44352017804827371 0 -0.25033210390690441 -0.4492977610643461 0 -0.25611828832310812 -0.44884229448454638 0 -0.25202111197851479 -0.45433069092509892 0 -0.25611828832310812 -0.44884229448454638 0 -0.26428890268914251 -0.44364845844836442 0 -0.26131620100864722 -0.4531713269567379 0 -0.26428890268914251 -0.44364845844836442 0 -0.26131620100864722 -0.4531713269567379 0 -0.27114889092403072 -0.454835393879848 0 -0.26407887267197622 -0.43461687277756827 0 -0.26428890268914251 -0.44364845844836442 0 -0.25982851037902771 -0.43877816173807749 0 -0.25650486653876847 -0.44261573110966113 0 -0.25611828832310812 -0.44884229448454638 0 -0.26428890268914251 -0.44364845844836442 0 -0.25650486653876847 -0.44261573110966113 0 -0.26428890268914251 -0.44364845844836442 0 -0.25982851037902771 -0.43877816173807749 0 -0.26001865204388408 -0.46334470881216089 0 -0.2510723306839393 -0.47019647278486593 0 -0.2441079030857328 -0.45808338611635829 0 -0.25202111197851479 -0.45433069092509892 0 -0.26001865204388408 -0.46334470881216089 0 -0.2441079030857328 -0.45808338611635829 0 -0.26001865204388408 -0.46334470881216089 0 -0.2441079030857328 -0.45808338611635829 0 -0.25202111197851479 -0.45433069092509892 0 -0.26131620100864722 -0.4531713269567379 0 -0.26001865204388408 -0.46334470881216089 0 -0.26131620100864722 -0.4531713269567379 0 -0.26001865204388408 -0.46334470881216089 0 -0.27114889092403072 -0.454835393879848 0 -0.27592940100203578 -0.46860603150796259 0 -0.27114889092403072 -0.454835393879848 0 -0.28344662617053612 -0.45192479169779121 0 -0.26001865204388408 -0.46334470881216089 0 -0.27592940100203578 -0.46860603150796259 0 -0.27114889092403072 -0.454835393879848 0 -0.26001865204388408 -0.46334470881216089 0 -0.27592940100203578 -0.46860603150796259 0 -0.27133097007371282 -0.43712608914649848 0 -0.26428890268914251 -0.44364845844836442 0 -0.27442771588641579 -0.44524715869535181 0 -0.27133097007371282 -0.43712608914649848 0 -0.26407887267197622 -0.43461687277756827 0 -0.26428890268914251 -0.44364845844836442 0 -0.26428890268914251 -0.44364845844836442 0 -0.27114889092403072 -0.454835393879848 0 -0.27442771588641579 -0.44524715869535181 0 -0.27114889092403072 -0.454835393879848 0 -0.27442771588641579 -0.44524715869535181 0 -0.28344662617053612 -0.45192479169779121 0 -0.27983480648909759 -0.4390474550445263 0 -0.27442771588641579 -0.44524715869535181 0 -0.28344662617053612 -0.45192479169779121 0 -0.27133097007371282 -0.43712608914649848 0 -0.27983480648909759 -0.4390474550445263 0 -0.27442771588641579 -0.44524715869535181 0 -0.30016310868727131 -0.42855963971239008 0 -0.28962121171125382 -0.43806452833222381 0 -0.29740200435405412 -0.44704348885951961 0 -0.27983480648909759 -0.4390474550445263 0 -0.28962121171125382 -0.43806452833222381 0 -0.28344662617053612 -0.45192479169779121 0 -0.28962121171125382 -0.43806452833222381 0 -0.28344662617053612 -0.45192479169779121 0 -0.29740200435405412 -0.44704348885951961 0 -0.28344662617053612 -0.45192479169779121 0 -0.2895162864502786 -0.46446568179856712 0 -0.29740200435405412 -0.44704348885951961 0 -0.27592940100203578 -0.46860603150796259 0 -0.28344662617053612 -0.45192479169779121 0 -0.2895162864502786 -0.46446568179856712 0 -0.2895162864502786 -0.46446568179856712 0 -0.30912429025826732 -0.45931583997824033 0 -0.29740200435405412 -0.44704348885951961 0 -0.2895162864502786 -0.46446568179856712 0 -0.30912429025826732 -0.45931583997824033 0 -0.30157545654411949 -0.4733347464564715 0 -0.31325617343786449 -0.43895272988918371 0 -0.30016310868727131 -0.42855963971239008 0 -0.29740200435405412 -0.44704348885951961 0 -0.31325617343786449 -0.43895272988918371 0 -0.30912429025826732 -0.45931583997824033 0 -0.29740200435405412 -0.44704348885951961 0 -0.31824841590693181 -0.50000000000000222 0 -0.30575047093351482 -0.48672524342286272 0 -0.29103789352278597 -0.5 0 -0.30575047093351482 -0.48672524342286272 0 -0.30157545654411949 -0.4733347464564715 0 -0.28474003890500638 -0.48224594313264202 0 -0.32167426396905302 -0.47738330516984928 0 -0.30912429025826732 -0.45931583997824033 0 -0.30157545654411949 -0.4733347464564715 0 -0.32167426396905302 -0.47738330516984928 0 -0.30575047093351482 -0.48672524342286272 0 -0.30157545654411949 -0.4733347464564715 0 -0.27592940100203578 -0.46860603150796259 0 -0.2895162864502786 -0.46446568179856712 0 -0.28474003890500638 -0.48224594313264202 0 -0.2895162864502786 -0.46446568179856712 0 -0.30157545654411949 -0.4733347464564715 0 -0.28474003890500638 -0.48224594313264202 0 -0.30575047093351482 -0.48672524342286272 0 -0.28474003890500638 -0.48224594313264202 0 -0.29103789352278597 -0.5 0 -0.28474003890500638 -0.48224594313264202 0 -0.29103789352278597 -0.5 0 -0.26382737113864019 -0.5 0 -0.28474003890500638 -0.48224594313264202 0 -0.2629828360538935 -0.48003762000180927 0 -0.26382737113864019 -0.5 0 -0.26001865204388408 -0.46334470881216089 0 -0.27592940100203578 -0.46860603150796259 0 -0.2629828360538935 -0.48003762000180927 0 -0.27592940100203578 -0.46860603150796259 0 -0.28474003890500638 -0.48224594313264202 0 -0.2629828360538935 -0.48003762000180927 0 -0.26001865204388408 -0.46334470881216089 0 -0.2629828360538935 -0.48003762000180927 0 -0.2510723306839393 -0.47019647278486593 0 -0.2629828360538935 -0.48003762000180927 0 -0.2510723306839393 -0.47019647278486593 0 -0.24036237592011381 -0.47904169305818012 0 -0.2629828360538935 -0.48003762000180927 0 -0.26382737113864019 -0.5 0 -0.24036237592011381 -0.47904169305818012 0 -0.23661684875449451 -0.50000000000000167 0 -0.24036237592011381 -0.47904169305818012 0 -0.22657292171008811 -0.49651178426209891 0 -0.26382737113864019 -0.5 0 -0.23661684875449451 -0.50000000000000167 0 -0.24036237592011381 -0.47904169305818012 0 -0.23661684875449451 -0.50000000000000167 0 -0.24036237592011381 -0.47904169305818012 0 -0.2510723306839393 -0.47019647278486593 0 -0.24036237592011381 -0.47904169305818012 0 -0.2441079030857328 -0.45808338611635829 0 -0.24036237592011381 -0.47904169305818012 0 -0.22851613375220439 -0.47214199703804088 0 -0.23567043298239371 -0.46783415141820461 0 -0.24036237592011381 -0.47904169305818012 0 -0.22851613375220439 -0.47214199703804088 0 -0.22292480873795359 -0.48262168242170822 0 -0.22292480873795359 -0.48262168242170822 0 -0.22657292171008811 -0.49651178426209891 0 -0.21179251607935401 -0.47354888144531843 0 -0.22851613375220439 -0.47214199703804088 0 -0.22100724068620259 -0.47418294715697751 0 -0.22292480873795359 -0.48262168242170822 0 -0.22851613375220439 -0.47214199703804088 0 -0.22100724068620259 -0.47418294715697751 0 -0.22079550417529839 -0.46841922772284261 0 -0.22657292171008811 -0.49651178426209891 0 -0.21179251607935401 -0.47354888144531843 0 -0.23661684875449451 -0.50000000000000167 0 -0.22657292171008811 -0.49651178426209891 0 -0.21008058579124969 -0.5 0 -0.24036237592011381 -0.47904169305818012 0 -0.22292480873795359 -0.48262168242170822 0 -0.22657292171008811 -0.49651178426209891 0 -0.23505251297174101 -0.44233456396979992 0 -0.23991026908742991 -0.44110142059462948 0 -0.23717263114987011 -0.43559891918510141 0 -0.23505251297174101 -0.44233456396979992 0 -0.23991026908742991 -0.44110142059462948 0 -0.23950669187956811 -0.44632135420727143 0 -0.23991026908742991 -0.44110142059462948 0 -0.24421378856126691 -0.44371760200952409 0 -0.23950669187956811 -0.44632135420727143 0 -0.23991026908742991 -0.44110142059462948 0 -0.2436057208747032 -0.43753466360145038 0 -0.23717263114987011 -0.43559891918510141 0 -0.2436057208747032 -0.43753466360145038 0 -0.24791624913684951 -0.43944703411039981 0 -0.24421378856126691 -0.44371760200952409 0 -0.23991026908742991 -0.44110142059462948 0 -0.2436057208747032 -0.43753466360145038 0 -0.24421378856126691 -0.44371760200952409 0 -0.24791624913684951 -0.43944703411039981 0 -0.24999767415375079 -0.44352017804827371 0 -0.24421378856126691 -0.44371760200952409 0 -0.24999767415375079 -0.44352017804827371 0 -0.24421378856126691 -0.44371760200952409 0 -0.24730810081554941 -0.44640749756992232 0 -0.24421378856126691 -0.44371760200952409 0 -0.24468883664027541 -0.44909444915754509 0 -0.23950669187956811 -0.44632135420727143 0 -0.24421378856126691 -0.44371760200952409 0 -0.24468883664027541 -0.44909444915754509 0 -0.24730810081554941 -0.44640749756992232 0 -0.25033210390690441 -0.4492977610643461 0 -0.24999767415375079 -0.44352017804827371 0 -0.24730810081554941 -0.44640749756992232 0 -0.25033210390690441 -0.4492977610643461 0 -0.24468883664027541 -0.44909444915754509 0 -0.24730810081554941 -0.44640749756992232 0 -0.25033210390690441 -0.4492977610643461 0 -0.24468883664027541 -0.44909444915754509 0 -0.24764610987691921 -0.45229323425488221 0 -0.25033210390690441 -0.4492977610643461 0 -0.25202111197851479 -0.45433069092509892 0 -0.24764610987691921 -0.45229323425488221 0 -0.24468883664027541 -0.44909444915754509 0 -0.24764610987691921 -0.45229323425488221 0 -0.2445068181329173 -0.45218741480565128 0 -0.24468883664027541 -0.44909444915754509 0 -0.2445068181329173 -0.45218741480565128 0 -0.24108380041006669 -0.45207985102351678 0 -0.24468883664027541 -0.44909444915754509 0 -0.24108380041006669 -0.45207985102351678 0 -0.23950669187956811 -0.44632135420727143 0 -0.23505251297174101 -0.44233456396979992 0 -0.23950669187956811 -0.44632135420727143 0 -0.23352467701536231 -0.44987145650529359 0 -0.24108380041006669 -0.45207985102351678 0 -0.23950669187956811 -0.44632135420727143 0 -0.23352467701536231 -0.44987145650529359 0 -0.24036237592011381 -0.47904169305818012 0 -0.2441079030857328 -0.45808338611635829 0 -0.23567043298239371 -0.46783415141820461 0 -0.24036237592011381 -0.47904169305818012 0 -0.2441079030857328 -0.45808338611635829 0 -0.24108380041006669 -0.45207985102351678 0 -0.2441079030857328 -0.45808338611635829 0 -0.23352467701536231 -0.44987145650529359 0 -0.2445068181329173 -0.45218741480565128 0 -0.24108380041006669 -0.45207985102351678 0 -0.24460852560440791 -0.45528212478666119 0 -0.24108380041006669 -0.45207985102351678 0 -0.24460852560440791 -0.45528212478666119 0 -0.2441079030857328 -0.45808338611635829 0 -0.25202111197851479 -0.45433069092509892 0 -0.24460852560440791 -0.45528212478666119 0 -0.2441079030857328 -0.45808338611635829 0 -0.24460852560440791 -0.45528212478666119 0 -0.2441079030857328 -0.45808338611635829 0 -0.24764610987691921 -0.45229323425488221 0 -0.2445068181329173 -0.45218741480565128 0 -0.24460852560440791 -0.45528212478666119 0 -0.25202111197851479 -0.45433069092509892 0 -0.24764610987691921 -0.45229323425488221 0 -0.24460852560440791 -0.45528212478666119 0 -0.2441079030857328 -0.45808338611635829 0 -0.23567043298239371 -0.46783415141820461 0 -0.22969531917152389 -0.4620695294602391 0 -0.2441079030857328 -0.45808338611635829 0 -0.22120727313158381 -0.4505106688016165 0 -0.2441079030857328 -0.45808338611635829 0 -0.22969531917152389 -0.4620695294602391 0 -0.22120727313158381 -0.4505106688016165 0 -0.22851613375220439 -0.47214199703804088 0 -0.23567043298239371 -0.46783415141820461 0 -0.22969531917152389 -0.4620695294602391 0 -0.22969531917152389 -0.4620695294602391 0 -0.22079550417529839 -0.46841922772284261 0 -0.22187665766646231 -0.45948507319855469 0 -0.22851613375220439 -0.47214199703804088 0 -0.22969531917152389 -0.4620695294602391 0 -0.22079550417529839 -0.46841922772284261 0 -0.22969531917152389 -0.4620695294602391 0 -0.22187665766646231 -0.45948507319855469 0 -0.22120727313158381 -0.4505106688016165 0 -0.2441079030857328 -0.45808338611635829 0 -0.23352467701536231 -0.44987145650529359 0 -0.22120727313158381 -0.4505106688016165 0 -0.23352467701536231 -0.44987145650529359 0 -0.22120727313158381 -0.4505106688016165 0 -0.22754778391337899 -0.43932538480102112 0 -0.22754778391337899 -0.43932538480102112 0 -0.2161266485545234 -0.44108176986800629 0 -0.2190192441445504 -0.43449996431180132 0 -0.22120727313158381 -0.4505106688016165 0 -0.22754778391337899 -0.43932538480102112 0 -0.2161266485545234 -0.44108176986800629 0 -0.23505251297174101 -0.44233456396979992 0 -0.23352467701536231 -0.44987145650529359 0 -0.22754778391337899 -0.43932538480102112 0 -0.23505251297174101 -0.44233456396979992 0 -0.22754778391337899 -0.43932538480102112 0 -0.23717263114987011 -0.43559891918510141 0 -0.22120727313158381 -0.4505106688016165 0 -0.2161266485545234 -0.44108176986800629 0 -0.1983066431774351 -0.44293795148687382 0 -0.22120727313158381 -0.4505106688016165 0 -0.19701211044861949 -0.45058597862853811 0 -0.1983066431774351 -0.44293795148687382 0 -0.22120727313158381 -0.4505106688016165 0 -0.1983066431774351 -0.44293795148687382 0 -0.2161266485545234 -0.44108176986800629 0 -0.1983066431774351 -0.44293795148687382 0 -0.2100485078666203 -0.43570244147203457 0 -0.22079550417529839 -0.46841922772284261 0 -0.22187665766646231 -0.45948507319855469 0 -0.19701211044861949 -0.45058597862853811 0 -0.19701211044861949 -0.45058597862853811 0 -0.21179251607935401 -0.47354888144531843 0 -0.22079550417529839 -0.46841922772284261 0 -0.19701211044861949 -0.45058597862853811 0 -0.22187665766646231 -0.45948507319855469 0 -0.22120727313158381 -0.4505106688016165 0 -0.19701211044861949 -0.45058597862853811 0 -0.22079550417529839 -0.46841922772284261 0 -0.19701211044861949 -0.45058597862853811 0 -0.21179251607935401 -0.47354888144531843 0 -0.19714448982135649 -0.45383502067118109 0 -0.19701211044861949 -0.45058597862853811 0 -0.21179251607935401 -0.47354888144531843 0 -0.19838525954421751 -0.46818950291315042 0 -0.19714448982135649 -0.45383502067118109 0 -0.21179251607935401 -0.47354888144531843 0 -0.19838525954421751 -0.46818950291315042 0 -0.1878517061408938 -0.46606233996221169 0 -0.19714448982135649 -0.45383502067118109 0 -0.1878517061408938 -0.46606233996221169 0 -0.19714448982135649 -0.45383502067118109 0 -0.1815930729808693 -0.45623150522950928 0 -0.19714448982135649 -0.45383502067118109 0 -0.1815930729808693 -0.45623150522950928 0 -0.19701211044861949 -0.45058597862853811 0 -0.1856712615175094 -0.43296678614011458 0 -0.19701211044861949 -0.45058597862853811 0 -0.18075312252883641 -0.43839467469071952 0 -0.19701211044861949 -0.45058597862853811 0 -0.18075312252883641 -0.43839467469071952 0 -0.18614005869003361 -0.44813654431600108 0 -0.19701211044861949 -0.45058597862853811 0 -0.1983066431774351 -0.44293795148687382 0 -0.1856712615175094 -0.43296678614011458 0 -0.19701211044861949 -0.45058597862853811 0 -0.18075312252883641 -0.43839467469071952 0 -0.1856712615175094 -0.43296678614011458 0 -0.19714448982135649 -0.45383502067118109 0 -0.19701211044861949 -0.45058597862853811 0 -0.18614005869003361 -0.44813654431600108 0 -0.19714448982135649 -0.45383502067118109 0 -0.1815930729808693 -0.45623150522950928 0 -0.18614005869003361 -0.44813654431600108 0 -0.21008058579124969 -0.5 0 -0.21179251607935401 -0.47354888144531843 0 -0.201507430889031 -0.4861641831199795 0 -0.22657292171008811 -0.49651178426209891 0 -0.21008058579124969 -0.5 0 -0.21179251607935401 -0.47354888144531843 0 -0.22100724068620259 -0.47418294715697751 0 -0.22292480873795359 -0.48262168242170822 0 -0.21179251607935401 -0.47354888144531843 0 -0.22100724068620259 -0.47418294715697751 0 -0.22079550417529839 -0.46841922772284261 0 -0.21179251607935401 -0.47354888144531843 0 -0.19838525954421751 -0.46818950291315042 0 -0.21179251607935401 -0.47354888144531843 0 -0.20113008711195299 -0.4754606214652275 0 -0.21179251607935401 -0.47354888144531843 0 -0.20113008711195299 -0.4754606214652275 0 -0.201507430889031 -0.4861641831199795 0 -0.20113008711195299 -0.4754606214652275 0 -0.19166278530288891 -0.47583918574311029 0 -0.201507430889031 -0.4861641831199795 0 -0.19838525954421751 -0.46818950291315042 0 -0.20113008711195299 -0.4754606214652275 0 -0.19166278530288891 -0.47583918574311029 0 -0.19838525954421751 -0.46818950291315042 0 -0.1878517061408938 -0.46606233996221169 0 -0.19166278530288891 -0.47583918574311029 0 -0.19166278530288891 -0.47583918574311029 0 -0.201507430889031 -0.4861641831199795 0 -0.187269043737677 -0.48625711966080198 0 -0.201507430889031 -0.4861641831199795 0 -0.18354432282800481 -0.5 0 -0.187269043737677 -0.48625711966080198 0 -0.21008058579124969 -0.5 0 -0.201507430889031 -0.4861641831199795 0 -0.18354432282800481 -0.5 0 -0.18354432282800481 -0.5 0 -0.187269043737677 -0.48625711966080198 0 -0.1693005664228153 -0.47811575261475531 0 -0.1570080598647601 -0.50000000000000056 0 -0.1693005664228153 -0.47811575261475531 0 -0.18354432282800481 -0.5 0 -0.1570080598647601 -0.50000000000000056 0 -0.1693005664228153 -0.47811575261475531 0 -0.1570080598647601 -0.50000000000000056 0 -0.1693005664228153 -0.47811575261475531 0 -0.15467130075655741 -0.47052004459311503 0 -0.1693005664228153 -0.47811575261475531 0 -0.16794472841134231 -0.46590493154410662 0 -0.15467130075655741 -0.47052004459311503 0 -0.19166278530288891 -0.47583918574311029 0 -0.187269043737677 -0.48625711966080198 0 -0.1693005664228153 -0.47811575261475531 0 -0.1878517061408938 -0.46606233996221169 0 -0.19166278530288891 -0.47583918574311029 0 -0.1693005664228153 -0.47811575261475531 0 -0.1693005664228153 -0.47811575261475531 0 -0.1815930729808693 -0.45623150522950928 0 -0.1878517061408938 -0.46606233996221169 0 -0.1693005664228153 -0.47811575261475531 0 -0.1815930729808693 -0.45623150522950928 0 -0.1693005664228153 -0.47811575261475531 0 -0.1815930729808693 -0.45623150522950928 0 -0.16794472841134231 -0.46590493154410662 0 -0.1815930729808693 -0.45623150522950928 0 -0.1662060599514259 -0.45860265504190417 0 -0.1815930729808693 -0.45623150522950928 0 -0.16794472841134231 -0.46590493154410662 0 -0.1662060599514259 -0.45860265504190417 0 -0.1815930729808693 -0.45623150522950928 0 -0.17565729983599579 -0.44757283324495412 0 -0.1662060599514259 -0.45860265504190417 0 -0.18075312252883641 -0.43839467469071952 0 -0.18614005869003361 -0.44813654431600108 0 -0.17565729983599579 -0.44757283324495412 0 -0.1815930729808693 -0.45623150522950928 0 -0.18614005869003361 -0.44813654431600108 0 -0.1815930729808693 -0.45623150522950928 0 -0.18614005869003361 -0.44813654431600108 0 -0.17565729983599579 -0.44757283324495412 0 -0.18075312252883641 -0.43839467469071952 0 -0.17565729983599579 -0.44757283324495412 0 -0.16535009728023961 -0.44240301289740208 0 -0.16535009728023961 -0.44240301289740208 0 -0.1662060599514259 -0.45860265504190417 0 -0.1523417295768589 -0.4469930488231465 0 -0.16535009728023961 -0.44240301289740208 0 -0.1662060599514259 -0.45860265504190417 0 -0.17565729983599579 -0.44757283324495412 0 -0.16535009728023961 -0.44240301289740208 0 -0.1662060599514259 -0.45860265504190417 0 -0.16535009728023961 -0.44240301289740208 0 -0.1523417295768589 -0.4469930488231465 0 -0.15254955350865551 -0.43242301704947789 0 -0.16794472841134231 -0.46590493154410662 0 -0.1662060599514259 -0.45860265504190417 0 -0.15467130075655741 -0.47052004459311503 0 -0.1662060599514259 -0.45860265504190417 0 -0.1523417295768589 -0.4469930488231465 0 -0.14021033704867961 -0.46260861470191239 0 -0.1662060599514259 -0.45860265504190417 0 -0.14021033704867961 -0.46260861470191239 0 -0.15467130075655741 -0.47052004459311503 0 -0.1662060599514259 -0.45860265504190417 0 -0.14021033704867961 -0.46260861470191239 0 -0.1523417295768589 -0.4469930488231465 0 -0.1373926000952953 -0.4389279444250358 0 -0.14021033704867961 -0.46260861470191239 0 -0.1523417295768589 -0.4469930488231465 0 -0.1373926000952953 -0.4389279444250358 0 -0.15254955350865551 -0.43242301704947789 0 -0.1373926000952953 -0.4389279444250358 0 -0.14021033704867961 -0.46260861470191239 0 -0.1239464819092813 -0.45078421100869581 0 -0.1373926000952953 -0.4389279444250358 0 -0.1239464819092813 -0.45078421100869581 0 -0.1234163783004555 -0.43617218036045369 0 -0.14021033704867961 -0.46260861470191239 0 -0.1142146141459333 -0.46661457436192039 0 -0.14021033704867961 -0.46260861470191239 0 -0.1142146141459333 -0.46661457436192039 0 -0.1239464819092813 -0.45078421100869581 0 -0.14021033704867961 -0.46260861470191239 0 -0.1234135123344374 -0.48391802619158841 0 -0.1142146141459333 -0.46661457436192039 0 -0.14021033704867961 -0.46260861470191239 0 -0.14160271122779811 -0.48319228303919398 0 -0.1234135123344374 -0.48391802619158841 0 -0.13461169484454491 -0.5 0 -0.14160271122779811 -0.48319228303919398 0 -0.1234135123344374 -0.48391802619158841 0 -0.1570080598647601 -0.50000000000000056 0 -0.14160271122779811 -0.48319228303919398 0 -0.15467130075655741 -0.47052004459311503 0 -0.1570080598647601 -0.50000000000000056 0 -0.13461169484454491 -0.5 0 -0.14160271122779811 -0.48319228303919398 0 -0.14021033704867961 -0.46260861470191239 0 -0.14160271122779811 -0.48319228303919398 0 -0.15467130075655741 -0.47052004459311503 0 -0.14957638682746621 -0.39484502392808052 0 -0.14479260552523429 -0.38875154555804359 0 -0.16077432329491681 -0.39428679405301031 0 -0.14479260552523429 -0.38875154555804359 0 -0.16077432329491681 -0.39428679405301031 0 -0.14157989272989091 -0.3973074713910576 0 -0.1511587257598293 -0.39903428471020652 0 -0.14957638682746621 -0.39484502392808052 0 -0.14157989272989091 -0.3973074713910576 0 -0.14957638682746621 -0.39484502392808052 0 -0.14479260552523429 -0.38875154555804359 0 -0.14157989272989091 -0.3973074713910576 0 -0.1511587257598293 -0.39903428471020652 0 -0.1443991900803023 -0.4062514457654145 0 -0.1511587257598293 -0.39903428471020652 0 -0.15215959861524531 -0.40556341762615838 0 -0.16298956365529271 -0.39772840116326508 0 -0.1511587257598293 -0.39903428471020652 0 -0.15215959861524531 -0.40556341762615838 0 -0.1443991900803023 -0.4062514457654145 0 -0.1511587257598293 -0.39903428471020652 0 -0.14957638682746621 -0.39484502392808052 0 -0.16077432329491681 -0.39428679405301031 0 -0.15198366156953599 -0.38062958355838827 0 -0.14479260552523429 -0.38875154555804359 0 -0.16077432329491681 -0.39428679405301031 0 -0.15198366156953599 -0.38062958355838827 0 -0.14094064761462149 -0.38472150398809229 0 -0.1362033473939914 -0.37463855093960768 0 -0.15198366156953599 -0.38062958355838827 0 -0.1618920935193344 -0.37695807546404569 0 -0.15374510295613911 -0.3690748486040567 0 -0.15198366156953599 -0.38062958355838827 0 -0.14094064761462149 -0.38472150398809229 0 -0.15198366156953599 -0.38062958355838827 0 -0.14479260552523429 -0.38875154555804359 0 -0.14094064761462149 -0.38472150398809229 0 -0.14479260552523429 -0.38875154555804359 0 -0.1288108877555485 -0.38321629706308591 0 -0.1341129083171031 -0.39190775312833781 0 -0.14479260552523429 -0.38875154555804359 0 -0.14094064761462149 -0.38472150398809229 0 -0.1288108877555485 -0.38321629706308591 0 -0.14479260552523429 -0.38875154555804359 0 -0.1288108877555485 -0.38321629706308591 0 -0.14094064761462149 -0.38472150398809229 0 -0.1288108877555485 -0.38321629706308591 0 -0.1362033473939914 -0.37463855093960768 0 -0.1288108877555485 -0.38321629706308591 0 -0.1362033473939914 -0.37463855093960768 0 -0.124637618436105 -0.37193900756582993 0 -0.1288108877555485 -0.38321629706308591 0 -0.1341129083171031 -0.39190775312833781 0 -0.12381178879547371 -0.39211525161417909 0 -0.13162341259173721 -0.3979144313057556 0 -0.12119454478472159 -0.40246687193576908 0 -0.12381178879547371 -0.39211525161417909 0 -0.13162341259173721 -0.3979144313057556 0 -0.1341129083171031 -0.39190775312833781 0 -0.12381178879547371 -0.39211525161417909 0 -0.14157989272989091 -0.3973074713910576 0 -0.13162341259173721 -0.3979144313057556 0 -0.1341129083171031 -0.39190775312833781 0 -0.14157989272989091 -0.3973074713910576 0 -0.14479260552523429 -0.38875154555804359 0 -0.1341129083171031 -0.39190775312833781 0 -0.14157989272989091 -0.3973074713910576 0 -0.13452718068020289 -0.40667119006092678 0 -0.1443991900803023 -0.4062514457654145 0 -0.14157989272989091 -0.3973074713910576 0 -0.13162341259173721 -0.3979144313057556 0 -0.13452718068020289 -0.40667119006092678 0 -0.13162341259173721 -0.3979144313057556 0 -0.13452718068020289 -0.40667119006092678 0 -0.12119454478472159 -0.40246687193576908 0 -0.12664927373792231 -0.41435054135590621 0 -0.13452718068020289 -0.40667119006092678 0 -0.12119454478472159 -0.40246687193576908 0 -0.12664927373792231 -0.41435054135590621 0 -0.1378767718492849 -0.41549844196250518 0 -0.13023507644270549 -0.42564427029833279 0 -0.12664927373792231 -0.41435054135590621 0 -0.1378767718492849 -0.41549844196250518 0 -0.13452718068020289 -0.40667119006092678 0 -0.1378767718492849 -0.41549844196250518 0 -0.13452718068020289 -0.40667119006092678 0 -0.1443991900803023 -0.4062514457654145 0 -0.1373926000952953 -0.4389279444250358 0 -0.13023507644270549 -0.42564427029833279 0 -0.1234163783004555 -0.43617218036045369 0 -0.1378767718492849 -0.41549844196250518 0 -0.13023507644270549 -0.42564427029833279 0 -0.14285585152566441 -0.42512269219220422 0 -0.1373926000952953 -0.4389279444250358 0 -0.13023507644270549 -0.42564427029833279 0 -0.14285585152566441 -0.42512269219220422 0 -0.1373926000952953 -0.4389279444250358 0 -0.14285585152566441 -0.42512269219220422 0 -0.15254955350865551 -0.43242301704947789 0 -0.14285585152566441 -0.42512269219220422 0 -0.14971965237763199 -0.42294710009531811 0 -0.15254955350865551 -0.43242301704947789 0 -0.14971965237763199 -0.42294710009531811 0 -0.15254955350865551 -0.43242301704947789 0 -0.1567585099230891 -0.42040304959141261 0 -0.1378767718492849 -0.41549844196250518 0 -0.1443991900803023 -0.4062514457654145 0 -0.14859405862891209 -0.41495051210224709 0 -0.15215959861524531 -0.40556341762615838 0 -0.1443991900803023 -0.4062514457654145 0 -0.14859405862891209 -0.41495051210224709 0 -0.1378767718492849 -0.41549844196250518 0 -0.14285585152566441 -0.42512269219220422 0 -0.14859405862891209 -0.41495051210224709 0 -0.14285585152566441 -0.42512269219220422 0 -0.14971965237763199 -0.42294710009531811 0 -0.14859405862891209 -0.41495051210224709 0 -0.14971965237763199 -0.42294710009531811 0 -0.14859405862891209 -0.41495051210224709 0 -0.1567585099230891 -0.42040304959141261 0 -0.14859405862891209 -0.41495051210224709 0 -0.15666133314260261 -0.41155152752425428 0 -0.1567585099230891 -0.42040304959141261 0 -0.15215959861524531 -0.40556341762615838 0 -0.14859405862891209 -0.41495051210224709 0 -0.15666133314260261 -0.41155152752425428 0 -0.1644941346090539 -0.42620337075289999 0 -0.16298956365529271 -0.39772840116326508 0 -0.15666133314260261 -0.41155152752425428 0 -0.1644941346090539 -0.42620337075289999 0 -0.16298956365529271 -0.39772840116326508 0 -0.1644941346090539 -0.42620337075289999 0 -0.17433041258639881 -0.41534759365169122 0 -0.16298956365529271 -0.39772840116326508 0 -0.17433041258639881 -0.41534759365169122 0 -0.16298956365529271 -0.39772840116326508 0 -0.15666133314260261 -0.41155152752425428 0 -0.1567585099230891 -0.42040304959141261 0 -0.1644941346090539 -0.42620337075289999 0 -0.16535009728023961 -0.44240301289740208 0 -0.15254955350865551 -0.43242301704947789 0 -0.1644941346090539 -0.42620337075289999 0 -0.18075312252883641 -0.43839467469071952 0 -0.16535009728023961 -0.44240301289740208 0 -0.1644941346090539 -0.42620337075289999 0 -0.16535009728023961 -0.44240301289740208 0 -0.1644941346090539 -0.42620337075289999 0 -0.15254955350865551 -0.43242301704947789 0 -0.1567585099230891 -0.42040304959141261 0 -0.1644941346090539 -0.42620337075289999 0 -0.1567585099230891 -0.42040304959141261 0 -0.1644941346090539 -0.42620337075289999 0 -0.1644941346090539 -0.42620337075289999 0 -0.1856712615175094 -0.43296678614011458 0 -0.17433041258639881 -0.41534759365169122 0 -0.18075312252883641 -0.43839467469071952 0 -0.1644941346090539 -0.42620337075289999 0 -0.1856712615175094 -0.43296678614011458 0 -0.18075312252883641 -0.43839467469071952 0 -0.1644941346090539 -0.42620337075289999 0 -0.1856712615175094 -0.43296678614011458 0 -0.17433041258639881 -0.41534759365169122 0 -0.18904164858866029 -0.42099472750493999 0 -0.1856712615175094 -0.43296678614011458 0 -0.17433041258639881 -0.41534759365169122 0 -0.17433041258639881 -0.41534759365169122 0 -0.19131179825059791 -0.40486341133057868 0 -0.18904164858866029 -0.42099472750493999 0 -0.16298956365529271 -0.39772840116326508 0 -0.16284562053355839 -0.39500418533020892 0 -0.19131179825059791 -0.40486341133057868 0 -0.1746255356969719 -0.3861641374555751 0 -0.19167005707891141 -0.39016959391896122 0 -0.19131179825059791 -0.40486341133057868 0 -0.17433041258639881 -0.41534759365169122 0 -0.16298956365529271 -0.39772840116326508 0 -0.19131179825059791 -0.40486341133057868 0 -0.16284562053355839 -0.39500418533020892 0 -0.1746255356969719 -0.3861641374555751 0 -0.19131179825059791 -0.40486341133057868 0 -0.16284562053355839 -0.39500418533020892 0 -0.19131179825059791 -0.40486341133057868 0 -0.1511587257598293 -0.39903428471020652 0 -0.16298956365529271 -0.39772840116326508 0 -0.16077432329491681 -0.39428679405301031 0 -0.16298956365529271 -0.39772840116326508 0 -0.16284562053355839 -0.39500418533020892 0 -0.16077432329491681 -0.39428679405301031 0 -0.16298956365529271 -0.39772840116326508 0 -0.16284562053355839 -0.39500418533020892 0 -0.16284562053355839 -0.39500418533020892 0 -0.16077432329491681 -0.39428679405301031 0 -0.16298956365529271 -0.39772840116326508 0 -0.16077432329491681 -0.39428679405301031 0 -0.15215959861524531 -0.40556341762615838 0 -0.15666133314260261 -0.41155152752425428 0 -0.16298956365529271 -0.39772840116326508 0 -0.16284562053355839 -0.39500418533020892 0 -0.16077432329491681 -0.39428679405301031 0 -0.1618920935193344 -0.37695807546404569 0 -0.16284562053355839 -0.39500418533020892 0 -0.1618920935193344 -0.37695807546404569 0 -0.15198366156953599 -0.38062958355838827 0 -0.16077432329491681 -0.39428679405301031 0 -0.1618920935193344 -0.37695807546404569 0 -0.1618920935193344 -0.37695807546404569 0 -0.1746255356969719 -0.3861641374555751 0 -0.1790581590132842 -0.37059729620768461 0 -0.16284562053355839 -0.39500418533020892 0 -0.1618920935193344 -0.37695807546404569 0 -0.1746255356969719 -0.3861641374555751 0 -0.15198366156953599 -0.38062958355838827 0 -0.1618920935193344 -0.37695807546404569 0 -0.15198366156953599 -0.38062958355838827 0 -0.16077432329491681 -0.39428679405301031 0 -0.1746255356969719 -0.3861641374555751 0 -0.18268769684105149 -0.38162633731312018 0 -0.19167005707891141 -0.39016959391896122 0 -0.1746255356969719 -0.3861641374555751 0 -0.18268769684105149 -0.38162633731312018 0 -0.1790581590132842 -0.37059729620768461 0 -0.18268769684105149 -0.38162633731312018 0 -0.1790581590132842 -0.37059729620768461 0 -0.18268769684105149 -0.38162633731312018 0 -0.18828253956779001 -0.37382960497414619 0 -0.1790581590132842 -0.37059729620768461 0 -0.19758890351806241 -0.37854388876463191 0 -0.19167005707891141 -0.39016959391896122 0 -0.21381168319486801 -0.38732650161221072 0 -0.18268769684105149 -0.38162633731312018 0 -0.19758890351806241 -0.37854388876463191 0 -0.18828253956779001 -0.37382960497414619 0 -0.18268769684105149 -0.38162633731312018 0 -0.19758890351806241 -0.37854388876463191 0 -0.19167005707891141 -0.39016959391896122 0 -0.19167005707891141 -0.39016959391896122 0 -0.19131179825059791 -0.40486341133057868 0 -0.21381168319486801 -0.38732650161221072 0 -0.19131179825059791 -0.40486341133057868 0 -0.21381168319486801 -0.38732650161221072 0 -0.21977797596763771 -0.41472263733094789 0 -0.21381168319486801 -0.38732650161221072 0 -0.21977797596763771 -0.41472263733094789 0 -0.19758890351806241 -0.37854388876463191 0 -0.21381168319486801 -0.38732650161221072 0 -0.2078453904220984 -0.35993036589347338 0 -0.1983066431774351 -0.44293795148687382 0 -0.2022714974528089 -0.4326389540525819 0 -0.19480009328566061 -0.43007993003137412 0 -0.1983066431774351 -0.44293795148687382 0 -0.1856712615175094 -0.43296678614011458 0 -0.19480009328566061 -0.43007993003137412 0 -0.19480009328566061 -0.43007993003137412 0 -0.19947993891437979 -0.42257060176952232 0 -0.18904164858866029 -0.42099472750493999 0 -0.1856712615175094 -0.43296678614011458 0 -0.19480009328566061 -0.43007993003137412 0 -0.18904164858866029 -0.42099472750493999 0 -0.2022714974528089 -0.4326389540525819 0 -0.19480009328566061 -0.43007993003137412 0 -0.19947993891437979 -0.42257060176952232 0 -0.19131179825059791 -0.40486341133057868 0 -0.19947993891437979 -0.42257060176952232 0 -0.18904164858866029 -0.42099472750493999 0 -0.19131179825059791 -0.40486341133057868 0 -0.19947993891437979 -0.42257060176952232 0 -0.20860072568343679 -0.42008209718796818 0 -0.19131179825059791 -0.40486341133057868 0 -0.20860072568343679 -0.42008209718796818 0 -0.21977797596763771 -0.41472263733094789 0 -0.19131179825059791 -0.40486341133057868 0 -0.21977797596763771 -0.41472263733094789 0 -0.21820123937418079 -0.42085235567227969 0 -0.20860072568343679 -0.42008209718796818 0 -0.21977797596763771 -0.41472263733094789 0 -0.2022714974528089 -0.4326389540525819 0 -0.19947993891437979 -0.42257060176952232 0 -0.20822466940435261 -0.4282247892173337 0 -0.19947993891437979 -0.42257060176952232 0 -0.20860072568343679 -0.42008209718796818 0 -0.20822466940435261 -0.4282247892173337 0 -0.20860072568343679 -0.42008209718796818 0 -0.20822466940435261 -0.4282247892173337 0 -0.21558364690475859 -0.42687764992162192 0 -0.21820123937418079 -0.42085235567227969 0 -0.20860072568343679 -0.42008209718796818 0 -0.21558364690475859 -0.42687764992162192 0 -0.21820123937418079 -0.42085235567227969 0 -0.21558364690475859 -0.42687764992162192 0 -0.22137833651161051 -0.42470736465235381 0 -0.21558364690475859 -0.42687764992162192 0 -0.2137616558357659 -0.43126461783523928 0 -0.2194023891985753 -0.4291663511263053 0 -0.20822466940435261 -0.4282247892173337 0 -0.21558364690475859 -0.42687764992162192 0 -0.2137616558357659 -0.43126461783523928 0 -0.2137616558357659 -0.43126461783523928 0 -0.2100485078666203 -0.43570244147203457 0 -0.2190192441445504 -0.43449996431180132 0 -0.2161266485545234 -0.44108176986800629 0 -0.2100485078666203 -0.43570244147203457 0 -0.2190192441445504 -0.43449996431180132 0 -0.2137616558357659 -0.43126461783523928 0 -0.2190192441445504 -0.43449996431180132 0 -0.2194023891985753 -0.4291663511263053 0 -0.1983066431774351 -0.44293795148687382 0 -0.2022714974528089 -0.4326389540525819 0 -0.2100485078666203 -0.43570244147203457 0 -0.20822466940435261 -0.4282247892173337 0 -0.2137616558357659 -0.43126461783523928 0 -0.2100485078666203 -0.43570244147203457 0 -0.2022714974528089 -0.4326389540525819 0 -0.20822466940435261 -0.4282247892173337 0 -0.2100485078666203 -0.43570244147203457 0 -0.22754778391337899 -0.43932538480102112 0 -0.2318098827220855 -0.43009218488944712 0 -0.23717263114987011 -0.43559891918510141 0 -0.22754778391337899 -0.43932538480102112 0 -0.2318098827220855 -0.43009218488944712 0 -0.22496033910060051 -0.42957834094305131 0 -0.22754778391337899 -0.43932538480102112 0 -0.2190192441445504 -0.43449996431180132 0 -0.22496033910060051 -0.42957834094305131 0 -0.2190192441445504 -0.43449996431180132 0 -0.22496033910060051 -0.42957834094305131 0 -0.2194023891985753 -0.4291663511263053 0 -0.21558364690475859 -0.42687764992162192 0 -0.2194023891985753 -0.4291663511263053 0 -0.22137833651161051 -0.42470736465235381 0 -0.22496033910060051 -0.42957834094305131 0 -0.2194023891985753 -0.4291663511263053 0 -0.22137833651161051 -0.42470736465235381 0 -0.21820123937418079 -0.42085235567227969 0 -0.22137833651161051 -0.42470736465235381 0 -0.22338317308740491 -0.42076175047084508 0 -0.22496033910060051 -0.42957834094305131 0 -0.22137833651161051 -0.42470736465235381 0 -0.22695257527024459 -0.42263313220402038 0 -0.22137833651161051 -0.42470736465235381 0 -0.22695257527024459 -0.42263313220402038 0 -0.22338317308740491 -0.42076175047084508 0 -0.2318098827220855 -0.43009218488944712 0 -0.22695257527024459 -0.42263313220402038 0 -0.23260367993807951 -0.42357467461701348 0 -0.2318098827220855 -0.43009218488944712 0 -0.22496033910060051 -0.42957834094305131 0 -0.22695257527024459 -0.42263313220402038 0 -0.2318098827220855 -0.43009218488944712 0 -0.23260367993807951 -0.42357467461701348 0 -0.23782155559672111 -0.4282487223934055 0 -0.21977797596763771 -0.41472263733094789 0 -0.22936234754634949 -0.41099134577734631 0 -0.22894104344956351 -0.39867289644075471 0 -0.22695257527024459 -0.42263313220402038 0 -0.23260367993807951 -0.42357467461701348 0 -0.23266977257082039 -0.41747207411066062 0 -0.23260367993807951 -0.42357467461701348 0 -0.23266977257082039 -0.41747207411066062 0 -0.23775610703290631 -0.421678334331958 0 -0.23266977257082039 -0.41747207411066062 0 -0.22621439757949369 -0.41695188412114659 0 -0.22936234754634949 -0.41099134577734631 0 -0.22695257527024459 -0.42263313220402038 0 -0.23266977257082039 -0.41747207411066062 0 -0.22621439757949369 -0.41695188412114659 0 -0.22695257527024459 -0.42263313220402038 0 -0.22338317308740491 -0.42076175047084508 0 -0.22621439757949369 -0.41695188412114659 0 -0.22338317308740491 -0.42076175047084508 0 -0.22048357809023711 -0.41796263446994131 0 -0.22621439757949369 -0.41695188412114659 0 -0.21977797596763771 -0.41472263733094789 0 -0.22621439757949369 -0.41695188412114659 0 -0.22936234754634949 -0.41099134577734631 0 -0.21820123937418079 -0.42085235567227969 0 -0.22338317308740491 -0.42076175047084508 0 -0.22048357809023711 -0.41796263446994131 0 -0.21977797596763771 -0.41472263733094789 0 -0.22048357809023711 -0.41796263446994131 0 -0.22621439757949369 -0.41695188412114659 0 -0.21820123937418079 -0.42085235567227969 0 -0.21977797596763771 -0.41472263733094789 0 -0.22048357809023711 -0.41796263446994131 0 -0.21977797596763771 -0.41472263733094789 0 -0.22048357809023711 -0.41796263446994131 0 -0.21977797596763771 -0.41472263733094789 0 -0.22621439757949369 -0.41695188412114659 0 -0.23266977257082039 -0.41747207411066062 0 -0.22936234754634949 -0.41099134577734631 0 -0.23703753098497229 -0.40946576169432519 0 -0.22936234754634949 -0.41099134577734631 0 -0.23703753098497229 -0.40946576169432519 0 -0.22894104344956351 -0.39867289644075471 0 -0.23703753098497229 -0.40946576169432519 0 -0.24438393536658159 -0.41200944102713488 0 -0.23926348894341071 -0.41565747219355192 0 -0.25193438402534069 -0.41442804986807003 0 -0.24438393536658159 -0.41200944102713488 0 -0.24743103662798799 -0.40326668407513222 0 -0.23703753098497229 -0.40946576169432519 0 -0.24438393536658159 -0.41200944102713488 0 -0.24743103662798799 -0.40326668407513222 0 -0.24438393536658159 -0.41200944102713488 0 -0.24597139635663021 -0.418397337593232 0 -0.23926348894341071 -0.41565747219355192 0 -0.25193438402534069 -0.41442804986807003 0 -0.24438393536658159 -0.41200944102713488 0 -0.24597139635663021 -0.418397337593232 0 -0.25193438402534069 -0.41442804986807003 0 -0.25172295557359098 -0.42191633082499452 0 -0.24597139635663021 -0.418397337593232 0 -0.25172295557359098 -0.42191633082499452 0 -0.24597139635663021 -0.418397337593232 0 -0.24729477304586739 -0.42510745780790971 0 -0.24597139635663021 -0.418397337593232 0 -0.2414292966607563 -0.4202905517151222 0 -0.24265952967572879 -0.42463272275474401 0 -0.24597139635663021 -0.418397337593232 0 -0.2414292966607563 -0.4202905517151222 0 -0.23926348894341071 -0.41565747219355192 0 -0.23266977257082039 -0.41747207411066062 0 -0.23703753098497229 -0.40946576169432519 0 -0.23926348894341071 -0.41565747219355192 0 -0.2414292966607563 -0.4202905517151222 0 -0.23926348894341071 -0.41565747219355192 0 -0.23775610703290631 -0.421678334331958 0 -0.23266977257082039 -0.41747207411066062 0 -0.23926348894341071 -0.41565747219355192 0 -0.23775610703290631 -0.421678334331958 0 -0.23260367993807951 -0.42357467461701348 0 -0.23775610703290631 -0.421678334331958 0 -0.23782155559672111 -0.4282487223934055 0 -0.23782155559672111 -0.4282487223934055 0 -0.24265952967572879 -0.42463272275474401 0 -0.24416119934575409 -0.4307699212684904 0 -0.2414292966607563 -0.4202905517151222 0 -0.23775610703290631 -0.421678334331958 0 -0.24265952967572879 -0.42463272275474401 0 -0.23775610703290631 -0.421678334331958 0 -0.23782155559672111 -0.4282487223934055 0 -0.24265952967572879 -0.42463272275474401 0 -0.24597139635663021 -0.418397337593232 0 -0.24265952967572879 -0.42463272275474401 0 -0.24729477304586739 -0.42510745780790971 0 -0.25098710108800032 -0.4291893863882883 0 -0.24729477304586739 -0.42510745780790971 0 -0.24416119934575409 -0.4307699212684904 0 -0.24265952967572879 -0.42463272275474401 0 -0.24729477304586739 -0.42510745780790971 0 -0.24416119934575409 -0.4307699212684904 0 -0.25098710108800032 -0.4291893863882883 0 -0.24416119934575409 -0.4307699212684904 0 -0.2494977651774668 -0.43488378854128268 0 -0.2436057208747032 -0.43753466360145038 0 -0.24791624913684951 -0.43944703411039981 0 -0.2494977651774668 -0.43488378854128268 0 -0.2436057208747032 -0.43753466360145038 0 -0.24416119934575409 -0.4307699212684904 0 -0.2494977651774668 -0.43488378854128268 0 -0.2436057208747032 -0.43753466360145038 0 -0.24416119934575409 -0.4307699212684904 0 -0.23717263114987011 -0.43559891918510141 0 -0.23782155559672111 -0.4282487223934055 0 -0.24416119934575409 -0.4307699212684904 0 -0.23717263114987011 -0.43559891918510141 0 -0.2318098827220855 -0.43009218488944712 0 -0.23782155559672111 -0.4282487223934055 0 -0.23717263114987011 -0.43559891918510141 0 -0.21381168319486801 -0.38732650161221072 0 -0.23681216904767691 -0.37617641670518909 0 -0.2286990266388427 -0.36523936892989939 0 -0.21381168319486801 -0.38732650161221072 0 -0.22894104344956351 -0.39867289644075471 0 -0.23681216904767691 -0.37617641670518909 0 -0.21381168319486801 -0.38732650161221072 0 -0.21977797596763771 -0.41472263733094789 0 -0.22894104344956351 -0.39867289644075471 0 -0.22894104344956351 -0.39867289644075471 0 -0.24743103662798799 -0.40326668407513222 0 -0.24543778092586691 -0.38872682055091118 0 -0.23703753098497229 -0.40946576169432519 0 -0.22894104344956351 -0.39867289644075471 0 -0.24743103662798799 -0.40326668407513222 0 -0.25446511155723628 -0.3929887669131244 0 -0.24743103662798799 -0.40326668407513222 0 -0.24543778092586691 -0.38872682055091118 0 -0.22894104344956351 -0.39867289644075471 0 -0.24543778092586691 -0.38872682055091118 0 -0.23681216904767691 -0.37617641670518909 0 -0.25202918824685011 -0.37733407344974268 0 -0.24543778092586691 -0.38872682055091118 0 -0.23681216904767691 -0.37617641670518909 0 -0.25572153309435902 -0.36166841305120412 0 -0.25202918824685011 -0.37733407344974268 0 -0.23681216904767691 -0.37617641670518909 0 -0.25572153309435902 -0.36166841305120412 0 -0.2286990266388427 -0.36523936892989939 0 -0.23364947145981391 -0.3524324932409299 0 -0.25572153309435902 -0.36166841305120412 0 -0.23681216904767691 -0.37617641670518909 0 -0.2286990266388427 -0.36523936892989939 0 -0.23364947145981391 -0.3524324932409299 0 -0.21157740982526901 -0.34319657343065568 0 -0.21404561655359769 -0.35030772022898388 0 -0.2193193663421725 -0.35567875517661401 0 -0.23364947145981391 -0.3524324932409299 0 -0.21404561655359769 -0.35030772022898388 0 -0.23364947145981391 -0.3524324932409299 0 -0.2249298697517525 -0.34174549564773021 0 -0.21157740982526901 -0.34319657343065568 0 -0.23364947145981391 -0.3524324932409299 0 -0.21157740982526901 -0.34319657343065568 0 -0.2286990266388427 -0.36523936892989939 0 -0.2193193663421725 -0.35567875517661401 0 -0.23364947145981391 -0.3524324932409299 0 -0.23364947145981391 -0.3524324932409299 0 -0.23760940006476289 -0.33780996155187759 0 -0.2249298697517525 -0.34174549564773021 0 -0.23364947145981391 -0.3524324932409299 0 -0.248707666351177 -0.34527638864679572 0 -0.23760940006476289 -0.33780996155187759 0 -0.25572153309435902 -0.36166841305120412 0 -0.23364947145981391 -0.3524324932409299 0 -0.248707666351177 -0.34527638864679572 0 -0.25572153309435902 -0.36166841305120412 0 -0.23364947145981391 -0.3524324932409299 0 -0.248707666351177 -0.34527638864679572 0 -0.2480622944635501 -0.33226812230346248 0 -0.23760940006476289 -0.33780996155187759 0 -0.2480622944635501 -0.33226812230346248 0 -0.23760940006476289 -0.33780996155187759 0 -0.23982905989238129 -0.32421253227357222 0 -0.23760940006476289 -0.33780996155187759 0 -0.23982905989238129 -0.32421253227357222 0 -0.2311201416162964 -0.33158557769227021 0 -0.24723028223634069 -0.31404629044833038 0 -0.2484763716152453 -0.32251677582822202 0 -0.23982905989238129 -0.32421253227357222 0 -0.2480622944635501 -0.33226812230346248 0 -0.2484763716152453 -0.32251677582822202 0 -0.23982905989238129 -0.32421253227357222 0 -0.23982905989238129 -0.32421253227357222 0 -0.2368280707916085 -0.31339526372842341 0 -0.23075557544670541 -0.32350805244550668 0 -0.24723028223634069 -0.31404629044833038 0 -0.23982905989238129 -0.32421253227357222 0 -0.2368280707916085 -0.31339526372842341 0 -0.22803981712590729 -0.31551693825436472 0 -0.23075557544670541 -0.32350805244550668 0 -0.22308233229840871 -0.32162553464186611 0 -0.2368280707916085 -0.31339526372842341 0 -0.22803981712590729 -0.31551693825436472 0 -0.23075557544670541 -0.32350805244550668 0 -0.23982905989238129 -0.32421253227357222 0 -0.23075557544670541 -0.32350805244550668 0 -0.2311201416162964 -0.33158557769227021 0 -0.22308233229840871 -0.32162553464186611 0 -0.22247680292588029 -0.33065184654266422 0 -0.21418285038927171 -0.32116041746224289 0 -0.23075557544670541 -0.32350805244550668 0 -0.22308233229840871 -0.32162553464186611 0 -0.22247680292588029 -0.33065184654266422 0 -0.22308233229840871 -0.32162553464186611 0 -0.22059257724596609 -0.31463564534634109 0 -0.21418285038927171 -0.32116041746224289 0 -0.22803981712590729 -0.31551693825436472 0 -0.22308233229840871 -0.32162553464186611 0 -0.22059257724596609 -0.31463564534634109 0 -0.23760940006476289 -0.33780996155187759 0 -0.2311201416162964 -0.33158557769227021 0 -0.2249298697517525 -0.34174549564773021 0 -0.23075557544670541 -0.32350805244550668 0 -0.2311201416162964 -0.33158557769227021 0 -0.22247680292588029 -0.33065184654266422 0 -0.2311201416162964 -0.33158557769227021 0 -0.22247680292588029 -0.33065184654266422 0 -0.2249298697517525 -0.34174549564773021 0 -0.22247680292588029 -0.33065184654266422 0 -0.2249298697517525 -0.34174549564773021 0 -0.21632100295192011 -0.33684793317260309 0 -0.2249298697517525 -0.34174549564773021 0 -0.21157740982526901 -0.34319657343065568 0 -0.21632100295192011 -0.33684793317260309 0 -0.21157740982526901 -0.34319657343065568 0 -0.21632100295192011 -0.33684793317260309 0 -0.21031818380872411 -0.33561830176496249 0 -0.22247680292588029 -0.33065184654266422 0 -0.21632100295192011 -0.33684793317260309 0 -0.21317850417448 -0.33120203379284602 0 -0.21632100295192011 -0.33684793317260309 0 -0.21317850417448 -0.33120203379284602 0 -0.21031818380872411 -0.33561830176496249 0 -0.20612131807438919 -0.33132477038227631 0 -0.20599147331864201 -0.32550246031423352 0 -0.19804251495432981 -0.32916745548797111 0 -0.21317850417448 -0.33120203379284602 0 -0.21031818380872411 -0.33561830176496249 0 -0.20612131807438919 -0.33132477038227631 0 -0.21317850417448 -0.33120203379284602 0 -0.20612131807438919 -0.33132477038227631 0 -0.20599147331864201 -0.32550246031423352 0 -0.21031818380872411 -0.33561830176496249 0 -0.20612131807438919 -0.33132477038227631 0 -0.2030759141157697 -0.33513360055136843 0 -0.21157740982526901 -0.34319657343065568 0 -0.2036299979077012 -0.33987102729974988 0 -0.21157740982526901 -0.34319657343065568 0 -0.2036299979077012 -0.33987102729974988 0 -0.2030759141157697 -0.33513360055136843 0 -0.21157740982526901 -0.34319657343065568 0 -0.21031818380872411 -0.33561830176496249 0 -0.2030759141157697 -0.33513360055136843 0 -0.22059257724596609 -0.31463564534634109 0 -0.21418285038927171 -0.32116041746224289 0 -0.2129208791113372 -0.30899400312409109 0 -0.22247680292588029 -0.33065184654266422 0 -0.21317850417448 -0.33120203379284602 0 -0.21418285038927171 -0.32116041746224289 0 -0.21317850417448 -0.33120203379284602 0 -0.21418285038927171 -0.32116041746224289 0 -0.20599147331864201 -0.32550246031423352 0 -0.21418285038927171 -0.32116041746224289 0 -0.20301025380609819 -0.31424471734961129 0 -0.2129208791113372 -0.30899400312409109 0 -0.21418285038927171 -0.32116041746224289 0 -0.20599147331864201 -0.32550246031423352 0 -0.20301025380609819 -0.31424471734961129 0 -0.20301025380609819 -0.31424471734961129 0 -0.19763849139278269 -0.32178724575731688 0 -0.19082519210440871 -0.31556278723220221 0 -0.20599147331864201 -0.32550246031423352 0 -0.19763849139278269 -0.32178724575731688 0 -0.19804251495432981 -0.32916745548797111 0 -0.20599147331864201 -0.32550246031423352 0 -0.20301025380609819 -0.31424471734961129 0 -0.19763849139278269 -0.32178724575731688 0 -0.19763849139278269 -0.32178724575731688 0 -0.19032302278043481 -0.32445880840256619 0 -0.19804251495432981 -0.32916745548797111 0 -0.19763849139278269 -0.32178724575731688 0 -0.19032302278043481 -0.32445880840256619 0 -0.19082519210440871 -0.31556278723220221 0 -0.2036299979077012 -0.33987102729974988 0 -0.19021212081985719 -0.33753015276935572 0 -0.20636550124856309 -0.35313498286569228 0 -0.2036299979077012 -0.33987102729974988 0 -0.2030759141157697 -0.33513360055136843 0 -0.18950534819072429 -0.33396065362038158 0 -0.2036299979077012 -0.33987102729974988 0 -0.18950534819072429 -0.33396065362038158 0 -0.2030759141157697 -0.33513360055136843 0 -0.19804251495432981 -0.32916745548797111 0 -0.18950534819072429 -0.33396065362038158 0 -0.20612131807438919 -0.33132477038227631 0 -0.2030759141157697 -0.33513360055136843 0 -0.19804251495432981 -0.32916745548797111 0 -0.19032302278043481 -0.32445880840256619 0 -0.19804251495432981 -0.32916745548797111 0 -0.18950534819072429 -0.33396065362038158 0 -0.2036299979077012 -0.33987102729974988 0 -0.18950534819072429 -0.33396065362038158 0 -0.19021212081985719 -0.33753015276935572 0 -0.19021212081985719 -0.33753015276935572 0 -0.19250644192269969 -0.35131820223076621 0 -0.20636550124856309 -0.35313498286569228 0 -0.19021212081985719 -0.33753015276935572 0 -0.20636550124856309 -0.35313498286569228 0 -0.19250644192269969 -0.35131820223076621 0 -0.19345177471769121 -0.36526383105057869 0 -0.20636550124856309 -0.35313498286569228 0 -0.19250644192269969 -0.35131820223076621 0 -0.19345177471769121 -0.36526383105057869 0 -0.18425590041250339 -0.35908775612159483 0 -0.19758890351806241 -0.37854388876463191 0 -0.19345177471769121 -0.36526383105057869 0 -0.2078453904220984 -0.35993036589347338 0 -0.19758890351806241 -0.37854388876463191 0 -0.19345177471769121 -0.36526383105057869 0 -0.18828253956779001 -0.37382960497414619 0 -0.19345177471769121 -0.36526383105057869 0 -0.2078453904220984 -0.35993036589347338 0 -0.19345177471769121 -0.36526383105057869 0 -0.2078453904220984 -0.35993036589347338 0 -0.20636550124856309 -0.35313498286569228 0 -0.21381168319486801 -0.38732650161221072 0 -0.2286990266388427 -0.36523936892989939 0 -0.2078453904220984 -0.35993036589347338 0 -0.2286990266388427 -0.36523936892989939 0 -0.2193193663421725 -0.35567875517661401 0 -0.2078453904220984 -0.35993036589347338 0 -0.21381168319486801 -0.38732650161221072 0 -0.2078453904220984 -0.35993036589347338 0 -0.2193193663421725 -0.35567875517661401 0 -0.21404561655359769 -0.35030772022898388 0 -0.2078225273536124 -0.35454253002992742 0 -0.2193193663421725 -0.35567875517661401 0 -0.2078453904220984 -0.35993036589347338 0 -0.2078225273536124 -0.35454253002992742 0 -0.2193193663421725 -0.35567875517661401 0 -0.2078453904220984 -0.35993036589347338 0 -0.21157740982526901 -0.34319657343065568 0 -0.21404561655359769 -0.35030772022898388 0 -0.20636550124856309 -0.35313498286569228 0 -0.2036299979077012 -0.33987102729974988 0 -0.20636550124856309 -0.35313498286569228 0 -0.21157740982526901 -0.34319657343065568 0 -0.2036299979077012 -0.33987102729974988 0 -0.20636550124856309 -0.35313498286569228 0 -0.2078453904220984 -0.35993036589347338 0 -0.20636550124856309 -0.35313498286569228 0 -0.2078453904220984 -0.35993036589347338 0 -0.20636550124856309 -0.35313498286569228 0 -0.2078225273536124 -0.35454253002992742 0 -0.21404561655359769 -0.35030772022898388 0 -0.20636550124856309 -0.35313498286569228 0 -0.2078225273536124 -0.35454253002992742 0 -0.20636550124856309 -0.35313498286569228 0 -0.2078225273536124 -0.35454253002992742 0 -0.21881473907591009 -0.25622618860076202 0 -0.23123291610659891 -0.25887975231054122 0 -0.22037987511787449 -0.2476690190108799 0 -0.21881473907591009 -0.25622618860076202 0 -0.22229739029358911 -0.26493989999377809 0 -0.23123291610659891 -0.25887975231054122 0 -0.25482785930297058 -0.26894337223577952 0 -0.23123291610659891 -0.25887975231054122 0 -0.25080024285403762 -0.24681485756453511 0 -0.25482785930297058 -0.26894337223577952 0 -0.23123291610659891 -0.25887975231054122 0 -0.2367201643666659 -0.28439289041280102 0 -0.2537013060049445 -0.2894855463759114 0 -0.25482785930297058 -0.26894337223577952 0 -0.2367201643666659 -0.28439289041280102 0 -0.22229739029358911 -0.26493989999377809 0 -0.2367201643666659 -0.28439289041280102 0 -0.21828892813313011 -0.2786485991065763 0 -0.22229739029358911 -0.26493989999377809 0 -0.23123291610659891 -0.25887975231054122 0 -0.2367201643666659 -0.28439289041280102 0 -0.23123291610659891 -0.25887975231054122 0 -0.2367201643666659 -0.28439289041280102 0 -0.2191325272654889 -0.29370388599508018 0 -0.2367201643666659 -0.28439289041280102 0 -0.21828892813313011 -0.2786485991065763 0 -0.2191325272654889 -0.29370388599508018 0 -0.2367201643666659 -0.28439289041280102 0 -0.22823136267332481 -0.30486556125736758 0 -0.2537013060049445 -0.2894855463759114 0 -0.2367201643666659 -0.28439289041280102 0 -0.24513268049050929 -0.30291241594458568 0 -0.2368280707916085 -0.31339526372842341 0 -0.24513268049050929 -0.30291241594458568 0 -0.22823136267332481 -0.30486556125736758 0 -0.2367201643666659 -0.28439289041280102 0 -0.24513268049050929 -0.30291241594458568 0 -0.22823136267332481 -0.30486556125736758 0 -0.24723028223634069 -0.31404629044833038 0 -0.2368280707916085 -0.31339526372842341 0 -0.24513268049050929 -0.30291241594458568 0 -0.2368280707916085 -0.31339526372842341 0 -0.22803981712590729 -0.31551693825436472 0 -0.22823136267332481 -0.30486556125736758 0 -0.2191325272654889 -0.29370388599508018 0 -0.22823136267332481 -0.30486556125736758 0 -0.2129208791113372 -0.30899400312409109 0 -0.22059257724596609 -0.31463564534634109 0 -0.22823136267332481 -0.30486556125736758 0 -0.2129208791113372 -0.30899400312409109 0 -0.22803981712590729 -0.31551693825436472 0 -0.22059257724596609 -0.31463564534634109 0 -0.22823136267332481 -0.30486556125736758 0 -0.2191325272654889 -0.29370388599508018 0 -0.2129208791113372 -0.30899400312409109 0 -0.20559770207048331 -0.29907514365431659 0 -0.20301025380609819 -0.31424471734961129 0 -0.2129208791113372 -0.30899400312409109 0 -0.20559770207048331 -0.29907514365431659 0 -0.20301025380609819 -0.31424471734961129 0 -0.19082519210440871 -0.31556278723220221 0 -0.19534921581447801 -0.30561973899366551 0 -0.20301025380609819 -0.31424471734961129 0 -0.20559770207048331 -0.29907514365431659 0 -0.19534921581447801 -0.30561973899366551 0 -0.19082519210440871 -0.31556278723220221 0 -0.19534921581447801 -0.30561973899366551 0 -0.18356306958159291 -0.30455935928388977 0 -0.19534921581447801 -0.30561973899366551 0 -0.19374986150980689 -0.29465668744830747 0 -0.18356306958159291 -0.30455935928388977 0 -0.20559770207048331 -0.29907514365431659 0 -0.19534921581447801 -0.30561973899366551 0 -0.19374986150980689 -0.29465668744830747 0 -0.20559770207048331 -0.29907514365431659 0 -0.20165584468732409 -0.28926852192558838 0 -0.19374986150980689 -0.29465668744830747 0 -0.19374986150980689 -0.29465668744830747 0 -0.19545299792732701 -0.28227601036448402 0 -0.18298636382405001 -0.28941486951580031 0 -0.20165584468732409 -0.28926852192558838 0 -0.19545299792732701 -0.28227601036448402 0 -0.20592496504807931 -0.27981137866926092 0 -0.20165584468732409 -0.28926852192558838 0 -0.19374986150980689 -0.29465668744830747 0 -0.19545299792732701 -0.28227601036448402 0 -0.20165584468732409 -0.28926852192558838 0 -0.2108112857224517 -0.2876476387177142 0 -0.20592496504807931 -0.27981137866926092 0 -0.20559770207048331 -0.29907514365431659 0 -0.20165584468732409 -0.28926852192558838 0 -0.2108112857224517 -0.2876476387177142 0 -0.2191325272654889 -0.29370388599508018 0 -0.20559770207048331 -0.29907514365431659 0 -0.2108112857224517 -0.2876476387177142 0 -0.2191325272654889 -0.29370388599508018 0 -0.2108112857224517 -0.2876476387177142 0 -0.21828892813313011 -0.2786485991065763 0 -0.2108112857224517 -0.2876476387177142 0 -0.21828892813313011 -0.2786485991065763 0 -0.20592496504807931 -0.27981137866926092 0 -0.22229739029358911 -0.26493989999377809 0 -0.2085669015847606 -0.27124222353060018 0 -0.19561115587250469 -0.26240476959448161 0 -0.22229739029358911 -0.26493989999377809 0 -0.21828892813313011 -0.2786485991065763 0 -0.2085669015847606 -0.27124222353060018 0 -0.2085669015847606 -0.27124222353060018 0 -0.20592496504807931 -0.27981137866926092 0 -0.19963850296992139 -0.2738965770646401 0 -0.21828892813313011 -0.2786485991065763 0 -0.2085669015847606 -0.27124222353060018 0 -0.20592496504807931 -0.27981137866926092 0 -0.19545299792732701 -0.28227601036448402 0 -0.20592496504807931 -0.27981137866926092 0 -0.19963850296992139 -0.2738965770646401 0 -0.19545299792732701 -0.28227601036448402 0 -0.19963850296992139 -0.2738965770646401 0 -0.1908089429772625 -0.27077052120715073 0 -0.19545299792732701 -0.28227601036448402 0 -0.1908089429772625 -0.27077052120715073 0 -0.18381053213571319 -0.27798689420613071 0 -0.1908089429772625 -0.27077052120715073 0 -0.19561115587250469 -0.26240476959448161 0 -0.1908089429772625 -0.27077052120715073 0 -0.19561115587250469 -0.26240476959448161 0 -0.18354337619928529 -0.26803369559712342 0 -0.2085669015847606 -0.27124222353060018 0 -0.19963850296992139 -0.2738965770646401 0 -0.19561115587250469 -0.26240476959448161 0 -0.19963850296992139 -0.2738965770646401 0 -0.1908089429772625 -0.27077052120715073 0 -0.19561115587250469 -0.26240476959448161 0 -0.19561115587250469 -0.26240476959448161 0 -0.20553144351213509 -0.24512301550947829 0 -0.19561115587250469 -0.26240476959448161 0 -0.19548769938327429 -0.25185137861635509 0 -0.20553144351213509 -0.24512301550947829 0 -0.19561115587250469 -0.26240476959448161 0 -0.19548769938327429 -0.25185137861635509 0 -0.18686634063891161 -0.25398893287349822 0 -0.19548769938327429 -0.25185137861635509 0 -0.18686634063891161 -0.25398893287349822 0 -0.19394185750954579 -0.24588879648796261 0 -0.22229739029358911 -0.26493989999377809 0 -0.19561115587250469 -0.26240476959448161 0 -0.21039064585541831 -0.25678419303266492 0 -0.2141936021013538 -0.24934680281214069 0 -0.20553144351213509 -0.24512301550947829 0 -0.19561115587250469 -0.26240476959448161 0 -0.21039064585541831 -0.25678419303266492 0 -0.20553144351213509 -0.24512301550947829 0 -0.22229739029358911 -0.26493989999377809 0 -0.19561115587250469 -0.26240476959448161 0 -0.21039064585541831 -0.25678419303266492 0 -0.21881473907591009 -0.25622618860076202 0 -0.22229739029358911 -0.26493989999377809 0 -0.21039064585541831 -0.25678419303266492 0 -0.21881473907591009 -0.25622618860076202 0 -0.21039064585541831 -0.25678419303266492 0 -0.2141936021013538 -0.24934680281214069 0 -0.21881473907591009 -0.25622618860076202 0 -0.2141936021013538 -0.24934680281214069 0 -0.22037987511787449 -0.2476690190108799 0 -0.15777540600683759 -0.2588104610775479 0 -0.1667769972662568 -0.25351468790209408 0 -0.16001697483938829 -0.2430835608244433 0 -0.15777540600683759 -0.2588104610775479 0 -0.15309437346675669 -0.25536259963707592 0 -0.16001697483938829 -0.2430835608244433 0 -0.15777540600683759 -0.2588104610775479 0 -0.1667769972662568 -0.25351468790209408 0 -0.1766932809396711 -0.26060761533601462 0 -0.15777540600683759 -0.2588104610775479 0 -0.1766932809396711 -0.26060761533601462 0 -0.15777540600683759 -0.2588104610775479 0 -0.1766932809396711 -0.26060761533601462 0 -0.17079296907127531 -0.2683986776418395 0 -0.15777540600683759 -0.2588104610775479 0 -0.16072681001176159 -0.2681743942098363 0 -0.15297886772899039 -0.26761816814398581 0 -0.15777540600683759 -0.2588104610775479 0 -0.17079296907127531 -0.2683986776418395 0 -0.16072681001176159 -0.2681743942098363 0 -0.15777540600683759 -0.2588104610775479 0 -0.17079296907127531 -0.2683986776418395 0 -0.1667769972662568 -0.25351468790209408 0 -0.1766932809396711 -0.26060761533601462 0 -0.1713571771027344 -0.24726098822933809 0 -0.1766932809396711 -0.26060761533601462 0 -0.1804529627194961 -0.24864717750799409 0 -0.1713571771027344 -0.24726098822933809 0 -0.19561115587250469 -0.26240476959448161 0 -0.1766932809396711 -0.26060761533601462 0 -0.18354337619928529 -0.26803369559712342 0 -0.19561115587250469 -0.26240476959448161 0 -0.18686634063891161 -0.25398893287349822 0 -0.1766932809396711 -0.26060761533601462 0 -0.19561115587250469 -0.26240476959448161 0 -0.1766932809396711 -0.26060761533601462 0 -0.18686634063891161 -0.25398893287349822 0 -0.1766932809396711 -0.26060761533601462 0 -0.1804529627194961 -0.24864717750799409 0 -0.18381053213571319 -0.27798689420613071 0 -0.17079296907127531 -0.2683986776418395 0 -0.1766932809396711 -0.26060761533601462 0 -0.18354337619928529 -0.26803369559712342 0 -0.17079296907127531 -0.2683986776418395 0 -0.18354337619928529 -0.26803369559712342 0 -0.18381053213571319 -0.27798689420613071 0 -0.17079296907127531 -0.2683986776418395 0 -0.1908089429772625 -0.27077052120715073 0 -0.18354337619928529 -0.26803369559712342 0 -0.18381053213571319 -0.27798689420613071 0 -0.18381053213571319 -0.27798689420613071 0 -0.1728969054930419 -0.2788397615680086 0 -0.17846185302966089 -0.28339329196472229 0 -0.18381053213571319 -0.27798689420613071 0 -0.1728969054930419 -0.2788397615680086 0 -0.17079296907127531 -0.2683986776418395 0 -0.1728969054930419 -0.2788397615680086 0 -0.17079296907127531 -0.2683986776418395 0 -0.16336512549984139 -0.27540172126983592 0 -0.1728969054930419 -0.2788397615680086 0 -0.16336512549984139 -0.27540172126983592 0 -0.16418669708389619 -0.2831981086335561 0 -0.17079296907127531 -0.2683986776418395 0 -0.16072681001176159 -0.2681743942098363 0 -0.16336512549984139 -0.27540172126983592 0 -0.16072681001176159 -0.2681743942098363 0 -0.16336512549984139 -0.27540172126983592 0 -0.15535741281510279 -0.27350114944723408 0 -0.16072681001176159 -0.2681743942098363 0 -0.15535741281510279 -0.27350114944723408 0 -0.15297886772899039 -0.26761816814398581 0 -0.16336512549984139 -0.27540172126983592 0 -0.16418669708389619 -0.2831981086335561 0 -0.15498846930920851 -0.28157917190390802 0 -0.16336512549984139 -0.27540172126983592 0 -0.15498846930920851 -0.28157917190390802 0 -0.15535741281510279 -0.27350114944723408 0 -0.15751576099727721 -0.28827617541495942 0 -0.16418669708389619 -0.2831981086335561 0 -0.15498846930920851 -0.28157917190390802 0 -0.15751576099727721 -0.28827617541495942 0 -0.16428205754489819 -0.2922322966446127 0 -0.16418669708389619 -0.2831981086335561 0 -0.15751576099727721 -0.28827617541495942 0 -0.15943254906856269 -0.29375251000532587 0 -0.15451639112245921 -0.29602246610198268 0 -0.15943254906856269 -0.29375251000532587 0 -0.1620732317120247 -0.29918211280005857 0 -0.15451639112245921 -0.29602246610198268 0 -0.15943254906856269 -0.29375251000532587 0 -0.16428205754489819 -0.2922322966446127 0 -0.1620732317120247 -0.29918211280005857 0 -0.15751576099727721 -0.28827617541495942 0 -0.15943254906856269 -0.29375251000532587 0 -0.16428205754489819 -0.2922322966446127 0 -0.16428205754489819 -0.2922322966446127 0 -0.17263176392562479 -0.28733752406632368 0 -0.17258039232293751 -0.29694834771118372 0 -0.16428205754489819 -0.2922322966446127 0 -0.17258039232293751 -0.29694834771118372 0 -0.1620732317120247 -0.29918211280005857 0 -0.16428205754489819 -0.2922322966446127 0 -0.16418669708389619 -0.2831981086335561 0 -0.17263176392562479 -0.28733752406632368 0 -0.1728969054930419 -0.2788397615680086 0 -0.16418669708389619 -0.2831981086335561 0 -0.17263176392562479 -0.28733752406632368 0 -0.17846185302966089 -0.28339329196472229 0 -0.17263176392562479 -0.28733752406632368 0 -0.18298636382405001 -0.28941486951580031 0 -0.1728969054930419 -0.2788397615680086 0 -0.17846185302966089 -0.28339329196472229 0 -0.17263176392562479 -0.28733752406632368 0 -0.19545299792732701 -0.28227601036448402 0 -0.18381053213571319 -0.27798689420613071 0 -0.18298636382405001 -0.28941486951580031 0 -0.18381053213571319 -0.27798689420613071 0 -0.17846185302966089 -0.28339329196472229 0 -0.18298636382405001 -0.28941486951580031 0 -0.19374986150980689 -0.29465668744830747 0 -0.18298636382405001 -0.28941486951580031 0 -0.18356306958159291 -0.30455935928388977 0 -0.17263176392562479 -0.28733752406632368 0 -0.18298636382405001 -0.28941486951580031 0 -0.17258039232293751 -0.29694834771118372 0 -0.18356306958159291 -0.30455935928388977 0 -0.17083894958686549 -0.30770288672515028 0 -0.17405874039115179 -0.32192532267301871 0 -0.17258039232293751 -0.29694834771118372 0 -0.18356306958159291 -0.30455935928388977 0 -0.17083894958686549 -0.30770288672515028 0 -0.18298636382405001 -0.28941486951580031 0 -0.17258039232293751 -0.29694834771118372 0 -0.18356306958159291 -0.30455935928388977 0 -0.17083894958686549 -0.30770288672515028 0 -0.15790535996244659 -0.30632049257668131 0 -0.17405874039115179 -0.32192532267301871 0 -0.17258039232293751 -0.29694834771118372 0 -0.17083894958686549 -0.30770288672515028 0 -0.1620732317120247 -0.29918211280005857 0 -0.1620732317120247 -0.29918211280005857 0 -0.15790535996244659 -0.30632049257668131 0 -0.15451639112245921 -0.29602246610198268 0 -0.17083894958686549 -0.30770288672515028 0 -0.1620732317120247 -0.29918211280005857 0 -0.15790535996244659 -0.30632049257668131 0 -0.15265701100472931 -0.30952732857734833 0 -0.14246622064836439 -0.2960719360735421 0 -0.1454808016018832 -0.31329926182473522 0 -0.14246622064836439 -0.2960719360735421 0 -0.1454808016018832 -0.31329926182473522 0 -0.13661570049243671 -0.30597312993991732 0 -0.14246622064836439 -0.2960719360735421 0 -0.1454808016018832 -0.31329926182473522 0 -0.15790535996244659 -0.30632049257668131 0 -0.1494749338081435 -0.29817635405668308 0 -0.15451639112245921 -0.29602246610198268 0 -0.15790535996244659 -0.30632049257668131 0 -0.1494749338081435 -0.29817635405668308 0 -0.15790535996244659 -0.30632049257668131 0 -0.15265701100472931 -0.30952732857734833 0 -0.1494749338081435 -0.29817635405668308 0 -0.15790535996244659 -0.30632049257668131 0 -0.15451639112245921 -0.29602246610198268 0 -0.15265701100472931 -0.30952732857734833 0 -0.1494749338081435 -0.29817635405668308 0 -0.14246622064836439 -0.2960719360735421 0 -0.15265701100472931 -0.30952732857734833 0 -0.14246622064836439 -0.2960719360735421 0 -0.13661570049243671 -0.30597312993991732 0 -0.1251651200017854 -0.30490241405716911 0 -0.1354019784435542 -0.28674467603935783 0 -0.13661570049243671 -0.30597312993991732 0 -0.1251651200017854 -0.30490241405716911 0 -0.1334649693606966 -0.31853463814844019 0 -0.1354019784435542 -0.28674467603935783 0 -0.14246622064836439 -0.2960719360735421 0 -0.1251651200017854 -0.30490241405716911 0 -0.1354019784435542 -0.28674467603935783 0 -0.1251651200017854 -0.30490241405716911 0 -0.1354019784435542 -0.28674467603935783 0 -0.1149049095260085 -0.28443035214133672 0 -0.1354019784435542 -0.28674467603935783 0 -0.14246622064836439 -0.2960719360735421 0 -0.13954737880779711 -0.2793917274544952 0 -0.13661570049243671 -0.30597312993991732 0 -0.1354019784435542 -0.28674467603935783 0 -0.14246622064836439 -0.2960719360735421 0 -0.1354019784435542 -0.28674467603935783 0 -0.13954737880779711 -0.2793917274544952 0 -0.14246622064836439 -0.2960719360735421 0 -0.14995844065133551 -0.28970614920336718 0 -0.13954737880779711 -0.2793917274544952 0 -0.14246622064836439 -0.2960719360735421 0 -0.13954737880779711 -0.2793917274544952 0 -0.14995844065133551 -0.28970614920336718 0 -0.15498846930920851 -0.28157917190390802 0 -0.13954737880779711 -0.2793917274544952 0 -0.1494749338081435 -0.29817635405668308 0 -0.14246622064836439 -0.2960719360735421 0 -0.14995844065133551 -0.28970614920336718 0 -0.1494749338081435 -0.29817635405668308 0 -0.14995844065133551 -0.28970614920336718 0 -0.15451639112245921 -0.29602246610198268 0 -0.15751576099727721 -0.28827617541495942 0 -0.14995844065133551 -0.28970614920336718 0 -0.15451639112245921 -0.29602246610198268 0 -0.15751576099727721 -0.28827617541495942 0 -0.14995844065133551 -0.28970614920336718 0 -0.15498846930920851 -0.28157917190390802 0 -0.15535741281510279 -0.27350114944723408 0 -0.15297886772899039 -0.26761816814398581 0 -0.13954737880779711 -0.2793917274544952 0 -0.15297886772899039 -0.26761816814398581 0 -0.13954737880779711 -0.2793917274544952 0 -0.15148733100345221 -0.25821310853081519 0 -0.13954737880779711 -0.2793917274544952 0 -0.15148733100345221 -0.25821310853081519 0 -0.15498846930920851 -0.28157917190390802 0 -0.15535741281510279 -0.27350114944723408 0 -0.13954737880779711 -0.2793917274544952 0 -0.1354019784435542 -0.28674467603935783 0 -0.13954737880779711 -0.2793917274544952 0 -0.1226872134938564 -0.26995675802621272 0 -0.1354019784435542 -0.28674467603935783 0 -0.1226872134938564 -0.26995675802621272 0 -0.13954737880779711 -0.2793917274544952 0 -0.12996071383769811 -0.26413502611609679 0 -0.13557688051857611 -0.25670165262233902 0 -0.13954737880779711 -0.2793917274544952 0 -0.12996071383769811 -0.26413502611609679 0 -0.1226872134938564 -0.26995675802621272 0 -0.13954737880779711 -0.2793917274544952 0 -0.13557688051857611 -0.25670165262233902 0 -0.1258446824533215 -0.25577711636975708 0 -0.13557688051857611 -0.25670165262233902 0 -0.13271600617476459 -0.24035270893364119 0 -0.13557688051857611 -0.25670165262233902 0 -0.15309437346675669 -0.25536259963707592 0 -0.13271600617476459 -0.24035270893364119 0 -0.12996071383769811 -0.26413502611609679 0 -0.1258446824533215 -0.25577711636975708 0 -0.13557688051857611 -0.25670165262233902 0 -0.12996071383769811 -0.26413502611609679 0 -0.1258446824533215 -0.25577711636975708 0 -0.1226872134938564 -0.26995675802621272 0 -0.1258446824533215 -0.25577711636975708 0 -0.13557688051857611 -0.25670165262233902 0 -0.13557688051857611 -0.25670165262233902 0 -0.15148733100345221 -0.25821310853081519 0 -0.13954737880779711 -0.2793917274544952 0 -0.13557688051857611 -0.25670165262233902 0 -0.15148733100345221 -0.25821310853081519 0 -0.13557688051857611 -0.25670165262233902 0 -0.15148733100345221 -0.25821310853081519 0 -0.15309437346675669 -0.25536259963707592 0 -0.15777540600683759 -0.2588104610775479 0 -0.15297886772899039 -0.26761816814398581 0 -0.15148733100345221 -0.25821310853081519 0 -0.15777540600683759 -0.2588104610775479 0 -0.15148733100345221 -0.25821310853081519 0 -0.15777540600683759 -0.2588104610775479 0 -0.15309437346675669 -0.25536259963707592 0 -0.15777540600683759 -0.2588104610775479 0 -0.15148733100345221 -0.25821310853081519 0 -0.15309437346675669 -0.25536259963707592 0 -0.15148733100345221 -0.25821310853081519 0 -0.15309437346675669 -0.25536259963707592 0 -0.16281661796253691 -0.35539722568946391 0 -0.1790581590132842 -0.37059729620768461 0 -0.1720072259963385 -0.34917169499735012 0 -0.16281661796253691 -0.35539722568946391 0 -0.1720072259963385 -0.34917169499735012 0 -0.1615009982149308 -0.34220808267132902 0 -0.16281661796253691 -0.35539722568946391 0 -0.1615009982149308 -0.34220808267132902 0 -0.1510091667887678 -0.34489202692691678 0 -0.1618920935193344 -0.37695807546404569 0 -0.16131514682397211 -0.36603898948522451 0 -0.1790581590132842 -0.37059729620768461 0 -0.16281661796253691 -0.35539722568946391 0 -0.16131514682397211 -0.36603898948522451 0 -0.1790581590132842 -0.37059729620768461 0 -0.16281661796253691 -0.35539722568946391 0 -0.16131514682397211 -0.36603898948522451 0 -0.15206969197185349 -0.35745997245893951 0 -0.1618920935193344 -0.37695807546404569 0 -0.1790581590132842 -0.37059729620768461 0 -0.1618920935193344 -0.37695807546404569 0 -0.16131514682397211 -0.36603898948522451 0 -0.15374510295613911 -0.3690748486040567 0 -0.1618920935193344 -0.37695807546404569 0 -0.16131514682397211 -0.36603898948522451 0 -0.1790581590132842 -0.37059729620768461 0 -0.1720072259963385 -0.34917169499735012 0 -0.1790581590132842 -0.37059729620768461 0 -0.18425590041250339 -0.35908775612159483 0 -0.1720072259963385 -0.34917169499735012 0 -0.19345177471769121 -0.36526383105057869 0 -0.1790581590132842 -0.37059729620768461 0 -0.19345177471769121 -0.36526383105057869 0 -0.18828253956779001 -0.37382960497414619 0 -0.1790581590132842 -0.37059729620768461 0 -0.19345177471769121 -0.36526383105057869 0 -0.1790581590132842 -0.37059729620768461 0 -0.18425590041250339 -0.35908775612159483 0 -0.19250644192269969 -0.35131820223076621 0 -0.18425590041250339 -0.35908775612159483 0 -0.1720072259963385 -0.34917169499735012 0 -0.19021212081985719 -0.33753015276935572 0 -0.19250644192269969 -0.35131820223076621 0 -0.1720072259963385 -0.34917169499735012 0 -0.19021212081985719 -0.33753015276935572 0 -0.1720072259963385 -0.34917169499735012 0 -0.17641950724111441 -0.33564459064661561 0 -0.19021212081985719 -0.33753015276935572 0 -0.17405874039115179 -0.32192532267301871 0 -0.19021212081985719 -0.33753015276935572 0 -0.17641950724111441 -0.33564459064661561 0 -0.17405874039115179 -0.32192532267301871 0 -0.18950534819072429 -0.33396065362038158 0 -0.19021212081985719 -0.33753015276935572 0 -0.17405874039115179 -0.32192532267301871 0 -0.19082519210440871 -0.31556278723220221 0 -0.18356306958159291 -0.30455935928388977 0 -0.17405874039115179 -0.32192532267301871 0 -0.19032302278043481 -0.32445880840256619 0 -0.18950534819072429 -0.33396065362038158 0 -0.17405874039115179 -0.32192532267301871 0 -0.19032302278043481 -0.32445880840256619 0 -0.19082519210440871 -0.31556278723220221 0 -0.17405874039115179 -0.32192532267301871 0 -0.15790535996244659 -0.30632049257668131 0 -0.15265701100472931 -0.30952732857734833 0 -0.1633358618818172 -0.32282210565636182 0 -0.15790535996244659 -0.30632049257668131 0 -0.17405874039115179 -0.32192532267301871 0 -0.1633358618818172 -0.32282210565636182 0 -0.15790535996244659 -0.30632049257668131 0 -0.1633358618818172 -0.32282210565636182 0 -0.15790535996244659 -0.30632049257668131 0 -0.17405874039115179 -0.32192532267301871 0 -0.17405874039115179 -0.32192532267301871 0 -0.16495629297939279 -0.32774609378701558 0 -0.1633358618818172 -0.32282210565636182 0 -0.16495629297939279 -0.32774609378701558 0 -0.1633358618818172 -0.32282210565636182 0 -0.16495629297939279 -0.32774609378701558 0 -0.15872781906657291 -0.32622897825668062 0 -0.1633358618818172 -0.32282210565636182 0 -0.15872781906657291 -0.32622897825668062 0 -0.1633358618818172 -0.32282210565636182 0 -0.15582880586183739 -0.32081568570415858 0 -0.15265701100472931 -0.30952732857734833 0 -0.1633358618818172 -0.32282210565636182 0 -0.15265701100472931 -0.30952732857734833 0 -0.1633358618818172 -0.32282210565636182 0 -0.15582880586183739 -0.32081568570415858 0 -0.1720072259963385 -0.34917169499735012 0 -0.16495629297939279 -0.32774609378701558 0 -0.1720072259963385 -0.34917169499735012 0 -0.17641950724111441 -0.33564459064661561 0 -0.16495629297939279 -0.32774609378701558 0 -0.1720072259963385 -0.34917169499735012 0 -0.16495629297939279 -0.32774609378701558 0 -0.1615009982149308 -0.34220808267132902 0 -0.17641950724111441 -0.33564459064661561 0 -0.17405874039115179 -0.32192532267301871 0 -0.16495629297939279 -0.32774609378701558 0 -0.16495629297939279 -0.32774609378701558 0 -0.15671568734761779 -0.33383337195589857 0 -0.1615009982149308 -0.34220808267132902 0 -0.16495629297939279 -0.32774609378701558 0 -0.15872781906657291 -0.32622897825668062 0 -0.15671568734761779 -0.33383337195589857 0 -0.15671568734761779 -0.33383337195589857 0 -0.1615009982149308 -0.34220808267132902 0 -0.1510091667887678 -0.34489202692691678 0 -0.14849538255540259 -0.33052658757592812 0 -0.13094618022245241 -0.34794566054896509 0 -0.1510091667887678 -0.34489202692691678 0 -0.15671568734761779 -0.33383337195589857 0 -0.14849538255540259 -0.33052658757592812 0 -0.1510091667887678 -0.34489202692691678 0 -0.14849538255540259 -0.33052658757592812 0 -0.1510091667887678 -0.34489202692691678 0 -0.15872781906657291 -0.32622897825668062 0 -0.15671568734761779 -0.33383337195589857 0 -0.1532905077829215 -0.32576701875517572 0 -0.15671568734761779 -0.33383337195589857 0 -0.14849538255540259 -0.33052658757592812 0 -0.1532905077829215 -0.32576701875517572 0 -0.14849538255540259 -0.33052658757592812 0 -0.1532905077829215 -0.32576701875517572 0 -0.14849538255540259 -0.33052658757592812 0 -0.1454808016018832 -0.31329926182473522 0 -0.1334649693606966 -0.31853463814844019 0 -0.14849538255540259 -0.33052658757592812 0 -0.1454808016018832 -0.31329926182473522 0 -0.14849538255540259 -0.33052658757592812 0 -0.15168433378490809 -0.31938335377569488 0 -0.1454808016018832 -0.31329926182473522 0 -0.15265701100472931 -0.30952732857734833 0 -0.15168433378490809 -0.31938335377569488 0 -0.1454808016018832 -0.31329926182473522 0 -0.15265701100472931 -0.30952732857734833 0 -0.15168433378490809 -0.31938335377569488 0 -0.15582880586183739 -0.32081568570415858 0 -0.14849538255540259 -0.33052658757592812 0 -0.15168433378490809 -0.31938335377569488 0 -0.1532905077829215 -0.32576701875517572 0 -0.15168433378490809 -0.31938335377569488 0 -0.15582880586183739 -0.32081568570415858 0 -0.1532905077829215 -0.32576701875517572 0 -0.15872781906657291 -0.32622897825668062 0 -0.15582880586183739 -0.32081568570415858 0 -0.1532905077829215 -0.32576701875517572 0 -0.14849538255540259 -0.33052658757592812 0 -0.1334649693606966 -0.31853463814844019 0 -0.13030744834307009 -0.33357701383071509 0 -0.1334649693606966 -0.31853463814844019 0 -0.13030744834307009 -0.33357701383071509 0 -0.11492826156001661 -0.3230601520749804 0 -0.13661570049243671 -0.30597312993991732 0 -0.1454808016018832 -0.31329926182473522 0 -0.1334649693606966 -0.31853463814844019 0 -0.14849538255540259 -0.33052658757592812 0 -0.13030744834307009 -0.33357701383071509 0 -0.13094618022245241 -0.34794566054896509 0 -0.14849538255540259 -0.33052658757592812 0 -0.13094618022245241 -0.34794566054896509 0 -0.13030744834307009 -0.33357701383071509 0 -0.12800395075822521 -0.34112455419561988 0 -0.126005945601629 -0.3402704904403569 0 -0.13030744834307009 -0.33357701383071509 0 -0.12800395075822521 -0.34112455419561988 0 -0.13094618022245241 -0.34794566054896509 0 -0.12800395075822521 -0.34112455419561988 0 -0.126005945601629 -0.3402704904403569 0 -0.13094618022245241 -0.34794566054896509 0 -0.12800395075822521 -0.34112455419561988 0 -0.126005945601629 -0.3402704904403569 0 -0.126005945601629 -0.3402704904403569 0 -0.13094618022245241 -0.34794566054896509 0 -0.126005945601629 -0.3402704904403569 0 -0.13094618022245241 -0.34794566054896509 0 -0.11895024196642449 -0.35023950838297491 0 -0.13094618022245241 -0.34794566054896509 0 -0.1414649208959958 -0.36428762205367582 0 -0.1293823480921395 -0.36303729140857599 0 -0.13094618022245241 -0.34794566054896509 0 -0.1414649208959958 -0.36428762205367582 0 -0.13094618022245241 -0.34794566054896509 0 -0.1293823480921395 -0.36303729140857599 0 -0.1161196256425553 -0.36266227451614302 0 -0.13094618022245241 -0.34794566054896509 0 -0.15206969197185349 -0.35745997245893951 0 -0.1510091667887678 -0.34489202692691678 0 -0.13094618022245241 -0.34794566054896509 0 -0.15206969197185349 -0.35745997245893951 0 -0.1414649208959958 -0.36428762205367582 0 -0.16281661796253691 -0.35539722568946391 0 -0.15206969197185349 -0.35745997245893951 0 -0.1510091667887678 -0.34489202692691678 0 -0.15198366156953599 -0.38062958355838827 0 -0.15374510295613911 -0.3690748486040567 0 -0.1414649208959958 -0.36428762205367582 0 -0.15198366156953599 -0.38062958355838827 0 -0.1414649208959958 -0.36428762205367582 0 -0.1362033473939914 -0.37463855093960768 0 -0.15198366156953599 -0.38062958355838827 0 -0.1414649208959958 -0.36428762205367582 0 -0.16131514682397211 -0.36603898948522451 0 -0.15206969197185349 -0.35745997245893951 0 -0.15374510295613911 -0.3690748486040567 0 -0.15206969197185349 -0.35745997245893951 0 -0.15374510295613911 -0.3690748486040567 0 -0.1414649208959958 -0.36428762205367582 0 -0.1414649208959958 -0.36428762205367582 0 -0.1362033473939914 -0.37463855093960768 0 -0.1293823480921395 -0.36303729140857599 0 -0.1362033473939914 -0.37463855093960768 0 -0.1293823480921395 -0.36303729140857599 0 -0.124637618436105 -0.37193900756582993 0 -0.124637618436105 -0.37193900756582993 0 -0.1161196256425553 -0.36266227451614302 0 -0.11543022892260819 -0.3801524743958693 0 -0.1161196256425553 -0.36266227451614302 0 -0.11543022892260819 -0.3801524743958693 0 -0.1012930710626585 -0.37737888848332102 0 -0.1293823480921395 -0.36303729140857599 0 -0.124637618436105 -0.37193900756582993 0 -0.1161196256425553 -0.36266227451614302 0 -0.1161196256425553 -0.36266227451614302 0 -0.10404993628365949 -0.36892005722734639 0 -0.1012930710626585 -0.37737888848332102 0 -0.1161196256425553 -0.36266227451614302 0 -0.1012930710626585 -0.37737888848332102 0 -0.10404993628365949 -0.36892005722734639 0 -0.1012930710626585 -0.37737888848332102 0 -0.1161196256425553 -0.36266227451614302 0 -0.10404993628365949 -0.36892005722734639 0 -0.1059595742542252 -0.35865462068421528 0 -0.10404993628365949 -0.36892005722734639 0 -0.095731209196540851 -0.359639445815084 0 -0.1059595742542252 -0.35865462068421528 0 -0.10404993628365949 -0.36892005722734639 0 -0.095731209196540851 -0.359639445815084 0 -0.095292941750957982 -0.37020226778013038 0 -0.095292941750957982 -0.37020226778013038 0 -0.1012930710626585 -0.37737888848332102 0 -0.090162431072165455 -0.37735788721946129 0 -0.10404993628365949 -0.36892005722734639 0 -0.095292941750957982 -0.37020226778013038 0 -0.1012930710626585 -0.37737888848332102 0 -0.1015679041752303 -0.35035454488016587 0 -0.1022901706984298 -0.33987493723823209 0 -0.093425027440878175 -0.34620759173678489 0 -0.095731209196540851 -0.359639445815084 0 -0.1059595742542252 -0.35865462068421528 0 -0.1015679041752303 -0.35035454488016587 0 -0.095731209196540851 -0.359639445815084 0 -0.1015679041752303 -0.35035454488016587 0 -0.093425027440878175 -0.34620759173678489 0 -0.1059595742542252 -0.35865462068421528 0 -0.1015679041752303 -0.35035454488016587 0 -0.1103629695852781 -0.34873773512027467 0 -0.1015679041752303 -0.35035454488016587 0 -0.1103629695852781 -0.34873773512027467 0 -0.1022901706984298 -0.33987493723823209 0 -0.11683586613561341 -0.34485690871031199 0 -0.1103629695852781 -0.34873773512027467 0 -0.11895024196642449 -0.35023950838297491 0 -0.11683586613561341 -0.34485690871031199 0 -0.1103629695852781 -0.34873773512027467 0 -0.1120243073891227 -0.34017990089764111 0 -0.1161196256425553 -0.36266227451614302 0 -0.1059595742542252 -0.35865462068421528 0 -0.1103629695852781 -0.34873773512027467 0 -0.1161196256425553 -0.36266227451614302 0 -0.1103629695852781 -0.34873773512027467 0 -0.11895024196642449 -0.35023950838297491 0 -0.13094618022245241 -0.34794566054896509 0 -0.1161196256425553 -0.36266227451614302 0 -0.13094618022245241 -0.34794566054896509 0 -0.1161196256425553 -0.36266227451614302 0 -0.11895024196642449 -0.35023950838297491 0 -0.126005945601629 -0.3402704904403569 0 -0.11683586613561341 -0.34485690871031199 0 -0.11895024196642449 -0.35023950838297491 0 -0.126005945601629 -0.3402704904403569 0 -0.1120891993765115 -0.32809596922899981 0 -0.1022972824554781 -0.33013602716730672 0 -0.126005945601629 -0.3402704904403569 0 -0.1120243073891227 -0.34017990089764111 0 -0.1022972824554781 -0.33013602716730672 0 -0.126005945601629 -0.3402704904403569 0 -0.1120891993765115 -0.32809596922899981 0 -0.11492826156001661 -0.3230601520749804 0 -0.126005945601629 -0.3402704904403569 0 -0.11683586613561341 -0.34485690871031199 0 -0.1120243073891227 -0.34017990089764111 0 -0.126005945601629 -0.3402704904403569 0 -0.1022972824554781 -0.33013602716730672 0 -0.13030744834307009 -0.33357701383071509 0 -0.126005945601629 -0.3402704904403569 0 -0.11492826156001661 -0.3230601520749804 0 -0.126005945601629 -0.3402704904403569 0 -0.11492826156001661 -0.3230601520749804 0 -0.1251651200017854 -0.30490241405716911 0 -0.1334649693606966 -0.31853463814844019 0 -0.11492826156001661 -0.3230601520749804 0 -0.1251651200017854 -0.30490241405716911 0 -0.11492826156001661 -0.3230601520749804 0 -0.1120891993765115 -0.32809596922899981 0 -0.11492826156001661 -0.3230601520749804 0 -0.1022972824554781 -0.33013602716730672 0 -0.1120891993765115 -0.32809596922899981 0 -0.11492826156001661 -0.3230601520749804 0 -0.11492826156001661 -0.3230601520749804 0 -0.1022972824554781 -0.33013602716730672 0 -0.093622072997313843 -0.31433718824520301 0 -0.1120243073891227 -0.34017990089764111 0 -0.1022901706984298 -0.33987493723823209 0 -0.1022972824554781 -0.33013602716730672 0 -0.1103629695852781 -0.34873773512027467 0 -0.1120243073891227 -0.34017990089764111 0 -0.1022901706984298 -0.33987493723823209 0 -0.1022901706984298 -0.33987493723823209 0 -0.1022972824554781 -0.33013602716730672 0 -0.092042774099817468 -0.33516912048648578 0 -0.1022901706984298 -0.33987493723823209 0 -0.092042774099817468 -0.33516912048648578 0 -0.093425027440878175 -0.34620759173678489 0 -0.1022972824554781 -0.33013602716730672 0 -0.092042774099817468 -0.33516912048648578 0 -0.078588619309326826 -0.32000156389425732 0 -0.092042774099817468 -0.33516912048648578 0 -0.083612770594974378 -0.33962548239584789 0 -0.093425027440878175 -0.34620759173678489 0 -0.092042774099817468 -0.33516912048648578 0 -0.083612770594974378 -0.33962548239584789 0 -0.078588619309326826 -0.32000156389425732 0 -0.1022972824554781 -0.33013602716730672 0 -0.078588619309326826 -0.32000156389425732 0 -0.093622072997313843 -0.31433718824520301 0 -0.1022972824554781 -0.33013602716730672 0 -0.078588619309326826 -0.32000156389425732 0 -0.078588619309326826 -0.32000156389425732 0 -0.054879956163175557 -0.30986710062120781 0 -0.078588619309326826 -0.32000156389425732 0 -0.054879956163175557 -0.30986710062120781 0 -0.059483901497952379 -0.32698302524107092 0 -0.078588619309326826 -0.32000156389425732 0 -0.068237726117390221 -0.34373842076953048 0 -0.059483901497952379 -0.32698302524107092 0 -0.083612770594974378 -0.33962548239584789 0 -0.078588619309326826 -0.32000156389425732 0 -0.068237726117390221 -0.34373842076953048 0 -0.068237726117390221 -0.34373842076953048 0 -0.071671574020882062 -0.36160118749012038 0 -0.055599403245214583 -0.35624379398923711 0 -0.068237726117390221 -0.34373842076953048 0 -0.071671574020882062 -0.36160118749012038 0 -0.082943256896137157 -0.35275141867203041 0 -0.071671574020882062 -0.36160118749012038 0 -0.061822482576446007 -0.36762588083317782 0 -0.074914903297416305 -0.38085811531046182 0 -0.071671574020882062 -0.36160118749012038 0 -0.085228061139765443 -0.36771506015543942 0 -0.074914903297416305 -0.38085811531046182 0 -0.071671574020882062 -0.36160118749012038 0 -0.061822482576446007 -0.36762588083317782 0 -0.055599403245214583 -0.35624379398923711 0 -0.071671574020882062 -0.36160118749012038 0 -0.085228061139765443 -0.36771506015543942 0 -0.082943256896137157 -0.35275141867203041 0 -0.095292941750957982 -0.37020226778013038 0 -0.085228061139765443 -0.36771506015543942 0 -0.090162431072165455 -0.37735788721946129 0 -0.095731209196540851 -0.359639445815084 0 -0.085228061139765443 -0.36771506015543942 0 -0.082943256896137157 -0.35275141867203041 0 -0.095731209196540851 -0.359639445815084 0 -0.095292941750957982 -0.37020226778013038 0 -0.085228061139765443 -0.36771506015543942 0 -0.095731209196540851 -0.359639445815084 0 -0.093425027440878175 -0.34620759173678489 0 -0.082943256896137157 -0.35275141867203041 0 -0.083612770594974378 -0.33962548239584789 0 -0.093425027440878175 -0.34620759173678489 0 -0.082943256896137157 -0.35275141867203041 0 -0.083612770594974378 -0.33962548239584789 0 -0.068237726117390221 -0.34373842076953048 0 -0.082943256896137157 -0.35275141867203041 0 -0.098963799053631313 -0.2518750100948739 0 -0.096201921425410786 -0.2628708585136374 0 -0.088959221645703759 -0.24720496961205471 0 -0.096201921425410786 -0.2628708585136374 0 -0.10997244854415909 -0.25316884001306722 0 -0.096201921425410786 -0.2628708585136374 0 -0.10997244854415909 -0.25316884001306722 0 -0.1089599520838139 -0.26872554931611431 0 -0.098963799053631313 -0.2518750100948739 0 -0.096201921425410786 -0.2628708585136374 0 -0.10997244854415909 -0.25316884001306722 0 -0.10997244854415909 -0.25316884001306722 0 -0.1226872134938564 -0.26995675802621272 0 -0.1258446824533215 -0.25577711636975708 0 -0.10997244854415909 -0.25316884001306722 0 -0.1226872134938564 -0.26995675802621272 0 -0.10997244854415909 -0.25316884001306722 0 -0.1226872134938564 -0.26995675802621272 0 -0.1089599520838139 -0.26872554931611431 0 -0.1226872134938564 -0.26995675802621272 0 -0.1089599520838139 -0.26872554931611431 0 -0.1149049095260085 -0.28443035214133672 0 -0.1354019784435542 -0.28674467603935783 0 -0.1226872134938564 -0.26995675802621272 0 -0.1149049095260085 -0.28443035214133672 0 -0.1089599520838139 -0.26872554931611431 0 -0.10030811618001 -0.27691211281328182 0 -0.1149049095260085 -0.28443035214133672 0 -0.096201921425410786 -0.2628708585136374 0 -0.1089599520838139 -0.26872554931611431 0 -0.10030811618001 -0.27691211281328182 0 -0.10030811618001 -0.27691211281328182 0 -0.098679827933339598 -0.29781651454459201 0 -0.08243139430666066 -0.27257287701420502 0 -0.10030811618001 -0.27691211281328182 0 -0.1149049095260085 -0.28443035214133672 0 -0.098679827933339598 -0.29781651454459201 0 -0.1251651200017854 -0.30490241405716911 0 -0.1149049095260085 -0.28443035214133672 0 -0.098679827933339598 -0.29781651454459201 0 -0.1251651200017854 -0.30490241405716911 0 -0.11492826156001661 -0.3230601520749804 0 -0.098679827933339598 -0.29781651454459201 0 -0.11492826156001661 -0.3230601520749804 0 -0.098679827933339598 -0.29781651454459201 0 -0.11492826156001661 -0.3230601520749804 0 -0.093622072997313843 -0.31433718824520301 0 -0.098679827933339598 -0.29781651454459201 0 -0.078588619309326826 -0.32000156389425732 0 -0.093622072997313843 -0.31433718824520301 0 -0.073616373728405904 -0.30067168354487989 0 -0.093622072997313843 -0.31433718824520301 0 -0.098679827933339598 -0.29781651454459201 0 -0.073616373728405904 -0.30067168354487989 0 -0.078588619309326826 -0.32000156389425732 0 -0.073616373728405904 -0.30067168354487989 0 -0.054879956163175557 -0.30986710062120781 0 -0.073616373728405904 -0.30067168354487989 0 -0.065898394038120867 -0.2842211946924057 0 -0.049365393769577701 -0.29586951237060161 0 -0.073616373728405904 -0.30067168354487989 0 -0.065898394038120867 -0.2842211946924057 0 -0.08243139430666066 -0.27257287701420502 0 -0.098679827933339598 -0.29781651454459201 0 -0.073616373728405904 -0.30067168354487989 0 -0.08243139430666066 -0.27257287701420502 0 -0.098679827933339598 -0.29781651454459201 0 -0.08243139430666066 -0.27257287701420502 0 -0.096201921425410786 -0.2628708585136374 0 -0.10030811618001 -0.27691211281328182 0 -0.08243139430666066 -0.27257287701420502 0 -0.096201921425410786 -0.2628708585136374 0 -0.08243139430666066 -0.27257287701420502 0 -0.065898394038120867 -0.2842211946924057 0 -0.08243139430666066 -0.27257287701420502 0 -0.065898394038120867 -0.2842211946924057 0 -0.08243139430666066 -0.27257287701420502 0 -0.064577005006520444 -0.26718086082649828 0 -0.08243139430666066 -0.27257287701420502 0 -0.064577005006520444 -0.26718086082649828 0 -0.068646348458450399 -0.2511563695078689 0 -0.08243139430666066 -0.27257287701420502 0 -0.068646348458450399 -0.2511563695078689 0 -0.096201921425410786 -0.2628708585136374 0 -0.08243139430666066 -0.27257287701420502 0 -0.088959221645703759 -0.24720496961205471 0 -0.08243139430666066 -0.27257287701420502 0 -0.068646348458450399 -0.2511563695078689 0 -0.088959221645703759 -0.24720496961205471 0 -0.031281501368758707 -0.26733754267058168 0 -0.029623475595277459 -0.23731651944019039 0 -0.047143118815789628 -0.24985250916153681 0 -0.049152117391608532 -0.2759395917337949 0 -0.031281501368758707 -0.26733754267058168 0 -0.047143118815789628 -0.24985250916153681 0 -0.064577005006520444 -0.26718086082649828 0 -0.049152117391608532 -0.2759395917337949 0 -0.047143118815789628 -0.24985250916153681 0 -0.064577005006520444 -0.26718086082649828 0 -0.068646348458450399 -0.2511563695078689 0 -0.047143118815789628 -0.24985250916153681 0 -0.065898394038120867 -0.2842211946924057 0 -0.064577005006520444 -0.26718086082649828 0 -0.049152117391608532 -0.2759395917337949 0 -0.049152117391608532 -0.2759395917337949 0 -0.031281501368758707 -0.26733754267058168 0 -0.040684634918046227 -0.28412630316898779 0 -0.031281501368758707 -0.26733754267058168 0 -0.03293952714223998 -0.29735856590097309 0 -0.040684634918046227 -0.28412630316898779 0 -0.049365393769577701 -0.29586951237060161 0 -0.03293952714223998 -0.29735856590097309 0 -0.031281501368758707 -0.26733754267058168 0 -0.040684634918046227 -0.28412630316898779 0 -0.03293952714223998 -0.29735856590097309 0 -0.049152117391608532 -0.2759395917337949 0 -0.040684634918046227 -0.28412630316898779 0 -0.049365393769577701 -0.29586951237060161 0 -0.065898394038120867 -0.2842211946924057 0 -0.049365393769577701 -0.29586951237060161 0 -0.065898394038120867 -0.2842211946924057 0 -0.049152117391608532 -0.2759395917337949 0 -0.049365393769577701 -0.29586951237060161 0 -0.073616373728405904 -0.30067168354487989 0 -0.049365393769577701 -0.29586951237060161 0 -0.054879956163175557 -0.30986710062120781 0 -0.049365393769577701 -0.29586951237060161 0 -0.054879956163175557 -0.30986710062120781 0 -0.042992513699816902 -0.31053530996368528 0 -0.049365393769577701 -0.29586951237060161 0 -0.032832393501034507 -0.30751783004879751 0 -0.049365393769577701 -0.29586951237060161 0 -0.042992513699816902 -0.31053530996368528 0 -0.032832393501034507 -0.30751783004879751 0 -0.049365393769577701 -0.29586951237060161 0 -0.03293952714223998 -0.29735856590097309 0 -0.032832393501034507 -0.30751783004879751 0 -0.042992513699816902 -0.31053530996368528 0 -0.032832393501034507 -0.30751783004879751 0 -0.034481619090376461 -0.31678981580413113 0 -0.032832393501034507 -0.30751783004879751 0 -0.024473460481876361 -0.31024664048062028 0 -0.020295446390208801 -0.30177575600068163 0 -0.032832393501034507 -0.30751783004879751 0 -0.024473460481876361 -0.31024664048062028 0 -0.034481619090376461 -0.31678981580413113 0 -0.03293952714223998 -0.29735856590097309 0 -0.032832393501034507 -0.30751783004879751 0 -0.020295446390208801 -0.30177575600068163 0 -0.024473460481876361 -0.31024664048062028 0 -0.020295446390208801 -0.30177575600068163 0 -0.016050288004153621 -0.3127701961075342 0 -0.0064867905280374507 -0.30485728301885628 0 -0.0053582218815532608 -0.32008932611812541 0 0.01075476764413975 -0.30850246277364701 0 -0.020295446390208801 -0.30177575600068163 0 -0.0064867905280374507 -0.30485728301885628 0 -0.016050288004153621 -0.3127701961075342 0 -0.020295446390208801 -0.30177575600068163 0 -0.0064867905280374507 -0.30485728301885628 0 -0.0082532841383242735 -0.29006437894900672 0 -0.0082532841383242735 -0.29006437894900672 0 -0.01838686125895889 -0.28602811835262931 0 -0.01140398572726067 -0.27317224332409018 0 -0.0082532841383242735 -0.29006437894900672 0 -0.0002561390762269919 -0.28264639703223943 0 -0.01140398572726067 -0.27317224332409018 0 -0.0082532841383242735 -0.29006437894900672 0 -0.0002561390762269919 -0.28264639703223943 0 0.0039663261745269971 -0.29451927062814087 0 -0.0064867905280374507 -0.30485728301885628 0 -0.0082532841383242735 -0.29006437894900672 0 0.0039663261745269971 -0.29451927062814087 0 -0.020295446390208801 -0.30177575600068163 0 -0.0082532841383242735 -0.29006437894900672 0 -0.01838686125895889 -0.28602811835262931 0 -0.031281501368758707 -0.26733754267058168 0 -0.03293952714223998 -0.29735856590097309 0 -0.01838686125895889 -0.28602811835262931 0 -0.03293952714223998 -0.29735856590097309 0 -0.020295446390208801 -0.30177575600068163 0 -0.01838686125895889 -0.28602811835262931 0 -0.031281501368758707 -0.26733754267058168 0 -0.01838686125895889 -0.28602811835262931 0 -0.01140398572726067 -0.27317224332409018 0 -0.0002561390762269919 -0.28264639703223943 0 -0.01140398572726067 -0.27317224332409018 0 0.0058517119539637039 -0.26526726738753448 0 -0.01140398572726067 -0.27317224332409018 0 -0.01345876105598715 -0.25444116325841148 0 0.0058517119539637039 -0.26526726738753448 0 -0.01345876105598715 -0.25444116325841148 0 0.0058517119539637039 -0.26526726738753448 0 5.5069077789237038e-05 -0.24501837689693201 0 -0.031281501368758707 -0.26733754267058168 0 -0.029623475595277459 -0.23731651944019039 0 -0.031281501368758707 -0.26733754267058168 0 -0.01345876105598715 -0.25444116325841148 0 -0.029623475595277459 -0.23731651944019039 0 -0.031281501368758707 -0.26733754267058168 0 -0.01140398572726067 -0.27317224332409018 0 -0.01345876105598715 -0.25444116325841148 0 -0.040354324043246653 -0.35256039477031742 0 -0.039465371357244289 -0.33992987205695868 0 -0.023613264795486869 -0.34228689158518122 0 -0.040354324043246653 -0.35256039477031742 0 -0.023613264795486869 -0.34228689158518122 0 -0.03094593681299064 -0.35905239960447172 0 -0.040354324043246653 -0.35256039477031742 0 -0.040548714460659878 -0.36465147268138781 0 -0.055599403245214583 -0.35624379398923711 0 -0.040354324043246653 -0.35256039477031742 0 -0.040548714460659878 -0.36465147268138781 0 -0.03094593681299064 -0.35905239960447172 0 -0.040548714460659878 -0.36465147268138781 0 -0.03094593681299064 -0.35905239960447172 0 -0.029061128638525599 -0.36957331579543362 0 -0.040548714460659878 -0.36465147268138781 0 -0.029061128638525599 -0.36957331579543362 0 -0.038063688375411138 -0.37739820102706401 0 -0.040548714460659878 -0.36465147268138781 0 -0.050845379742812197 -0.3707774888992022 0 -0.038063688375411138 -0.37739820102706401 0 -0.040548714460659878 -0.36465147268138781 0 -0.050845379742812197 -0.3707774888992022 0 -0.055599403245214583 -0.35624379398923711 0 -0.050845379742812197 -0.3707774888992022 0 -0.061822482576446007 -0.36762588083317782 0 -0.058563032805587077 -0.37806779136773111 0 -0.050845379742812197 -0.3707774888992022 0 -0.061822482576446007 -0.36762588083317782 0 -0.055599403245214583 -0.35624379398923711 0 -0.040354324043246653 -0.35256039477031742 0 -0.055599403245214583 -0.35624379398923711 0 -0.052309999924949002 -0.33867574994667082 0 -0.068237726117390221 -0.34373842076953048 0 -0.055599403245214583 -0.35624379398923711 0 -0.052309999924949002 -0.33867574994667082 0 -0.052309999924949002 -0.33867574994667082 0 -0.059483901497952379 -0.32698302524107092 0 -0.043403205974920277 -0.32263229097368817 0 -0.068237726117390221 -0.34373842076953048 0 -0.052309999924949002 -0.33867574994667082 0 -0.059483901497952379 -0.32698302524107092 0 -0.054879956163175557 -0.30986710062120781 0 -0.059483901497952379 -0.32698302524107092 0 -0.043403205974920277 -0.32263229097368817 0 -0.054879956163175557 -0.30986710062120781 0 -0.042992513699816902 -0.31053530996368528 0 -0.043403205974920277 -0.32263229097368817 0 -0.042992513699816902 -0.31053530996368528 0 -0.043403205974920277 -0.32263229097368817 0 -0.034481619090376461 -0.31678981580413113 0 -0.043403205974920277 -0.32263229097368817 0 -0.034481619090376461 -0.31678981580413113 0 -0.03237714516534964 -0.33143329138507571 0 -0.039465371357244289 -0.33992987205695868 0 -0.03237714516534964 -0.33143329138507571 0 -0.023613264795486869 -0.34228689158518122 0 -0.043403205974920277 -0.32263229097368817 0 -0.039465371357244289 -0.33992987205695868 0 -0.03237714516534964 -0.33143329138507571 0 -0.052309999924949002 -0.33867574994667082 0 -0.043403205974920277 -0.32263229097368817 0 -0.039465371357244289 -0.33992987205695868 0 -0.040354324043246653 -0.35256039477031742 0 -0.052309999924949002 -0.33867574994667082 0 -0.039465371357244289 -0.33992987205695868 0 -0.01621559596952115 -0.32897142822662939 0 -0.023613264795486869 -0.34228689158518122 0 -0.02541695492467223 -0.31934354414807398 0 -0.023613264795486869 -0.34228689158518122 0 -0.02541695492467223 -0.31934354414807398 0 -0.01621559596952115 -0.32897142822662939 0 -0.023613264795486869 -0.34228689158518122 0 -0.0074884072069438734 -0.33725145532869172 0 -0.03237714516534964 -0.33143329138507571 0 -0.023613264795486869 -0.34228689158518122 0 -0.02541695492467223 -0.31934354414807398 0 -0.01621559596952115 -0.32897142822662939 0 -0.02541695492467223 -0.31934354414807398 0 -0.016050288004153621 -0.3127701961075342 0 -0.024473460481876361 -0.31024664048062028 0 -0.034481619090376461 -0.31678981580413113 0 -0.02541695492467223 -0.31934354414807398 0 -0.034481619090376461 -0.31678981580413113 0 -0.03237714516534964 -0.33143329138507571 0 -0.02541695492467223 -0.31934354414807398 0 -0.024473460481876361 -0.31024664048062028 0 -0.02541695492467223 -0.31934354414807398 0 -0.016050288004153621 -0.3127701961075342 0 -0.01621559596952115 -0.32897142822662939 0 -0.016050288004153621 -0.3127701961075342 0 -0.0053582218815532608 -0.32008932611812541 0 -0.0064867905280374507 -0.30485728301885628 0 -0.016050288004153621 -0.3127701961075342 0 -0.0053582218815532608 -0.32008932611812541 0 -0.023613264795486869 -0.34228689158518122 0 -0.0074884072069438734 -0.33725145532869172 0 -0.01116863029271622 -0.35163608661380619 0 -0.0053582218815532608 -0.32008932611812541 0 -0.0074884072069438734 -0.33725145532869172 0 0.011039760448805209 -0.33149773469279481 0 -0.01621559596952115 -0.32897142822662939 0 -0.0053582218815532608 -0.32008932611812541 0 -0.0074884072069438734 -0.33725145532869172 0 -0.0074884072069438734 -0.33725145532869172 0 -0.01116863029271622 -0.35163608661380619 0 0.0024485211723043812 -0.34984543908587851 0 -0.01116863029271622 -0.35163608661380619 0 -0.0053804259671532207 -0.36356640804699097 0 0.0024485211723043812 -0.34984543908587851 0 -0.023613264795486869 -0.34228689158518122 0 -0.03094593681299064 -0.35905239960447172 0 -0.021809574666301509 -0.36523023902228863 0 -0.023613264795486869 -0.34228689158518122 0 -0.01116863029271622 -0.35163608661380619 0 -0.021809574666301509 -0.36523023902228863 0 -0.023613264795486869 -0.34228689158518122 0 -0.021809574666301509 -0.36523023902228863 0 -0.029061128638525599 -0.36957331579543362 0 -0.021809574666301509 -0.36523023902228863 0 -0.02000588453711399 -0.38817358645939581 0 -0.03094593681299064 -0.35905239960447172 0 -0.029061128638525599 -0.36957331579543362 0 -0.021809574666301509 -0.36523023902228863 0 -0.021809574666301509 -0.36523023902228863 0 -0.0053804259671532207 -0.36356640804699097 0 -0.0094052779035650076 -0.37697473586917452 0 -0.01116863029271622 -0.35163608661380619 0 -0.021809574666301509 -0.36523023902228863 0 -0.0053804259671532207 -0.36356640804699097 0 -0.0053804259671532207 -0.36356640804699097 0 -0.0094052779035650076 -0.37697473586917452 0 0.0042626220530392351 -0.37695717118284638 0 -0.0048272621547900702 -0.38887262676377188 0 -0.0094052779035650076 -0.37697473586917452 0 0.0042626220530392351 -0.37695717118284638 0 -0.0048272621547900702 -0.38887262676377188 0 -0.0094052779035650076 -0.37697473586917452 0 -0.02000588453711399 -0.38817358645939581 0 -0.0048272621547900702 -0.38887262676377188 0 -0.01172577304865581 -0.40518166631767438 0 0.01273800266234317 -0.39707597398976979 0 -0.0048272621547900702 -0.38887262676377188 0 -0.01172577304865581 -0.40518166631767438 0 -0.02000588453711399 -0.38817358645939581 0 -0.03105991898357487 -0.40368511596760259 0 -0.02000588453711399 -0.38817358645939581 0 -0.040272455194024427 -0.38911981609689827 0 -0.03105991898357487 -0.40368511596760259 0 -0.02000588453711399 -0.38817358645939581 0 -0.017913880166028261 -0.4147843564298978 0 -0.01172577304865581 -0.40518166631767438 0 -0.02000588453711399 -0.38817358645939581 0 -0.017913880166028261 -0.4147843564298978 0 -0.01172577304865581 -0.40518166631767438 0 -0.02000588453711399 -0.38817358645939581 0 -0.02000588453711399 -0.38817358645939581 0 -0.017913880166028261 -0.4147843564298978 0 -0.021809574666301509 -0.36523023902228863 0 -0.0094052779035650076 -0.37697473586917452 0 -0.02000588453711399 -0.38817358645939581 0 -0.029061128638525599 -0.36957331579543362 0 -0.02000588453711399 -0.38817358645939581 0 -0.038063688375411138 -0.37739820102706401 0 -0.021809574666301509 -0.36523023902228863 0 -0.02000588453711399 -0.38817358645939581 0 -0.029061128638525599 -0.36957331579543362 0 -0.02000588453711399 -0.38817358645939581 0 -0.02000588453711399 -0.38817358645939581 0 -0.038063688375411138 -0.37739820102706401 0 -0.040272455194024427 -0.38911981609689827 0 -0.038063688375411138 -0.37739820102706401 0 -0.040272455194024427 -0.38911981609689827 0 -0.048928918940979768 -0.38120848527438661 0 -0.050845379742812197 -0.3707774888992022 0 -0.038063688375411138 -0.37739820102706401 0 -0.048928918940979768 -0.38120848527438661 0 -0.03105991898357487 -0.40368511596760259 0 -0.040272455194024427 -0.38911981609689827 0 -0.046985261843769617 -0.4041424128789276 0 -0.040272455194024427 -0.38911981609689827 0 -0.046985261843769617 -0.4041424128789276 0 -0.046985261843769617 -0.4041424128789276 0 -0.056900038587063953 -0.39067912898103713 0 -0.040272455194024427 -0.38911981609689827 0 -0.046985261843769617 -0.4041424128789276 0 -0.056900038587063953 -0.39067912898103713 0 -0.046985261843769617 -0.4041424128789276 0 -0.056900038587063953 -0.39067912898103713 0 -0.065550072024208719 -0.41308290377812229 0 -0.040272455194024427 -0.38911981609689827 0 -0.056900038587063953 -0.39067912898103713 0 -0.048928918940979768 -0.38120848527438661 0 -0.056900038587063953 -0.39067912898103713 0 -0.058563032805587077 -0.37806779136773111 0 -0.048928918940979768 -0.38120848527438661 0 -0.050845379742812197 -0.3707774888992022 0 -0.058563032805587077 -0.37806779136773111 0 -0.048928918940979768 -0.38120848527438661 0 -0.046985261843769617 -0.4041424128789276 0 -0.057581079437373422 -0.42785480377444429 0 -0.065550072024208719 -0.41308290377812229 0 -0.046985261843769617 -0.4041424128789276 0 -0.057581079437373422 -0.42785480377444429 0 -0.046985261843769617 -0.4041424128789276 0 -0.032273775004362952 -0.4241191535567283 0 -0.03105991898357487 -0.40368511596760259 0 -0.046985261843769617 -0.4041424128789276 0 -0.032273775004362952 -0.4241191535567283 0 -0.046985261843769617 -0.4041424128789276 0 -0.057581079437373422 -0.42785480377444429 0 -0.032273775004362952 -0.4241191535567283 0 -0.057581079437373422 -0.42785480377444429 0 -0.032273775004362952 -0.4241191535567283 0 -0.040353290683320081 -0.44024065046844812 0 -0.032273775004362952 -0.4241191535567283 0 -0.029285835023917559 -0.44265899263696329 0 -0.040353290683320081 -0.44024065046844812 0 -0.032273775004362952 -0.4241191535567283 0 -0.01756228816495517 -0.44409589423452828 0 -0.032273775004362952 -0.4241191535567283 0 -0.017913880166028261 -0.4147843564298978 0 -0.015821875794940769 -0.4413951264003998 0 -0.032273775004362952 -0.4241191535567283 0 -0.015821875794940769 -0.4413951264003998 0 -0.01756228816495517 -0.44409589423452828 0 -0.017913880166028261 -0.4147843564298978 0 -0.015821875794940769 -0.4413951264003998 0 -0.017913880166028261 -0.4147843564298978 0 -0.014571848069859819 -0.42980230230885758 0 -0.015821875794940769 -0.4413951264003998 0 -0.032273775004362952 -0.4241191535567283 0 -0.029285835023917559 -0.44265899263696329 0 -0.01756228816495517 -0.44409589423452828 0 -0.03105991898357487 -0.40368511596760259 0 -0.032273775004362952 -0.4241191535567283 0 -0.017913880166028261 -0.4147843564298978 0 -0.01172577304865581 -0.40518166631767438 0 -0.003445661560199844 -0.42218974617595412 0 0.01273800266234317 -0.39707597398976979 0 -0.01172577304865581 -0.40518166631767438 0 -0.003445661560199844 -0.42218974617595412 0 -0.01172577304865581 -0.40518166631767438 0 -0.017913880166028261 -0.4147843564298978 0 -0.01216329762410504 -0.42138547936973431 0 -0.01172577304865581 -0.40518166631767438 0 -0.01216329762410504 -0.42138547936973431 0 -0.003445661560199844 -0.42218974617595412 0 -0.011569002722328839 -0.43479552794027271 0 -0.003445661560199844 -0.42218974617595412 0 0.0045937318333055636 -0.43870336981972913 0 -0.011569002722328839 -0.43479552794027271 0 -0.014571848069859819 -0.42980230230885758 0 -0.015821875794940769 -0.4413951264003998 0 -0.011569002722328839 -0.43479552794027271 0 -0.014571848069859819 -0.42980230230885758 0 -0.01216329762410504 -0.42138547936973431 0 -0.014571848069859819 -0.42980230230885758 0 -0.003445661560199844 -0.42218974617595412 0 -0.017913880166028261 -0.4147843564298978 0 -0.01216329762410504 -0.42138547936973431 0 -0.014571848069859819 -0.42980230230885758 0 -0.011569002722328839 -0.43479552794027271 0 -0.014571848069859819 -0.42980230230885758 0 -0.003445661560199844 -0.42218974617595412 0 -0.011569002722328839 -0.43479552794027271 0 -0.003445661560199844 -0.42218974617595412 0 -0.011569002722328839 -0.43479552794027271 0 -0.0022048812588714088 -0.45036648344931579 0 0.0045937318333055636 -0.43870336981972913 0 -0.011569002722328839 -0.43479552794027271 0 -0.0022048812588714088 -0.45036648344931579 0 -0.011569002722328839 -0.43479552794027271 0 -0.0022048812588714088 -0.45036648344931579 0 -0.015821875794940769 -0.4413951264003998 0 -0.015376185771408471 -0.44706440456170971 0 -0.015821875794940769 -0.4413951264003998 0 -0.011569002722328839 -0.43479552794027271 0 -0.015821875794940769 -0.4413951264003998 0 -0.015376185771408471 -0.44706440456170971 0 -0.0022048812588714088 -0.45036648344931579 0 -0.01086850254920684 -0.45318539150005088 0 -0.015376185771408471 -0.44706440456170971 0 -0.0022048812588714088 -0.45036648344931579 0 -0.015821875794940769 -0.4413951264003998 0 -0.015376185771408471 -0.44706440456170971 0 -0.01086850254920684 -0.45318539150005088 0 -0.01479455937526555 -0.45446282420674239 0 -0.015376185771408471 -0.44706440456170971 0 -0.01086850254920684 -0.45318539150005088 0 -0.015376185771408471 -0.44706440456170971 0 -0.01479455937526555 -0.45446282420674239 0 -0.0022048812588714088 -0.45036648344931579 0 -0.01086850254920684 -0.45318539150005088 0 -0.01479455937526555 -0.45446282420674239 0 -0.01307460604503584 -0.47634102057346539 0 -0.0022048812588714088 -0.45036648344931579 0 -0.01086850254920684 -0.45318539150005088 0 0.0015345328049725211 -0.47002748391346488 0 -0.01086850254920684 -0.45318539150005088 0 -0.01479455937526555 -0.45446282420674239 0 0.0015345328049725211 -0.47002748391346488 0 -0.01086850254920684 -0.45318539150005088 0 0.0015345328049725211 -0.47002748391346488 0 -0.01479455937526555 -0.45446282420674239 0 -0.01307460604503584 -0.47634102057346539 0 0.0015345328049725211 -0.47002748391346488 0 -0.01086850254920684 -0.45318539150005088 0 -0.01479455937526555 -0.45446282420674239 0 -0.01479455937526555 -0.45446282420674239 0 -0.022800387088553139 -0.46609890716481539 0 -0.01307460604503584 -0.47634102057346539 0 -0.01479455937526555 -0.45446282420674239 0 -0.022800387088553139 -0.46609890716481539 0 -0.036120611125039323 -0.46140174465965128 0 -0.01479455937526555 -0.45446282420674239 0 -0.036120611125039323 -0.46140174465965128 0 -0.01479455937526555 -0.45446282420674239 0 -0.023193696589282799 -0.45283470062046971 0 -0.036120611125039323 -0.46140174465965128 0 -0.029285835023917559 -0.44265899263696329 0 -0.023193696589282799 -0.45283470062046971 0 -0.035697492347515528 -0.44984577123458352 0 -0.015376185771408471 -0.44706440456170971 0 -0.015821875794940769 -0.4413951264003998 0 -0.01756228816495517 -0.44409589423452828 0 -0.015821875794940769 -0.4413951264003998 0 -0.01756228816495517 -0.44409589423452828 0 -0.01756228816495517 -0.44409589423452828 0 -0.023193696589282799 -0.45283470062046971 0 -0.015376185771408471 -0.44706440456170971 0 -0.01479455937526555 -0.45446282420674239 0 -0.023193696589282799 -0.45283470062046971 0 -0.015376185771408471 -0.44706440456170971 0 -0.01756228816495517 -0.44409589423452828 0 -0.015376185771408471 -0.44706440456170971 0 -0.01756228816495517 -0.44409589423452828 0 -0.023193696589282799 -0.45283470062046971 0 -0.029285835023917559 -0.44265899263696329 0 -0.01756228816495517 -0.44409589423452828 0 -0.023193696589282799 -0.45283470062046971 0 -0.01195887214444297 -0.5 0 -0.01307460604503584 -0.47634102057346539 0 0.001411497336231856 -0.48850157366338798 0 -0.01307460604503584 -0.47634102057346539 0 0.004165483349073032 -0.47895499613113729 0 0.0015345328049725211 -0.47002748391346488 0 -0.01307460604503584 -0.47634102057346539 0 0.004165483349073032 -0.47895499613113729 0 0.001411497336231856 -0.48850157366338798 0 -0.022800387088553139 -0.46609890716481539 0 -0.032722297705855899 -0.48007513104451782 0 -0.036120611125039323 -0.46140174465965128 0 -0.022800387088553139 -0.46609890716481539 0 -0.01307460604503584 -0.47634102057346539 0 -0.032722297705855899 -0.48007513104451782 0 -0.01195887214444297 -0.5 0 -0.037912236364333551 -0.5 0 -0.032722297705855899 -0.48007513104451782 0 -0.01195887214444297 -0.5 0 -0.01307460604503584 -0.47634102057346539 0 -0.032722297705855899 -0.48007513104451782 0 -0.037912236364333551 -0.5 0 -0.032722297705855899 -0.48007513104451782 0 -0.050632017589869308 -0.48599212452500351 0 -0.032722297705855899 -0.48007513104451782 0 -0.036120611125039323 -0.46140174465965128 0 -0.057446662874811233 -0.46834066511256589 0 -0.050632017589869308 -0.48599212452500351 0 -0.057446662874811233 -0.46834066511256589 0 -0.065511855673532224 -0.48411655394712361 0 -0.032722297705855899 -0.48007513104451782 0 -0.050632017589869308 -0.48599212452500351 0 -0.057446662874811233 -0.46834066511256589 0 -0.050632017589869308 -0.48599212452500351 0 -0.06386560058422408 -0.5 0 -0.065511855673532224 -0.48411655394712361 0 -0.037912236364333551 -0.5 0 -0.050632017589869308 -0.48599212452500351 0 -0.06386560058422408 -0.5 0 -0.040353290683320081 -0.44024065046844812 0 -0.035697492347515528 -0.44984577123458352 0 -0.049534028316017838 -0.45209276778738489 0 -0.029285835023917559 -0.44265899263696329 0 -0.040353290683320081 -0.44024065046844812 0 -0.035697492347515528 -0.44984577123458352 0 -0.023193696589282799 -0.45283470062046971 0 -0.035697492347515528 -0.44984577123458352 0 -0.036120611125039323 -0.46140174465965128 0 -0.036120611125039323 -0.46140174465965128 0 -0.057446662874811233 -0.46834066511256589 0 -0.035697492347515528 -0.44984577123458352 0 -0.036120611125039323 -0.46140174465965128 0 -0.049534028316017838 -0.45209276778738489 0 -0.057446662874811233 -0.46834066511256589 0 -0.049534028316017838 -0.45209276778738489 0 -0.068176897030980246 -0.45156719466995981 0 -0.036120611125039323 -0.46140174465965128 0 -0.057446662874811233 -0.46834066511256589 0 -0.049534028316017838 -0.45209276778738489 0 -0.057581079437373422 -0.42785480377444429 0 -0.040353290683320081 -0.44024065046844812 0 -0.049534028316017838 -0.45209276778738489 0 -0.057581079437373422 -0.42785480377444429 0 -0.049534028316017838 -0.45209276778738489 0 -0.068176897030980246 -0.45156719466995981 0 -0.057581079437373422 -0.42785480377444429 0 -0.068176897030980246 -0.45156719466995981 0 -0.068176897030980246 -0.45156719466995981 0 -0.078772375461900551 -0.44647866253206198 0 -0.072292570106323173 -0.43206110428876809 0 -0.068176897030980246 -0.45156719466995981 0 -0.079483949436254683 -0.45864116471432159 0 -0.078772375461900551 -0.44647866253206198 0 -0.057446662874811233 -0.46834066511256589 0 -0.068176897030980246 -0.45156719466995981 0 -0.07877271462458442 -0.47527958556547639 0 -0.068176897030980246 -0.45156719466995981 0 -0.079483949436254683 -0.45864116471432159 0 -0.07877271462458442 -0.47527958556547639 0 -0.068176897030980246 -0.45156719466995981 0 -0.07877271462458442 -0.47527958556547639 0 -0.079483949436254683 -0.45864116471432159 0 -0.092213810627550866 -0.46123921608978941 0 -0.078772375461900551 -0.44647866253206198 0 -0.079483949436254683 -0.45864116471432159 0 -0.092213810627550866 -0.46123921608978941 0 -0.07877271462458442 -0.47527958556547639 0 -0.092213810627550866 -0.46123921608978941 0 -0.078772375461900551 -0.44647866253206198 0 -0.09571647396396063 -0.44191684004528992 0 -0.06386560058422408 -0.5 0 -0.076842282694169345 -0.49097039453257341 0 -0.065511855673532224 -0.48411655394712361 0 -0.06386560058422408 -0.5 0 -0.076842282694169345 -0.49097039453257341 0 -0.089818964804114609 -0.50000000000000111 0 -0.057446662874811233 -0.46834066511256589 0 -0.065511855673532224 -0.48411655394712361 0 -0.07877271462458442 -0.47527958556547639 0 -0.076842282694169345 -0.49097039453257341 0 -0.065511855673532224 -0.48411655394712361 0 -0.07877271462458442 -0.47527958556547639 0 -0.057446662874811233 -0.46834066511256589 0 -0.07877271462458442 -0.47527958556547639 0 -0.07877271462458442 -0.47527958556547639 0 -0.094647989872139529 -0.48044497076680348 0 -0.092213810627550866 -0.46123921608978941 0 -0.07877271462458442 -0.47527958556547639 0 -0.094647989872139529 -0.48044497076680348 0 -0.076842282694169345 -0.49097039453257341 0 -0.07877271462458442 -0.47527958556547639 0 -0.089818964804114609 -0.50000000000000111 0 -0.07877271462458442 -0.47527958556547639 0 -0.089818964804114609 -0.50000000000000111 0 -0.07877271462458442 -0.47527958556547639 0 -0.089818964804114609 -0.50000000000000111 0 -0.094647989872139529 -0.48044497076680348 0 -0.089818964804114609 -0.50000000000000111 0 -0.1086229818781131 -0.48555884014858119 0 -0.094647989872139529 -0.48044497076680348 0 -0.089818964804114609 -0.50000000000000111 0 -0.1086229818781131 -0.48555884014858119 0 -0.1122153298243298 -0.5 0 -0.1086229818781131 -0.48555884014858119 0 -0.094647989872139529 -0.48044497076680348 0 -0.1142146141459333 -0.46661457436192039 0 -0.092213810627550866 -0.46123921608978941 0 -0.094647989872139529 -0.48044497076680348 0 -0.1142146141459333 -0.46661457436192039 0 -0.1086229818781131 -0.48555884014858119 0 -0.1234135123344374 -0.48391802619158841 0 -0.1142146141459333 -0.46661457436192039 0 -0.1086229818781131 -0.48555884014858119 0 -0.1234135123344374 -0.48391802619158841 0 -0.1122153298243298 -0.5 0 -0.13461169484454491 -0.5 0 -0.1234135123344374 -0.48391802619158841 0 -0.1122153298243298 -0.5 0 -0.092213810627550866 -0.46123921608978941 0 -0.1067313727025087 -0.45283175059222092 0 -0.09571647396396063 -0.44191684004528992 0 -0.1067313727025087 -0.45283175059222092 0 -0.09571647396396063 -0.44191684004528992 0 -0.1099459282420603 -0.43952108055224809 0 -0.092213810627550866 -0.46123921608978941 0 -0.1067313727025087 -0.45283175059222092 0 -0.1142146141459333 -0.46661457436192039 0 -0.1067313727025087 -0.45283175059222092 0 -0.1142146141459333 -0.46661457436192039 0 -0.1239464819092813 -0.45078421100869581 0 -0.1067313727025087 -0.45283175059222092 0 -0.1239464819092813 -0.45078421100869581 0 -0.1099459282420603 -0.43952108055224809 0 -0.1239464819092813 -0.45078421100869581 0 -0.1099459282420603 -0.43952108055224809 0 -0.1234163783004555 -0.43617218036045369 0 -0.13023507644270549 -0.42564427029833279 0 -0.1234163783004555 -0.43617218036045369 0 -0.11648904045856789 -0.42389748837997743 0 -0.1099459282420603 -0.43952108055224809 0 -0.11648904045856789 -0.42389748837997743 0 -0.103062759869267 -0.42837929439501438 0 -0.1099459282420603 -0.43952108055224809 0 -0.1234163783004555 -0.43617218036045369 0 -0.11648904045856789 -0.42389748837997743 0 -0.09571647396396063 -0.44191684004528992 0 -0.1099459282420603 -0.43952108055224809 0 -0.103062759869267 -0.42837929439501438 0 -0.09571647396396063 -0.44191684004528992 0 -0.103062759869267 -0.42837929439501438 0 -0.086279273995486613 -0.42344540451581503 0 -0.103062759869267 -0.42837929439501438 0 -0.1068830826862595 -0.41311565848174142 0 -0.086279273995486613 -0.42344540451581503 0 -0.1068830826862595 -0.41311565848174142 0 -0.093786172529072676 -0.40041214649956808 0 -0.086279273995486613 -0.42344540451581503 0 -0.11648904045856789 -0.42389748837997743 0 -0.103062759869267 -0.42837929439501438 0 -0.1068830826862595 -0.41311565848174142 0 -0.1068830826862595 -0.41311565848174142 0 -0.1170400684741072 -0.41130969590959582 0 -0.1093936203764843 -0.40217398595105092 0 -0.11648904045856789 -0.42389748837997743 0 -0.1068830826862595 -0.41311565848174142 0 -0.1170400684741072 -0.41130969590959582 0 -0.12664927373792231 -0.41435054135590621 0 -0.11648904045856789 -0.42389748837997743 0 -0.1170400684741072 -0.41130969590959582 0 -0.12664927373792231 -0.41435054135590621 0 -0.13023507644270549 -0.42564427029833279 0 -0.11648904045856789 -0.42389748837997743 0 -0.12664927373792231 -0.41435054135590621 0 -0.1170400684741072 -0.41130969590959582 0 -0.12119454478472159 -0.40246687193576908 0 -0.12119454478472159 -0.40246687193576908 0 -0.12381178879547371 -0.39211525161417909 0 -0.1126202098836929 -0.39304801886562002 0 -0.1170400684741072 -0.41130969590959582 0 -0.12119454478472159 -0.40246687193576908 0 -0.1093936203764843 -0.40217398595105092 0 -0.12119454478472159 -0.40246687193576908 0 -0.1126202098836929 -0.39304801886562002 0 -0.1093936203764843 -0.40217398595105092 0 -0.1288108877555485 -0.38321629706308591 0 -0.124637618436105 -0.37193900756582993 0 -0.11543022892260819 -0.3801524743958693 0 -0.1288108877555485 -0.38321629706308591 0 -0.12381178879547371 -0.39211525161417909 0 -0.11543022892260819 -0.3801524743958693 0 -0.12381178879547371 -0.39211525161417909 0 -0.1126202098836929 -0.39304801886562002 0 -0.11543022892260819 -0.3801524743958693 0 -0.1126202098836929 -0.39304801886562002 0 -0.11543022892260819 -0.3801524743958693 0 -0.10783637383093291 -0.386223456751912 0 -0.1012930710626585 -0.37737888848332102 0 -0.093786172529072676 -0.40041214649956808 0 -0.09039980072414544 -0.38819138396553959 0 -0.1012930710626585 -0.37737888848332102 0 -0.10388123133301461 -0.39257820454660841 0 -0.093786172529072676 -0.40041214649956808 0 -0.1012930710626585 -0.37737888848332102 0 -0.093786172529072676 -0.40041214649956808 0 -0.11543022892260819 -0.3801524743958693 0 -0.10783637383093291 -0.386223456751912 0 -0.1012930710626585 -0.37737888848332102 0 -0.1126202098836929 -0.39304801886562002 0 -0.10783637383093291 -0.386223456751912 0 -0.10388123133301461 -0.39257820454660841 0 -0.10783637383093291 -0.386223456751912 0 -0.1012930710626585 -0.37737888848332102 0 -0.10388123133301461 -0.39257820454660841 0 -0.1012930710626585 -0.37737888848332102 0 -0.09039980072414544 -0.38819138396553959 0 -0.1012930710626585 -0.37737888848332102 0 -0.090162431072165455 -0.37735788721946129 0 -0.09039980072414544 -0.38819138396553959 0 -0.1068830826862595 -0.41311565848174142 0 -0.1093936203764843 -0.40217398595105092 0 -0.093786172529072676 -0.40041214649956808 0 -0.1093936203764843 -0.40217398595105092 0 -0.10388123133301461 -0.39257820454660841 0 -0.093786172529072676 -0.40041214649956808 0 -0.1126202098836929 -0.39304801886562002 0 -0.1093936203764843 -0.40217398595105092 0 -0.10388123133301461 -0.39257820454660841 0 -0.093786172529072676 -0.40041214649956808 0 -0.083611426960287866 -0.39869302663602701 0 -0.09039980072414544 -0.38819138396553959 0 -0.083611426960287866 -0.39869302663602701 0 -0.09039980072414544 -0.38819138396553959 0 -0.074914903297416305 -0.38085811531046182 0 -0.090162431072165455 -0.37735788721946129 0 -0.09039980072414544 -0.38819138396553959 0 -0.074914903297416305 -0.38085811531046182 0 -0.085228061139765443 -0.36771506015543942 0 -0.090162431072165455 -0.37735788721946129 0 -0.074914903297416305 -0.38085811531046182 0 -0.056900038587063953 -0.39067912898103713 0 -0.058563032805587077 -0.37806779136773111 0 -0.074914903297416305 -0.38085811531046182 0 -0.061822482576446007 -0.36762588083317782 0 -0.058563032805587077 -0.37806779136773111 0 -0.074914903297416305 -0.38085811531046182 0 -0.056900038587063953 -0.39067912898103713 0 -0.074914903297416305 -0.38085811531046182 0 -0.072676984255318294 -0.40055808288875061 0 -0.083611426960287866 -0.39869302663602701 0 -0.074914903297416305 -0.38085811531046182 0 -0.072676984255318294 -0.40055808288875061 0 -0.056900038587063953 -0.39067912898103713 0 -0.072676984255318294 -0.40055808288875061 0 -0.065550072024208719 -0.41308290377812229 0 -0.072676984255318294 -0.40055808288875061 0 -0.065550072024208719 -0.41308290377812229 0 -0.086279273995486613 -0.42344540451581503 0 -0.057581079437373422 -0.42785480377444429 0 -0.065550072024208719 -0.41308290377812229 0 -0.072292570106323173 -0.43206110428876809 0 -0.057581079437373422 -0.42785480377444429 0 -0.068176897030980246 -0.45156719466995981 0 -0.072292570106323173 -0.43206110428876809 0 -0.065550072024208719 -0.41308290377812229 0 -0.072292570106323173 -0.43206110428876809 0 -0.086279273995486613 -0.42344540451581503 0 -0.078772375461900551 -0.44647866253206198 0 -0.09571647396396063 -0.44191684004528992 0 -0.086279273995486613 -0.42344540451581503 0 -0.078772375461900551 -0.44647866253206198 0 -0.086279273995486613 -0.42344540451581503 0 -0.078772375461900551 -0.44647866253206198 0 -0.072292570106323173 -0.43206110428876809 0 -0.086279273995486613 -0.42344540451581503 0 -0.083611426960287866 -0.39869302663602701 0 -0.072676984255318294 -0.40055808288875061 0 -0.086279273995486613 -0.42344540451581503 0 -0.093786172529072676 -0.40041214649956808 0 -0.086279273995486613 -0.42344540451581503 0 -0.093786172529072676 -0.40041214649956808 0 -0.083611426960287866 -0.39869302663602701 0 -0.086279273995486613 -0.42344540451581503 0 -0.076062293826012539 -0.074869410633875561 0 -0.099882265069872134 -0.06739771342036513 0 -0.084815610132208563 -0.061070015529118567 0 -0.081492508046429421 -0.090737925682695342 0 -0.076062293826012539 -0.074869410633875561 0 -0.099882265069872134 -0.06739771342036513 0 -0.076062293826012539 -0.074869410633875561 0 -0.084815610132208563 -0.061070015529118567 0 -0.070955983914034099 -0.05326275215829776 0 -0.076062293826012539 -0.074869410633875561 0 -0.070955983914034099 -0.05326275215829776 0 -0.060116314906558103 -0.073677024839441788 0 -0.081492508046429421 -0.090737925682695342 0 -0.056925061851101841 -0.090257715874897892 0 -0.076062293826012539 -0.074869410633875561 0 -0.056925061851101841 -0.090257715874897892 0 -0.060116314906558103 -0.073677024839441788 0 -0.076062293826012539 -0.074869410633875561 0 -0.056925061851101841 -0.090257715874897892 0 -0.081492508046429421 -0.090737925682695342 0 -0.076062293826012539 -0.074869410633875561 0 -0.056925061851101841 -0.090257715874897892 0 -0.081492508046429421 -0.090737925682695342 0 -0.056925061851101841 -0.090257715874897892 0 -0.060002332537227338 -0.10652213807082039 0 -0.081492508046429421 -0.090737925682695342 0 -0.075597292303491326 -0.1115190895920099 0 -0.060002332537227338 -0.10652213807082039 0 -0.075597292303491326 -0.1115190895920099 0 -0.060002332537227338 -0.10652213807082039 0 -0.065293028178876181 -0.12632163291712131 0 -0.075597292303491326 -0.1115190895920099 0 -0.077066326810620062 -0.1231158227599511 0 -0.065293028178876181 -0.12632163291712131 0 -0.075597292303491326 -0.1115190895920099 0 -0.092090906958989263 -0.1189276133016728 0 -0.093203123745486102 -0.10162811518835969 0 -0.075597292303491326 -0.1115190895920099 0 -0.077066326810620062 -0.1231158227599511 0 -0.092090906958989263 -0.1189276133016728 0 -0.081492508046429421 -0.090737925682695342 0 -0.075597292303491326 -0.1115190895920099 0 -0.093203123745486102 -0.10162811518835969 0 -0.081492508046429421 -0.090737925682695342 0 -0.093203123745486102 -0.10162811518835969 0 -0.106059954241757 -0.091218135490490945 0 -0.092090906958989263 -0.1189276133016728 0 -0.093203123745486102 -0.10162811518835969 0 -0.1088977341168563 -0.1021602713743462 0 -0.093203123745486102 -0.10162811518835969 0 -0.1088977341168563 -0.1021602713743462 0 -0.106059954241757 -0.091218135490490945 0 -0.1088977341168563 -0.1021602713743462 0 -0.106059954241757 -0.091218135490490945 0 -0.092090906958989263 -0.1189276133016728 0 -0.1088977341168563 -0.1021602713743462 0 -0.092090906958989263 -0.1189276133016728 0 -0.1088977341168563 -0.1021602713743462 0 -0.11310725105060811 -0.118391659403649 0 -0.092090906958989263 -0.1189276133016728 0 -0.11310725105060811 -0.118391659403649 0 -0.104535253924516 -0.13617109107237571 0 -0.1088977341168563 -0.1021602713743462 0 -0.11310725105060811 -0.118391659403649 0 -0.1141294298435067 -0.12233305716590361 0 -0.11310725105060811 -0.118391659403649 0 -0.1241185921724796 -0.11763917851931099 0 -0.1141294298435067 -0.12233305716590361 0 -0.11310725105060811 -0.118391659403649 0 -0.11310725105060811 -0.118391659403649 0 -0.1241185921724796 -0.11763917851931099 0 -0.12782718843326679 -0.1077510237618079 0 -0.1141294298435067 -0.12233305716590361 0 -0.1241185921724796 -0.11763917851931099 0 -0.12900171569180649 -0.12691748121282759 0 -0.1088977341168563 -0.1021602713743462 0 -0.11310725105060811 -0.118391659403649 0 -0.12602031534101249 -0.091608292493005256 0 -0.1088977341168563 -0.1021602713743462 0 -0.11960034576529351 -0.091482803977369742 0 -0.12602031534101249 -0.091608292493005256 0 -0.11310725105060811 -0.118391659403649 0 -0.12602031534101249 -0.091608292493005256 0 -0.11310725105060811 -0.118391659403649 0 -0.12602031534101249 -0.091608292493005256 0 -0.12782718843326679 -0.1077510237618079 0 -0.1088977341168563 -0.1021602713743462 0 -0.11960034576529351 -0.091482803977369742 0 -0.1088977341168563 -0.1021602713743462 0 -0.11960034576529351 -0.091482803977369742 0 -0.106059954241757 -0.091218135490490945 0 -0.11960034576529351 -0.091482803977369742 0 -0.12602031534101249 -0.091608292493005256 0 -0.11960034576529351 -0.091482803977369742 0 -0.116734102490858 -0.076395105962570459 0 -0.13208673788871669 -0.079025746841858965 0 -0.11960034576529351 -0.091482803977369742 0 -0.106059954241757 -0.091218135490490945 0 -0.116734102490858 -0.076395105962570459 0 -0.11960034576529351 -0.091482803977369742 0 -0.106059954241757 -0.091218135490490945 0 -0.106059954241757 -0.091218135490490945 0 -0.099882265069872134 -0.06739771342036513 0 -0.081492508046429421 -0.090737925682695342 0 -0.106059954241757 -0.091218135490490945 0 -0.099882265069872134 -0.06739771342036513 0 -0.106059954241757 -0.091218135490490945 0 -0.099882265069872134 -0.06739771342036513 0 -0.116734102490858 -0.076395105962570459 0 -0.081492508046429421 -0.090737925682695342 0 -0.106059954241757 -0.091218135490490945 0 -0.099882265069872134 -0.06739771342036513 0 -0.116734102490858 -0.076395105962570459 0 -0.1199759999593505 -0.061147326138363413 0 -0.116734102490858 -0.076395105962570459 0 -0.1252887905871862 -0.071246382780057779 0 -0.13208673788871669 -0.079025746841858965 0 -0.116734102490858 -0.076395105962570459 0 -0.1199759999593505 -0.061147326138363413 0 -0.1252887905871862 -0.071246382780057779 0 -0.099882265069872134 -0.06739771342036513 0 -0.1199759999593505 -0.061147326138363413 0 -0.1111816572782716 -0.047228041690591797 0 -0.1199759999593505 -0.061147326138363413 0 -0.1111816572782716 -0.047228041690591797 0 -0.13215527217732731 -0.047111411420214147 0 -0.1111816572782716 -0.047228041690591797 0 -0.11569648051418779 -0.029584146356119501 0 -0.13215527217732731 -0.047111411420214147 0 -0.1111816572782716 -0.047228041690591797 0 -0.11569648051418779 -0.029584146356119501 0 -0.093704575897986933 -0.043577291350239307 0 -0.099882265069872134 -0.06739771342036513 0 -0.093704575897986933 -0.043577291350239307 0 -0.099882265069872134 -0.06739771342036513 0 -0.1111816572782716 -0.047228041690591797 0 -0.093704575897986933 -0.043577291350239307 0 -0.1073189957869798 -0.0096193526666831924 0 -0.134349519402996 -0.017558475734515591 0 -0.12483296450371829 0.0042944719630943241 0 -0.11569648051418779 -0.029584146356119501 0 -0.1073189957869798 -0.0096193526666831924 0 -0.134349519402996 -0.017558475734515591 0 -0.11569648051418779 -0.029584146356119501 0 -0.087526886726102829 -0.019756869280113332 0 -0.11569648051418779 -0.029584146356119501 0 -0.1073189957869798 -0.0096193526666831924 0 -0.087526886726102829 -0.019756869280113332 0 -0.11569648051418779 -0.029584146356119501 0 -0.087526886726102829 -0.019756869280113332 0 -0.093704575897986933 -0.043577291350239307 0 -0.1073189957869798 -0.0096193526666831924 0 -0.087526886726102829 -0.019756869280113332 0 -0.082260981130149791 0.00054782562876524998 0 -0.087526886726102829 -0.019756869280113332 0 -0.067850136781640785 -0.01289241553206502 0 -0.082260981130149791 0.00054782562876524998 0 -0.087526886726102829 -0.019756869280113332 0 -0.082260981130149791 0.00054782562876524998 0 -0.087526886726102829 -0.019756869280113332 0 -0.067850136781640785 -0.01289241553206502 0 -0.087526886726102829 -0.019756869280113332 0 -0.067850136781640785 -0.01289241553206502 0 -0.069729190170074146 -0.033645103887963559 0 -0.067850136781640785 -0.01289241553206502 0 -0.056747129538045941 -0.0032560696045458599 0 -0.067255889017233852 0.0021906375367469022 0 -0.067850136781640785 -0.01289241553206502 0 -0.082260981130149791 0.00054782562876524998 0 -0.067255889017233852 0.0021906375367469022 0 -0.084815610132208563 -0.061070015529118567 0 -0.093704575897986933 -0.043577291350239307 0 -0.070955983914034099 -0.05326275215829776 0 -0.099882265069872134 -0.06739771342036513 0 -0.084815610132208563 -0.061070015529118567 0 -0.093704575897986933 -0.043577291350239307 0 -0.087526886726102829 -0.019756869280113332 0 -0.093704575897986933 -0.043577291350239307 0 -0.069729190170074146 -0.033645103887963559 0 -0.087526886726102829 -0.019756869280113332 0 -0.093704575897986933 -0.043577291350239307 0 -0.093704575897986933 -0.043577291350239307 0 -0.069729190170074146 -0.033645103887963559 0 -0.070955983914034099 -0.05326275215829776 0 -0.069729190170074146 -0.033645103887963559 0 -0.070955983914034099 -0.05326275215829776 0 -0.054131223993287118 -0.044209182934229908 0 -0.070955983914034099 -0.05326275215829776 0 -0.049256498548336657 -0.06175626373493294 0 -0.054131223993287118 -0.044209182934229908 0 -0.069729190170074146 -0.033645103887963559 0 -0.054131223993287118 -0.044209182934229908 0 -0.044206333707394158 -0.028172112072835761 0 -0.044206333707394158 -0.028172112072835761 0 -0.026696659065240332 -0.047547349113123867 0 -0.054131223993287118 -0.044209182934229908 0 -0.044206333707394158 -0.028172112072835761 0 -0.026696659065240332 -0.047547349113123867 0 -0.044206333707394158 -0.028172112072835761 0 -0.031044254073723809 -0.01906117245852117 0 -0.026696659065240332 -0.047547349113123867 0 -0.049256498548336657 -0.06175626373493294 0 -0.026696659065240332 -0.047547349113123867 0 -0.026999252965365851 -0.073268641899569456 0 -0.049256498548336657 -0.06175626373493294 0 -0.054131223993287118 -0.044209182934229908 0 -0.026696659065240332 -0.047547349113123867 0 -0.067850136781640785 -0.01289241553206502 0 -0.056747129538045941 -0.0032560696045458599 0 -0.047825457231042583 -0.01066675610347927 0 -0.056747129538045941 -0.0032560696045458599 0 -0.047825457231042583 -0.01066675610347927 0 -0.047716787592567388 0.00024047145424866079 0 -0.067850136781640785 -0.01289241553206502 0 -0.047825457231042583 -0.01066675610347927 0 -0.044206333707394158 -0.028172112072835761 0 -0.067850136781640785 -0.01289241553206502 0 -0.069729190170074146 -0.033645103887963559 0 -0.044206333707394158 -0.028172112072835761 0 -0.047825457231042583 -0.01066675610347927 0 -0.044206333707394158 -0.028172112072835761 0 -0.031044254073723809 -0.01906117245852117 0 -0.047825457231042583 -0.01066675610347927 0 -0.031044254073723809 -0.01906117245852117 0 -0.036997347464242658 0.0015974635928336369 0 -0.047825457231042583 -0.01066675610347927 0 -0.047716787592567388 0.00024047145424866079 0 -0.036997347464242658 0.0015974635928336369 0 -0.019546237831869481 -0.0032900490834808951 0 -0.031044254073723809 -0.01906117245852117 0 -0.036997347464242658 0.0015974635928336369 0 -0.019546237831869481 -0.0032900490834808951 0 -0.031044254073723809 -0.01906117245852117 0 -0.010993489142553671 -0.026288231971040871 0 -0.031044254073723809 -0.01906117245852117 0 -0.010993489142553671 -0.026288231971040871 0 -0.026696659065240332 -0.047547349113123867 0 -0.019546237831869481 -0.0032900490834808951 0 -0.010993489142553671 -0.026288231971040871 0 0.0035155241191154088 -0.01135911205853103 0 -0.019546237831869481 -0.0032900490834808951 0 -0.003202255928207531 0.013855789222855901 0 0.0035155241191154088 -0.01135911205853103 0 -0.026696659065240332 -0.047547349113123867 0 -0.0091869844230865055 -0.066922586153411984 0 -0.010993489142553671 -0.026288231971040871 0 -0.0025421594991624891 -0.047320972396905157 0 0.012826733239207111 -0.031570055299761972 0 -0.010993489142553671 -0.026288231971040871 0 -0.026696659065240332 -0.047547349113123867 0 -0.0025421594991624891 -0.047320972396905157 0 -0.026696659065240332 -0.047547349113123867 0 -0.0025421594991624891 -0.047320972396905157 0 -0.0091869844230865055 -0.066922586153411984 0 -0.0025421594991624891 -0.047320972396905157 0 -0.0091869844230865055 -0.066922586153411984 0 0.0090840813223258977 -0.066632195300643543 0 -0.0091869844230865055 -0.066922586153411984 0 0.0083226902190740911 -0.086297823193694084 0 -0.0091869844230865055 -0.066922586153411984 0 -0.0060818094859296486 -0.080207909247433554 0 -0.026999252965365851 -0.073268641899569456 0 -0.0091869844230865055 -0.066922586153411984 0 -0.0060818094859296486 -0.080207909247433554 0 0.0083226902190740911 -0.086297823193694084 0 -0.01610890299302057 -0.089459899136259874 0 -0.01261300552529776 -0.1006755136214026 0 0.0042991764360200786 -0.08906099076694389 0 -0.0060818094859296486 -0.080207909247433554 0 -0.01610890299302057 -0.089459899136259874 0 0.0042991764360200786 -0.08906099076694389 0 -0.01610890299302057 -0.089459899136259874 0 0.0042991764360200786 -0.08906099076694389 0 -0.01610890299302057 -0.089459899136259874 0 -0.026999252965365851 -0.073268641899569456 0 -0.036516982422061188 -0.089858807505579244 0 -0.01610890299302057 -0.089459899136259874 0 -0.036516982422061188 -0.089858807505579244 0 -0.01610890299302057 -0.089459899136259874 0 -0.036516982422061188 -0.089858807505579244 0 -0.026135489657151699 -0.098737819018310968 0 -0.0060818094859296486 -0.080207909247433554 0 -0.01610890299302057 -0.089459899136259874 0 -0.026999252965365851 -0.073268641899569456 0 -0.026696659065240332 -0.047547349113123867 0 -0.0091869844230865055 -0.066922586153411984 0 -0.026999252965365851 -0.073268641899569456 0 -0.049256498548336657 -0.06175626373493294 0 -0.026999252965365851 -0.073268641899569456 0 -0.045962822138684717 -0.077763690770884408 0 -0.026999252965365851 -0.073268641899569456 0 -0.045962822138684717 -0.077763690770884408 0 -0.036516982422061188 -0.089858807505579244 0 -0.036516982422061188 -0.089858807505579244 0 -0.056925061851101841 -0.090257715874897892 0 -0.045962822138684717 -0.077763690770884408 0 -0.036516982422061188 -0.089858807505579244 0 -0.056925061851101841 -0.090257715874897892 0 -0.045962822138684717 -0.077763690770884408 0 -0.056925061851101841 -0.090257715874897892 0 -0.060116314906558103 -0.073677024839441788 0 -0.070955983914034099 -0.05326275215829776 0 -0.049256498548336657 -0.06175626373493294 0 -0.060116314906558103 -0.073677024839441788 0 -0.049256498548336657 -0.06175626373493294 0 -0.045962822138684717 -0.077763690770884408 0 -0.060116314906558103 -0.073677024839441788 0 -0.060002332537227338 -0.10652213807082039 0 -0.051642368377695723 -0.12747911754908189 0 -0.065293028178876181 -0.12632163291712131 0 -0.060002332537227338 -0.10652213807082039 0 -0.043225124668860408 -0.1012738761753806 0 -0.051642368377695723 -0.12747911754908189 0 -0.056925061851101841 -0.090257715874897892 0 -0.060002332537227338 -0.10652213807082039 0 -0.043225124668860408 -0.1012738761753806 0 -0.056925061851101841 -0.090257715874897892 0 -0.043225124668860408 -0.1012738761753806 0 -0.043225124668860408 -0.1012738761753806 0 -0.02952518748661645 -0.1122900364758601 0 -0.026135489657151699 -0.098737819018310968 0 -0.036516982422061188 -0.089858807505579244 0 -0.043225124668860408 -0.1012738761753806 0 -0.026135489657151699 -0.098737819018310968 0 -0.036516982422061188 -0.089858807505579244 0 -0.056925061851101841 -0.090257715874897892 0 -0.043225124668860408 -0.1012738761753806 0 -0.043225124668860408 -0.1012738761753806 0 -0.02952518748661645 -0.1122900364758601 0 -0.02952518748661645 -0.1122900364758601 0 -0.051642368377695723 -0.12747911754908189 0 -0.02952518748661645 -0.1122900364758601 0 -0.051642368377695723 -0.12747911754908189 0 -0.033079410927917177 -0.1333566145349831 0 -0.043225124668860408 -0.1012738761753806 0 -0.02952518748661645 -0.1122900364758601 0 -0.051642368377695723 -0.12747911754908189 0 -0.02952518748661645 -0.1122900364758601 0 -0.01261300552529776 -0.1006755136214026 0 -0.01296513260293607 -0.1256060259403943 0 -0.02952518748661645 -0.1122900364758601 0 -0.01296513260293607 -0.1256060259403943 0 -0.02952518748661645 -0.1122900364758601 0 -0.01296513260293607 -0.1256060259403943 0 -0.033079410927917177 -0.1333566145349831 0 -0.02952518748661645 -0.1122900364758601 0 -0.01261300552529776 -0.1006755136214026 0 -0.02952518748661645 -0.1122900364758601 0 -0.026135489657151699 -0.098737819018310968 0 -0.01261300552529776 -0.1006755136214026 0 -0.01610890299302057 -0.089459899136259874 0 -0.026135489657151699 -0.098737819018310968 0 -0.01261300552529776 -0.1006755136214026 0 -0.01261300552529776 -0.1006755136214026 0 0.0057445421003686293 -0.096336282145828567 0 0.0042991764360200786 -0.08906099076694389 0 -0.01261300552529776 -0.1006755136214026 0 0.0058311833923206848 -0.1093574381883157 0 0.0057445421003686293 -0.096336282145828567 0 -0.01261300552529776 -0.1006755136214026 0 0.0042991764360200786 -0.08906099076694389 0 -0.01261300552529776 -0.1006755136214026 0 -0.00012684235317440761 -0.1204046958944044 0 0.0058311833923206848 -0.1093574381883157 0 -0.01261300552529776 -0.1006755136214026 0 -0.00012684235317440761 -0.1204046958944044 0 -0.01296513260293607 -0.1256060259403943 0 -0.00012684235317440761 -0.1204046958944044 0 -0.01296513260293607 -0.1256060259403943 0 0.0035949222807473368 -0.13892201540492491 0 -0.01296513260293607 -0.1256060259403943 0 -0.018306282352184389 -0.14172022602890111 0 0.0035949222807473368 -0.13892201540492491 0 -0.01296513260293607 -0.1256060259403943 0 0.0035949222807473368 -0.13892201540492491 0 -0.01296513260293607 -0.1256060259403943 0 -0.018306282352184389 -0.14172022602890111 0 -0.033079410927917177 -0.1333566145349831 0 -0.018306282352184389 -0.14172022602890111 0 -0.033079410927917177 -0.1333566145349831 0 -0.032417964096012553 -0.15281659521817309 0 -0.018306282352184389 -0.14172022602890111 0 -0.01729650822655953 -0.15305833454333079 0 -0.032417964096012553 -0.15281659521817309 0 -0.018306282352184389 -0.14172022602890111 0 -0.01729650822655953 -0.15305833454333079 0 -0.0049556213924309414 -0.15220617744372489 0 -0.018306282352184389 -0.14172022602890111 0 -0.0049556213924309414 -0.15220617744372489 0 0.0035949222807473368 -0.13892201540492491 0 -0.0049556213924309414 -0.15220617744372489 0 0.0035949222807473368 -0.13892201540492491 0 -0.0049556213924309414 -0.15220617744372489 0 -0.013506165065610891 -0.16549033948252381 0 0.002015510852514211 -0.16373569640836241 0 -0.013506165065610891 -0.16549033948252381 0 0.002015510852514211 -0.16373569640836241 0 0.0047182208822879237 -0.1777034137916996 0 -0.013506165065610891 -0.16549033948252381 0 0.0047182208822879237 -0.1777034137916996 0 -0.01729650822655953 -0.15305833454333079 0 -0.0049556213924309414 -0.15220617744372489 0 -0.013506165065610891 -0.16549033948252381 0 -0.0049556213924309414 -0.15220617744372489 0 -0.013506165065610891 -0.16549033948252381 0 -0.013506165065610891 -0.16549033948252381 0 -0.01057488861986809 -0.18415519504167921 0 0.0047182208822879237 -0.1777034137916996 0 -0.013506165065610891 -0.16549033948252381 0 -0.02729121091382028 -0.1869068469888604 0 -0.013506165065610891 -0.16549033948252381 0 -0.01057488861986809 -0.18415519504167921 0 -0.02729121091382028 -0.1869068469888604 0 -0.013506165065610891 -0.16549033948252381 0 -0.02729121091382028 -0.1869068469888604 0 -0.038316763521261898 -0.17040820588851549 0 -0.01729650822655953 -0.15305833454333079 0 -0.013506165065610891 -0.16549033948252381 0 -0.032417964096012553 -0.15281659521817309 0 -0.013506165065610891 -0.16549033948252381 0 -0.038316763521261898 -0.17040820588851549 0 -0.032417964096012553 -0.15281659521817309 0 -0.013506165065610891 -0.16549033948252381 0 -0.032417964096012553 -0.15281659521817309 0 -0.038316763521261898 -0.17040820588851549 0 -0.048557859107403227 -0.15781877420359891 0 -0.032417964096012553 -0.15281659521817309 0 -0.02729121091382028 -0.1869068469888604 0 -0.038316763521261898 -0.17040820588851549 0 -0.048356650034831063 -0.1892249846969554 0 -0.059082250539344482 -0.17215812943806749 0 -0.048356650034831063 -0.1892249846969554 0 -0.065630277621913827 -0.20054845122868289 0 -0.038316763521261898 -0.17040820588851549 0 -0.059082250539344482 -0.17215812943806749 0 -0.048356650034831063 -0.1892249846969554 0 -0.038316763521261898 -0.17040820588851549 0 -0.059082250539344482 -0.17215812943806749 0 -0.048557859107403227 -0.15781877420359891 0 -0.059082250539344482 -0.17215812943806749 0 -0.048557859107403227 -0.15781877420359891 0 -0.061642554253983108 -0.153568089519416 0 -0.061642554253983108 -0.153568089519416 0 -0.051329763126414109 -0.14014285095382259 0 -0.073759549268774205 -0.14266819862230459 0 -0.048557859107403227 -0.15781877420359891 0 -0.061642554253983108 -0.153568089519416 0 -0.051329763126414109 -0.14014285095382259 0 -0.051642368377695723 -0.12747911754908189 0 -0.051329763126414109 -0.14014285095382259 0 -0.073759549268774205 -0.14266819862230459 0 -0.051642368377695723 -0.12747911754908189 0 -0.051329763126414109 -0.14014285095382259 0 -0.033079410927917177 -0.1333566145349831 0 -0.051329763126414109 -0.14014285095382259 0 -0.033079410927917177 -0.1333566145349831 0 -0.032417964096012553 -0.15281659521817309 0 -0.051329763126414109 -0.14014285095382259 0 -0.032417964096012553 -0.15281659521817309 0 -0.048557859107403227 -0.15781877420359891 0 -0.051329763126414109 -0.14014285095382259 0 -0.032417964096012553 -0.15281659521817309 0 -0.01345876105598715 -0.25444116325841148 0 -0.029623475595277459 -0.23731651944019039 0 -0.012359451098430001 -0.23808263248718819 0 -0.01345876105598715 -0.25444116325841148 0 -0.012359451098430001 -0.23808263248718819 0 5.5069077789237038e-05 -0.24501837689693201 0 -0.012359451098430001 -0.23808263248718819 0 -0.003336457728542803 -0.2305931919632517 0 5.5069077789237038e-05 -0.24501837689693201 0 -0.003336457728542803 -0.2305931919632517 0 -0.01543363019013182 -0.22304391087715519 0 0.0025689561348744431 -0.21461094376595721 0 -0.012359451098430001 -0.23808263248718819 0 -0.003336457728542803 -0.2305931919632517 0 -0.01543363019013182 -0.22304391087715519 0 -0.029623475595277459 -0.23731651944019039 0 -0.012359451098430001 -0.23808263248718819 0 -0.01543363019013182 -0.22304391087715519 0 -0.029623475595277459 -0.23731651944019039 0 -0.0279654498217962 -0.2072954962097994 0 -0.029623475595277459 -0.23731651944019039 0 -0.01543363019013182 -0.22304391087715519 0 -0.0279654498217962 -0.2072954962097994 0 -0.01543363019013182 -0.22304391087715519 0 -0.0279654498217962 -0.2072954962097994 0 -0.01459423862211439 -0.20951565154828869 0 -0.0279654498217962 -0.2072954962097994 0 -0.01459423862211439 -0.20951565154828869 0 -0.01843167941786995 -0.1971872313579337 0 -0.01459423862211439 -0.20951565154828869 0 -0.0078558202761950489 -0.19775503520096671 0 0.0025689561348744431 -0.21461094376595721 0 -0.01543363019013182 -0.22304391087715519 0 -0.01459423862211439 -0.20951565154828869 0 0.0025689561348744431 -0.21461094376595721 0 -0.01057488861986809 -0.18415519504167921 0 -0.0078558202761950489 -0.19775503520096671 0 0.0073116621217151666 -0.1932980156746201 0 -0.01459423862211439 -0.20951565154828869 0 -0.0078558202761950489 -0.19775503520096671 0 -0.01843167941786995 -0.1971872313579337 0 -0.01057488861986809 -0.18415519504167921 0 -0.0078558202761950489 -0.19775503520096671 0 -0.01843167941786995 -0.1971872313579337 0 -0.02729121091382028 -0.1869068469888604 0 -0.0279654498217962 -0.2072954962097994 0 -0.01843167941786995 -0.1971872313579337 0 -0.01057488861986809 -0.18415519504167921 0 -0.02729121091382028 -0.1869068469888604 0 -0.01843167941786995 -0.1971872313579337 0 -0.02729121091382028 -0.1869068469888604 0 -0.041076256762030333 -0.20832335449519659 0 -0.02729121091382028 -0.1869068469888604 0 -0.0279654498217962 -0.2072954962097994 0 -0.041076256762030333 -0.20832335449519659 0 -0.02729121091382028 -0.1869068469888604 0 -0.048356650034831063 -0.1892249846969554 0 -0.041076256762030333 -0.20832335449519659 0 -0.048356650034831063 -0.1892249846969554 0 -0.041076256762030333 -0.20832335449519659 0 -0.065630277621913827 -0.20054845122868289 0 -0.041076256762030333 -0.20832335449519659 0 -0.054861302610240373 -0.22973986200153271 0 -0.065630277621913827 -0.20054845122868289 0 -0.0279654498217962 -0.2072954962097994 0 -0.041076256762030333 -0.20832335449519659 0 -0.039522482848820033 -0.22446818977854821 0 -0.029623475595277459 -0.23731651944019039 0 -0.0279654498217962 -0.2072954962097994 0 -0.039522482848820033 -0.22446818977854821 0 -0.041076256762030333 -0.20832335449519659 0 -0.039522482848820033 -0.22446818977854821 0 -0.054861302610240373 -0.22973986200153271 0 -0.041076256762030333 -0.20832335449519659 0 -0.054861302610240373 -0.22973986200153271 0 -0.068646348458450399 -0.2511563695078689 0 -0.054861302610240373 -0.22973986200153271 0 -0.047143118815789628 -0.24985250916153681 0 -0.039522482848820033 -0.22446818977854821 0 -0.054861302610240373 -0.22973986200153271 0 -0.047143118815789628 -0.24985250916153681 0 -0.068646348458450399 -0.2511563695078689 0 -0.054861302610240373 -0.22973986200153271 0 -0.029623475595277459 -0.23731651944019039 0 -0.039522482848820033 -0.22446818977854821 0 -0.047143118815789628 -0.24985250916153681 0 -0.068646348458450399 -0.2511563695078689 0 -0.088959221645703759 -0.24720496961205471 0 -0.08048204654520652 -0.22279026382569209 0 -0.068646348458450399 -0.2511563695078689 0 -0.054861302610240373 -0.22973986200153271 0 -0.08048204654520652 -0.22279026382569209 0 -0.08048204654520652 -0.22279026382569209 0 -0.097337589186154164 -0.21463534010606841 0 -0.095364849032306992 -0.2297673342627482 0 -0.088959221645703759 -0.24720496961205471 0 -0.08048204654520652 -0.22279026382569209 0 -0.095364849032306992 -0.2297673342627482 0 -0.08048204654520652 -0.22279026382569209 0 -0.065630277621913827 -0.20054845122868289 0 -0.091500517234966217 -0.19617857834737421 0 -0.08048204654520652 -0.22279026382569209 0 -0.091500517234966217 -0.19617857834737421 0 -0.097337589186154164 -0.21463534010606841 0 -0.054861302610240373 -0.22973986200153271 0 -0.08048204654520652 -0.22279026382569209 0 -0.065630277621913827 -0.20054845122868289 0 -0.065630277621913827 -0.20054845122868289 0 -0.091500517234966217 -0.19617857834737421 0 -0.081754546806007994 -0.1765656853068571 0 -0.091500517234966217 -0.19617857834737421 0 -0.10797080132899831 -0.18854151556675439 0 -0.1105355520199284 -0.20358814810337719 0 -0.10797080132899831 -0.18854151556675439 0 -0.1156160934687812 -0.19360016351114229 0 -0.1105355520199284 -0.20358814810337719 0 -0.10797080132899831 -0.18854151556675439 0 -0.1156160934687812 -0.19360016351114229 0 -0.11911384278818631 -0.18690315822082609 0 -0.1156160934687812 -0.19360016351114229 0 -0.12484417773801169 -0.1953678321536115 0 -0.11911384278818631 -0.18690315822082609 0 -0.1156160934687812 -0.19360016351114229 0 -0.12484417773801169 -0.1953678321536115 0 -0.1105355520199284 -0.20358814810337719 0 -0.12484417773801169 -0.1953678321536115 0 -0.1105355520199284 -0.20358814810337719 0 -0.12853023031189881 -0.21643239449427951 0 -0.1105355520199284 -0.20358814810337719 0 -0.1091033932948887 -0.2229606022220923 0 -0.12853023031189881 -0.21643239449427951 0 -0.1105355520199284 -0.20358814810337719 0 -0.097337589186154164 -0.21463534010606841 0 -0.1091033932948887 -0.2229606022220923 0 -0.091500517234966217 -0.19617857834737421 0 -0.1105355520199284 -0.20358814810337719 0 -0.097337589186154164 -0.21463534010606841 0 -0.095364849032306992 -0.2297673342627482 0 -0.1091033932948887 -0.2229606022220923 0 -0.1009419944895818 -0.24124549554783359 0 -0.097337589186154164 -0.21463534010606841 0 -0.095364849032306992 -0.2297673342627482 0 -0.1091033932948887 -0.2229606022220923 0 -0.1091033932948887 -0.2229606022220923 0 -0.11262697415218841 -0.2390220259887155 0 -0.1304900602801248 -0.23871316617187019 0 -0.1091033932948887 -0.2229606022220923 0 -0.1304900602801248 -0.23871316617187019 0 -0.12853023031189881 -0.21643239449427951 0 -0.1091033932948887 -0.2229606022220923 0 -0.1304900602801248 -0.23871316617187019 0 -0.1258446824533215 -0.25577711636975708 0 -0.10997244854415909 -0.25316884001306722 0 -0.1304900602801248 -0.23871316617187019 0 -0.10997244854415909 -0.25316884001306722 0 -0.1304900602801248 -0.23871316617187019 0 -0.10997244854415909 -0.25316884001306722 0 -0.11262697415218841 -0.2390220259887155 0 -0.1304900602801248 -0.23871316617187019 0 -0.098963799053631313 -0.2518750100948739 0 -0.10997244854415909 -0.25316884001306722 0 -0.1009419944895818 -0.24124549554783359 0 -0.10997244854415909 -0.25316884001306722 0 -0.1009419944895818 -0.24124549554783359 0 -0.088959221645703759 -0.24720496961205471 0 -0.095364849032306992 -0.2297673342627482 0 -0.1009419944895818 -0.24124549554783359 0 -0.1091033932948887 -0.2229606022220923 0 -0.11262697415218841 -0.2390220259887155 0 -0.1009419944895818 -0.24124549554783359 0 -0.10997244854415909 -0.25316884001306722 0 -0.11262697415218841 -0.2390220259887155 0 -0.1009419944895818 -0.24124549554783359 0 -0.098963799053631313 -0.2518750100948739 0 -0.088959221645703759 -0.24720496961205471 0 -0.1009419944895818 -0.24124549554783359 0 -0.088309304022651136 -0.13826382758417621 0 -0.073759549268774205 -0.14266819862230459 0 -0.095876730159852694 -0.15785727969552751 0 -0.073759549268774205 -0.14266819862230459 0 -0.095876730159852694 -0.15785727969552751 0 -0.073759549268774205 -0.14266819862230459 0 -0.074423126205592507 -0.16056347651643449 0 -0.095876730159852694 -0.15785727969552751 0 -0.077066326810620062 -0.1231158227599511 0 -0.092090906958989263 -0.1189276133016728 0 -0.075284079801123505 -0.13569495522900071 0 -0.092090906958989263 -0.1189276133016728 0 -0.088309304022651136 -0.13826382758417621 0 -0.075284079801123505 -0.13569495522900071 0 -0.092090906958989263 -0.1189276133016728 0 -0.075284079801123505 -0.13569495522900071 0 -0.088309304022651136 -0.13826382758417621 0 -0.075284079801123505 -0.13569495522900071 0 -0.073759549268774205 -0.14266819862230459 0 -0.051642368377695723 -0.12747911754908189 0 -0.073759549268774205 -0.14266819862230459 0 -0.075284079801123505 -0.13569495522900071 0 -0.065293028178876181 -0.12632163291712131 0 -0.073759549268774205 -0.14266819862230459 0 -0.051642368377695723 -0.12747911754908189 0 -0.065293028178876181 -0.12632163291712131 0 -0.073759549268774205 -0.14266819862230459 0 -0.077066326810620062 -0.1231158227599511 0 -0.075284079801123505 -0.13569495522900071 0 -0.065293028178876181 -0.12632163291712131 0 -0.061642554253983108 -0.153568089519416 0 -0.073759549268774205 -0.14266819862230459 0 -0.074423126205592507 -0.16056347651643449 0 -0.059082250539344482 -0.17215812943806749 0 -0.074423126205592507 -0.16056347651643449 0 -0.081754546806007994 -0.1765656853068571 0 -0.059082250539344482 -0.17215812943806749 0 -0.061642554253983108 -0.153568089519416 0 -0.074423126205592507 -0.16056347651643449 0 -0.059082250539344482 -0.17215812943806749 0 -0.065630277621913827 -0.20054845122868289 0 -0.081754546806007994 -0.1765656853068571 0 -0.091500517234966217 -0.19617857834737421 0 -0.081754546806007994 -0.1765656853068571 0 -0.1011301392752733 -0.17351220238990789 0 -0.081754546806007994 -0.1765656853068571 0 -0.095876730159852694 -0.15785727969552751 0 -0.1011301392752733 -0.17351220238990789 0 -0.074423126205592507 -0.16056347651643449 0 -0.081754546806007994 -0.1765656853068571 0 -0.095876730159852694 -0.15785727969552751 0 -0.095876730159852694 -0.15785727969552751 0 -0.1011301392752733 -0.17351220238990789 0 -0.117993911050928 -0.1730463607687549 0 -0.095876730159852694 -0.15785727969552751 0 -0.117993911050928 -0.1730463607687549 0 -0.091500517234966217 -0.19617857834737421 0 -0.10797080132899831 -0.18854151556675439 0 -0.1011301392752733 -0.17351220238990789 0 -0.10797080132899831 -0.18854151556675439 0 -0.1011301392752733 -0.17351220238990789 0 -0.1120639233141643 -0.180366075897262 0 -0.1011301392752733 -0.17351220238990789 0 -0.1120639233141643 -0.180366075897262 0 -0.117993911050928 -0.1730463607687549 0 -0.117993911050928 -0.1730463607687549 0 -0.11788858074010961 -0.17907908173099971 0 -0.13583591185835239 -0.18529944121815531 0 -0.11788858074010961 -0.17907908173099971 0 -0.11911384278818631 -0.18690315822082609 0 -0.13583591185835239 -0.18529944121815531 0 -0.10797080132899831 -0.18854151556675439 0 -0.1120639233141643 -0.180366075897262 0 -0.11911384278818631 -0.18690315822082609 0 -0.1120639233141643 -0.180366075897262 0 -0.11788858074010961 -0.17907908173099971 0 -0.11911384278818631 -0.18690315822082609 0 -0.1120639233141643 -0.180366075897262 0 -0.117993911050928 -0.1730463607687549 0 -0.11788858074010961 -0.17907908173099971 0 -0.117993911050928 -0.1730463607687549 0 -0.1146191771272988 -0.15147496615403289 0 -0.13156242977898769 -0.15640490474892951 0 -0.095876730159852694 -0.15785727969552751 0 -0.117993911050928 -0.1730463607687549 0 -0.1146191771272988 -0.15147496615403289 0 -0.1146191771272988 -0.15147496615403289 0 -0.1179383412710736 -0.13555611369786971 0 -0.1308907161730814 -0.14216640680757811 0 -0.1146191771272988 -0.15147496615403289 0 -0.104535253924516 -0.13617109107237571 0 -0.1179383412710736 -0.13555611369786971 0 -0.095876730159852694 -0.15785727969552751 0 -0.1146191771272988 -0.15147496615403289 0 -0.104535253924516 -0.13617109107237571 0 -0.088309304022651136 -0.13826382758417621 0 -0.095876730159852694 -0.15785727969552751 0 -0.104535253924516 -0.13617109107237571 0 -0.092090906958989263 -0.1189276133016728 0 -0.088309304022651136 -0.13826382758417621 0 -0.104535253924516 -0.13617109107237571 0 -0.11310725105060811 -0.118391659403649 0 -0.104535253924516 -0.13617109107237571 0 -0.1141294298435067 -0.12233305716590361 0 -0.11310725105060811 -0.118391659403649 0 -0.104535253924516 -0.13617109107237571 0 -0.1141294298435067 -0.12233305716590361 0 -0.104535253924516 -0.13617109107237571 0 -0.1179383412710736 -0.13555611369786971 0 -0.1141294298435067 -0.12233305716590361 0 -0.1179383412710736 -0.13555611369786971 0 -0.12900171569180649 -0.12691748121282759 0 -0.12900171569180649 -0.12691748121282759 0 -0.1496245191556991 -0.12933887079428141 0 -0.1308907161730814 -0.14216640680757811 0 -0.1179383412710736 -0.13555611369786971 0 -0.12900171569180649 -0.12691748121282759 0 -0.1308907161730814 -0.14216640680757811 0 -0.1496245191556991 -0.12933887079428141 0 -0.14732152045047231 -0.14822835742844731 0 -0.1308907161730814 -0.14216640680757811 0 -0.1496245191556991 -0.12933887079428141 0 -0.14732152045047231 -0.14822835742844731 0 -0.16775673951982739 -0.14026574656223131 0 -0.1146191771272988 -0.15147496615403289 0 -0.1308907161730814 -0.14216640680757811 0 -0.13156242977898769 -0.15640490474892951 0 -0.14732152045047231 -0.14822835742844731 0 -0.1308907161730814 -0.14216640680757811 0 -0.13156242977898769 -0.15640490474892951 0 -0.117993911050928 -0.1730463607687549 0 -0.14698682409315489 -0.16710843258583891 0 -0.117993911050928 -0.1730463607687549 0 -0.13156242977898769 -0.15640490474892951 0 -0.14698682409315489 -0.16710843258583891 0 -0.117993911050928 -0.1730463607687549 0 -0.13583591185835239 -0.18529944121815531 0 -0.14698682409315489 -0.16710843258583891 0 -0.117993911050928 -0.1730463607687549 0 -0.13583591185835239 -0.18529944121815531 0 -0.13583591185835239 -0.18529944121815531 0 -0.14698682409315489 -0.16710843258583891 0 -0.1597895418879744 -0.1816107782820785 0 -0.14732152045047231 -0.14822835742844731 0 -0.13156242977898769 -0.15640490474892951 0 -0.14698682409315489 -0.16710843258583891 0 -0.14698682409315489 -0.16710843258583891 0 -0.1759797371353802 -0.161170504402915 0 -0.14698682409315489 -0.16710843258583891 0 -0.1597895418879744 -0.1816107782820785 0 -0.1759797371353802 -0.161170504402915 0 -0.14732152045047231 -0.14822835742844731 0 -0.14698682409315489 -0.16710843258583891 0 -0.1759797371353802 -0.161170504402915 0 -0.1597895418879744 -0.1816107782820785 0 -0.17797059457359909 -0.18531808792297619 0 -0.1759797371353802 -0.161170504402915 0 -0.1597895418879744 -0.1816107782820785 0 -0.17797059457359909 -0.18531808792297619 0 -0.168286271001586 -0.1932156818950255 0 -0.17797059457359909 -0.18531808792297619 0 -0.1759797371353802 -0.161170504402915 0 -0.18919656493007339 -0.1756295279606965 0 -0.17797059457359909 -0.18531808792297619 0 -0.19223169949253269 -0.1862191905815592 0 -0.18919656493007339 -0.1756295279606965 0 -0.1759797371353802 -0.161170504402915 0 -0.16775673951982739 -0.14026574656223131 0 -0.188096768204188 -0.14031979395207969 0 -0.16775673951982739 -0.14026574656223131 0 -0.188096768204188 -0.14031979395207969 0 -0.17776115265339729 -0.12227120623343279 0 -0.1496245191556991 -0.12933887079428141 0 -0.16775673951982739 -0.14026574656223131 0 -0.17776115265339729 -0.12227120623343279 0 -0.14732152045047231 -0.14822835742844731 0 -0.1759797371353802 -0.161170504402915 0 -0.16775673951982739 -0.14026574656223131 0 -0.15309437346675669 -0.25536259963707592 0 -0.13271600617476459 -0.24035270893364119 0 -0.1459823471092366 -0.23998942114121269 0 -0.15186809817949001 -0.22365127947595709 0 -0.16001697483938829 -0.2430835608244433 0 -0.15309437346675669 -0.25536259963707592 0 -0.1459823471092366 -0.23998942114121269 0 -0.13271600617476459 -0.24035270893364119 0 -0.15309437346675669 -0.25536259963707592 0 -0.1459823471092366 -0.23998942114121269 0 -0.16001697483938829 -0.2430835608244433 0 -0.1258446824533215 -0.25577711636975708 0 -0.1304900602801248 -0.23871316617187019 0 -0.13271600617476459 -0.24035270893364119 0 -0.13557688051857611 -0.25670165262233902 0 -0.13271600617476459 -0.24035270893364119 0 -0.1304900602801248 -0.23871316617187019 0 -0.13271600617476459 -0.24035270893364119 0 -0.13221628288578499 -0.23749695683494759 0 -0.1304900602801248 -0.23871316617187019 0 -0.13271600617476459 -0.24035270893364119 0 -0.13271600617476459 -0.24035270893364119 0 -0.13221628288578499 -0.23749695683494759 0 -0.1304900602801248 -0.23871316617187019 0 -0.13221628288578499 -0.23749695683494759 0 -0.1459823471092366 -0.23998942114121269 0 -0.13271600617476459 -0.24035270893364119 0 -0.13221628288578499 -0.23749695683494759 0 -0.13221628288578499 -0.23749695683494759 0 -0.15186809817949001 -0.22365127947595709 0 -0.12853023031189881 -0.21643239449427951 0 -0.13221628288578499 -0.23749695683494759 0 -0.12853023031189881 -0.21643239449427951 0 -0.1304900602801248 -0.23871316617187019 0 -0.13221628288578499 -0.23749695683494759 0 -0.12853023031189881 -0.21643239449427951 0 -0.13221628288578499 -0.23749695683494759 0 -0.15186809817949001 -0.22365127947595709 0 -0.1459823471092366 -0.23998942114121269 0 -0.13221628288578499 -0.23749695683494759 0 -0.15186809817949001 -0.22365127947595709 0 -0.15186809817949001 -0.22365127947595709 0 -0.1389512661507053 -0.20366069380191279 0 -0.1536779126657738 -0.1975525216675604 0 -0.15186809817949001 -0.22365127947595709 0 -0.1389512661507053 -0.20366069380191279 0 -0.12853023031189881 -0.21643239449427951 0 -0.12484417773801169 -0.1953678321536115 0 -0.1389512661507053 -0.20366069380191279 0 -0.12853023031189881 -0.21643239449427951 0 -0.12484417773801169 -0.1953678321536115 0 -0.12853023031189881 -0.21643239449427951 0 -0.12484417773801169 -0.1953678321536115 0 -0.13583591185835239 -0.18529944121815531 0 -0.1389512661507053 -0.20366069380191279 0 -0.12484417773801169 -0.1953678321536115 0 -0.11911384278818631 -0.18690315822082609 0 -0.13583591185835239 -0.18529944121815531 0 -0.13583591185835239 -0.18529944121815531 0 -0.1536779126657738 -0.1975525216675604 0 -0.13583591185835239 -0.18529944121815531 0 -0.1389512661507053 -0.20366069380191279 0 -0.1536779126657738 -0.1975525216675604 0 -0.13583591185835239 -0.18529944121815531 0 -0.1597895418879744 -0.1816107782820785 0 -0.1536779126657738 -0.1975525216675604 0 -0.1597895418879744 -0.1816107782820785 0 -0.1536779126657738 -0.1975525216675604 0 -0.168286271001586 -0.1932156818950255 0 -0.168286271001586 -0.1932156818950255 0 -0.17556223650597361 -0.19756665138220289 0 -0.17151991347319451 -0.20980560211696631 0 -0.1536779126657738 -0.1975525216675604 0 -0.168286271001586 -0.1932156818950255 0 -0.17151991347319451 -0.20980560211696631 0 -0.17797059457359909 -0.18531808792297619 0 -0.168286271001586 -0.1932156818950255 0 -0.17556223650597361 -0.19756665138220289 0 -0.17797059457359909 -0.18531808792297619 0 -0.1839932769132612 -0.19472811876981561 0 -0.17556223650597361 -0.19756665138220289 0 -0.17797059457359909 -0.18531808792297619 0 -0.1839932769132612 -0.19472811876981561 0 -0.19223169949253269 -0.1862191905815592 0 -0.1839932769132612 -0.19472811876981561 0 -0.1807780329950141 -0.20020647295848151 0 -0.17556223650597361 -0.19756665138220289 0 -0.1839932769132612 -0.19472811876981561 0 -0.18636835028985901 -0.20166503451682111 0 -0.1807780329950141 -0.20020647295848151 0 -0.18636835028985901 -0.20166503451682111 0 -0.1807780329950141 -0.20020647295848151 0 -0.18082992803141121 -0.2037071009239354 0 -0.1807780329950141 -0.20020647295848151 0 -0.17760513498489161 -0.20255360873520939 0 -0.18082992803141121 -0.2037071009239354 0 -0.1807780329950141 -0.20020647295848151 0 -0.17760513498489161 -0.20255360873520939 0 -0.17556223650597361 -0.19756665138220289 0 -0.17760513498489161 -0.20255360873520939 0 -0.17618246778687649 -0.20676317049723411 0 -0.17151991347319451 -0.20980560211696631 0 -0.17618246778687649 -0.20676317049723411 0 -0.18326652231269691 -0.2065907784171005 0 -0.1958170994693216 -0.21730221596085439 0 -0.17760513498489161 -0.20255360873520939 0 -0.17556223650597361 -0.19756665138220289 0 -0.17151991347319451 -0.20980560211696631 0 -0.17618246778687649 -0.20676317049723411 0 -0.18894727346128609 -0.221773925975913 0 -0.1958170994693216 -0.21730221596085439 0 -0.17618246778687649 -0.20676317049723411 0 -0.17151991347319451 -0.20980560211696631 0 -0.18894727346128609 -0.221773925975913 0 -0.17618246778687649 -0.20676317049723411 0 -0.1958170994693216 -0.21730221596085439 0 -0.17151991347319451 -0.20980560211696631 0 -0.17886716730147989 -0.22087021489191469 0 -0.18894727346128609 -0.221773925975913 0 -0.17151991347319451 -0.20980560211696631 0 -0.18894727346128609 -0.221773925975913 0 -0.17618246778687649 -0.20676317049723411 0 -0.17151991347319451 -0.20980560211696631 0 -0.17760513498489161 -0.20255360873520939 0 -0.17618246778687649 -0.20676317049723411 0 -0.18082992803141121 -0.2037071009239354 0 -0.18636835028985901 -0.20166503451682111 0 -0.18326652231269691 -0.2065907784171005 0 -0.18082992803141121 -0.2037071009239354 0 -0.17618246778687649 -0.20676317049723411 0 -0.18326652231269691 -0.2065907784171005 0 -0.18082992803141121 -0.2037071009239354 0 -0.18636835028985901 -0.20166503451682111 0 -0.18326652231269691 -0.2065907784171005 0 -0.18956947232880081 -0.20557988265799659 0 -0.15186809817949001 -0.22365127947595709 0 -0.1536779126657738 -0.1975525216675604 0 -0.17151991347319451 -0.20980560211696631 0 -0.15186809817949001 -0.22365127947595709 0 -0.17151991347319451 -0.20980560211696631 0 -0.1536779126657738 -0.1975525216675604 0 -0.17151991347319451 -0.20980560211696631 0 -0.15186809817949001 -0.22365127947595709 0 -0.16649314152121369 -0.23612698996095829 0 -0.16001697483938829 -0.2430835608244433 0 -0.15186809817949001 -0.22365127947595709 0 -0.17245166458002109 -0.22761093272521221 0 -0.16649314152121369 -0.23612698996095829 0 -0.15186809817949001 -0.22365127947595709 0 -0.17151991347319451 -0.20980560211696631 0 -0.17245166458002109 -0.22761093272521221 0 -0.17151991347319451 -0.20980560211696631 0 -0.17886716730147989 -0.22087021489191469 0 -0.17245166458002109 -0.22761093272521221 0 -0.17886716730147989 -0.22087021489191469 0 -0.18102163438476301 -0.2255136632786319 0 -0.17245166458002109 -0.22761093272521221 0 -0.18102163438476301 -0.2255136632786319 0 -0.18382043219626479 -0.2317995795214878 0 -0.18894727346128609 -0.221773925975913 0 -0.17886716730147989 -0.22087021489191469 0 -0.18102163438476301 -0.2255136632786319 0 -0.18894727346128609 -0.221773925975913 0 -0.18382043219626479 -0.2317995795214878 0 -0.17245166458002109 -0.22761093272521221 0 -0.1767717929044347 -0.23902818854984051 0 -0.17245166458002109 -0.22761093272521221 0 -0.1767717929044347 -0.23902818854984051 0 -0.16649314152121369 -0.23612698996095829 0 -0.18102163438476301 -0.2255136632786319 0 -0.18382043219626479 -0.2317995795214878 0 -0.17245166458002109 -0.22761093272521221 0 -0.18382043219626479 -0.2317995795214878 0 -0.18525651928669931 -0.24195952821666231 0 -0.1921035568929127 -0.23999606710382601 0 -0.18382043219626479 -0.2317995795214878 0 -0.1767717929044347 -0.23902818854984051 0 -0.18525651928669931 -0.24195952821666231 0 -0.18686634063891161 -0.25398893287349822 0 -0.18525651928669931 -0.24195952821666231 0 -0.1804529627194961 -0.24864717750799409 0 -0.1767717929044347 -0.23902818854984051 0 -0.18525651928669931 -0.24195952821666231 0 -0.1804529627194961 -0.24864717750799409 0 -0.1767717929044347 -0.23902818854984051 0 -0.1804529627194961 -0.24864717750799409 0 -0.1713571771027344 -0.24726098822933809 0 -0.1667769972662568 -0.25351468790209408 0 -0.1713571771027344 -0.24726098822933809 0 -0.16001697483938829 -0.2430835608244433 0 -0.1713571771027344 -0.24726098822933809 0 -0.16649314152121369 -0.23612698996095829 0 -0.16001697483938829 -0.2430835608244433 0 -0.1767717929044347 -0.23902818854984051 0 -0.1713571771027344 -0.24726098822933809 0 -0.16649314152121369 -0.23612698996095829 0 -0.15309437346675669 -0.25536259963707592 0 -0.16001697483938829 -0.2430835608244433 0 -0.20553144351213509 -0.24512301550947829 0 -0.21545173115176641 -0.2278412614244755 0 -0.20553144351213509 -0.24512301550947829 0 -0.20637463344937709 -0.23374224983486061 0 -0.21545173115176641 -0.2278412614244755 0 -0.21585130694543089 -0.24093159790691809 0 -0.20553144351213509 -0.24512301550947829 0 -0.21545173115176641 -0.2278412614244755 0 -0.2141936021013538 -0.24934680281214069 0 -0.21585130694543089 -0.24093159790691809 0 -0.20553144351213509 -0.24512301550947829 0 -0.2141936021013538 -0.24934680281214069 0 -0.21585130694543089 -0.24093159790691809 0 -0.22037987511787449 -0.2476690190108799 0 -0.20553144351213509 -0.24512301550947829 0 -0.19921763183437821 -0.2396396386401404 0 -0.20637463344937709 -0.23374224983486061 0 -0.20553144351213509 -0.24512301550947829 0 -0.19394185750954579 -0.24588879648796261 0 -0.19921763183437821 -0.2396396386401404 0 -0.19548769938327429 -0.25185137861635509 0 -0.20553144351213509 -0.24512301550947829 0 -0.19394185750954579 -0.24588879648796261 0 -0.18525651928669931 -0.24195952821666231 0 -0.19394185750954579 -0.24588879648796261 0 -0.1921035568929127 -0.23999606710382601 0 -0.18686634063891161 -0.25398893287349822 0 -0.18525651928669931 -0.24195952821666231 0 -0.19394185750954579 -0.24588879648796261 0 -0.18382043219626479 -0.2317995795214878 0 -0.1921035568929127 -0.23999606710382601 0 -0.19395459462593981 -0.23325847220932081 0 -0.19394185750954579 -0.24588879648796261 0 -0.1921035568929127 -0.23999606710382601 0 -0.19921763183437821 -0.2396396386401404 0 -0.1921035568929127 -0.23999606710382601 0 -0.19921763183437821 -0.2396396386401404 0 -0.19395459462593981 -0.23325847220932081 0 -0.19921763183437821 -0.2396396386401404 0 -0.19395459462593981 -0.23325847220932081 0 -0.20637463344937709 -0.23374224983486061 0 -0.18894727346128609 -0.221773925975913 0 -0.20637463344937709 -0.23374224983486061 0 -0.18894727346128609 -0.221773925975913 0 -0.20637463344937709 -0.23374224983486061 0 -0.1958170994693216 -0.21730221596085439 0 -0.19395459462593981 -0.23325847220932081 0 -0.18894727346128609 -0.221773925975913 0 -0.20637463344937709 -0.23374224983486061 0 -0.18382043219626479 -0.2317995795214878 0 -0.19395459462593981 -0.23325847220932081 0 -0.18894727346128609 -0.221773925975913 0 -0.20637463344937709 -0.23374224983486061 0 -0.21545173115176641 -0.2278412614244755 0 -0.1958170994693216 -0.21730221596085439 0 -0.21545173115176641 -0.2278412614244755 0 -0.21361803479790659 -0.21158957961606559 0 -0.20732042882297941 -0.21731408273127989 0 -0.21545173115176641 -0.2278412614244755 0 -0.1958170994693216 -0.21730221596085439 0 -0.21545173115176641 -0.2278412614244755 0 -0.20732042882297941 -0.21731408273127989 0 -0.1958170994693216 -0.21730221596085439 0 -0.21361803479790659 -0.21158957961606559 0 -0.21622760932565999 -0.1891120935452357 0 -0.22207553075498909 -0.2163021932029115 0 -0.21545173115176641 -0.2278412614244755 0 -0.21361803479790659 -0.21158957961606559 0 -0.22207553075498909 -0.2163021932029115 0 -0.20701487393413809 -0.20737826717642549 0 -0.20732042882297941 -0.21731408273127989 0 -0.20116471516631149 -0.21261619674770449 0 -0.21361803479790659 -0.21158957961606559 0 -0.20701487393413809 -0.20737826717642549 0 -0.20732042882297941 -0.21731408273127989 0 -0.20732042882297941 -0.21731408273127989 0 -0.20116471516631149 -0.21261619674770449 0 -0.1958170994693216 -0.21730221596085439 0 -0.20116471516631149 -0.21261619674770449 0 -0.1958170994693216 -0.21730221596085439 0 -0.194055579148111 -0.209722057598309 0 -0.18326652231269691 -0.2065907784171005 0 -0.1958170994693216 -0.21730221596085439 0 -0.194055579148111 -0.209722057598309 0 -0.18326652231269691 -0.2065907784171005 0 -0.18956947232880081 -0.20557988265799659 0 -0.194055579148111 -0.209722057598309 0 -0.18636835028985901 -0.20166503451682111 0 -0.18956947232880081 -0.20557988265799659 0 -0.19428754179260729 -0.2031935402505313 0 -0.18956947232880081 -0.20557988265799659 0 -0.194055579148111 -0.209722057598309 0 -0.19428754179260729 -0.2031935402505313 0 -0.19428754179260729 -0.2031935402505313 0 -0.19958075306377879 -0.20775024304648421 0 -0.2023338549114212 -0.1987308612629492 0 -0.20701487393413809 -0.20737826717642549 0 -0.19958075306377879 -0.20775024304648421 0 -0.2023338549114212 -0.1987308612629492 0 -0.194055579148111 -0.209722057598309 0 -0.19428754179260729 -0.2031935402505313 0 -0.19958075306377879 -0.20775024304648421 0 -0.20116471516631149 -0.21261619674770449 0 -0.194055579148111 -0.209722057598309 0 -0.19958075306377879 -0.20775024304648421 0 -0.20701487393413809 -0.20737826717642549 0 -0.20116471516631149 -0.21261619674770449 0 -0.19958075306377879 -0.20775024304648421 0 -0.19428754179260729 -0.2031935402505313 0 -0.2023338549114212 -0.1987308612629492 0 -0.1938172410136732 -0.195713162420628 0 -0.18636835028985901 -0.20166503451682111 0 -0.19428754179260729 -0.2031935402505313 0 -0.1938172410136732 -0.195713162420628 0 -0.1839932769132612 -0.19472811876981561 0 -0.18636835028985901 -0.20166503451682111 0 -0.1938172410136732 -0.195713162420628 0 -0.1839932769132612 -0.19472811876981561 0 -0.1938172410136732 -0.195713162420628 0 -0.19223169949253269 -0.1862191905815592 0 -0.1938172410136732 -0.195713162420628 0 -0.20229668191431699 -0.1897642484658611 0 -0.19223169949253269 -0.1862191905815592 0 -0.2023338549114212 -0.1987308612629492 0 -0.1938172410136732 -0.195713162420628 0 -0.20229668191431699 -0.1897642484658611 0 -0.2023338549114212 -0.1987308612629492 0 -0.20229668191431699 -0.1897642484658611 0 -0.21622760932565999 -0.1891120935452357 0 -0.20701487393413809 -0.20737826717642549 0 -0.2023338549114212 -0.1987308612629492 0 -0.21622760932565999 -0.1891120935452357 0 -0.21361803479790659 -0.21158957961606559 0 -0.20701487393413809 -0.20737826717642549 0 -0.21622760932565999 -0.1891120935452357 0 -0.21622760932565999 -0.1891120935452357 0 -0.23393494188859509 -0.19564236616471781 0 -0.22923280627100201 -0.17970559865200841 0 -0.21622760932565999 -0.1891120935452357 0 -0.23393494188859509 -0.19564236616471781 0 -0.22207553075498909 -0.2163021932029115 0 -0.21622760932565999 -0.1891120935452357 0 -0.22207553075498909 -0.2163021932029115 0 -0.23393494188859509 -0.19564236616471781 0 -0.24297111187668549 -0.20858169444855659 0 -0.2567393143616053 -0.1905495055241665 0 -0.24297111187668549 -0.20858169444855659 0 -0.23523010932700261 -0.22239985561326239 0 -0.24960927080407369 -0.21935232859320919 0 -0.23393494188859509 -0.19564236616471781 0 -0.24297111187668549 -0.20858169444855659 0 -0.22207553075498909 -0.2163021932029115 0 -0.23393494188859509 -0.19564236616471781 0 -0.22207553075498909 -0.2163021932029115 0 -0.24297111187668549 -0.20858169444855659 0 -0.22207553075498909 -0.2163021932029115 0 -0.23523010932700261 -0.22239985561326239 0 -0.22207553075498909 -0.2163021932029115 0 -0.22574566784652891 -0.23336661420828181 0 -0.23523010932700261 -0.22239985561326239 0 -0.21545173115176641 -0.2278412614244755 0 -0.22207553075498909 -0.2163021932029115 0 -0.22574566784652891 -0.23336661420828181 0 -0.22207553075498909 -0.2163021932029115 0 -0.22574566784652891 -0.23336661420828181 0 -0.21545173115176641 -0.2278412614244755 0 -0.22207553075498909 -0.2163021932029115 0 -0.21585130694543089 -0.24093159790691809 0 -0.21545173115176641 -0.2278412614244755 0 -0.22574566784652891 -0.23336661420828181 0 -0.21545173115176641 -0.2278412614244755 0 -0.22574566784652891 -0.23336661420828181 0 -0.22574566784652891 -0.23336661420828181 0 -0.23523010932700261 -0.22239985561326239 0 -0.24538003358568761 -0.23071446379035029 0 -0.23523010932700261 -0.22239985561326239 0 -0.24960927080407369 -0.21935232859320919 0 -0.24538003358568761 -0.23071446379035029 0 -0.22574566784652891 -0.23336661420828181 0 -0.25080024285403762 -0.24681485756453511 0 -0.22574566784652891 -0.23336661420828181 0 -0.24538003358568761 -0.23071446379035029 0 -0.25080024285403762 -0.24681485756453511 0 -0.23123291610659891 -0.25887975231054122 0 -0.22574566784652891 -0.23336661420828181 0 -0.25080024285403762 -0.24681485756453511 0 -0.23123291610659891 -0.25887975231054122 0 -0.22574566784652891 -0.23336661420828181 0 -0.23123291610659891 -0.25887975231054122 0 -0.22574566784652891 -0.23336661420828181 0 -0.22037987511787449 -0.2476690190108799 0 -0.21585130694543089 -0.24093159790691809 0 -0.22574566784652891 -0.23336661420828181 0 -0.22037987511787449 -0.2476690190108799 0 -0.20497265017760541 -0.15523257621999101 0 -0.20453176646700261 -0.1347318942298841 0 -0.2103796878963313 -0.16192199388756001 0 -0.214916502863195 -0.14172850250385799 0 -0.20453176646700261 -0.1347318942298841 0 -0.2103796878963313 -0.16192199388756001 0 -0.214916502863195 -0.14172850250385799 0 -0.2103796878963313 -0.16192199388756001 0 -0.2218605197494411 -0.15117951611972821 0 -0.20453176646700261 -0.1347318942298841 0 -0.2103796878963313 -0.16192199388756001 0 -0.214916502863195 -0.14172850250385799 0 -0.20453176646700261 -0.1347318942298841 0 -0.21293542117962991 -0.1249027711967732 0 -0.20453176646700261 -0.1347318942298841 0 -0.21293542117962991 -0.1249027711967732 0 -0.19776752796672731 -0.1183196558808869 0 -0.214916502863195 -0.14172850250385799 0 -0.22487511902357021 -0.13590633708534461 0 -0.21293542117962991 -0.1249027711967732 0 -0.188096768204188 -0.14031979395207969 0 -0.19776752796672731 -0.1183196558808869 0 -0.17776115265339729 -0.12227120623343279 0 -0.20453176646700261 -0.1347318942298841 0 -0.188096768204188 -0.14031979395207969 0 -0.19776752796672731 -0.1183196558808869 0 -0.20497265017760541 -0.15523257621999101 0 -0.20453176646700261 -0.1347318942298841 0 -0.188096768204188 -0.14031979395207969 0 -0.1759797371353802 -0.161170504402915 0 -0.20497265017760541 -0.15523257621999101 0 -0.188096768204188 -0.14031979395207969 0 -0.1759797371353802 -0.161170504402915 0 -0.20497265017760541 -0.15523257621999101 0 -0.19849659365515501 -0.16663975413182511 0 -0.1759797371353802 -0.161170504402915 0 -0.19849659365515501 -0.16663975413182511 0 -0.18919656493007339 -0.1756295279606965 0 -0.1759797371353802 -0.161170504402915 0 -0.20497265017760541 -0.15523257621999101 0 -0.19223169949253269 -0.1862191905815592 0 -0.18919656493007339 -0.1756295279606965 0 -0.20130419979370009 -0.1788001027642068 0 -0.19849659365515501 -0.16663975413182511 0 -0.18919656493007339 -0.1756295279606965 0 -0.20130419979370009 -0.1788001027642068 0 -0.19849659365515501 -0.16663975413182511 0 -0.20130419979370009 -0.1788001027642068 0 -0.2066020226677116 -0.1741184860822069 0 -0.20229668191431699 -0.1897642484658611 0 -0.19223169949253269 -0.1862191905815592 0 -0.20130419979370009 -0.1788001027642068 0 -0.21622760932565999 -0.1891120935452357 0 -0.2103796878963313 -0.16192199388756001 0 -0.2211584444786861 -0.17113226163707579 0 -0.21622760932565999 -0.1891120935452357 0 -0.2103796878963313 -0.16192199388756001 0 -0.21622760932565999 -0.1891120935452357 0 -0.2066020226677116 -0.1741184860822069 0 -0.2103796878963313 -0.16192199388756001 0 -0.21622760932565999 -0.1891120935452357 0 -0.20130419979370009 -0.1788001027642068 0 -0.2066020226677116 -0.1741184860822069 0 -0.20229668191431699 -0.1897642484658611 0 -0.21622760932565999 -0.1891120935452357 0 -0.20130419979370009 -0.1788001027642068 0 -0.20497265017760541 -0.15523257621999101 0 -0.19849659365515501 -0.16663975413182511 0 -0.2103796878963313 -0.16192199388756001 0 -0.19849659365515501 -0.16663975413182511 0 -0.2066020226677116 -0.1741184860822069 0 -0.2103796878963313 -0.16192199388756001 0 -0.2103796878963313 -0.16192199388756001 0 -0.220464538345989 -0.16123352644965139 0 -0.2211584444786861 -0.17113226163707579 0 -0.2103796878963313 -0.16192199388756001 0 -0.220464538345989 -0.16123352644965139 0 -0.2218605197494411 -0.15117951611972821 0 -0.220464538345989 -0.16123352644965139 0 -0.22965961524235809 -0.16418805574072989 0 -0.2218605197494411 -0.15117951611972821 0 -0.220464538345989 -0.16123352644965139 0 -0.2211584444786861 -0.17113226163707579 0 -0.22965961524235809 -0.16418805574072989 0 -0.2211584444786861 -0.17113226163707579 0 -0.22965961524235809 -0.16418805574072989 0 -0.22923280627100201 -0.17970559865200841 0 -0.21622760932565999 -0.1891120935452357 0 -0.2211584444786861 -0.17113226163707579 0 -0.22923280627100201 -0.17970559865200841 0 -0.23393494188859509 -0.19564236616471781 0 -0.22923280627100201 -0.17970559865200841 0 -0.24579435302220051 -0.17498253912652389 0 -0.22965961524235809 -0.16418805574072989 0 -0.22923280627100201 -0.17970559865200841 0 -0.24579435302220051 -0.17498253912652389 0 -0.23393494188859509 -0.19564236616471781 0 -0.24579435302220051 -0.17498253912652389 0 -0.23393494188859509 -0.19564236616471781 0 -0.24579435302220051 -0.17498253912652389 0 -0.2567393143616053 -0.1905495055241665 0 -0.22965961524235809 -0.16418805574072989 0 -0.24579435302220051 -0.17498253912652389 0 -0.246969759414817 -0.15929965471715871 0 -0.22965961524235809 -0.16418805574072989 0 -0.246969759414817 -0.15929965471715871 0 -0.2380222603737264 -0.14728470797012619 0 -0.246969759414817 -0.15929965471715871 0 -0.2380222603737264 -0.14728470797012619 0 -0.251949978170392 -0.14888579716480249 0 -0.2380222603737264 -0.14728470797012619 0 -0.251949978170392 -0.14888579716480249 0 -0.2505328944987491 -0.13826516622860771 0 -0.2380222603737264 -0.14728470797012619 0 -0.2218605197494411 -0.15117951611972821 0 -0.22487511902357021 -0.13590633708534461 0 -0.22965961524235809 -0.16418805574072989 0 -0.2380222603737264 -0.14728470797012619 0 -0.2218605197494411 -0.15117951611972821 0 -0.214916502863195 -0.14172850250385799 0 -0.2218605197494411 -0.15117951611972821 0 -0.22487511902357021 -0.13590633708534461 0 -0.2380222603737264 -0.14728470797012619 0 -0.22487511902357021 -0.13590633708534461 0 -0.23799817438517509 -0.1300938250475 0 -0.22487511902357021 -0.13590633708534461 0 -0.22502813643062411 -0.12271537545496029 0 -0.21293542117962991 -0.1249027711967732 0 -0.22487511902357021 -0.13590633708534461 0 -0.23799817438517509 -0.1300938250475 0 -0.22502813643062411 -0.12271537545496029 0 -0.23799817438517509 -0.1300938250475 0 -0.254189505046578 -0.12121851277503951 0 -0.2505328944987491 -0.13826516622860771 0 -0.2380222603737264 -0.14728470797012619 0 -0.23799817438517509 -0.1300938250475 0 -0.2505328944987491 -0.13826516622860771 0 -0.23799817438517509 -0.1300938250475 0 -0.23495211791960549 -0.11400325712221041 0 -0.254189505046578 -0.12121851277503951 0 -0.23495211791960549 -0.11400325712221041 0 -0.24658163280016471 -0.1068018953726604 0 -0.254189505046578 -0.12121851277503951 0 -0.24658163280016471 -0.1068018953726604 0 -0.2316470895480858 -0.1002690556152417 0 -0.24277302122217681 -0.090952193315765539 0 -0.2316470895480858 -0.1002690556152417 0 -0.24277302122217681 -0.090952193315765539 0 -0.23495211791960549 -0.11400325712221041 0 -0.24658163280016471 -0.1068018953726604 0 -0.2316470895480858 -0.1002690556152417 0 -0.23495211791960549 -0.11400325712221041 0 -0.2316470895480858 -0.1002690556152417 0 -0.2159926280419813 -0.10894657553007971 0 -0.2316470895480858 -0.1002690556152417 0 -0.21619222128080209 -0.093538646119429442 0 -0.2159926280419813 -0.10894657553007971 0 -0.23495211791960549 -0.11400325712221041 0 -0.22502813643062411 -0.12271537545496029 0 -0.2159926280419813 -0.10894657553007971 0 -0.23799817438517509 -0.1300938250475 0 -0.23495211791960549 -0.11400325712221041 0 -0.22502813643062411 -0.12271537545496029 0 -0.22357774496326999 -0.067219729070829459 0 -0.25014830185026998 -0.076489164283727817 0 -0.22357774496326999 -0.067219729070829459 0 -0.24602792951155669 -0.054888869108018767 0 -0.25014830185026998 -0.076489164283727817 0 -0.2326019458855105 -0.078049988656457348 0 -0.22357774496326999 -0.067219729070829459 0 -0.25014830185026998 -0.076489164283727817 0 -0.24021362209779351 -0.082515816095052957 0 -0.2326019458855105 -0.078049988656457348 0 -0.25014830185026998 -0.076489164283727817 0 -0.24021362209779351 -0.082515816095052957 0 -0.24277302122217681 -0.090952193315765539 0 -0.2326019458855105 -0.078049988656457348 0 -0.24021362209779351 -0.082515816095052957 0 -0.25014830185026998 -0.076489164283727817 0 -0.24021362209779351 -0.082515816095052957 0 -0.24277302122217681 -0.090952193315765539 0 -0.25014830185026998 -0.076489164283727817 0 -0.24277302122217681 -0.090952193315765539 0 -0.25212157503196708 -0.077177562648615389 0 -0.25014830185026998 -0.076489164283727817 0 -0.24277302122217681 -0.090952193315765539 0 -0.2185636691423094 -0.078693604917834559 0 -0.24277302122217681 -0.090952193315765539 0 -0.2326019458855105 -0.078049988656457348 0 -0.2185636691423094 -0.078693604917834559 0 -0.2316470895480858 -0.1002690556152417 0 -0.24277302122217681 -0.090952193315765539 0 -0.2185636691423094 -0.078693604917834559 0 -0.2316470895480858 -0.1002690556152417 0 -0.2185636691423094 -0.078693604917834559 0 -0.21619222128080209 -0.093538646119429442 0 -0.2326019458855105 -0.078049988656457348 0 -0.22357774496326999 -0.067219729070829459 0 -0.2185636691423094 -0.078693604917834559 0 -0.22357774496326999 -0.067219729070829459 0 -0.19700718807627079 -0.057950293857928839 0 -0.2185636691423094 -0.078693604917834559 0 -0.20276519904445781 -0.079008048488961771 0 -0.19435431706244241 -0.066435016519903203 0 -0.2185636691423094 -0.078693604917834559 0 -0.19435431706244241 -0.066435016519903203 0 -0.22357774496326999 -0.067219729070829459 0 -0.2185636691423094 -0.078693604917834559 0 -0.19435431706244241 -0.066435016519903203 0 -0.22357774496326999 -0.067219729070829459 0 -0.19435431706244241 -0.066435016519903203 0 -0.19700718807627079 -0.057950293857928839 0 -0.2185636691423094 -0.078693604917834559 0 -0.20993710635345361 -0.086035499302444737 0 -0.20276519904445781 -0.079008048488961771 0 -0.2185636691423094 -0.078693604917834559 0 -0.21619222128080209 -0.093538646119429442 0 -0.20993710635345361 -0.086035499302444737 0 -0.20993710635345361 -0.086035499302444737 0 -0.2007383934748703 -0.093068776161286434 0 -0.20276519904445781 -0.079008048488961771 0 -0.21619222128080209 -0.093538646119429442 0 -0.20993710635345361 -0.086035499302444737 0 -0.2007383934748703 -0.093068776161286434 0 -0.2007383934748703 -0.093068776161286434 0 -0.17583236743025099 -0.092581948271860101 0 -0.2007383934748703 -0.093068776161286434 0 -0.18874008875368231 -0.08186274659593927 0 -0.17583236743025099 -0.092581948271860101 0 -0.18874008875368231 -0.08186274659593927 0 -0.20276519904445781 -0.079008048488961771 0 -0.1941308405791799 -0.075255940441801505 0 -0.2007383934748703 -0.093068776161286434 0 -0.18874008875368231 -0.08186274659593927 0 -0.20276519904445781 -0.079008048488961771 0 -0.20276519904445781 -0.079008048488961771 0 -0.1941308405791799 -0.075255940441801505 0 -0.19435431706244241 -0.066435016519903203 0 -0.18905474921759119 -0.073604810251690897 0 -0.1941308405791799 -0.075255940441801505 0 -0.19435431706244241 -0.066435016519903203 0 -0.18874008875368231 -0.08186274659593927 0 -0.18905474921759119 -0.073604810251690897 0 -0.1941308405791799 -0.075255940441801505 0 -0.22502813643062411 -0.12271537545496029 0 -0.21293542117962991 -0.1249027711967732 0 -0.2159926280419813 -0.10894657553007971 0 -0.21293542117962991 -0.1249027711967732 0 -0.2159926280419813 -0.10894657553007971 0 -0.19776752796672731 -0.1183196558808869 0 -0.21619222128080209 -0.093538646119429442 0 -0.2007383934748703 -0.093068776161286434 0 -0.2159926280419813 -0.10894657553007971 0 -0.2007383934748703 -0.093068776161286434 0 -0.2159926280419813 -0.10894657553007971 0 -0.19776752796672731 -0.1183196558808869 0 -0.2007383934748703 -0.093068776161286434 0 -0.19776752796672731 -0.1183196558808869 0 -0.18413611056777529 -0.1064711450382833 0 -0.19776752796672731 -0.1183196558808869 0 -0.17776115265339729 -0.12227120623343279 0 -0.18413611056777529 -0.1064711450382833 0 -0.17776115265339729 -0.12227120623343279 0 -0.15970023185059179 -0.1085211537177779 0 -0.18413611056777529 -0.1064711450382833 0 -0.1496245191556991 -0.12933887079428141 0 -0.17776115265339729 -0.12227120623343279 0 -0.15970023185059179 -0.1085211537177779 0 -0.15970023185059179 -0.1085211537177779 0 -0.17583236743025099 -0.092581948271860101 0 -0.15092634138563171 -0.092095120382433754 0 -0.15970023185059179 -0.1085211537177779 0 -0.18413611056777529 -0.1064711450382833 0 -0.17583236743025099 -0.092581948271860101 0 -0.2007383934748703 -0.093068776161286434 0 -0.18413611056777529 -0.1064711450382833 0 -0.17583236743025099 -0.092581948271860101 0 -0.18874008875368231 -0.08186274659593927 0 -0.17583236743025099 -0.092581948271860101 0 -0.16794231577089461 -0.079761988809182949 0 -0.18905474921759119 -0.073604810251690897 0 -0.19435431706244241 -0.066435016519903203 0 -0.17798812032596931 -0.070794825004925344 0 -0.19435431706244241 -0.066435016519903203 0 -0.17798812032596931 -0.070794825004925344 0 -0.17334950409905539 -0.064294848172699592 0 -0.18874008875368231 -0.08186274659593927 0 -0.17798812032596931 -0.070794825004925344 0 -0.16794231577089461 -0.079761988809182949 0 -0.18874008875368231 -0.08186274659593927 0 -0.18905474921759119 -0.073604810251690897 0 -0.17798812032596931 -0.070794825004925344 0 -0.17798812032596931 -0.070794825004925344 0 -0.17334950409905539 -0.064294848172699592 0 -0.16853193209630141 -0.070550373307184958 0 -0.1611920487663992 -0.071971245091739355 0 -0.16794231577089461 -0.079761988809182949 0 -0.15219126776745831 -0.077263939159783107 0 -0.17334950409905539 -0.064294848172699592 0 -0.16853193209630141 -0.070550373307184958 0 -0.1617995837780504 -0.063501511756548001 0 -0.16853193209630141 -0.070550373307184958 0 -0.1611920487663992 -0.071971245091739355 0 -0.16794231577089461 -0.079761988809182949 0 -0.17798812032596931 -0.070794825004925344 0 -0.16853193209630141 -0.070550373307184958 0 -0.16794231577089461 -0.079761988809182949 0 -0.16853193209630141 -0.070550373307184958 0 -0.1611920487663992 -0.071971245091739355 0 -0.1617995837780504 -0.063501511756548001 0 -0.1611920487663992 -0.071971245091739355 0 -0.1617995837780504 -0.063501511756548001 0 -0.15334625818487541 -0.068329446307143285 0 -0.17583236743025099 -0.092581948271860101 0 -0.15092634138563171 -0.092095120382433754 0 -0.16794231577089461 -0.079761988809182949 0 -0.15092634138563171 -0.092095120382433754 0 -0.15219126776745831 -0.077263939159783107 0 -0.17583236743025099 -0.092581948271860101 0 -0.16794231577089461 -0.079761988809182949 0 -0.15092634138563171 -0.092095120382433754 0 -0.15092634138563171 -0.092095120382433754 0 -0.15219126776745831 -0.077263939159783107 0 -0.13898756159465389 -0.082200896096235293 0 -0.1617995837780504 -0.063501511756548001 0 -0.15334625818487541 -0.068329446307143285 0 -0.15214618860058829 -0.059970873792622177 0 -0.15334625818487541 -0.068329446307143285 0 -0.14750308805286719 -0.070901965540095646 0 -0.14524537214388911 -0.066367142502071416 0 -0.15334625818487541 -0.068329446307143285 0 -0.14524537214388911 -0.066367142502071416 0 -0.15214618860058829 -0.059970873792622177 0 -0.1611920487663992 -0.071971245091739355 0 -0.15334625818487541 -0.068329446307143285 0 -0.15219126776745831 -0.077263939159783107 0 -0.15334625818487541 -0.068329446307143285 0 -0.15219126776745831 -0.077263939159783107 0 -0.14750308805286719 -0.070901965540095646 0 -0.15219126776745831 -0.077263939159783107 0 -0.1431931220555959 -0.07412467076078473 0 -0.14750308805286719 -0.070901965540095646 0 -0.15219126776745831 -0.077263939159783107 0 -0.1431931220555959 -0.07412467076078473 0 -0.13898756159465389 -0.082200896096235293 0 -0.1431931220555959 -0.07412467076078473 0 -0.14750308805286719 -0.070901965540095646 0 -0.14524537214388911 -0.066367142502071416 0 -0.1252887905871862 -0.071246382780057779 0 -0.13060480733131111 -0.062769656238290325 0 -0.13208673788871669 -0.079025746841858965 0 -0.13208673788871669 -0.079025746841858965 0 -0.14351723604397501 -0.055317414010957328 0 -0.13060480733131111 -0.062769656238290325 0 -0.13208673788871669 -0.079025746841858965 0 -0.14351723604397501 -0.055317414010957328 0 -0.14524537214388911 -0.066367142502071416 0 -0.13208673788871669 -0.079025746841858965 0 -0.14351723604397501 -0.055317414010957328 0 -0.1431931220555959 -0.07412467076078473 0 -0.14524537214388911 -0.066367142502071416 0 -0.13208673788871669 -0.079025746841858965 0 -0.1199759999593505 -0.061147326138363413 0 -0.1252887905871862 -0.071246382780057779 0 -0.13060480733131111 -0.062769656238290325 0 -0.15092634138563171 -0.092095120382433754 0 -0.12602031534101249 -0.091608292493005256 0 -0.15092634138563171 -0.092095120382433754 0 -0.13898756159465389 -0.082200896096235293 0 -0.12602031534101249 -0.091608292493005256 0 -0.1431931220555959 -0.07412467076078473 0 -0.13898756159465389 -0.082200896096235293 0 -0.13208673788871669 -0.079025746841858965 0 -0.11960034576529351 -0.091482803977369742 0 -0.13208673788871669 -0.079025746841858965 0 -0.13898756159465389 -0.082200896096235293 0 -0.13208673788871669 -0.079025746841858965 0 -0.12602031534101249 -0.091608292493005256 0 -0.13208673788871669 -0.079025746841858965 0 -0.12602031534101249 -0.091608292493005256 0 -0.11960034576529351 -0.091482803977369742 0 -0.13208673788871669 -0.079025746841858965 0 -0.12602031534101249 -0.091608292493005256 0 -0.15092634138563171 -0.092095120382433754 0 -0.12602031534101249 -0.091608292493005256 0 -0.140479195309413 -0.1024298406672295 0 -0.12602031534101249 -0.091608292493005256 0 -0.140479195309413 -0.1024298406672295 0 -0.12782718843326679 -0.1077510237618079 0 -0.140479195309413 -0.1024298406672295 0 -0.12782718843326679 -0.1077510237618079 0 -0.1381765362974551 -0.1154102851847566 0 -0.1241185921724796 -0.11763917851931099 0 -0.12782718843326679 -0.1077510237618079 0 -0.1381765362974551 -0.1154102851847566 0 -0.12900171569180649 -0.12691748121282759 0 -0.1496245191556991 -0.12933887079428141 0 -0.1381765362974551 -0.1154102851847566 0 -0.1241185921724796 -0.11763917851931099 0 -0.12900171569180649 -0.12691748121282759 0 -0.1381765362974551 -0.1154102851847566 0 -0.1496245191556991 -0.12933887079428141 0 -0.15970023185059179 -0.1085211537177779 0 -0.1381765362974551 -0.1154102851847566 0 -0.15970023185059179 -0.1085211537177779 0 -0.15092634138563171 -0.092095120382433754 0 -0.140479195309413 -0.1024298406672295 0 -0.15970023185059179 -0.1085211537177779 0 -0.140479195309413 -0.1024298406672295 0 -0.1381765362974551 -0.1154102851847566 0 -0.134349519402996 -0.017558475734515591 0 -0.14386607430227269 -0.039411423432125933 0 -0.16125941783903791 -0.021496536108029221 0 -0.134349519402996 -0.017558475734515591 0 -0.16125941783903791 -0.021496536108029221 0 -0.14889000309009101 0.00072237580605188456 0 -0.134349519402996 -0.017558475734515591 0 -0.14889000309009101 0.00072237580605188456 0 -0.12483296450371829 0.0042944719630943241 0 -0.134349519402996 -0.017558475734515591 0 -0.12483296450371829 0.0042944719630943241 0 -0.134349519402996 -0.017558475734515591 0 -0.14386607430227269 -0.039411423432125933 0 -0.11569648051418779 -0.029584146356119501 0 -0.134349519402996 -0.017558475734515591 0 -0.14386607430227269 -0.039411423432125933 0 -0.11569648051418779 -0.029584146356119501 0 -0.13215527217732731 -0.047111411420214147 0 -0.14386607430227269 -0.039411423432125933 0 -0.11569648051418779 -0.029584146356119501 0 -0.14386607430227269 -0.039411423432125933 0 -0.13215527217732731 -0.047111411420214147 0 -0.14386607430227269 -0.039411423432125933 0 -0.14576969783760441 -0.043782730695500469 0 -0.1199759999593505 -0.061147326138363413 0 -0.13060480733131111 -0.062769656238290325 0 -0.13215527217732731 -0.047111411420214147 0 -0.13060480733131111 -0.062769656238290325 0 -0.13215527217732731 -0.047111411420214147 0 -0.14351723604397501 -0.055317414010957328 0 -0.13215527217732731 -0.047111411420214147 0 -0.14351723604397501 -0.055317414010957328 0 -0.14576969783760441 -0.043782730695500469 0 -0.14351723604397501 -0.055317414010957328 0 -0.14951716699764911 -0.052795217330088851 0 -0.15214618860058829 -0.059970873792622177 0 -0.14524537214388911 -0.066367142502071416 0 -0.14351723604397501 -0.055317414010957328 0 -0.15214618860058829 -0.059970873792622177 0 -0.14351723604397501 -0.055317414010957328 0 -0.14951716699764911 -0.052795217330088851 0 -0.14576969783760441 -0.043782730695500469 0 -0.14951716699764911 -0.052795217330088851 0 -0.14576969783760441 -0.043782730695500469 0 -0.1566355455084287 -0.052109850821275457 0 -0.14951716699764911 -0.052795217330088851 0 -0.15214618860058829 -0.059970873792622177 0 -0.1566355455084287 -0.052109850821275457 0 -0.15214618860058829 -0.059970873792622177 0 -0.15845530213329359 -0.05778104920057181 0 -0.1566355455084287 -0.052109850821275457 0 -0.14386607430227269 -0.039411423432125933 0 -0.14576969783760441 -0.043782730695500469 0 -0.17043663118927141 -0.048680858645028191 0 -0.14386607430227269 -0.039411423432125933 0 -0.14576969783760441 -0.043782730695500469 0 -0.17043663118927141 -0.048680858645028191 0 -0.18376909661972679 -0.035297787356954588 0 -0.16125941783903791 -0.021496536108029221 0 -0.14386607430227269 -0.039411423432125933 0 -0.17043663118927141 -0.048680858645028191 0 -0.16125941783903791 -0.021496536108029221 0 -0.14386607430227269 -0.039411423432125933 0 -0.17043663118927141 -0.048680858645028191 0 -0.14576969783760441 -0.043782730695500469 0 -0.1566355455084287 -0.052109850821275457 0 -0.17043663118927141 -0.048680858645028191 0 -0.1617995837780504 -0.063501511756548001 0 -0.15214618860058829 -0.059970873792622177 0 -0.15845530213329359 -0.05778104920057181 0 -0.1617995837780504 -0.063501511756548001 0 -0.15845530213329359 -0.05778104920057181 0 -0.1640122296941677 -0.055858208949516333 0 -0.15845530213329359 -0.05778104920057181 0 -0.1640122296941677 -0.055858208949516333 0 -0.1566355455084287 -0.052109850821275457 0 -0.1640122296941677 -0.055858208949516333 0 -0.1566355455084287 -0.052109850821275457 0 -0.17043663118927141 -0.048680858645028191 0 -0.1640122296941677 -0.055858208949516333 0 -0.17043663118927141 -0.048680858645028191 0 -0.17014496498257531 -0.054176428121971827 0 -0.17334950409905539 -0.064294848172699592 0 -0.1617995837780504 -0.063501511756548001 0 -0.16732657063846221 -0.059457749250183933 0 -0.17334950409905539 -0.064294848172699592 0 -0.17014496498257531 -0.054176428121971827 0 -0.16732657063846221 -0.059457749250183933 0 -0.1640122296941677 -0.055858208949516333 0 -0.17014496498257531 -0.054176428121971827 0 -0.16732657063846221 -0.059457749250183933 0 -0.1617995837780504 -0.063501511756548001 0 -0.1640122296941677 -0.055858208949516333 0 -0.16732657063846221 -0.059457749250183933 0 -0.19435431706244241 -0.066435016519903203 0 -0.17014496498257531 -0.054176428121971827 0 -0.17043663118927141 -0.048680858645028191 0 -0.17014496498257531 -0.054176428121971827 0 -0.19700718807627079 -0.057950293857928839 0 -0.19435431706244241 -0.066435016519903203 0 -0.17014496498257531 -0.054176428121971827 0 -0.19700718807627079 -0.057950293857928839 0 -0.19435431706244241 -0.066435016519903203 0 -0.17334950409905539 -0.064294848172699592 0 -0.17014496498257531 -0.054176428121971827 0 -0.17043663118927141 -0.048680858645028191 0 -0.19700718807627079 -0.057950293857928839 0 -0.17043663118927141 -0.048680858645028191 0 -0.18376909661972679 -0.035297787356954588 0 -0.19700718807627079 -0.057950293857928839 0 -0.18376909661972679 -0.035297787356954588 0 -0.16125941783903791 -0.021496536108029221 0 -0.187172112442341 -0.015141111201997581 0 -0.16125941783903791 -0.021496536108029221 0 -0.17065618491538839 -0.0026151246944228139 0 -0.14889000309009101 0.00072237580605188456 0 -0.16125941783903791 -0.021496536108029221 0 -0.17065618491538839 -0.0026151246944228139 0 -0.187172112442341 -0.015141111201997581 0 -0.17065618491538839 -0.0026151246944228139 0 -0.187172112442341 -0.015141111201997581 0 -0.187178956341786 0.005394432984028804 0 -0.187172112442341 -0.015141111201997581 0 -0.20748422491642321 -0.0099107992156447638 0 -0.187178956341786 0.005394432984028804 0 -0.18376909661972679 -0.035297787356954588 0 -0.187172112442341 -0.015141111201997581 0 -0.20297013355171309 -0.033220136971789133 0 -0.187172112442341 -0.015141111201997581 0 -0.20748422491642321 -0.0099107992156447638 0 -0.20297013355171309 -0.033220136971789133 0 -0.20748422491642321 -0.0099107992156447638 0 -0.20297013355171309 -0.033220136971789133 0 -0.2251069896548237 -0.02768439321250786 0 -0.18376909661972679 -0.035297787356954588 0 -0.19700718807627079 -0.057950293857928839 0 -0.20297013355171309 -0.033220136971789133 0 -0.19700718807627079 -0.057950293857928839 0 -0.20297013355171309 -0.033220136971789133 0 -0.22420874880723429 -0.046690725984472638 0 -0.20297013355171309 -0.033220136971789133 0 -0.22420874880723429 -0.046690725984472638 0 -0.2251069896548237 -0.02768439321250786 0 -0.22357774496326999 -0.067219729070829459 0 -0.19700718807627079 -0.057950293857928839 0 -0.22420874880723429 -0.046690725984472638 0 -0.22357774496326999 -0.067219729070829459 0 -0.22420874880723429 -0.046690725984472638 0 -0.24602792951155669 -0.054888869108018767 0 -0.22420874880723429 -0.046690725984472638 0 -0.2251069896548237 -0.02768439321250786 0 -0.2477917013621572 -0.031161228971220419 0 -0.22420874880723429 -0.046690725984472638 0 -0.24602792951155669 -0.054888869108018767 0 -0.2477917013621572 -0.031161228971220419 0 -0.20748422491642321 -0.0099107992156447638 0 -0.2251069896548237 -0.02768439321250786 0 -0.2280162795440209 0.00094182137733508128 0 -0.2251069896548237 -0.02768439321250786 0 -0.24429266456682411 -0.012741883709930129 0 -0.2280162795440209 0.00094182137733508128 0 -0.2251069896548237 -0.02768439321250786 0 -0.2477917013621572 -0.031161228971220419 0 -0.24429266456682411 -0.012741883709930129 0 -0.2251069896548237 -0.02768439321250786 0 -0.2477917013621572 -0.031161228971220419 0 -0.24429266456682411 -0.012741883709930129 0 -0.25646739882962399 0.0055647659645772299 0 -0.2280162795440209 0.00094182137733508128 0 -0.2640809534434948 -0.01137038370783469 0 -0.25646739882962399 0.0055647659645772299 0 -0.27174873755910511 0.00342512925504642 0 -0.24429266456682411 -0.012741883709930129 0 -0.2640809534434948 -0.01137038370783469 0 -0.25646739882962399 0.0055647659645772299 0 -0.2477917013621572 -0.031161228971220419 0 -0.27080166019552843 -0.023158443312277441 0 -0.27047641306949072 -0.034638064729932978 0 -0.2477917013621572 -0.031161228971220419 0 -0.24429266456682411 -0.012741883709930129 0 -0.2640809534434948 -0.01137038370783469 0 -0.2477917013621572 -0.031161228971220419 0 -0.2640809534434948 -0.01137038370783469 0 -0.27080166019552843 -0.023158443312277441 0 -0.27080166019552843 -0.023158443312277441 0 -0.28809004758343471 -0.0098998350530341908 0 -0.28356918551906429 -0.028722704099364921 0 -0.27080166019552843 -0.023158443312277441 0 -0.28356918551906429 -0.028722704099364921 0 -0.27047641306949072 -0.034638064729932978 0 -0.2640809534434948 -0.01137038370783469 0 -0.27080166019552843 -0.023158443312277441 0 -0.28809004758343471 -0.0098998350530341908 0 -0.2640809534434948 -0.01137038370783469 0 -0.28809004758343471 -0.0098998350530341908 0 -0.27174873755910511 0.00342512925504642 0 -0.28809004758343471 -0.0098998350530341908 0 -0.30196489690574541 -0.0077508121335443849 0 -0.29835272231256632 0.0053727347104894768 0 -0.28809004758343471 -0.0098998350530341908 0 -0.30027187589331777 -0.021869576725001311 0 -0.30196489690574541 -0.0077508121335443849 0 -0.28809004758343471 -0.0098998350530341908 0 -0.29316112477682388 -0.038114900488647567 0 -0.28809004758343471 -0.0098998350530341908 0 -0.28356918551906429 -0.028722704099364921 0 -0.29316112477682388 -0.038114900488647567 0 -0.28809004758343471 -0.0098998350530341908 0 -0.30027187589331777 -0.021869576725001311 0 -0.29316112477682388 -0.038114900488647567 0 -0.30444247788395939 -0.027653944734468659 0 -0.29316112477682388 -0.038114900488647567 0 -0.31660502819419972 -0.026859545921428241 0 -0.30027187589331777 -0.021869576725001311 0 -0.30444247788395939 -0.027653944734468659 0 -0.29316112477682388 -0.038114900488647567 0 -0.30027187589331777 -0.021869576725001311 0 -0.30444247788395939 -0.027653944734468659 0 -0.30694146358220981 -0.024151233867870141 0 -0.30444247788395939 -0.027653944734468659 0 -0.30694146358220981 -0.024151233867870141 0 -0.31660502819419972 -0.026859545921428241 0 -0.30694146358220981 -0.024151233867870141 0 -0.31069736782152091 -0.01684641255951393 0 -0.31660502819419972 -0.026859545921428241 0 -0.30027187589331777 -0.021869576725001311 0 -0.30694146358220981 -0.024151233867870141 0 -0.31069736782152091 -0.01684641255951393 0 -0.31069736782152091 -0.01684641255951393 0 -0.30196489690574541 -0.0077508121335443849 0 -0.31440000161692611 -0.0053431533753960873 0 -0.30196489690574541 -0.0077508121335443849 0 -0.31440000161692611 -0.0053431533753960873 0 -0.30721282198120747 0.0007786483151762106 0 -0.30196489690574541 -0.0077508121335443849 0 -0.30721282198120747 0.0007786483151762106 0 -0.29835272231256632 0.0053727347104894768 0 -0.30027187589331777 -0.021869576725001311 0 -0.31069736782152091 -0.01684641255951393 0 -0.30196489690574541 -0.0077508121335443849 0 -0.30881470940386557 -0.055922442442182488 0 -0.29622611160166279 -0.048537089076558008 0 -0.3022330691371557 -0.07706345559571709 0 -0.30881470940386557 -0.055922442442182488 0 -0.3093232085376556 -0.040592027440044101 0 -0.31900255271295869 -0.050805102055294898 0 -0.30881470940386557 -0.055922442442182488 0 -0.3093232085376556 -0.040592027440044101 0 -0.29622611160166279 -0.048537089076558008 0 -0.3093232085376556 -0.040592027440044101 0 -0.29316112477682388 -0.038114900488647567 0 -0.29316112477682388 -0.038114900488647567 0 -0.31660502819419972 -0.026859545921428241 0 -0.3093232085376556 -0.040592027440044101 0 -0.29316112477682388 -0.038114900488647567 0 -0.31660502819419972 -0.026859545921428241 0 -0.3093232085376556 -0.040592027440044101 0 -0.29938279007138652 -0.043547136676643991 0 -0.29316112477682388 -0.038114900488647567 0 -0.3093232085376556 -0.040592027440044101 0 -0.29622611160166279 -0.048537089076558008 0 -0.3093232085376556 -0.040592027440044101 0 -0.29938279007138652 -0.043547136676643991 0 -0.29622611160166279 -0.048537089076558008 0 -0.29938279007138652 -0.043547136676643991 0 -0.29580605669143428 -0.046542295496516339 0 -0.29622611160166279 -0.048537089076558008 0 -0.29938279007138652 -0.043547136676643991 0 -0.29580605669143428 -0.046542295496516339 0 -0.28356918551906429 -0.028722704099364921 0 -0.29316112477682388 -0.038114900488647567 0 -0.27047641306949072 -0.034638064729932978 0 -0.29938279007138652 -0.043547136676643991 0 -0.29580605669143428 -0.046542295496516339 0 -0.29316112477682388 -0.038114900488647567 0 -0.29316112477682388 -0.038114900488647567 0 -0.27047641306949072 -0.034638064729932978 0 -0.29027947964862533 -0.04364805525929831 0 -0.29316112477682388 -0.038114900488647567 0 -0.28404228674773252 -0.043778841641957431 0 -0.29580605669143428 -0.046542295496516339 0 -0.29316112477682388 -0.038114900488647567 0 -0.29580605669143428 -0.046542295496516339 0 -0.29027947964862533 -0.04364805525929831 0 -0.29316112477682388 -0.038114900488647567 0 -0.29316112477682388 -0.038114900488647567 0 -0.28404228674773252 -0.043778841641957431 0 -0.27901806186115652 -0.044904946708698733 0 -0.29316112477682388 -0.038114900488647567 0 -0.27901806186115652 -0.044904946708698733 0 -0.29027947964862533 -0.04364805525929831 0 -0.28404228674773252 -0.043778841641957431 0 -0.28605790160624439 -0.054705406799289827 0 -0.28404228674773252 -0.043778841641957431 0 -0.28605790160624439 -0.054705406799289827 0 -0.27792920247002439 -0.05963650076443143 0 -0.29622611160166279 -0.048537089076558008 0 -0.28605790160624439 -0.054705406799289827 0 -0.28910843390781071 -0.068930714293637757 0 -0.29580605669143428 -0.046542295496516339 0 -0.28605790160624439 -0.054705406799289827 0 -0.29622611160166279 -0.048537089076558008 0 -0.28605790160624439 -0.054705406799289827 0 -0.29580605669143428 -0.046542295496516339 0 -0.29622611160166279 -0.048537089076558008 0 -0.28605790160624439 -0.054705406799289827 0 -0.29580605669143428 -0.046542295496516339 0 -0.29027947964862533 -0.04364805525929831 0 -0.28605790160624439 -0.054705406799289827 0 -0.29580605669143428 -0.046542295496516339 0 -0.29622611160166279 -0.048537089076558008 0 -0.28605790160624439 -0.054705406799289827 0 -0.27686132763545152 -0.062406623724105097 0 -0.28910843390781071 -0.068930714293637757 0 -0.28605790160624439 -0.054705406799289827 0 -0.27792920247002439 -0.05963650076443143 0 -0.28605790160624439 -0.054705406799289827 0 -0.27686132763545152 -0.062406623724105097 0 -0.28404228674773252 -0.043778841641957431 0 -0.27792920247002439 -0.05963650076443143 0 -0.28404228674773252 -0.043778841641957431 0 -0.27792920247002439 -0.05963650076443143 0 -0.27901806186115652 -0.044904946708698733 0 -0.28605790160624439 -0.054705406799289827 0 -0.27792920247002439 -0.05963650076443143 0 -0.27686132763545152 -0.062406623724105097 0 -0.27792920247002439 -0.05963650076443143 0 -0.26487499894548849 -0.051694992928748358 0 -0.26403875216014627 -0.068062832524078035 0 -0.27792920247002439 -0.05963650076443143 0 -0.27686132763545152 -0.062406623724105097 0 -0.27792920247002439 -0.05963650076443143 0 -0.27901806186115652 -0.044904946708698733 0 -0.26487499894548849 -0.051694992928748358 0 -0.27901806186115652 -0.044904946708698733 0 -0.26487499894548849 -0.051694992928748358 0 -0.29316112477682388 -0.038114900488647567 0 -0.27901806186115652 -0.044904946708698733 0 -0.27047641306949072 -0.034638064729932978 0 -0.27901806186115652 -0.044904946708698733 0 -0.26777925798681468 -0.043080377586840572 0 -0.27047641306949072 -0.034638064729932978 0 -0.27901806186115652 -0.044904946708698733 0 -0.26777925798681468 -0.043080377586840572 0 -0.26487499894548849 -0.051694992928748358 0 -0.2477917013621572 -0.031161228971220419 0 -0.27047641306949072 -0.034638064729932978 0 -0.25809577343029588 -0.042108608370273033 0 -0.2477917013621572 -0.031161228971220419 0 -0.27047641306949072 -0.034638064729932978 0 -0.24602792951155669 -0.054888869108018767 0 -0.2477917013621572 -0.031161228971220419 0 -0.25809577343029588 -0.042108608370273033 0 -0.26777925798681468 -0.043080377586840572 0 -0.27047641306949072 -0.034638064729932978 0 -0.25809577343029588 -0.042108608370273033 0 -0.26777925798681468 -0.043080377586840572 0 -0.25809577343029588 -0.042108608370273033 0 -0.26487499894548849 -0.051694992928748358 0 -0.24602792951155669 -0.054888869108018767 0 -0.26487499894548849 -0.051694992928748358 0 -0.26403875216014627 -0.068062832524078035 0 -0.24602792951155669 -0.054888869108018767 0 -0.25809577343029588 -0.042108608370273033 0 -0.26487499894548849 -0.051694992928748358 0 -0.24602792951155669 -0.054888869108018767 0 -0.26403875216014627 -0.068062832524078035 0 -0.25014830185026998 -0.076489164283727817 0 -0.26403875216014627 -0.068062832524078035 0 -0.25981717442881369 -0.076679408519934752 0 -0.25212157503196708 -0.077177562648615389 0 -0.26403875216014627 -0.068062832524078035 0 -0.25014830185026998 -0.076489164283727817 0 -0.26403875216014627 -0.068062832524078035 0 -0.25212157503196708 -0.077177562648615389 0 -0.25014830185026998 -0.076489164283727817 0 -0.25212157503196708 -0.077177562648615389 0 -0.25014830185026998 -0.076489164283727817 0 -0.24277302122217681 -0.090952193315765539 0 -0.25973597639427948 -0.088820457135835015 0 -0.26208700869058771 -0.10073197684392381 0 -0.24277302122217681 -0.090952193315765539 0 -0.25981717442881369 -0.076679408519934752 0 -0.25212157503196708 -0.077177562648615389 0 -0.24277302122217681 -0.090952193315765539 0 -0.25981717442881369 -0.076679408519934752 0 -0.24277302122217681 -0.090952193315765539 0 -0.25981717442881369 -0.076679408519934752 0 -0.25973597639427948 -0.088820457135835015 0 -0.25973597639427948 -0.088820457135835015 0 -0.26947416816302039 -0.081569300284014795 0 -0.26208700869058771 -0.10073197684392381 0 -0.25981717442881369 -0.076679408519934752 0 -0.25973597639427948 -0.088820457135835015 0 -0.26947416816302039 -0.081569300284014795 0 -0.26947416816302039 -0.081569300284014795 0 -0.26208700869058771 -0.10073197684392381 0 -0.27435265142897208 -0.094754738881479852 0 -0.26947416816302039 -0.081569300284014795 0 -0.27435265142897208 -0.094754738881479852 0 -0.28745179038932089 -0.090935586627009513 0 -0.26947416816302039 -0.081569300284014795 0 -0.26208700869058771 -0.10073197684392381 0 -0.27686132763545152 -0.062406623724105097 0 -0.25981717442881369 -0.076679408519934752 0 -0.26947416816302039 -0.081569300284014795 0 -0.27686132763545152 -0.062406623724105097 0 -0.26403875216014627 -0.068062832524078035 0 -0.25981717442881369 -0.076679408519934752 0 -0.27686132763545152 -0.062406623724105097 0 -0.26947416816302039 -0.081569300284014795 0 -0.27686132763545152 -0.062406623724105097 0 -0.25981717442881369 -0.076679408519934752 0 -0.27686132763545152 -0.062406623724105097 0 -0.26947416816302039 -0.081569300284014795 0 -0.28910843390781071 -0.068930714293637757 0 -0.27792920247002439 -0.05963650076443143 0 -0.26403875216014627 -0.068062832524078035 0 -0.27792920247002439 -0.05963650076443143 0 -0.27686132763545152 -0.062406623724105097 0 -0.26403875216014627 -0.068062832524078035 0 -0.254189505046578 -0.12121851277503951 0 -0.26208700869058771 -0.10073197684392381 0 -0.24658163280016471 -0.1068018953726604 0 -0.254189505046578 -0.12121851277503951 0 -0.26208700869058771 -0.10073197684392381 0 -0.254189505046578 -0.12121851277503951 0 -0.26208700869058771 -0.10073197684392381 0 -0.27679416883208552 -0.10817905853707729 0 -0.24277302122217681 -0.090952193315765539 0 -0.26208700869058771 -0.10073197684392381 0 -0.24658163280016471 -0.1068018953726604 0 -0.24277302122217681 -0.090952193315765539 0 -0.26208700869058771 -0.10073197684392381 0 -0.27435265142897208 -0.094754738881479852 0 -0.27679416883208552 -0.10817905853707729 0 -0.28745179038932089 -0.090935586627009513 0 -0.26208700869058771 -0.10073197684392381 0 -0.27435265142897208 -0.094754738881479852 0 -0.27679416883208552 -0.10817905853707729 0 -0.26208700869058771 -0.10073197684392381 0 -0.27679416883208552 -0.10817905853707729 0 -0.254189505046578 -0.12121851277503951 0 -0.27679416883208552 -0.10817905853707729 0 -0.27468981838948858 -0.13048667777345549 0 -0.27679416883208552 -0.10817905853707729 0 -0.293028678261397 -0.11529817736122271 0 -0.27468981838948858 -0.13048667777345549 0 -0.27679416883208552 -0.10817905853707729 0 -0.293028678261397 -0.11529817736122271 0 -0.28745179038932089 -0.090935586627009513 0 -0.293028678261397 -0.11529817736122271 0 -0.30824002667264799 -0.1055898221148763 0 -0.28745179038932089 -0.090935586627009513 0 -0.30824002667264799 -0.1055898221148763 0 -0.31424698420813829 -0.1341161886340359 0 -0.293028678261397 -0.11529817736122271 0 -0.30824002667264799 -0.1055898221148763 0 -0.31424698420813829 -0.1341161886340359 0 -0.29622611160166279 -0.048537089076558008 0 -0.28910843390781071 -0.068930714293637757 0 -0.3022330691371557 -0.07706345559571709 0 -0.28910843390781071 -0.068930714293637757 0 -0.28745179038932089 -0.090935586627009513 0 -0.3022330691371557 -0.07706345559571709 0 -0.26947416816302039 -0.081569300284014795 0 -0.28910843390781071 -0.068930714293637757 0 -0.28745179038932089 -0.090935586627009513 0 -0.30824002667264799 -0.1055898221148763 0 -0.28745179038932089 -0.090935586627009513 0 -0.3022330691371557 -0.07706345559571709 0 -0.30824002667264799 -0.1055898221148763 0 -0.3022330691371557 -0.07706345559571709 0 -0.30824002667264799 -0.1055898221148763 0 -0.3022330691371557 -0.07706345559571709 0 -0.31950869427494732 -0.087938058573092198 0 -0.30881470940386557 -0.055922442442182488 0 -0.3022330691371557 -0.07706345559571709 0 -0.31844748660330169 -0.065537492508149359 0 -0.29622611160166279 -0.048537089076558008 0 -0.3022330691371557 -0.07706345559571709 0 -0.31844748660330169 -0.065537492508149359 0 -0.33432031482707419 -0.074052806928731452 0 -0.32796733461191402 -0.053632597751500893 0 -0.3022330691371557 -0.07706345559571709 0 -0.31844748660330169 -0.065537492508149359 0 -0.31950869427494732 -0.087938058573092198 0 -0.31844748660330169 -0.065537492508149359 0 -0.31950869427494732 -0.087938058573092198 0 -0.33432031482707419 -0.074052806928731452 0 -0.33432031482707419 -0.074052806928731452 0 -0.33309917709027881 -0.1015521750194604 0 -0.34586746515001698 -0.09318377274338327 0 -0.31950869427494732 -0.087938058573092198 0 -0.33432031482707419 -0.074052806928731452 0 -0.33309917709027881 -0.1015521750194604 0 -0.33432031482707419 -0.074052806928731452 0 -0.33309917709027881 -0.1015521750194604 0 -0.30824002667264799 -0.1055898221148763 0 -0.32180638386102411 -0.1293163748883559 0 -0.31424698420813829 -0.1341161886340359 0 -0.30824002667264799 -0.1055898221148763 0 -0.32314714365933228 -0.1138685028809001 0 -0.32180638386102411 -0.1293163748883559 0 -0.32314714365933228 -0.1138685028809001 0 -0.32180638386102411 -0.1293163748883559 0 -0.33187803935348509 -0.1290515431101894 0 -0.30824002667264799 -0.1055898221148763 0 -0.31950869427494732 -0.087938058573092198 0 -0.32099876042430148 -0.1022371396470823 0 -0.32314714365933228 -0.1138685028809001 0 -0.32099876042430148 -0.1022371396470823 0 -0.33309917709027881 -0.1015521750194604 0 -0.30824002667264799 -0.1055898221148763 0 -0.32314714365933228 -0.1138685028809001 0 -0.32099876042430148 -0.1022371396470823 0 -0.31950869427494732 -0.087938058573092198 0 -0.32099876042430148 -0.1022371396470823 0 -0.33309917709027881 -0.1015521750194604 0 -0.33309917709027881 -0.1015521750194604 0 -0.34441255677270077 -0.1041898651363711 0 -0.34586746515001698 -0.09318377274338327 0 -0.33309917709027881 -0.1015521750194604 0 -0.3432824317764091 -0.11578116990655909 0 -0.34441255677270077 -0.1041898651363711 0 -0.33309917709027881 -0.1015521750194604 0 -0.3432824317764091 -0.11578116990655909 0 -0.33187803935348509 -0.1290515431101894 0 -0.32314714365933228 -0.1138685028809001 0 -0.33309917709027881 -0.1015521750194604 0 -0.33187803935348509 -0.1290515431101894 0 -0.33309917709027881 -0.1015521750194604 0 -0.33187803935348509 -0.1290515431101894 0 -0.3432824317764091 -0.11578116990655909 0 -0.33187803935348509 -0.1290515431101894 0 -0.35536846517321791 -0.12843386796787101 0 -0.3432824317764091 -0.11578116990655909 0 -0.35618022070403638 -0.11574194239795681 0 -0.35536846517321791 -0.12843386796787101 0 -0.3432824317764091 -0.11578116990655909 0 -0.35618022070403638 -0.11574194239795681 0 -0.3554011530740987 -0.1062423428760816 0 -0.3554011530740987 -0.1062423428760816 0 -0.36629503360371102 -0.09908940316826241 0 -0.34586746515001698 -0.09318377274338327 0 -0.3432824317764091 -0.11578116990655909 0 -0.3554011530740987 -0.1062423428760816 0 -0.34441255677270077 -0.1041898651363711 0 -0.3554011530740987 -0.1062423428760816 0 -0.34441255677270077 -0.1041898651363711 0 -0.34586746515001698 -0.09318377274338327 0 -0.36629503360371102 -0.09908940316826241 0 -0.37066883279241641 -0.1125103888413122 0 -0.38596920041161131 -0.096586909714749911 0 -0.3554011530740987 -0.1062423428760816 0 -0.36629503360371102 -0.09908940316826241 0 -0.37066883279241641 -0.1125103888413122 0 -0.37066883279241641 -0.1125103888413122 0 -0.35536846517321791 -0.12843386796787101 0 -0.37066883279241641 -0.1125103888413122 0 -0.35536846517321791 -0.12843386796787101 0 -0.38429477213857338 -0.1276732576277744 0 -0.35618022070403638 -0.11574194239795681 0 -0.37066883279241641 -0.1125103888413122 0 -0.35536846517321791 -0.12843386796787101 0 -0.35618022070403638 -0.11574194239795681 0 -0.3554011530740987 -0.1062423428760816 0 -0.37066883279241641 -0.1125103888413122 0 -0.33432031482707419 -0.074052806928731452 0 -0.35723297798981402 -0.079057586814238884 0 -0.34592432947237839 -0.061214533497809739 0 -0.35723297798981402 -0.079057586814238884 0 -0.36135834760372071 -0.062831178590409695 0 -0.34592432947237839 -0.061214533497809739 0 -0.33432031482707419 -0.074052806928731452 0 -0.35723297798981402 -0.079057586814238884 0 -0.34586746515001698 -0.09318377274338327 0 -0.35723297798981402 -0.079057586814238884 0 -0.34586746515001698 -0.09318377274338327 0 -0.3735685165904114 -0.086923601665785083 0 -0.34586746515001698 -0.09318377274338327 0 -0.3735685165904114 -0.086923601665785083 0 -0.35723297798981402 -0.079057586814238884 0 -0.3735685165904114 -0.086923601665785083 0 -0.37386174396999827 -0.07004207195888601 0 -0.36629503360371102 -0.09908940316826241 0 -0.34586746515001698 -0.09318377274338327 0 -0.3735685165904114 -0.086923601665785083 0 -0.35723297798981402 -0.079057586814238884 0 -0.36135834760372071 -0.062831178590409695 0 -0.37386174396999827 -0.07004207195888601 0 -0.35623236657208168 -0.047781690688552113 0 -0.37968694558929478 -0.051376522312805609 0 -0.36135834760372071 -0.062831178590409695 0 -0.37386174396999827 -0.07004207195888601 0 -0.37968694558929478 -0.051376522312805609 0 -0.36135834760372071 -0.062831178590409695 0 -0.35623236657208168 -0.047781690688552113 0 -0.37968694558929478 -0.051376522312805609 0 -0.35623236657208168 -0.047781690688552113 0 -0.34592432947237839 -0.061214533497809739 0 -0.33554145256386969 -0.046553438838002753 0 -0.36135834760372071 -0.062831178590409695 0 -0.35623236657208168 -0.047781690688552113 0 -0.34592432947237839 -0.061214533497809739 0 -0.35623236657208168 -0.047781690688552113 0 -0.35709282572211209 -0.031880330874437278 0 -0.34174053228627482 -0.031400193013058478 0 -0.35623236657208168 -0.047781690688552113 0 -0.33277778755486848 -0.04418685906429861 0 -0.35709282572211209 -0.031880330874437278 0 -0.36959647692282988 -0.039271873411877482 0 -0.36705920435625289 -0.02844120131616729 0 -0.35623236657208168 -0.047781690688552113 0 -0.36959647692282988 -0.039271873411877482 0 -0.37968694558929478 -0.051376522312805609 0 -0.35623236657208168 -0.047781690688552113 0 -0.35709282572211209 -0.031880330874437278 0 -0.36959647692282988 -0.039271873411877482 0 -0.36959647692282988 -0.039271873411877482 0 -0.36705920435625289 -0.02844120131616729 0 -0.37882579726112409 -0.028287585756224039 0 -0.37137654812761201 -0.018269189602294039 0 -0.36705920435625289 -0.02844120131616729 0 -0.37882579726112409 -0.028287585756224039 0 -0.37137654812761201 -0.018269189602294039 0 -0.36280274721990918 -0.01145139556964476 0 -0.35932781379822748 -0.02134438873200217 0 -0.37137654812761201 -0.018269189602294039 0 -0.36705920435625289 -0.02844120131616729 0 -0.35932781379822748 -0.02134438873200217 0 -0.35709282572211209 -0.031880330874437278 0 -0.36705920435625289 -0.02844120131616729 0 -0.35932781379822748 -0.02134438873200217 0 -0.3730973702854341 -0.0059039825578747727 0 -0.36280274721990918 -0.01145139556964476 0 -0.35168593874130122 -0.00048752217919912488 0 -0.3730973702854341 -0.0059039825578747727 0 -0.35168593874130122 -0.00048752217919912488 0 -0.37161120188486468 0.00024567572880401063 0 -0.3730973702854341 -0.0059039825578747727 0 -0.35168593874130122 -0.00048752217919912488 0 -0.37336520549115432 -0.00087307499010229328 0 -0.3730973702854341 -0.0059039825578747727 0 -0.37161120188486468 0.00024567572880401063 0 -0.37336520549115432 -0.00087307499010229328 0 -0.37161120188486468 0.00024567572880401063 0 -0.3730973702854341 -0.0059039825578747727 0 -0.37139116449044302 -0.01222780157164253 0 -0.36280274721990918 -0.01145139556964476 0 -0.37137654812761201 -0.018269189602294039 0 -0.37139116449044302 -0.01222780157164253 0 -0.36280274721990918 -0.01145139556964476 0 -0.3730973702854341 -0.0059039825578747727 0 -0.37139116449044302 -0.01222780157164253 0 -0.37828799232881638 -0.013286638556756551 0 -0.37137654812761201 -0.018269189602294039 0 -0.37139116449044302 -0.01222780157164253 0 -0.37828799232881638 -0.013286638556756551 0 -0.36280274721990918 -0.01145139556964476 0 -0.35168593874130122 -0.00048752217919912488 0 -0.35233511453574667 -0.01446192279701875 0 -0.35168593874130122 -0.00048752217919912488 0 -0.35233511453574667 -0.01446192279701875 0 -0.339258512522289 -0.015983669419281529 0 -0.35709282572211209 -0.031880330874437278 0 -0.35932781379822748 -0.02134438873200217 0 -0.34860056039700599 -0.02304263808496617 0 -0.35233511453574667 -0.01446192279701875 0 -0.35932781379822748 -0.02134438873200217 0 -0.34860056039700599 -0.02304263808496617 0 -0.36280274721990918 -0.01145139556964476 0 -0.35233511453574667 -0.01446192279701875 0 -0.35932781379822748 -0.02134438873200217 0 -0.35233511453574667 -0.01446192279701875 0 -0.34860056039700599 -0.02304263808496617 0 -0.339258512522289 -0.015983669419281529 0 -0.35709282572211209 -0.031880330874437278 0 -0.34860056039700599 -0.02304263808496617 0 -0.34174053228627482 -0.031400193013058478 0 -0.34860056039700599 -0.02304263808496617 0 -0.339258512522289 -0.015983669419281529 0 -0.34174053228627482 -0.031400193013058478 0 -0.339258512522289 -0.015983669419281529 0 -0.32615891386979051 -0.030379022435062662 0 -0.34174053228627482 -0.031400193013058478 0 -0.339258512522289 -0.015983669419281529 0 -0.32303283329801519 -0.013159694090904339 0 -0.33027450719716839 0.004928938199476509 0 -0.35168593874130122 -0.00048752217919912488 0 -0.339258512522289 -0.015983669419281529 0 -0.33027450719716839 0.004928938199476509 0 -0.32303283329801519 -0.013159694090904339 0 -0.31440000161692611 -0.0053431533753960873 0 -0.33027450719716839 0.004928938199476509 0 -0.31069736782152091 -0.01684641255951393 0 -0.32303283329801519 -0.013159694090904339 0 -0.31440000161692611 -0.0053431533753960873 0 -0.339258512522289 -0.015983669419281529 0 -0.32303283329801519 -0.013159694090904339 0 -0.31660502819419972 -0.026859545921428241 0 -0.339258512522289 -0.015983669419281529 0 -0.32615891386979051 -0.030379022435062662 0 -0.31660502819419972 -0.026859545921428241 0 -0.339258512522289 -0.015983669419281529 0 -0.31660502819419972 -0.026859545921428241 0 -0.31069736782152091 -0.01684641255951393 0 -0.32303283329801519 -0.013159694090904339 0 -0.31660502819419972 -0.026859545921428241 0 -0.3093232085376556 -0.040592027440044101 0 -0.32615891386979051 -0.030379022435062662 0 -0.3093232085376556 -0.040592027440044101 0 -0.32615891386979051 -0.030379022435062662 0 -0.33277778755486848 -0.04418685906429861 0 -0.3093232085376556 -0.040592027440044101 0 -0.32615891386979051 -0.030379022435062662 0 -0.31660502819419972 -0.026859545921428241 0 -0.3093232085376556 -0.040592027440044101 0 -0.31900255271295869 -0.050805102055294898 0 -0.33277778755486848 -0.04418685906429861 0 -0.3093232085376556 -0.040592027440044101 0 -0.33277778755486848 -0.04418685906429861 0 -0.30881470940386557 -0.055922442442182488 0 -0.31844748660330169 -0.065537492508149359 0 -0.31900255271295869 -0.050805102055294898 0 -0.31844748660330169 -0.065537492508149359 0 -0.31900255271295869 -0.050805102055294898 0 -0.32796733461191402 -0.053632597751500893 0 -0.31900255271295869 -0.050805102055294898 0 -0.32796733461191402 -0.053632597751500893 0 -0.33277778755486848 -0.04418685906429861 0 -0.32796733461191402 -0.053632597751500893 0 -0.33554145256386969 -0.046553438838002753 0 -0.33277778755486848 -0.04418685906429861 0 -0.33432031482707419 -0.074052806928731452 0 -0.32796733461191402 -0.053632597751500893 0 -0.33554145256386969 -0.046553438838002753 0 -0.33432031482707419 -0.074052806928731452 0 -0.34592432947237839 -0.061214533497809739 0 -0.33554145256386969 -0.046553438838002753 0 -0.33432031482707419 -0.074052806928731452 0 -0.33554145256386969 -0.046553438838002753 0 -0.35623236657208168 -0.047781690688552113 0 -0.33554145256386969 -0.046553438838002753 0 -0.33277778755486848 -0.04418685906429861 0 -0.35623236657208168 -0.047781690688552113 0 -0.34174053228627482 -0.031400193013058478 0 -0.33277778755486848 -0.04418685906429861 0 -0.32615891386979051 -0.030379022435062662 0 -0.34174053228627482 -0.031400193013058478 0 -0.33277778755486848 -0.04418685906429861 0 -0.31250493720576761 -0.25430844488098953 0 -0.30405568780615239 -0.2369557931899563 0 -0.31741397077774391 -0.24514327763567981 0 -0.30405568780615239 -0.2369557931899563 0 -0.29740092255587541 -0.23008821621342851 0 -0.29391207570369138 -0.24658173919980581 0 -0.30018577843805577 -0.25082089134368207 0 -0.30405568780615239 -0.2369557931899563 0 -0.30018577843805577 -0.25082089134368207 0 -0.30405568780615239 -0.2369557931899563 0 -0.29391207570369138 -0.24658173919980581 0 -0.30405568780615239 -0.2369557931899563 0 -0.30970486571512618 -0.21671593774488859 0 -0.32012815811038431 -0.23053350248191601 0 -0.30405568780615239 -0.2369557931899563 0 -0.30970486571512618 -0.21671593774488859 0 -0.30405568780615239 -0.2369557931899563 0 -0.30494451477028323 -0.2242555619633696 0 -0.30970486571512618 -0.21671593774488859 0 -0.30494451477028323 -0.2242555619633696 0 -0.29740092255587541 -0.23008821621342851 0 -0.29904867658876733 -0.2184540094392686 0 -0.30494451477028323 -0.2242555619633696 0 -0.29904867658876733 -0.2184540094392686 0 -0.30970486571512618 -0.21671593774488859 0 -0.30405568780615239 -0.2369557931899563 0 -0.30494451477028323 -0.2242555619633696 0 -0.30405568780615239 -0.2369557931899563 0 -0.30494451477028323 -0.2242555619633696 0 -0.29740092255587541 -0.23008821621342851 0 -0.29740092255587541 -0.23008821621342851 0 -0.28587064097255072 -0.2261701866047689 0 -0.29391207570369138 -0.24658173919980581 0 -0.29740092255587541 -0.23008821621342851 0 -0.28587064097255072 -0.2261701866047689 0 -0.29904867658876733 -0.2184540094392686 0 -0.28587064097255072 -0.2261701866047689 0 -0.29391207570369138 -0.24658173919980581 0 -0.28587064097255072 -0.2261701866047689 0 -0.29391207570369138 -0.24658173919980581 0 -0.28108128759530993 -0.23836837244959999 0 -0.27916415533116201 -0.25166931560024941 0 -0.29391207570369138 -0.24658173919980581 0 -0.28108128759530993 -0.23836837244959999 0 -0.28108128759530993 -0.23836837244959999 0 -0.27019572826564497 -0.24310310817993039 0 -0.26627715808654978 -0.2263830216396179 0 -0.27916415533116201 -0.25166931560024941 0 -0.28108128759530993 -0.23836837244959999 0 -0.27019572826564497 -0.24310310817993039 0 -0.26402636709236899 -0.25518639310273511 0 -0.27916415533116201 -0.25166931560024941 0 -0.27019572826564497 -0.24310310817993039 0 -0.24538003358568761 -0.23071446379035029 0 -0.25080024285403762 -0.24681485756453511 0 -0.26627715808654978 -0.2263830216396179 0 -0.27019572826564497 -0.24310310817993039 0 -0.25080024285403762 -0.24681485756453511 0 -0.26627715808654978 -0.2263830216396179 0 -0.26402636709236899 -0.25518639310273511 0 -0.27019572826564497 -0.24310310817993039 0 -0.25080024285403762 -0.24681485756453511 0 -0.24960927080407369 -0.21935232859320919 0 -0.24538003358568761 -0.23071446379035029 0 -0.26627715808654978 -0.2263830216396179 0 -0.28587064097255072 -0.2261701866047689 0 -0.26627715808654978 -0.2263830216396179 0 -0.27782920624141011 -0.20575863400973199 0 -0.28587064097255072 -0.2261701866047689 0 -0.28108128759530993 -0.23836837244959999 0 -0.26627715808654978 -0.2263830216396179 0 -0.26627715808654978 -0.2263830216396179 0 -0.27782920624141011 -0.20575863400973199 0 -0.26023750412384788 -0.20724391759307251 0 -0.24297111187668549 -0.20858169444855659 0 -0.24960927080407369 -0.21935232859320919 0 -0.26023750412384788 -0.20724391759307251 0 -0.24960927080407369 -0.21935232859320919 0 -0.26627715808654978 -0.2263830216396179 0 -0.26023750412384788 -0.20724391759307251 0 -0.24297111187668549 -0.20858169444855659 0 -0.26023750412384788 -0.20724391759307251 0 -0.2567393143616053 -0.1905495055241665 0 -0.26023750412384788 -0.20724391759307251 0 -0.2567393143616053 -0.1905495055241665 0 -0.27212319333685198 -0.19272741649420541 0 -0.27782920624141011 -0.20575863400973199 0 -0.27212319333685198 -0.19272741649420541 0 -0.28974711822014909 -0.1956420513755614 0 -0.27782920624141011 -0.20575863400973199 0 -0.26023750412384788 -0.20724391759307251 0 -0.27212319333685198 -0.19272741649420541 0 -0.27212319333685198 -0.19272741649420541 0 -0.28974711822014909 -0.1956420513755614 0 -0.28869376662139168 -0.18023919825724971 0 -0.28974711822014909 -0.1956420513755614 0 -0.29228148710511531 -0.2095002154980686 0 -0.30408962841365289 -0.20399393861108739 0 -0.28587064097255072 -0.2261701866047689 0 -0.29228148710511531 -0.2095002154980686 0 -0.29904867658876733 -0.2184540094392686 0 -0.28587064097255072 -0.2261701866047689 0 -0.27782920624141011 -0.20575863400973199 0 -0.28587064097255072 -0.2261701866047689 0 -0.27782920624141011 -0.20575863400973199 0 -0.29228148710511531 -0.2095002154980686 0 -0.27782920624141011 -0.20575863400973199 0 -0.28974711822014909 -0.1956420513755614 0 -0.29228148710511531 -0.2095002154980686 0 -0.30408962841365289 -0.20399393861108739 0 -0.30970486571512618 -0.21671593774488859 0 -0.31535404362410219 -0.1964760822998215 0 -0.29228148710511531 -0.2095002154980686 0 -0.30408962841365289 -0.20399393861108739 0 -0.29904867658876733 -0.2184540094392686 0 -0.30408962841365289 -0.20399393861108739 0 -0.29904867658876733 -0.2184540094392686 0 -0.30970486571512618 -0.21671593774488859 0 -0.28974711822014909 -0.1956420513755614 0 -0.30408962841365289 -0.20399393861108739 0 -0.3035935180199954 -0.18126015417618169 0 -0.30408962841365289 -0.20399393861108739 0 -0.3035935180199954 -0.18126015417618169 0 -0.31535404362410219 -0.1964760822998215 0 -0.3035935180199954 -0.18126015417618169 0 -0.31535404362410219 -0.1964760822998215 0 -0.3035935180199954 -0.18126015417618169 0 -0.31037500370023718 -0.16809781012533781 0 -0.32220771102551821 -0.17192078598795621 0 -0.3035935180199954 -0.18126015417618169 0 -0.29183299241588678 -0.1660442260525434 0 -0.29672154199155948 -0.16263064046663031 0 -0.31897724376387621 -0.1565796598705825 0 -0.3035935180199954 -0.18126015417618169 0 -0.29183299241588678 -0.1660442260525434 0 -0.29672154199155948 -0.16263064046663031 0 -0.3035935180199954 -0.18126015417618169 0 -0.31037500370023718 -0.16809781012533781 0 -0.29672154199155948 -0.16263064046663031 0 -0.31037500370023718 -0.16809781012533781 0 -0.29672154199155948 -0.16263064046663031 0 -0.31897724376387621 -0.1565796598705825 0 -0.29183299241588678 -0.1660442260525434 0 -0.28791195334757119 -0.16502583116829109 0 -0.27428615338874612 -0.17829686578835499 0 -0.29183299241588678 -0.1660442260525434 0 -0.29050165999477823 -0.16432173004256709 0 -0.29672154199155948 -0.16263064046663031 0 -0.29183299241588678 -0.1660442260525434 0 -0.29672154199155948 -0.16263064046663031 0 -0.29183299241588678 -0.1660442260525434 0 -0.29050165999477823 -0.16432173004256709 0 -0.28791195334757119 -0.16502583116829109 0 -0.29183299241588678 -0.1660442260525434 0 -0.29050165999477823 -0.16432173004256709 0 -0.29050165999477823 -0.16432173004256709 0 -0.28791195334757119 -0.16502583116829109 0 -0.29050165999477823 -0.16432173004256709 0 -0.29672154199155948 -0.16263064046663031 0 -0.29050165999477823 -0.16432173004256709 0 -0.29672154199155948 -0.16263064046663031 0 -0.29127617077227352 -0.15722441172744239 0 -0.29050165999477823 -0.16432173004256709 0 -0.29127617077227352 -0.15722441172744239 0 -0.28713184661228031 -0.1599618196147343 0 -0.29127617077227352 -0.15722441172744239 0 -0.28713184661228031 -0.1599618196147343 0 -0.28624634140432359 -0.15175553750658621 0 -0.28713184661228031 -0.1599618196147343 0 -0.28011900346367968 -0.15849020587710519 0 -0.28624634140432359 -0.15175553750658621 0 -0.29050165999477823 -0.16432173004256709 0 -0.28713184661228031 -0.1599618196147343 0 -0.28713184661228031 -0.1599618196147343 0 -0.28383071432438051 -0.1621956712574518 0 -0.28791195334757119 -0.16502583116829109 0 -0.29050165999477823 -0.16432173004256709 0 -0.28713184661228031 -0.1599618196147343 0 -0.28791195334757119 -0.16502583116829109 0 -0.28383071432438051 -0.1621956712574518 0 -0.28016005387399079 -0.1653048283696768 0 -0.28011900346367968 -0.15849020587710519 0 -0.28713184661228031 -0.1599618196147343 0 -0.28383071432438051 -0.1621956712574518 0 -0.28011900346367968 -0.15849020587710519 0 -0.28383071432438051 -0.1621956712574518 0 -0.28791195334757119 -0.16502583116829109 0 -0.28016005387399079 -0.1653048283696768 0 -0.29183299241588678 -0.1660442260525434 0 -0.27428615338874612 -0.17829686578835499 0 -0.29183299241588678 -0.1660442260525434 0 -0.28869376662139168 -0.18023919825724971 0 -0.27428615338874612 -0.17829686578835499 0 -0.3035935180199954 -0.18126015417618169 0 -0.29183299241588678 -0.1660442260525434 0 -0.28869376662139168 -0.18023919825724971 0 -0.28974711822014909 -0.1956420513755614 0 -0.3035935180199954 -0.18126015417618169 0 -0.28869376662139168 -0.18023919825724971 0 -0.2567393143616053 -0.1905495055241665 0 -0.27212319333685198 -0.19272741649420541 0 -0.27428615338874612 -0.17829686578835499 0 -0.27212319333685198 -0.19272741649420541 0 -0.28869376662139168 -0.18023919825724971 0 -0.27428615338874612 -0.17829686578835499 0 -0.24579435302220051 -0.17498253912652389 0 -0.2567393143616053 -0.1905495055241665 0 -0.26098034524501362 -0.16825990766837459 0 -0.2567393143616053 -0.1905495055241665 0 -0.27428615338874612 -0.17829686578835499 0 -0.26098034524501362 -0.16825990766837459 0 -0.2567393143616053 -0.1905495055241665 0 -0.27428615338874612 -0.17829686578835499 0 -0.24579435302220051 -0.17498253912652389 0 -0.246969759414817 -0.15929965471715871 0 -0.26098034524501362 -0.16825990766837459 0 -0.246969759414817 -0.15929965471715871 0 -0.26098034524501362 -0.16825990766837459 0 -0.26047147827014538 -0.1542449580349832 0 -0.26098034524501362 -0.16825990766837459 0 -0.26955780445320149 -0.15613640627051539 0 -0.26047147827014538 -0.1542449580349832 0 -0.26098034524501362 -0.16825990766837459 0 -0.27317893518915592 -0.1645516829658614 0 -0.26955780445320149 -0.15613640627051539 0 -0.27428615338874612 -0.17829686578835499 0 -0.26098034524501362 -0.16825990766837459 0 -0.27317893518915592 -0.1645516829658614 0 -0.27428615338874612 -0.17829686578835499 0 -0.27317893518915592 -0.1645516829658614 0 -0.28016005387399079 -0.1653048283696768 0 -0.28791195334757119 -0.16502583116829109 0 -0.27428615338874612 -0.17829686578835499 0 -0.28016005387399079 -0.1653048283696768 0 -0.27317893518915592 -0.1645516829658614 0 -0.28011900346367968 -0.15849020587710519 0 -0.26955780445320149 -0.15613640627051539 0 -0.27317893518915592 -0.1645516829658614 0 -0.28016005387399079 -0.1653048283696768 0 -0.28011900346367968 -0.15849020587710519 0 -0.28011900346367968 -0.15849020587710519 0 -0.27723811421389488 -0.14896865665439421 0 -0.28624634140432359 -0.15175553750658621 0 -0.27723811421389488 -0.14896865665439421 0 -0.26535895033731988 -0.142303026422374 0 -0.28389154690755469 -0.1393635311455661 0 -0.28011900346367968 -0.15849020587710519 0 -0.27723811421389488 -0.14896865665439421 0 -0.26955780445320149 -0.15613640627051539 0 -0.27723811421389488 -0.14896865665439421 0 -0.26955780445320149 -0.15613640627051539 0 -0.26535895033731988 -0.142303026422374 0 -0.26955780445320149 -0.15613640627051539 0 -0.26047147827014538 -0.1542449580349832 0 -0.26535895033731988 -0.142303026422374 0 -0.26047147827014538 -0.1542449580349832 0 -0.26535895033731988 -0.142303026422374 0 -0.251949978170392 -0.14888579716480249 0 -0.26535895033731988 -0.142303026422374 0 -0.251949978170392 -0.14888579716480249 0 -0.2505328944987491 -0.13826516622860771 0 -0.246969759414817 -0.15929965471715871 0 -0.26047147827014538 -0.1542449580349832 0 -0.251949978170392 -0.14888579716480249 0 -0.254189505046578 -0.12121851277503951 0 -0.26535895033731988 -0.142303026422374 0 -0.27468981838948858 -0.13048667777345549 0 -0.254189505046578 -0.12121851277503951 0 -0.26535895033731988 -0.142303026422374 0 -0.2505328944987491 -0.13826516622860771 0 -0.26535895033731988 -0.142303026422374 0 -0.27468981838948858 -0.13048667777345549 0 -0.28389154690755469 -0.1393635311455661 0 -0.27468981838948858 -0.13048667777345549 0 -0.29446840129881352 -0.13230143320374599 0 -0.28389154690755469 -0.1393635311455661 0 -0.293028678261397 -0.11529817736122271 0 -0.27468981838948858 -0.13048667777345549 0 -0.29446840129881352 -0.13230143320374599 0 -0.27468981838948858 -0.13048667777345549 0 -0.29446840129881352 -0.13230143320374599 0 -0.29446840129881352 -0.13230143320374599 0 -0.28389154690755469 -0.1393635311455661 0 -0.29577946385842641 -0.147452331006693 0 -0.28389154690755469 -0.1393635311455661 0 -0.28624634140432359 -0.15175553750658621 0 -0.29577946385842641 -0.147452331006693 0 -0.27723811421389488 -0.14896865665439421 0 -0.28389154690755469 -0.1393635311455661 0 -0.28624634140432359 -0.15175553750658621 0 -0.29127617077227352 -0.15722441172744239 0 -0.28624634140432359 -0.15175553750658621 0 -0.29577946385842641 -0.147452331006693 0 -0.29672154199155948 -0.16263064046663031 0 -0.29127617077227352 -0.15722441172744239 0 -0.29577946385842641 -0.147452331006693 0 -0.29446840129881352 -0.13230143320374599 0 -0.29577946385842641 -0.147452331006693 0 -0.30591425707815129 -0.14359620090355091 0 -0.29672154199155948 -0.16263064046663031 0 -0.31723509628752322 -0.14830639721685299 0 -0.29672154199155948 -0.16263064046663031 0 -0.31723509628752322 -0.14830639721685299 0 -0.31897724376387621 -0.1565796598705825 0 -0.29672154199155948 -0.16263064046663031 0 -0.30591425707815129 -0.14359620090355091 0 -0.31723509628752322 -0.14830639721685299 0 -0.29672154199155948 -0.16263064046663031 0 -0.29577946385842641 -0.147452331006693 0 -0.30591425707815129 -0.14359620090355091 0 -0.30591425707815129 -0.14359620090355091 0 -0.31424698420813829 -0.1341161886340359 0 -0.31723509628752322 -0.14830639721685299 0 -0.29446840129881352 -0.13230143320374599 0 -0.31424698420813829 -0.1341161886340359 0 -0.29446840129881352 -0.13230143320374599 0 -0.30591425707815129 -0.14359620090355091 0 -0.31424698420813829 -0.1341161886340359 0 -0.293028678261397 -0.11529817736122271 0 -0.29446840129881352 -0.13230143320374599 0 -0.31424698420813829 -0.1341161886340359 0 -0.31424698420813829 -0.1341161886340359 0 -0.33063309343082292 -0.13561967252009291 0 -0.32180638386102411 -0.1293163748883559 0 -0.31424698420813829 -0.1341161886340359 0 -0.33063309343082292 -0.13561967252009291 0 -0.32348603036078938 -0.13903950843046389 0 -0.31424698420813829 -0.1341161886340359 0 -0.33063309343082292 -0.13561967252009291 0 -0.32180638386102411 -0.1293163748883559 0 -0.33063309343082292 -0.13561967252009291 0 -0.33187803935348509 -0.1290515431101894 0 -0.32180638386102411 -0.1293163748883559 0 -0.33187803935348509 -0.1290515431101894 0 -0.32348603036078938 -0.13903950843046389 0 -0.31424698420813829 -0.1341161886340359 0 -0.31723509628752322 -0.14830639721685299 0 -0.31424698420813829 -0.1341161886340359 0 -0.31723509628752322 -0.14830639721685299 0 -0.31723509628752322 -0.14830639721685299 0 -0.31897724376387621 -0.1565796598705825 0 -0.33162937174281171 -0.1531397422403607 0 -0.31897724376387621 -0.1565796598705825 0 -0.31723509628752322 -0.14830639721685299 0 -0.32491766482772111 -0.14903539366966739 0 -0.31897724376387621 -0.1565796598705825 0 -0.32491766482772111 -0.14903539366966739 0 -0.33162937174281171 -0.1531397422403607 0 -0.31897724376387621 -0.1565796598705825 0 -0.31723509628752322 -0.14830639721685299 0 -0.32491766482772111 -0.14903539366966739 0 -0.33182894751667441 -0.13811577535087319 0 -0.31723509628752322 -0.14830639721685299 0 -0.33182894751667441 -0.13811577535087319 0 -0.32348603036078938 -0.13903950843046389 0 -0.31723509628752322 -0.14830639721685299 0 -0.33182894751667441 -0.13811577535087319 0 -0.33162937174281171 -0.1531397422403607 0 -0.35559366334468528 -0.14662422253378729 0 -0.33162937174281171 -0.1531397422403607 0 -0.34701920265350739 -0.13712315640614989 0 -0.33162937174281171 -0.1531397422403607 0 -0.33182894751667441 -0.13811577535087319 0 -0.34701920265350739 -0.13712315640614989 0 -0.32491766482772111 -0.14903539366966739 0 -0.33162937174281171 -0.1531397422403607 0 -0.33182894751667441 -0.13811577535087319 0 -0.33187803935348509 -0.1290515431101894 0 -0.35536846517321791 -0.12843386796787101 0 -0.33063309343082292 -0.13561967252009291 0 -0.33187803935348509 -0.1290515431101894 0 -0.34701920265350739 -0.13712315640614989 0 -0.33063309343082292 -0.13561967252009291 0 -0.34701920265350739 -0.13712315640614989 0 -0.33182894751667441 -0.13811577535087319 0 -0.33063309343082292 -0.13561967252009291 0 -0.34701920265350739 -0.13712315640614989 0 -0.32348603036078938 -0.13903950843046389 0 -0.33182894751667441 -0.13811577535087319 0 -0.33063309343082292 -0.13561967252009291 0 -0.34701920265350739 -0.13712315640614989 0 -0.35536846517321791 -0.12843386796787101 0 -0.36328857880003329 -0.13861592961668229 0 -0.33187803935348509 -0.1290515431101894 0 -0.34701920265350739 -0.13712315640614989 0 -0.35536846517321791 -0.12843386796787101 0 -0.34701920265350739 -0.13712315640614989 0 -0.36328857880003329 -0.13861592961668229 0 -0.34701920265350739 -0.13712315640614989 0 -0.35536846517321791 -0.12843386796787101 0 -0.35536846517321791 -0.12843386796787101 0 -0.38429477213857338 -0.1276732576277744 0 -0.36328857880003329 -0.13861592961668229 0 -0.3795579549465592 -0.14010870282721449 0 -0.35536846517321791 -0.12843386796787101 0 -0.36328857880003329 -0.13861592961668229 0 -0.38429477213857338 -0.1276732576277744 0 -0.36328857880003329 -0.13861592961668229 0 -0.35559366334468528 -0.14662422253378729 0 -0.3795579549465592 -0.14010870282721449 0 -0.35559366334468528 -0.14662422253378729 0 -0.379699419895141 -0.15762691080158389 0 -0.3795579549465592 -0.14010870282721449 0 -0.35559366334468528 -0.14662422253378729 0 -0.3795579549465592 -0.14010870282721449 0 -0.35559366334468528 -0.14662422253378729 0 -0.35220485943903562 -0.1629136508043357 0 -0.379699419895141 -0.15762691080158389 0 -0.33162937174281171 -0.1531397422403607 0 -0.34701920265350739 -0.13712315640614989 0 -0.35559366334468528 -0.14662422253378729 0 -0.34701920265350739 -0.13712315640614989 0 -0.36328857880003329 -0.13861592961668229 0 -0.35559366334468528 -0.14662422253378729 0 -0.33162937174281171 -0.1531397422403607 0 -0.35559366334468528 -0.14662422253378729 0 -0.35220485943903562 -0.1629136508043357 0 -0.35220485943903562 -0.1629136508043357 0 -0.36025236333179561 -0.17747617621678641 0 -0.33655276795550021 -0.16610204672874529 0 -0.35220485943903562 -0.1629136508043357 0 -0.36025236333179561 -0.17747617621678641 0 -0.379699419895141 -0.15762691080158389 0 -0.36025236333179561 -0.17747617621678641 0 -0.38942163657515871 -0.17450909128745659 0 -0.36025236333179561 -0.17747617621678641 0 -0.35365571552349112 -0.19113131492125821 0 -0.3779376154186847 -0.1884457990053767 0 -0.36025236333179561 -0.17747617621678641 0 -0.33108309008843229 -0.18044326114611611 0 -0.35365571552349112 -0.19113131492125821 0 -0.36025236333179561 -0.17747617621678641 0 -0.33108309008843229 -0.18044326114611611 0 -0.36025236333179561 -0.17747617621678641 0 -0.33108309008843229 -0.18044326114611611 0 -0.33655276795550021 -0.16610204672874529 0 -0.33108309008843229 -0.18044326114611611 0 -0.33186562319645713 -0.1891842947551502 0 -0.33854633522070499 -0.19242946830625249 0 -0.33108309008843229 -0.18044326114611611 0 -0.32542703765701569 -0.18720900650431699 0 -0.33186562319645713 -0.1891842947551502 0 -0.33108309008843229 -0.18044326114611611 0 -0.33655276795550021 -0.16610204672874529 0 -0.32794147876809349 -0.17058215347232439 0 -0.33162937174281171 -0.1531397422403607 0 -0.35220485943903562 -0.1629136508043357 0 -0.33655276795550021 -0.16610204672874529 0 -0.33162937174281171 -0.1531397422403607 0 -0.33655276795550021 -0.16610204672874529 0 -0.32822328158506991 -0.16228692236104711 0 -0.33655276795550021 -0.16610204672874529 0 -0.32949547663464551 -0.16625383362279 0 -0.32794147876809349 -0.17058215347232439 0 -0.33655276795550021 -0.16610204672874529 0 -0.32822328158506991 -0.16228692236104711 0 -0.32949547663464551 -0.16625383362279 0 -0.32541333874156853 -0.16538201455910601 0 -0.31897724376387621 -0.1565796598705825 0 -0.32220771102551821 -0.17192078598795621 0 -0.32794147876809349 -0.17058215347232439 0 -0.32541333874156853 -0.16538201455910601 0 -0.32220771102551821 -0.17192078598795621 0 -0.31897724376387621 -0.1565796598705825 0 -0.32220771102551821 -0.17192078598795621 0 -0.32949547663464551 -0.16625383362279 0 -0.32794147876809349 -0.17058215347232439 0 -0.32541333874156853 -0.16538201455910601 0 -0.32822328158506991 -0.16228692236104711 0 -0.32949547663464551 -0.16625383362279 0 -0.32541333874156853 -0.16538201455910601 0 -0.33162937174281171 -0.1531397422403607 0 -0.32822328158506991 -0.16228692236104711 0 -0.31897724376387621 -0.1565796598705825 0 -0.32822328158506991 -0.16228692236104711 0 -0.32541333874156853 -0.16538201455910601 0 -0.31897724376387621 -0.1565796598705825 0 -0.31037500370023718 -0.16809781012533781 0 -0.31897724376387621 -0.1565796598705825 0 -0.32220771102551821 -0.17192078598795621 0 -0.32220771102551821 -0.17192078598795621 0 -0.31535404362410219 -0.1964760822998215 0 -0.32542703765701569 -0.18720900650431699 0 -0.32220771102551821 -0.17192078598795621 0 -0.31535404362410219 -0.1964760822998215 0 -0.3035935180199954 -0.18126015417618169 0 -0.32220771102551821 -0.17192078598795621 0 -0.31535404362410219 -0.1964760822998215 0 -0.33108309008843229 -0.18044326114611611 0 -0.32542703765701569 -0.18720900650431699 0 -0.32220771102551821 -0.17192078598795621 0 -0.32542703765701569 -0.18720900650431699 0 -0.32220771102551821 -0.17192078598795621 0 -0.33108309008843229 -0.18044326114611611 0 -0.32794147876809349 -0.17058215347232439 0 -0.32220771102551821 -0.17192078598795621 0 -0.32542703765701569 -0.18720900650431699 0 -0.31535404362410219 -0.1964760822998215 0 -0.32864636428851429 -0.20249722702067771 0 -0.32542703765701569 -0.18720900650431699 0 -0.32864636428851429 -0.20249722702067771 0 -0.30970486571512618 -0.21671593774488859 0 -0.31535404362410219 -0.1964760822998215 0 -0.30970486571512618 -0.21671593774488859 0 -0.31535404362410219 -0.1964760822998215 0 -0.33179746147729688 -0.21775080016394099 0 -0.31535404362410219 -0.1964760822998215 0 -0.33179746147729688 -0.21775080016394099 0 -0.32864636428851429 -0.20249722702067771 0 -0.31535404362410219 -0.1964760822998215 0 -0.33179746147729688 -0.21775080016394099 0 -0.33179746147729688 -0.21775080016394099 0 -0.34266337041678208 -0.20494480838617901 0 -0.34786552986480679 -0.21784506210918861 0 -0.33179746147729688 -0.21775080016394099 0 -0.34266337041678208 -0.20494480838617901 0 -0.32864636428851429 -0.20249722702067771 0 -0.33108309008843229 -0.18044326114611611 0 -0.33854633522070499 -0.19242946830625249 0 -0.35365571552349112 -0.19113131492125821 0 -0.34266337041678208 -0.20494480838617901 0 -0.32864636428851429 -0.20249722702067771 0 -0.33854633522070499 -0.19242946830625249 0 -0.32542703765701569 -0.18720900650431699 0 -0.32864636428851429 -0.20249722702067771 0 -0.33186562319645713 -0.1891842947551502 0 -0.32864636428851429 -0.20249722702067771 0 -0.33186562319645713 -0.1891842947551502 0 -0.33854633522070499 -0.19242946830625249 0 -0.34266337041678208 -0.20494480838617901 0 -0.35365571552349112 -0.19113131492125821 0 -0.35546881612587877 -0.20801497779575631 0 -0.34266337041678208 -0.20494480838617901 0 -0.33854633522070499 -0.19242946830625249 0 -0.35365571552349112 -0.19113131492125821 0 -0.35365571552349112 -0.19113131492125821 0 -0.37217796918244223 -0.20227681962270119 0 -0.35546881612587877 -0.20801497779575631 0 -0.35365571552349112 -0.19113131492125821 0 -0.37217796918244223 -0.20227681962270119 0 -0.3779376154186847 -0.1884457990053767 0 -0.37217796918244223 -0.20227681962270119 0 -0.35546881612587877 -0.20801497779575631 0 -0.3641564756750843 -0.22100412277692921 0 -0.37217796918244223 -0.20227681962270119 0 -0.3641564756750843 -0.22100412277692921 0 -0.38450253431692782 -0.21670095314376839 0 -0.35546881612587877 -0.20801497779575631 0 -0.34786552986480679 -0.21784506210918861 0 -0.3641564756750843 -0.22100412277692921 0 -0.34266337041678208 -0.20494480838617901 0 -0.35546881612587877 -0.20801497779575631 0 -0.34786552986480679 -0.21784506210918861 0 -0.34786552986480679 -0.21784506210918861 0 -0.3641564756750843 -0.22100412277692921 0 -0.34824087933049058 -0.2390255180280613 0 -0.3641564756750843 -0.22100412277692921 0 -0.37459341575030453 -0.2385005945179754 0 -0.38450253431692782 -0.21670095314376839 0 -0.3641564756750843 -0.22100412277692921 0 -0.37459341575030453 -0.2385005945179754 0 -0.34824087933049058 -0.2390255180280613 0 -0.36468429718368273 -0.26030023589218299 0 -0.37459341575030453 -0.2385005945179754 0 -0.36468429718368273 -0.26030023589218299 0 -0.37459341575030453 -0.2385005945179754 0 -0.34824087933049058 -0.2390255180280613 0 -0.36468429718368273 -0.26030023589218299 0 -0.37459341575030453 -0.2385005945179754 0 -0.38556897538264612 -0.24732553156195691 0 -0.36468429718368273 -0.26030023589218299 0 -0.34824087933049058 -0.2390255180280613 0 -0.35090124233420011 -0.25697080578385828 0 -0.34824087933049058 -0.2390255180280613 0 -0.3315482569673085 -0.2435068249102926 0 -0.33179746147729688 -0.21775080016394099 0 -0.34786552986480679 -0.21784506210918861 0 -0.34824087933049058 -0.2390255180280613 0 -0.33179746147729688 -0.21775080016394099 0 -0.34824087933049058 -0.2390255180280613 0 -0.33179746147729688 -0.21775080016394099 0 -0.34824087933049058 -0.2390255180280613 0 -0.3315482569673085 -0.2435068249102926 0 -0.30970486571512618 -0.21671593774488859 0 -0.33179746147729688 -0.21775080016394099 0 -0.32012815811038431 -0.23053350248191601 0 -0.33179746147729688 -0.21775080016394099 0 -0.3315482569673085 -0.2435068249102926 0 -0.32012815811038431 -0.23053350248191601 0 -0.30405568780615239 -0.2369557931899563 0 -0.32012815811038431 -0.23053350248191601 0 -0.31741397077774391 -0.24514327763567981 0 -0.32177140514550862 -0.25468963724256349 0 -0.3315482569673085 -0.2435068249102926 0 -0.31741397077774391 -0.24514327763567981 0 -0.3315482569673085 -0.2435068249102926 0 -0.32012815811038431 -0.23053350248191601 0 -0.31741397077774391 -0.24514327763567981 0 -0.42091305903881571 -0.25931424330286468 0 -0.42518134248153872 -0.2330725888690553 0 -0.44700065867768829 -0.24526925556255891 0 -0.42518134248153872 -0.2330725888690553 0 -0.44388600686115348 -0.21525889141220389 0 -0.42518134248153872 -0.2330725888690553 0 -0.40340119830990179 -0.21898414764216451 0 -0.41869938663746459 -0.2076543273750952 0 -0.42518134248153872 -0.2330725888690553 0 -0.40270779667787232 -0.23800759822331599 0 -0.40340119830990179 -0.21898414764216451 0 -0.42091305903881571 -0.25931424330286468 0 -0.40270779667787232 -0.23800759822331599 0 -0.42091305903881571 -0.25931424330286468 0 -0.42518134248153872 -0.2330725888690553 0 -0.40270779667787232 -0.23800759822331599 0 -0.39858603900394202 -0.25367878501820618 0 -0.40270779667787232 -0.23800759822331599 0 -0.38556897538264612 -0.24732553156195691 0 -0.37459341575030453 -0.2385005945179754 0 -0.40270779667787232 -0.23800759822331599 0 -0.38556897538264612 -0.24732553156195691 0 -0.37459341575030453 -0.2385005945179754 0 -0.38450253431692782 -0.21670095314376839 0 -0.37459341575030453 -0.2385005945179754 0 -0.40270779667787232 -0.23800759822331599 0 -0.38450253431692782 -0.21670095314376839 0 -0.40270779667787232 -0.23800759822331599 0 -0.38450253431692782 -0.21670095314376839 0 -0.40270779667787232 -0.23800759822331599 0 -0.40340119830990179 -0.21898414764216451 0 -0.38450253431692782 -0.21670095314376839 0 -0.40340119830990179 -0.21898414764216451 0 -0.39242021298502239 -0.19928239524477709 0 -0.41869938663746459 -0.2076543273750952 0 -0.40340119830990179 -0.21898414764216451 0 -0.38450253431692782 -0.21670095314376839 0 -0.39242021298502239 -0.19928239524477709 0 -0.38450253431692782 -0.21670095314376839 0 -0.39242021298502239 -0.19928239524477709 0 -0.37217796918244223 -0.20227681962270119 0 -0.38450253431692782 -0.21670095314376839 0 -0.39242021298502239 -0.19928239524477709 0 -0.37217796918244223 -0.20227681962270119 0 -0.38450253431692782 -0.21670095314376839 0 -0.37217796918244223 -0.20227681962270119 0 -0.3779376154186847 -0.1884457990053767 0 -0.39242021298502239 -0.19928239524477709 0 -0.39242021298502239 -0.19928239524477709 0 -0.40952018938004092 -0.18919966074470879 0 -0.38942163657515871 -0.17450909128745659 0 -0.39242021298502239 -0.19928239524477709 0 -0.40952018938004092 -0.18919966074470879 0 -0.41869938663746459 -0.2076543273750952 0 -0.42518134248153872 -0.2330725888690553 0 -0.41869938663746459 -0.2076543273750952 0 -0.44388600686115348 -0.21525889141220389 0 -0.41869938663746459 -0.2076543273750952 0 -0.43773717869215661 -0.18863885058216531 0 -0.44388600686115348 -0.21525889141220389 0 -0.40952018938004092 -0.18919966074470879 0 -0.41869938663746459 -0.2076543273750952 0 -0.43773717869215661 -0.18863885058216531 0 -0.41859090981852159 -0.17154200635812689 0 -0.44939656099341752 -0.16182349611448879 0 -0.43773717869215661 -0.18863885058216531 0 -0.40952018938004092 -0.18919966074470879 0 -0.41859090981852159 -0.17154200635812689 0 -0.43773717869215661 -0.18863885058216531 0 -0.41859090981852159 -0.17154200635812689 0 -0.4274908612724973 -0.14636726286434021 0 -0.44939656099341752 -0.16182349611448879 0 -0.4062586760628446 -0.15702630730747319 0 -0.41859090981852159 -0.17154200635812689 0 -0.4274908612724973 -0.14636726286434021 0 -0.41859090981852159 -0.17154200635812689 0 -0.38942163657515871 -0.17450909128745659 0 -0.40952018938004092 -0.18919966074470879 0 -0.41859090981852159 -0.17154200635812689 0 -0.38942163657515871 -0.17450909128745659 0 -0.3779376154186847 -0.1884457990053767 0 -0.39242021298502239 -0.19928239524477709 0 -0.38942163657515871 -0.17450909128745659 0 -0.36025236333179561 -0.17747617621678641 0 -0.3779376154186847 -0.1884457990053767 0 -0.38942163657515871 -0.17450909128745659 0 -0.38942163657515871 -0.17450909128745659 0 -0.379699419895141 -0.15762691080158389 0 -0.39210488772212759 -0.1518490330400408 0 -0.36025236333179561 -0.17747617621678641 0 -0.38942163657515871 -0.17450909128745659 0 -0.379699419895141 -0.15762691080158389 0 -0.4062586760628446 -0.15702630730747319 0 -0.41859090981852159 -0.17154200635812689 0 -0.38942163657515871 -0.17450909128745659 0 -0.4062586760628446 -0.15702630730747319 0 -0.38942163657515871 -0.17450909128745659 0 -0.39210488772212759 -0.1518490330400408 0 -0.4062586760628446 -0.15702630730747319 0 -0.4024833948134886 -0.1406371502846637 0 -0.39210488772212759 -0.1518490330400408 0 -0.4024833948134886 -0.1406371502846637 0 -0.39210488772212759 -0.1518490330400408 0 -0.38724864337256898 -0.1408143508833859 0 -0.379699419895141 -0.15762691080158389 0 -0.39210488772212759 -0.1518490330400408 0 -0.38724864337256898 -0.1408143508833859 0 -0.379699419895141 -0.15762691080158389 0 -0.38724864337256898 -0.1408143508833859 0 -0.3795579549465592 -0.14010870282721449 0 -0.36328857880003329 -0.13861592961668229 0 -0.3795579549465592 -0.14010870282721449 0 -0.38429477213857338 -0.1276732576277744 0 -0.38724864337256898 -0.1408143508833859 0 -0.3795579549465592 -0.14010870282721449 0 -0.38429477213857338 -0.1276732576277744 0 -0.38724864337256898 -0.1408143508833859 0 -0.3795579549465592 -0.14010870282721449 0 -0.4024833948134886 -0.1406371502846637 0 -0.38429477213857338 -0.1276732576277744 0 -0.41322107910392902 -0.12691264728768131 0 -0.38429477213857338 -0.1276732576277744 0 -0.41322107910392902 -0.12691264728768131 0 -0.4024833948134886 -0.1406371502846637 0 -0.38724864337256898 -0.1408143508833859 0 -0.38429477213857338 -0.1276732576277744 0 -0.4024833948134886 -0.1406371502846637 0 -0.41322107910392902 -0.12691264728768131 0 -0.4274908612724973 -0.14636726286434021 0 -0.4062586760628446 -0.15702630730747319 0 -0.4024833948134886 -0.1406371502846637 0 -0.4274908612724973 -0.14636726286434021 0 -0.41322107910392902 -0.12691264728768131 0 -0.4421473860692845 -0.1261520369475882 0 -0.41322107910392902 -0.12691264728768131 0 -0.4274908612724973 -0.14636726286434021 0 -0.4421473860692845 -0.1261520369475882 0 -0.4274908612724973 -0.14636726286434021 0 -0.4421473860692845 -0.1261520369475882 0 -0.45928187907431689 -0.141709388294013 0 -0.4274908612724973 -0.14636726286434021 0 -0.45928187907431689 -0.141709388294013 0 -0.44939656099341752 -0.16182349611448879 0 -0.45928187907431689 -0.141709388294013 0 -0.47637019850696583 -0.15434615679036151 0 -0.44939656099341752 -0.16182349611448879 0 -0.4421473860692845 -0.1261520369475882 0 -0.45928187907431689 -0.141709388294013 0 -0.47107369303464008 -0.12539142660749511 0 -0.4421473860692845 -0.1261520369475882 0 -0.47107369303464008 -0.12539142660749511 0 -0.45928187907431689 -0.141709388294013 0 -0.47107369303464008 -0.12539142660749511 0 -0.48387884901599792 -0.13699726681603999 0 -0.47107369303464008 -0.12539142660749511 0 -0.49999999999999589 -0.12463081626740211 0 -0.48387884901599792 -0.13699726681603999 0 -0.5 -0.14322430765452621 0 -0.49999999999999589 -0.12463081626740211 0 -0.47107369303464008 -0.12539142660749511 0 -0.48387884901599792 -0.13699726681603999 0 -0.49999999999999589 -0.12463081626740211 0 -0.48387884901599792 -0.13699726681603999 0 -0.5 -0.14322430765452621 0 -0.47637019850696583 -0.15434615679036151 0 -0.5 -0.14322430765452621 0 -0.47637019850696583 -0.15434615679036151 0 -0.49999999999999872 -0.16181779904165039 0 -0.45928187907431689 -0.141709388294013 0 -0.48387884901599792 -0.13699726681603999 0 -0.47637019850696583 -0.15434615679036151 0 -0.47637019850696583 -0.15434615679036151 0 -0.48129533562038318 -0.1796314964985011 0 -0.46147652591372978 -0.17754837811518109 0 -0.49999999999999872 -0.16181779904165039 0 -0.48129533562038318 -0.1796314964985011 0 -0.47637019850696583 -0.15434615679036151 0 -0.49999999999999872 -0.16181779904165039 0 -0.48129533562038318 -0.1796314964985011 0 -0.49999999999999872 -0.16181779904165039 0 -0.48129533562038318 -0.1796314964985011 0 -0.5 -0.19100678169199869 0 -0.48129533562038318 -0.1796314964985011 0 -0.46147652591372978 -0.17754837811518109 0 -0.46259067124076841 -0.19744519395535251 0 -0.47637019850696583 -0.15434615679036151 0 -0.46147652591372978 -0.17754837811518109 0 -0.44939656099341752 -0.16182349611448879 0 -0.46147652591372978 -0.17754837811518109 0 -0.44939656099341752 -0.16182349611448879 0 -0.43773717869215661 -0.18863885058216531 0 -0.43773717869215661 -0.18863885058216531 0 -0.44388600686115348 -0.21525889141220389 0 -0.46259067124076841 -0.19744519395535251 0 -0.44388600686115348 -0.21525889141220389 0 -0.46259067124076841 -0.19744519395535251 0 -0.44388600686115348 -0.21525889141220389 0 -0.46259067124076841 -0.19744519395535251 0 -0.46214365924290612 -0.22036082346407179 0 -0.46147652591372978 -0.17754837811518109 0 -0.43773717869215661 -0.18863885058216531 0 -0.46259067124076841 -0.19744519395535251 0 -0.48129533562038318 -0.1796314964985011 0 -0.46259067124076841 -0.19744519395535251 0 -0.48220699924535221 -0.20616800595610851 0 -0.48129533562038318 -0.1796314964985011 0 -0.46259067124076841 -0.19744519395535251 0 -0.48129533562038318 -0.1796314964985011 0 -0.5 -0.19100678169199869 0 -0.48220699924535221 -0.20616800595610851 0 -0.5 -0.19100678169199869 0 -0.48220699924535221 -0.20616800595610851 0 -0.5 -0.220195764342347 0 -0.46259067124076841 -0.19744519395535251 0 -0.48220699924535221 -0.20616800595610851 0 -0.46214365924290612 -0.22036082346407179 0 -0.48220699924535221 -0.20616800595610851 0 -0.5 -0.220195764342347 0 -0.47503396018956812 -0.2376627704341352 0 -0.48220699924535221 -0.20616800595610851 0 -0.47503396018956812 -0.2376627704341352 0 -0.46214365924290612 -0.22036082346407179 0 -0.5 -0.220195764342347 0 -0.5 -0.24938474699269531 0 -0.47503396018956812 -0.2376627704341352 0 -0.47503396018956812 -0.2376627704341352 0 -0.46214365924290612 -0.22036082346407179 0 -0.44700065867768829 -0.24526925556255891 0 -0.42518134248153872 -0.2330725888690553 0 -0.44388600686115348 -0.21525889141220389 0 -0.44700065867768829 -0.24526925556255891 0 -0.44388600686115348 -0.21525889141220389 0 -0.46214365924290612 -0.22036082346407179 0 -0.44700065867768829 -0.24526925556255891 0 -0.41995866311851893 -0.045106459878294612 0 -0.40723373247404249 -0.028213451407423151 0 -0.40471959663605023 -0.04128191057676675 0 -0.41995866311851893 -0.045106459878294612 0 -0.41901110430127653 -0.027191002139795851 0 -0.40723373247404249 -0.028213451407423151 0 -0.41995866311851893 -0.045106459878294612 0 -0.40723373247404249 -0.028213451407423151 0 -0.41995866311851893 -0.045106459878294612 0 -0.40471959663605023 -0.04128191057676675 0 -0.4042637059585022 -0.052643229747013208 0 -0.41995866311851893 -0.045106459878294612 0 -0.4042637059585022 -0.052643229747013208 0 -0.41485704617612817 -0.066522598811166761 0 -0.43469214674383011 -0.045879708540551942 0 -0.41485704617612817 -0.066522598811166761 0 -0.43469214674383011 -0.045879708540551942 0 -0.41485704617612817 -0.066522598811166761 0 -0.44294459152913401 -0.072270760088161426 0 -0.41995866311851893 -0.045106459878294612 0 -0.43469214674383011 -0.045879708540551942 0 -0.41485704617612817 -0.066522598811166761 0 -0.43469214674383011 -0.045879708540551942 0 -0.42878378188620858 -0.030432929306504299 0 -0.44335377421003658 -0.02107911557222238 0 -0.41995866311851893 -0.045106459878294612 0 -0.42878378188620858 -0.030432929306504299 0 -0.41901110430127653 -0.027191002139795851 0 -0.41995866311851893 -0.045106459878294612 0 -0.43469214674383011 -0.045879708540551942 0 -0.42878378188620858 -0.030432929306504299 0 -0.42731053609412722 -0.017073258959263551 0 -0.42878378188620858 -0.030432929306504299 0 -0.44335377421003658 -0.02107911557222238 0 -0.42731053609412722 -0.017073258959263551 0 -0.42878378188620858 -0.030432929306504299 0 -0.41901110430127653 -0.027191002139795851 0 -0.42731053609412722 -0.017073258959263551 0 -0.43682943845236671 -0.0050187617995351543 0 -0.44335377421003658 -0.02107911557222238 0 -0.42731053609412722 -0.017073258959263551 0 -0.43682943845236671 -0.0050187617995351543 0 -0.42254482115829611 -0.0029123915242173239 0 -0.42254482115829611 -0.0029123915242173239 0 -0.41491178517967292 -0.016481795679118921 0 -0.40862718669702958 0.001582477837111497 0 -0.42731053609412722 -0.017073258959263551 0 -0.42254482115829611 -0.0029123915242173239 0 -0.41491178517967292 -0.016481795679118921 0 -0.42731053609412722 -0.017073258959263551 0 -0.41901110430127653 -0.027191002139795851 0 -0.41491178517967292 -0.016481795679118921 0 -0.41901110430127653 -0.027191002139795851 0 -0.41491178517967292 -0.016481795679118921 0 -0.40723373247404249 -0.028213451407423151 0 -0.40723373247404249 -0.028213451407423151 0 -0.39450880182956671 -0.01132044293655133 0 -0.40723373247404249 -0.028213451407423151 0 -0.39210553835153078 -0.02540783792963271 0 -0.39450880182956671 -0.01132044293655133 0 -0.41491178517967292 -0.016481795679118921 0 -0.40723373247404249 -0.028213451407423151 0 -0.39450880182956671 -0.01132044293655133 0 -0.40723373247404249 -0.028213451407423151 0 -0.39210553835153078 -0.02540783792963271 0 -0.39375120218939069 -0.037690538717120109 0 -0.39450880182956671 -0.01132044293655133 0 -0.38257764308880898 0.0045187919721597063 0 -0.39610296004821788 0.0060506718380249156 0 -0.41491178517967292 -0.016481795679118921 0 -0.39450880182956671 -0.01132044293655133 0 -0.41491178517967292 -0.016481795679118921 0 -0.39450880182956671 -0.01132044293655133 0 -0.40862718669702958 0.001582477837111497 0 -0.39450880182956671 -0.01132044293655133 0 -0.40862718669702958 0.001582477837111497 0 -0.39610296004821788 0.0060506718380249156 0 -0.39450880182956671 -0.01132044293655133 0 -0.38257764308880898 0.0045187919721597063 0 -0.3730973702854341 -0.0059039825578747727 0 -0.39450880182956671 -0.01132044293655133 0 -0.38257764308880898 0.0045187919721597063 0 -0.3730973702854341 -0.0059039825578747727 0 -0.39450880182956671 -0.01132044293655133 0 -0.37828799232881638 -0.013286638556756551 0 -0.3730973702854341 -0.0059039825578747727 0 -0.39450880182956671 -0.01132044293655133 0 -0.39450880182956671 -0.01132044293655133 0 -0.37828799232881638 -0.013286638556756551 0 -0.38275315925510212 -0.019205483154633239 0 -0.37336520549115432 -0.00087307499010229328 0 -0.3730973702854341 -0.0059039825578747727 0 -0.38257764308880898 0.0045187919721597063 0 -0.39210553835153078 -0.02540783792963271 0 -0.38275315925510212 -0.019205483154633239 0 -0.37882579726112409 -0.028287585756224039 0 -0.39210553835153078 -0.02540783792963271 0 -0.37882579726112409 -0.028287585756224039 0 -0.38671447069787152 -0.032804467231084003 0 -0.39210553835153078 -0.02540783792963271 0 -0.39450880182956671 -0.01132044293655133 0 -0.38275315925510212 -0.019205483154633239 0 -0.37137654812761201 -0.018269189602294039 0 -0.38275315925510212 -0.019205483154633239 0 -0.37882579726112409 -0.028287585756224039 0 -0.37137654812761201 -0.018269189602294039 0 -0.37828799232881638 -0.013286638556756551 0 -0.38275315925510212 -0.019205483154633239 0 -0.37882579726112409 -0.028287585756224039 0 -0.38217534498944039 -0.039831906521359157 0 -0.38671447069787152 -0.032804467231084003 0 -0.36959647692282988 -0.039271873411877482 0 -0.37882579726112409 -0.028287585756224039 0 -0.38217534498944039 -0.039831906521359157 0 -0.36959647692282988 -0.039271873411877482 0 -0.38217534498944039 -0.039831906521359157 0 -0.37968694558929478 -0.051376522312805609 0 -0.38217534498944039 -0.039831906521359157 0 -0.39252313621636009 -0.048290189387825942 0 -0.37968694558929478 -0.051376522312805609 0 -0.38217534498944039 -0.039831906521359157 0 -0.39375120218939069 -0.037690538717120109 0 -0.39252313621636009 -0.048290189387825942 0 -0.38217534498944039 -0.039831906521359157 0 -0.38671447069787152 -0.032804467231084003 0 -0.39375120218939069 -0.037690538717120109 0 -0.39210553835153078 -0.02540783792963271 0 -0.38671447069787152 -0.032804467231084003 0 -0.39375120218939069 -0.037690538717120109 0 -0.39375120218939069 -0.037690538717120109 0 -0.40471959663605023 -0.04128191057676675 0 -0.39252313621636009 -0.048290189387825942 0 -0.40723373247404249 -0.028213451407423151 0 -0.39375120218939069 -0.037690538717120109 0 -0.40471959663605023 -0.04128191057676675 0 -0.4042637059585022 -0.052643229747013208 0 -0.38913375608736878 -0.061258286172003192 0 -0.41485704617612817 -0.066522598811166761 0 -0.40471959663605023 -0.04128191057676675 0 -0.4042637059585022 -0.052643229747013208 0 -0.39252313621636009 -0.048290189387825942 0 -0.4042637059585022 -0.052643229747013208 0 -0.39252313621636009 -0.048290189387825942 0 -0.38913375608736878 -0.061258286172003192 0 -0.37386174396999827 -0.07004207195888601 0 -0.38913375608736878 -0.061258286172003192 0 -0.37968694558929478 -0.051376522312805609 0 -0.39252313621636009 -0.048290189387825942 0 -0.38913375608736878 -0.061258286172003192 0 -0.37968694558929478 -0.051376522312805609 0 -0.37386174396999827 -0.07004207195888601 0 -0.38913375608736878 -0.061258286172003192 0 -0.38445839616964628 -0.074721847596215502 0 -0.3735685165904114 -0.086923601665785083 0 -0.37386174396999827 -0.07004207195888601 0 -0.38445839616964628 -0.074721847596215502 0 -0.3735685165904114 -0.086923601665785083 0 -0.38445839616964628 -0.074721847596215502 0 -0.40126956803080582 -0.080663430588187424 0 -0.3735685165904114 -0.086923601665785083 0 -0.40126956803080582 -0.080663430588187424 0 -0.38596920041161131 -0.096586909714749911 0 -0.3735685165904114 -0.086923601665785083 0 -0.40126956803080582 -0.080663430588187424 0 -0.40126956803080582 -0.080663430588187424 0 -0.38596920041161131 -0.096586909714749911 0 -0.39965333603872288 -0.095676358295806063 0 -0.40126956803080582 -0.080663430588187424 0 -0.38596920041161131 -0.096586909714749911 0 -0.40126956803080582 -0.080663430588187424 0 -0.39965333603872288 -0.095676358295806063 0 -0.41259754202225019 -0.095246622651702445 0 -0.38913375608736878 -0.061258286172003192 0 -0.38445839616964628 -0.074721847596215502 0 -0.40126956803080582 -0.080663430588187424 0 -0.38913375608736878 -0.061258286172003192 0 -0.41485704617612817 -0.066522598811166761 0 -0.38913375608736878 -0.061258286172003192 0 -0.40126956803080582 -0.080663430588187424 0 -0.41485704617612817 -0.066522598811166761 0 -0.37066883279241641 -0.1125103888413122 0 -0.38429477213857338 -0.1276732576277744 0 -0.39877703369022383 -0.11020847022858429 0 -0.36629503360371102 -0.09908940316826241 0 -0.3735685165904114 -0.086923601665785083 0 -0.38596920041161131 -0.096586909714749911 0 -0.37066883279241641 -0.1125103888413122 0 -0.38596920041161131 -0.096586909714749911 0 -0.39877703369022383 -0.11020847022858429 0 -0.37066883279241641 -0.1125103888413122 0 -0.38596920041161131 -0.096586909714749911 0 -0.38596920041161131 -0.096586909714749911 0 -0.39965333603872288 -0.095676358295806063 0 -0.39877703369022383 -0.11020847022858429 0 -0.39965333603872288 -0.095676358295806063 0 -0.39877703369022383 -0.11020847022858429 0 -0.41259754202225019 -0.095246622651702445 0 -0.38429477213857338 -0.1276732576277744 0 -0.41322107910392902 -0.12691264728768131 0 -0.39877703369022383 -0.11020847022858429 0 -0.41322107910392902 -0.12691264728768131 0 -0.39877703369022383 -0.11020847022858429 0 -0.41969681577689127 -0.1116327613893979 0 -0.39877703369022383 -0.11020847022858429 0 -0.41969681577689127 -0.1116327613893979 0 -0.41259754202225019 -0.095246622651702445 0 -0.41969681577689127 -0.1116327613893979 0 -0.41259754202225019 -0.095246622651702445 0 -0.43174103799876867 -0.099644029831433348 0 -0.41322107910392902 -0.12691264728768131 0 -0.4421473860692845 -0.1261520369475882 0 -0.41969681577689127 -0.1116327613893979 0 -0.4421473860692845 -0.1261520369475882 0 -0.41969681577689127 -0.1116327613893979 0 -0.43174103799876867 -0.099644029831433348 0 -0.41655361246829481 -0.077209383613032367 0 -0.41485704617612817 -0.066522598811166761 0 -0.43183765690578391 -0.073755336637877839 0 -0.40126956803080582 -0.080663430588187424 0 -0.41485704617612817 -0.066522598811166761 0 -0.40126956803080582 -0.080663430588187424 0 -0.41655361246829481 -0.077209383613032367 0 -0.41485704617612817 -0.066522598811166761 0 -0.40126956803080582 -0.080663430588187424 0 -0.41259754202225019 -0.095246622651702445 0 -0.41655361246829481 -0.077209383613032367 0 -0.40126956803080582 -0.080663430588187424 0 -0.41655361246829481 -0.077209383613032367 0 -0.41259754202225019 -0.095246622651702445 0 -0.41655361246829481 -0.077209383613032367 0 -0.42647313611829019 -0.086345328057820775 0 -0.41655361246829481 -0.077209383613032367 0 -0.42647313611829019 -0.086345328057820775 0 -0.43183765690578391 -0.073755336637877839 0 -0.41259754202225019 -0.095246622651702445 0 -0.43174103799876867 -0.099644029831433348 0 -0.42647313611829019 -0.086345328057820775 0 -0.43174103799876867 -0.099644029831433348 0 -0.42647313611829019 -0.086345328057820775 0 -0.43721805862850638 -0.085238033214539169 0 -0.42647313611829019 -0.086345328057820775 0 -0.43721805862850638 -0.085238033214539169 0 -0.43183765690578391 -0.073755336637877839 0 -0.43721805862850638 -0.085238033214539169 0 -0.43183765690578391 -0.073755336637877839 0 -0.44294459152913401 -0.072270760088161426 0 -0.41485704617612817 -0.066522598811166761 0 -0.44294459152913401 -0.072270760088161426 0 -0.41485704617612817 -0.066522598811166761 0 -0.43183765690578391 -0.073755336637877839 0 -0.44294459152913401 -0.072270760088161426 0 -0.41655361246829481 -0.077209383613032367 0 -0.43183765690578391 -0.073755336637877839 0 -0.43721805862850638 -0.085238033214539169 0 -0.44294459152913401 -0.072270760088161426 0 -0.45309387059055528 -0.094174711457402513 0 -0.43174103799876867 -0.099644029831433348 0 -0.43721805862850638 -0.085238033214539169 0 -0.45309387059055528 -0.094174711457402513 0 -0.45309387059055528 -0.094174711457402513 0 -0.47532872339211513 -0.1007730466658788 0 -0.47103213688214091 -0.078018921365152608 0 -0.44294459152913401 -0.072270760088161426 0 -0.45309387059055528 -0.094174711457402513 0 -0.47103213688214091 -0.078018921365152608 0 -0.44294459152913401 -0.072270760088161426 0 -0.47103213688214091 -0.078018921365152608 0 -0.4607163602127185 -0.051282330654047498 0 -0.44294459152913401 -0.072270760088161426 0 -0.47103213688214091 -0.078018921365152608 0 -0.4421473860692845 -0.1261520369475882 0 -0.43174103799876867 -0.099644029831433348 0 -0.45309387059055528 -0.094174711457402513 0 -0.4421473860692845 -0.1261520369475882 0 -0.47107369303464008 -0.12539142660749511 0 -0.45309387059055528 -0.094174711457402513 0 -0.47107369303464008 -0.12539142660749511 0 -0.45309387059055528 -0.094174711457402513 0 -0.47532872339211513 -0.1007730466658788 0 -0.47107369303464008 -0.12539142660749511 0 -0.47532872339211513 -0.1007730466658788 0 -0.48858499486354839 -0.1094711659397941 0 -0.47532872339211513 -0.1007730466658788 0 -0.48720148549124631 -0.093996509534299499 0 -0.48858499486354839 -0.1094711659397941 0 -0.48720148549124631 -0.093996509534299499 0 -0.5 -0.096738725909747525 0 -0.48858499486354839 -0.1094711659397941 0 -0.5 -0.096738725909747525 0 -0.49999999999999589 -0.12463081626740211 0 -0.48858499486354839 -0.1094711659397941 0 -0.47107369303464008 -0.12539142660749511 0 -0.49999999999999589 -0.12463081626740211 0 -0.48858499486354839 -0.1094711659397941 0 -0.47532872339211513 -0.1007730466658788 0 -0.48720148549124631 -0.093996509534299499 0 -0.47103213688214091 -0.078018921365152608 0 -0.47103213688214091 -0.078018921365152608 0 -0.5 -0.083767082642143761 0 -0.48720148549124631 -0.093996509534299499 0 -0.47103213688214091 -0.078018921365152608 0 -0.5 -0.083767082642143761 0 -0.48720148549124631 -0.093996509534299499 0 -0.5 -0.096738725909747525 0 -0.5 -0.083767082642143761 0 -0.47103213688214091 -0.078018921365152608 0 -0.5 -0.083767082642143761 0 -0.5 -0.068846635552092916 0 -0.47103213688214091 -0.078018921365152608 0 -0.5 -0.068846635552092916 0 -0.48229977237625582 -0.054327256971353953 0 -0.5 -0.068846635552092916 0 -0.5 -0.040954545194438419 0 -0.48229977237625582 -0.054327256971353953 0 -0.5 -0.040954545194438419 0 -0.4778541680804147 -0.031387185287214903 0 -0.48229977237625582 -0.054327256971353953 0 -0.4778541680804147 -0.031387185287214903 0 -0.48229977237625582 -0.054327256971353953 0 -0.4607163602127185 -0.051282330654047498 0 -0.47103213688214091 -0.078018921365152608 0 -0.48229977237625582 -0.054327256971353953 0 -0.4607163602127185 -0.051282330654047498 0 -0.4778541680804147 -0.031387185287214903 0 -0.4607163602127185 -0.051282330654047498 0 -0.45452724731153349 -0.0252368182699385 0 -0.43469214674383011 -0.045879708540551942 0 -0.4607163602127185 -0.051282330654047498 0 -0.45452724731153349 -0.0252368182699385 0 -0.43469214674383011 -0.045879708540551942 0 -0.45452724731153349 -0.0252368182699385 0 -0.43469214674383011 -0.045879708540551942 0 -0.44294459152913401 -0.072270760088161426 0 -0.4607163602127185 -0.051282330654047498 0 -0.45233202767508501 -0.013662231602439441 0 -0.44335377421003658 -0.02107911557222238 0 -0.45304011570185609 0.0024491465606268758 0 -0.43682943845236671 -0.0050187617995351543 0 -0.44335377421003658 -0.02107911557222238 0 -0.45304011570185609 0.0024491465606268758 0 -0.44335377421003658 -0.02107911557222238 0 -0.45304011570185609 0.0024491465606268758 0 -0.43469214674383011 -0.045879708540551942 0 -0.44335377421003658 -0.02107911557222238 0 -0.45452724731153349 -0.0252368182699385 0 -0.45233202767508501 -0.013662231602439441 0 -0.44335377421003658 -0.02107911557222238 0 -0.45452724731153349 -0.0252368182699385 0 -0.45233202767508501 -0.013662231602439441 0 -0.45452724731153349 -0.0252368182699385 0 -0.45840697347691378 -0.01078213912822377 0 -0.45452724731153349 -0.0252368182699385 0 -0.45840697347691378 -0.01078213912822377 0 -0.47436234787923809 -0.0045939279993259634 0 -0.45840697347691378 -0.01078213912822377 0 -0.47436234787923809 -0.0045939279993259634 0 -0.45304011570185609 0.0024491465606268758 0 -0.45233202767508501 -0.013662231602439441 0 -0.45840697347691378 -0.01078213912822377 0 -0.45304011570185609 0.0024491465606268758 0 -0.45452724731153349 -0.0252368182699385 0 -0.47436234787923809 -0.0045939279993259634 0 -0.47436234787923809 -0.0045939279993259634 0 -0.45304011570185609 0.0024491465606268758 0 -0.47436234787923809 -0.0045939279993259634 0 -0.4799753959744425 0.00124771296022079 0 -0.4778541680804147 -0.031387185287214903 0 -0.45452724731153349 -0.0252368182699385 0 -0.47436234787923809 -0.0045939279993259634 0 -0.4778541680804147 -0.031387185287214903 0 -0.47436234787923809 -0.0045939279993259634 0 -0.49999999999999839 -0.0130624548367838 0 -0.5 -0.040954545194438419 0 -0.4778541680804147 -0.031387185287214903 0 -0.49999999999999839 -0.0130624548367838 0 -0.49999999999999839 -0.0130624548367838 0 -0.48847679572654279 0.0092934966120623748 0 -0.4799753959744425 0.00124771296022079 0 -0.47436234787923809 -0.0045939279993259634 0 -0.49999999999999839 -0.0130624548367838 0 -0.4799753959744425 0.00124771296022079 0 -0.47436234787923809 -0.0045939279993259634 0 -0.49999999999999839 -0.0130624548367838 0 -0.49999999999999839 -0.0130624548367838 0 -0.48847679572654279 0.0092934966120623748 0 -0.5 0.011348781407273689 0 -0.48847679572654279 0.0092934966120623748 0 -0.5 0.011348781407273689 0 -0.48468686266409622 0.022478867232010591 0 -0.5 0.011348781407273689 0 -0.48468686266409622 0.022478867232010591 0 -0.5 0.035760017651331188 0 -0.48468686266409622 0.022478867232010591 0 -0.47676724282222632 0.01402942956073022 0 -0.46390187831054208 0.02883252341120595 0 -0.47676724282222632 0.01402942956073022 0 -0.46679528143550808 0.0082945475881513846 0 -0.46390187831054208 0.02883252341120595 0 -0.48468686266409622 0.022478867232010591 0 -0.4846704763787737 0.040491712490344112 0 -0.46390187831054208 0.02883252341120595 0 -0.4799753959744425 0.00124771296022079 0 -0.47676724282222632 0.01402942956073022 0 -0.46679528143550808 0.0082945475881513846 0 -0.47436234787923809 -0.0045939279993259634 0 -0.4799753959744425 0.00124771296022079 0 -0.46679528143550808 0.0082945475881513846 0 -0.48847679572654279 0.0092934966120623748 0 -0.48468686266409622 0.022478867232010591 0 -0.47676724282222632 0.01402942956073022 0 -0.48847679572654279 0.0092934966120623748 0 -0.4799753959744425 0.00124771296022079 0 -0.47676724282222632 0.01402942956073022 0 -0.5 0.060171253895388743 0 -0.4846704763787737 0.040491712490344112 0 -0.47476364091923029 0.055215900261784079 0 -0.5 0.060171253895388743 0 -0.4846704763787737 0.040491712490344112 0 -0.5 0.035760017651331188 0 -0.48468686266409622 0.022478867232010591 0 -0.4846704763787737 0.040491712490344112 0 -0.5 0.035760017651331188 0 -0.4846704763787737 0.040491712490344112 0 -0.47476364091923029 0.055215900261784079 0 -0.46390187831054208 0.02883252341120595 0 -0.47476364091923029 0.055215900261784079 0 -0.46390187831054208 0.02883252341120595 0 -0.47476364091923029 0.055215900261784079 0 -0.45070965980393829 0.057213126490883733 0 -0.45939747860234093 0.069773742411696191 0 -0.47476364091923029 0.055215900261784079 0 -0.45809532135520709 0.044810705558208999 0 -0.45070965980393829 0.057213126490883733 0 -0.45809532135520709 0.044810705558208999 0 -0.44283651650444578 0.040057038864640418 0 -0.46390187831054208 0.02883252341120595 0 -0.47476364091923029 0.055215900261784079 0 -0.45809532135520709 0.044810705558208999 0 -0.46390187831054208 0.02883252341120595 0 -0.45809532135520709 0.044810705558208999 0 -0.44283651650444578 0.040057038864640418 0 -0.45070965980393829 0.057213126490883733 0 -0.44283651650444578 0.040057038864640418 0 -0.45070965980393829 0.057213126490883733 0 -0.43572893818863517 0.067970573405108106 0 -0.44283651650444578 0.040057038864640418 0 -0.43572893818863517 0.067970573405108106 0 -0.46679528143550808 0.0082945475881513846 0 -0.46390187831054208 0.02883252341120595 0 -0.45304011570185609 0.0024491465606268758 0 -0.46390187831054208 0.02883252341120595 0 -0.44994409482025632 0.01214350432417274 0 -0.45304011570185609 0.0024491465606268758 0 -0.47436234787923809 -0.0045939279993259634 0 -0.46679528143550808 0.0082945475881513846 0 -0.45304011570185609 0.0024491465606268758 0 -0.46390187831054208 0.02883252341120595 0 -0.45304011570185609 0.0024491465606268758 0 -0.44283651650444578 0.040057038864640418 0 -0.46390187831054208 0.02883252341120595 0 -0.44994409482025632 0.01214350432417274 0 -0.44283651650444578 0.040057038864640418 0 -0.44994409482025632 0.01214350432417274 0 -0.44283651650444578 0.040057038864640418 0 -0.44994409482025632 0.01214350432417274 0 -0.43391623542295971 0.026593813768062389 0 -0.44994409482025632 0.01214350432417274 0 -0.42880837333161193 0.010453278905280999 0 -0.43391623542295971 0.026593813768062389 0 -0.44994409482025632 0.01214350432417274 0 -0.45304011570185609 0.0024491465606268758 0 -0.42880837333161193 0.010453278905280999 0 -0.43682943845236671 -0.0050187617995351543 0 -0.45304011570185609 0.0024491465606268758 0 -0.42880837333161193 0.010453278905280999 0 -0.45304011570185609 0.0024491465606268758 0 -0.42880837333161193 0.010453278905280999 0 -0.42254482115829611 -0.0029123915242173239 0 -0.42880837333161193 0.010453278905280999 0 -0.41558775324124009 0.01313872957655705 0 -0.43682943845236671 -0.0050187617995351543 0 -0.42254482115829611 -0.0029123915242173239 0 -0.42880837333161193 0.010453278905280999 0 -0.40862718669702958 0.001582477837111497 0 -0.41558775324124009 0.01313872957655705 0 -0.4039220079943604 0.019777783511499648 0 -0.42254482115829611 -0.0029123915242173239 0 -0.40862718669702958 0.001582477837111497 0 -0.41558775324124009 0.01313872957655705 0 -0.42880837333161193 0.010453278905280999 0 -0.41558775324124009 0.01313872957655705 0 -0.42018371163445362 0.028256324865661531 0 -0.42018371163445362 0.028256324865661531 0 -0.40374800786464909 0.035807701446104442 0 -0.4039220079943604 0.019777783511499648 0 -0.41558775324124009 0.01313872957655705 0 -0.42018371163445362 0.028256324865661531 0 -0.4039220079943604 0.019777783511499648 0 -0.42880837333161193 0.010453278905280999 0 -0.42018371163445362 0.028256324865661531 0 -0.43391623542295971 0.026593813768062389 0 -0.44283651650444578 0.040057038864640418 0 -0.43391623542295971 0.026593813768062389 0 -0.42727165260819011 0.040476487641625029 0 -0.44283651650444578 0.040057038864640418 0 -0.42727165260819011 0.040476487641625029 0 -0.42578384681885512 0.055888876916234793 0 -0.42018371163445362 0.028256324865661531 0 -0.43391623542295971 0.026593813768062389 0 -0.42727165260819011 0.040476487641625029 0 -0.44283651650444578 0.040057038864640418 0 -0.42578384681885512 0.055888876916234793 0 -0.43572893818863517 0.067970573405108106 0 -0.42578384681885512 0.055888876916234793 0 -0.41256429622855412 0.048421515315663501 0 -0.41251582470035592 0.062376232508371411 0 -0.42727165260819011 0.040476487641625029 0 -0.42578384681885512 0.055888876916234793 0 -0.41256429622855412 0.048421515315663501 0 -0.41256429622855412 0.048421515315663501 0 -0.41251582470035592 0.062376232508371411 0 -0.40378804008130109 0.059258736555378222 0 -0.42018371163445362 0.028256324865661531 0 -0.42727165260819011 0.040476487641625029 0 -0.41256429622855412 0.048421515315663501 0 -0.42018371163445362 0.028256324865661531 0 -0.41256429622855412 0.048421515315663501 0 -0.40374800786464909 0.035807701446104442 0 -0.40374800786464909 0.035807701446104442 0 -0.39447764036838839 0.051965216885881738 0 -0.38914924919630939 0.032098077605805617 0 -0.41256429622855412 0.048421515315663501 0 -0.40374800786464909 0.035807701446104442 0 -0.39447764036838839 0.051965216885881738 0 -0.41256429622855412 0.048421515315663501 0 -0.39447764036838839 0.051965216885881738 0 -0.40378804008130109 0.059258736555378222 0 -0.39447764036838839 0.051965216885881738 0 -0.40378804008130109 0.059258736555378222 0 -0.39921057236749208 0.071685345495304503 0 -0.39447764036838839 0.051965216885881738 0 -0.37633457325499192 0.044227584445299277 0 -0.37517212026787561 0.068921711467539393 0 -0.37633457325499192 0.044227584445299277 0 -0.37517212026787561 0.068921711467539393 0 -0.38914924919630939 0.032098077605805617 0 -0.37633457325499192 0.044227584445299277 0 -0.37749702624210812 0.019533457423059241 0 -0.39447764036838839 0.051965216885881738 0 -0.38914924919630939 0.032098077605805617 0 -0.37633457325499192 0.044227584445299277 0 -0.37633457325499192 0.044227584445299277 0 -0.37749702624210812 0.019533457423059241 0 -0.38914924919630939 0.032098077605805617 0 -0.37749702624210812 0.019533457423059241 0 -0.39087916063132361 0.015694748805905049 0 -0.37749702624210812 0.019533457423059241 0 -0.38160447392861441 0.01402446330815274 0 -0.39087916063132361 0.015694748805905049 0 -0.37749702624210812 0.019533457423059241 0 -0.38160447392861441 0.01402446330815274 0 -0.37064648434805181 0.020358026880871152 0 -0.38160447392861441 0.01402446330815274 0 -0.38257764308880898 0.0045187919721597063 0 -0.37064648434805181 0.020358026880871152 0 -0.38257764308880898 0.0045187919721597063 0 -0.37064648434805181 0.020358026880871152 0 -0.37368273475937358 0.0099733430161859371 0 -0.38257764308880898 0.0045187919721597063 0 -0.37064648434805181 0.020358026880871152 0 -0.37336520549115432 -0.00087307499010229328 0 -0.38257764308880898 0.0045187919721597063 0 -0.37567153036986112 0.0046771945744729024 0 -0.38257764308880898 0.0045187919721597063 0 -0.37567153036986112 0.0046771945744729024 0 -0.37368273475937358 0.0099733430161859371 0 -0.38160447392861441 0.01402446330815274 0 -0.38257764308880898 0.0045187919721597063 0 -0.39087916063132361 0.015694748805905049 0 -0.38257764308880898 0.0045187919721597063 0 -0.39610296004821788 0.0060506718380249156 0 -0.39087916063132361 0.015694748805905049 0 -0.39610296004821788 0.0060506718380249156 0 -0.4039220079943604 0.019777783511499648 0 -0.39087916063132361 0.015694748805905049 0 -0.40862718669702958 0.001582477837111497 0 -0.39610296004821788 0.0060506718380249156 0 -0.4039220079943604 0.019777783511499648 0 -0.40374800786464909 0.035807701446104442 0 -0.38914924919630939 0.032098077605805617 0 -0.4039220079943604 0.019777783511499648 0 -0.38914924919630939 0.032098077605805617 0 -0.4039220079943604 0.019777783511499648 0 -0.39087916063132361 0.015694748805905049 0 -0.39772769195998681 0.1015165747712221 0 -0.39927249272952658 0.084581774610902494 0 -0.41496273316095311 0.10276402221194381 0 -0.39772769195998681 0.1015165747712221 0 -0.40428006394995142 0.11169489579832979 0 -0.41496273316095311 0.10276402221194381 0 -0.39772769195998681 0.1015165747712221 0 -0.39478952820686369 0.11074069569598401 0 -0.38552453740356057 0.1041498754828785 0 -0.39772769195998681 0.1015165747712221 0 -0.40428006394995142 0.11169489579832979 0 -0.39478952820686369 0.11074069569598401 0 -0.40428006394995142 0.11169489579832979 0 -0.39865867992880277 0.12124382151037411 0 -0.39478952820686369 0.11074069569598401 0 -0.40428006394995142 0.11169489579832979 0 -0.39865867992880277 0.12124382151037411 0 -0.41206951439268891 0.11912251112577051 0 -0.39865867992880277 0.12124382151037411 0 -0.3880137517671608 0.116155673434876 0 -0.3909526504366338 0.12785980678409539 0 -0.39865867992880277 0.12124382151037411 0 -0.39478952820686369 0.11074069569598401 0 -0.3880137517671608 0.116155673434876 0 -0.39478952820686369 0.11074069569598401 0 -0.3880137517671608 0.116155673434876 0 -0.38552453740356057 0.1041498754828785 0 -0.3880137517671608 0.116155673434876 0 -0.38552453740356057 0.1041498754828785 0 -0.37275902665185562 0.12018334607211489 0 -0.3880137517671608 0.116155673434876 0 -0.3909526504366338 0.12785980678409539 0 -0.37275902665185562 0.12018334607211489 0 -0.38552453740356057 0.1041498754828785 0 -0.37396557345986559 0.094552528769827157 0 -0.37275902665185562 0.12018334607211489 0 -0.39772769195998681 0.1015165747712221 0 -0.38552453740356057 0.1041498754828785 0 -0.38858177909154001 0.092814675539092117 0 -0.38552453740356057 0.1041498754828785 0 -0.38858177909154001 0.092814675539092117 0 -0.37396557345986559 0.094552528769827157 0 -0.38667568387990447 0.08032998657839073 0 -0.37517212026787561 0.068921711467539393 0 -0.37396557345986559 0.094552528769827157 0 -0.38667568387990447 0.08032998657839073 0 -0.38858177909154001 0.092814675539092117 0 -0.37396557345986559 0.094552528769827157 0 -0.39447764036838839 0.051965216885881738 0 -0.37517212026787561 0.068921711467539393 0 -0.39921057236749208 0.071685345495304503 0 -0.38667568387990447 0.08032998657839073 0 -0.37517212026787561 0.068921711467539393 0 -0.39921057236749208 0.071685345495304503 0 -0.37517212026787561 0.068921711467539393 0 -0.39921057236749208 0.071685345495304503 0 -0.41251582470035592 0.062376232508371411 0 -0.40378804008130109 0.059258736555378222 0 -0.39921057236749208 0.071685345495304503 0 -0.39772769195998681 0.1015165747712221 0 -0.38858177909154001 0.092814675539092117 0 -0.39927249272952658 0.084581774610902494 0 -0.38667568387990447 0.08032998657839073 0 -0.38858177909154001 0.092814675539092117 0 -0.39927249272952658 0.084581774610902494 0 -0.38667568387990447 0.08032998657839073 0 -0.39921057236749208 0.071685345495304503 0 -0.39927249272952658 0.084581774610902494 0 -0.39921057236749208 0.071685345495304503 0 -0.39927249272952658 0.084581774610902494 0 -0.41400043991239288 0.086760628197556561 0 -0.39927249272952658 0.084581774610902494 0 -0.41496273316095311 0.10276402221194381 0 -0.39927249272952658 0.084581774610902494 0 -0.41400043991239288 0.086760628197556561 0 -0.41496273316095311 0.10276402221194381 0 -0.39921057236749208 0.071685345495304503 0 -0.42324902446710871 0.074448979523069045 0 -0.39921057236749208 0.071685345495304503 0 -0.41400043991239288 0.086760628197556561 0 -0.42324902446710871 0.074448979523069045 0 -0.41251582470035592 0.062376232508371411 0 -0.39921057236749208 0.071685345495304503 0 -0.42324902446710871 0.074448979523069045 0 -0.42578384681885512 0.055888876916234793 0 -0.41251582470035592 0.062376232508371411 0 -0.42324902446710871 0.074448979523069045 0 -0.42578384681885512 0.055888876916234793 0 -0.42324902446710871 0.074448979523069045 0 -0.43572893818863517 0.067970573405108106 0 -0.41400043991239288 0.086760628197556561 0 -0.42324902446710871 0.074448979523069045 0 -0.42862135987282468 0.09588410794557603 0 -0.43572893818863517 0.067970573405108106 0 -0.42862135987282468 0.09588410794557603 0 -0.43572893818863517 0.067970573405108106 0 -0.42862135987282468 0.09588410794557603 0 -0.44338080710108391 0.084780619331248558 0 -0.42324902446710871 0.074448979523069045 0 -0.43572893818863517 0.067970573405108106 0 -0.42862135987282468 0.09588410794557603 0 -0.42862135987282468 0.09588410794557603 0 -0.41496273316095311 0.10276402221194381 0 -0.43065297359237958 0.1209462698129852 0 -0.42862135987282468 0.09588410794557603 0 -0.43065297359237958 0.1209462698129852 0 -0.44384723707701268 0.1024192359246384 0 -0.41400043991239288 0.086760628197556561 0 -0.42862135987282468 0.09588410794557603 0 -0.41496273316095311 0.10276402221194381 0 -0.41496273316095311 0.10276402221194381 0 -0.41206951439268891 0.11912251112577051 0 -0.43065297359237958 0.1209462698129852 0 -0.39865867992880277 0.12124382151037411 0 -0.41206951439268891 0.11912251112577051 0 -0.41476836959139018 0.1331962314721386 0 -0.40428006394995142 0.11169489579832979 0 -0.41496273316095311 0.10276402221194381 0 -0.41206951439268891 0.11912251112577051 0 -0.41206951439268891 0.11912251112577051 0 -0.43065297359237958 0.1209462698129852 0 -0.41476836959139018 0.1331962314721386 0 -0.41496273316095311 0.10276402221194381 0 -0.43065297359237958 0.1209462698129852 0 -0.43065297359237958 0.1209462698129852 0 -0.44384723707701268 0.1024192359246384 0 -0.45786919608875898 0.1154046649276747 0 -0.42862135987282468 0.09588410794557603 0 -0.44384723707701268 0.1024192359246384 0 -0.44338080710108391 0.084780619331248558 0 -0.44384723707701268 0.1024192359246384 0 -0.45871184873001619 0.095080517605707196 0 -0.44338080710108391 0.084780619331248558 0 -0.45871184873001619 0.095080517605707196 0 -0.45786919608875898 0.1154046649276747 0 -0.47007271975450909 0.108251845660975 0 -0.44384723707701268 0.1024192359246384 0 -0.45871184873001619 0.095080517605707196 0 -0.45786919608875898 0.1154046649276747 0 -0.45871184873001619 0.095080517605707196 0 -0.47007271975450909 0.108251845660975 0 -0.47461021972015333 0.094623557012308235 0 -0.45786919608875898 0.1154046649276747 0 -0.47007271975450909 0.108251845660975 0 -0.47278155615574452 0.12923949579297439 0 -0.43572893818863517 0.067970573405108106 0 -0.44825964724494999 0.072793498052897337 0 -0.44338080710108391 0.084780619331248558 0 -0.45070965980393829 0.057213126490883733 0 -0.44825964724494999 0.072793498052897337 0 -0.45939747860234093 0.069773742411696191 0 -0.45070965980393829 0.057213126490883733 0 -0.43572893818863517 0.067970573405108106 0 -0.44825964724494999 0.072793498052897337 0 -0.44825964724494999 0.072793498052897337 0 -0.44338080710108391 0.084780619331248558 0 -0.4558321549631239 0.080521043399826686 0 -0.45871184873001619 0.095080517605707196 0 -0.44338080710108391 0.084780619331248558 0 -0.4558321549631239 0.080521043399826686 0 -0.45871184873001619 0.095080517605707196 0 -0.46941099313722862 0.080176839597584218 0 -0.47461021972015333 0.094623557012308235 0 -0.45871184873001619 0.095080517605707196 0 -0.4558321549631239 0.080521043399826686 0 -0.46941099313722862 0.080176839597584218 0 -0.47476364091923029 0.055215900261784079 0 -0.45939747860234093 0.069773742411696191 0 -0.46941099313722862 0.080176839597584218 0 -0.44825964724494999 0.072793498052897337 0 -0.4558321549631239 0.080521043399826686 0 -0.45939747860234093 0.069773742411696191 0 -0.4558321549631239 0.080521043399826686 0 -0.45939747860234093 0.069773742411696191 0 -0.46941099313722862 0.080176839597584218 0 -0.47476364091923029 0.055215900261784079 0 -0.48562540352791861 0.081599277112362437 0 -0.47476364091923029 0.055215900261784079 0 -0.46941099313722862 0.080176839597584218 0 -0.48562540352791861 0.081599277112362437 0 -0.46941099313722862 0.080176839597584218 0 -0.48562540352791861 0.081599277112362437 0 -0.47461021972015333 0.094623557012308235 0 -0.50000000000000033 0.084582490139446298 0 -0.48562540352791861 0.081599277112362437 0 -0.48639077807787262 0.1069109929662105 0 -0.5 0.060171253895388743 0 -0.47476364091923029 0.055215900261784079 0 -0.48562540352791861 0.081599277112362437 0 -0.5 0.060171253895388743 0 -0.50000000000000033 0.084582490139446298 0 -0.48562540352791861 0.081599277112362437 0 -0.47007271975450909 0.108251845660975 0 -0.48639077807787262 0.1069109929662105 0 -0.47278155615574452 0.12923949579297439 0 -0.48639077807787262 0.1069109929662105 0 -0.47278155615574452 0.12923949579297439 0 -0.48639077807787262 0.1069109929662105 0 -0.48907885556405473 0.1244252091853829 0 -0.47278155615574452 0.12923949579297439 0 -0.48562540352791861 0.081599277112362437 0 -0.47461021972015333 0.094623557012308235 0 -0.48639077807787262 0.1069109929662105 0 -0.47007271975450909 0.108251845660975 0 -0.47461021972015333 0.094623557012308235 0 -0.48639077807787262 0.1069109929662105 0 -0.50000000000000033 0.084582490139446298 0 -0.48639077807787262 0.1069109929662105 0 -0.50000000000000033 0.084582490139446298 0 -0.48639077807787262 0.1069109929662105 0 -0.5 0.1099950475146443 0 -0.48639077807787262 0.1069109929662105 0 -0.48907885556405473 0.1244252091853829 0 -0.5 0.1099950475146443 0 -0.48907885556405473 0.1244252091853829 0 -0.5 0.1099950475146443 0 -0.5 0.13540760488984249 0 -0.48907885556405473 0.1244252091853829 0 -0.5 0.13540760488984249 0 -0.484329036665618 0.14590780568904391 0 -0.48907885556405473 0.1244252091853829 0 -0.47278155615574452 0.12923949579297439 0 -0.484329036665618 0.14590780568904391 0 -0.47278155615574452 0.12923949579297439 0 -0.484329036665618 0.14590780568904391 0 -0.46203345445523247 0.15731076501506791 0 -0.5 0.13540760488984249 0 -0.484329036665618 0.14590780568904391 0 -0.5 0.16082016226504059 0 -0.5 0.16082016226504059 0 -0.5 0.18623271964023869 0 -0.48267690855929207 0.16750248408330501 0 -0.484329036665618 0.14590780568904391 0 -0.5 0.16082016226504059 0 -0.48267690855929207 0.16750248408330501 0 -0.5 0.18623271964023869 0 -0.46988551443056559 0.18368362587441231 0 -0.48267690855929207 0.16750248408330501 0 -0.484329036665618 0.14590780568904391 0 -0.48267690855929207 0.16750248408330501 0 -0.46203345445523247 0.15731076501506791 0 -0.46988551443056559 0.18368362587441231 0 -0.48267690855929207 0.16750248408330501 0 -0.46203345445523247 0.15731076501506791 0 -0.46988551443056559 0.18368362587441231 0 -0.46203345445523247 0.15731076501506791 0 -0.44847052307194718 0.17065835843452579 0 -0.44847052307194718 0.17065835843452579 0 -0.44634321402380611 0.1391285174140266 0 -0.43035867670445921 0.16382344032514509 0 -0.46988551443056559 0.18368362587441231 0 -0.44847052307194718 0.17065835843452579 0 -0.44322792427538088 0.18809912995818681 0 -0.44847052307194718 0.17065835843452579 0 -0.44322792427538088 0.18809912995818681 0 -0.43035867670445921 0.16382344032514509 0 -0.46203345445523247 0.15731076501506791 0 -0.44847052307194718 0.17065835843452579 0 -0.44634321402380611 0.1391285174140266 0 -0.43065297359237958 0.1209462698129852 0 -0.45786919608875898 0.1154046649276747 0 -0.44634321402380611 0.1391285174140266 0 -0.43065297359237958 0.1209462698129852 0 -0.44634321402380611 0.1391285174140266 0 -0.45786919608875898 0.1154046649276747 0 -0.47278155615574452 0.12923949579297439 0 -0.44634321402380611 0.1391285174140266 0 -0.47278155615574452 0.12923949579297439 0 -0.46203345445523247 0.15731076501506791 0 -0.44634321402380611 0.1391285174140266 0 -0.46203345445523247 0.15731076501506791 0 -0.44634321402380611 0.1391285174140266 0 -0.48320420273740289 0.24695889459721909 0 -0.47514065407054712 0.21834156605350949 0 -0.46374203776488843 0.24231337921208099 0 -0.48320420273740289 0.24695889459721909 0 -0.5 0.23608425102031691 0 -0.49999999999999828 0.26052322502519693 0 -0.5 0.23608425102031691 0 -0.47514065407054712 0.21834156605350949 0 -0.49999999999999928 0.21164527701543681 0 -0.48320420273740289 0.24695889459721909 0 -0.5 0.23608425102031691 0 -0.47514065407054712 0.21834156605350949 0 -0.47514065407054712 0.21834156605350949 0 -0.4835951454772327 0.20023593228604561 0 -0.45154257870426928 0.20599468776558141 0 -0.47514065407054712 0.21834156605350949 0 -0.49999999999999928 0.21164527701543681 0 -0.47514065407054712 0.21834156605350949 0 -0.49999999999999928 0.21164527701543681 0 -0.4835951454772327 0.20023593228604561 0 -0.5 0.18623271964023869 0 -0.49999999999999928 0.21164527701543681 0 -0.4835951454772327 0.20023593228604561 0 -0.5 0.18623271964023869 0 -0.46988551443056559 0.18368362587441231 0 -0.4835951454772327 0.20023593228604561 0 -0.46988551443056559 0.18368362587441231 0 -0.4835951454772327 0.20023593228604561 0 -0.45154257870426928 0.20599468776558141 0 -0.46988551443056559 0.18368362587441231 0 -0.44322792427538088 0.18809912995818681 0 -0.45154257870426928 0.20599468776558141 0 -0.44322792427538088 0.18809912995818681 0 -0.45154257870426928 0.20599468776558141 0 -0.43156923030401412 0.20662400853082949 0 -0.45154257870426928 0.20599468776558141 0 -0.43626961318496982 0.21758134282447669 0 -0.43156923030401412 0.20662400853082949 0 -0.45154257870426928 0.20599468776558141 0 -0.4502813081410949 0.22503785509158239 0 -0.43626961318496982 0.21758134282447669 0 -0.47514065407054712 0.21834156605350949 0 -0.45154257870426928 0.20599468776558141 0 -0.4502813081410949 0.22503785509158239 0 -0.47514065407054712 0.21834156605350949 0 -0.4502813081410949 0.22503785509158239 0 -0.46374203776488843 0.24231337921208099 0 -0.47514065407054712 0.21834156605350949 0 -0.4502813081410949 0.22503785509158239 0 -0.4502813081410949 0.22503785509158239 0 -0.4254219622116428 0.23173414412965521 0 -0.4502813081410949 0.22503785509158239 0 -0.44217255273843081 0.2375921883177731 0 -0.4254219622116428 0.23173414412965521 0 -0.44217255273843081 0.2375921883177731 0 -0.46374203776488843 0.24231337921208099 0 -0.44930022691654531 0.25017209886845743 0 -0.4502813081410949 0.22503785509158239 0 -0.44217255273843081 0.2375921883177731 0 -0.46374203776488843 0.24231337921208099 0 -0.44217255273843081 0.2375921883177731 0 -0.43473247059964099 0.24923134854679699 0 -0.44930022691654531 0.25017209886845743 0 -0.4254219622116428 0.23173414412965521 0 -0.40056261628219081 0.238430433167728 0 -0.40657440031051839 0.2450368946099046 0 -0.420871102452543 0.23506146318740601 0 -0.40056261628219081 0.238430433167728 0 -0.420871102452543 0.23506146318740601 0 -0.4254219622116428 0.23173414412965521 0 -0.40056261628219081 0.238430433167728 0 -0.40657440031051839 0.2450368946099046 0 -0.420871102452543 0.23506146318740601 0 -0.40657440031051839 0.2450368946099046 0 -0.420871102452543 0.23506146318740601 0 -0.41639498081272819 0.24328599416888461 0 -0.420871102452543 0.23506146318740601 0 -0.42154703010486599 0.24218584729961251 0 -0.41639498081272819 0.24328599416888461 0 -0.40657440031051839 0.2450368946099046 0 -0.41639498081272819 0.24328599416888461 0 -0.42010440478602878 0.2491953094301102 0 -0.42154703010486599 0.24218584729961251 0 -0.41639498081272819 0.24328599416888461 0 -0.42010440478602878 0.2491953094301102 0 -0.44217255273843081 0.2375921883177731 0 -0.42857136845823279 0.2408174914004248 0 -0.4254219622116428 0.23173414412965521 0 -0.42154703010486599 0.24218584729961251 0 -0.42010440478602878 0.2491953094301102 0 -0.42857136845823279 0.2408174914004248 0 -0.42010440478602878 0.2491953094301102 0 -0.43473247059964099 0.24923134854679699 0 -0.42857136845823279 0.2408174914004248 0 -0.44217255273843081 0.2375921883177731 0 -0.43473247059964099 0.24923134854679699 0 -0.42857136845823279 0.2408174914004248 0 -0.42857136845823279 0.2408174914004248 0 -0.42410286580682111 0.23744973650427459 0 -0.4254219622116428 0.23173414412965521 0 -0.42154703010486599 0.24218584729961251 0 -0.42857136845823279 0.2408174914004248 0 -0.42410286580682111 0.23744973650427459 0 -0.420871102452543 0.23506146318740601 0 -0.42154703010486599 0.24218584729961251 0 -0.42410286580682111 0.23744973650427459 0 -0.420871102452543 0.23506146318740601 0 -0.42410286580682111 0.23744973650427459 0 -0.4254219622116428 0.23173414412965521 0 -0.4502813081410949 0.22503785509158239 0 -0.4254219622116428 0.23173414412965521 0 -0.43626961318496982 0.21758134282447669 0 -0.4254219622116428 0.23173414412965521 0 -0.4225329865638276 0.21851601860473499 0 -0.43626961318496982 0.21758134282447669 0 -0.41450054965517219 0.22722043448012061 0 -0.409484633563028 0.22020114201836441 0 -0.4225329865638276 0.21851601860473499 0 -0.4254219622116428 0.23173414412965521 0 -0.41450054965517219 0.22722043448012061 0 -0.40056261628219081 0.238430433167728 0 -0.41450054965517219 0.22722043448012061 0 -0.409484633563028 0.22020114201836441 0 -0.40056261628219081 0.238430433167728 0 -0.4254219622116428 0.23173414412965521 0 -0.41450054965517219 0.22722043448012061 0 -0.4225329865638276 0.21851601860473499 0 -0.40952837608640658 0.2041991960665781 0 -0.4225329865638276 0.21851601860473499 0 -0.43156923030401412 0.20662400853082949 0 -0.409484633563028 0.22020114201836441 0 -0.40952837608640658 0.2041991960665781 0 -0.4225329865638276 0.21851601860473499 0 -0.4225329865638276 0.21851601860473499 0 -0.43626961318496982 0.21758134282447669 0 -0.43156923030401412 0.20662400853082949 0 -0.44322792427538088 0.18809912995818681 0 -0.43156923030401412 0.20662400853082949 0 -0.42411787028082659 0.18785863588571661 0 -0.40952837608640658 0.2041991960665781 0 -0.42411787028082659 0.18785863588571661 0 -0.40590514403387201 0.17654740454784359 0 -0.40952837608640658 0.2041991960665781 0 -0.43156923030401412 0.20662400853082949 0 -0.42411787028082659 0.18785863588571661 0 -0.40952837608640658 0.2041991960665781 0 -0.40590514403387201 0.17654740454784359 0 -0.40952837608640658 0.2041991960665781 0 -0.38965085213761907 0.1985858102056704 0 -0.40590514403387201 0.17654740454784359 0 -0.38965085213761907 0.1985858102056704 0 -0.37950676658585469 0.1796949693130605 0 -0.36387835235687521 0.19894898725510021 0 -0.38965085213761907 0.1985858102056704 0 -0.38219129732322588 0.21871674917815109 0 -0.36387835235687521 0.19894898725510021 0 -0.38965085213761907 0.1985858102056704 0 -0.38219129732322588 0.21871674917815109 0 -0.39689517643948052 0.21340755487328869 0 -0.40952837608640658 0.2041991960665781 0 -0.38965085213761907 0.1985858102056704 0 -0.39689517643948052 0.21340755487328869 0 -0.409484633563028 0.22020114201836441 0 -0.40952837608640658 0.2041991960665781 0 -0.39689517643948052 0.21340755487328869 0 -0.38219129732322588 0.21871674917815109 0 -0.39689517643948052 0.21340755487328869 0 -0.40056261628219081 0.238430433167728 0 -0.409484633563028 0.22020114201836441 0 -0.39689517643948052 0.21340755487328869 0 -0.40056261628219081 0.238430433167728 0 -0.38219129732322588 0.21871674917815109 0 -0.40056261628219081 0.238430433167728 0 -0.38219129732322588 0.21871674917815109 0 -0.38100676516391779 0.23903117215196371 0 -0.40056261628219081 0.238430433167728 0 -0.38219129732322588 0.21871674917815109 0 -0.38100676516391779 0.23903117215196371 0 -0.36365086681028891 0.22999983821805661 0 -0.38100676516391779 0.23903117215196371 0 -0.37935258164615399 0.25196824170108978 0 -0.36540517029611502 0.25030160285924552 0 -0.38100676516391779 0.23903117215196371 0 -0.39148872151107222 0.24551346298935281 0 -0.37935258164615399 0.25196824170108978 0 -0.40657440031051839 0.2450368946099046 0 -0.39148872151107222 0.24551346298935281 0 -0.39169754242157212 0.25541712595131438 0 -0.38100676516391779 0.23903117215196371 0 -0.39148872151107222 0.24551346298935281 0 -0.40056261628219081 0.238430433167728 0 -0.40657440031051839 0.2450368946099046 0 -0.40056261628219081 0.238430433167728 0 -0.40657440031051839 0.2450368946099046 0 -0.39148872151107222 0.24551346298935281 0 -0.40056261628219081 0.238430433167728 0 -0.42744685409532329 0.14353762451550101 0 -0.43035867670445921 0.16382344032514509 0 -0.40228191198133739 0.14889561302910881 0 -0.41476836959139018 0.1331962314721386 0 -0.42744685409532329 0.14353762451550101 0 -0.40228191198133739 0.14889561302910881 0 -0.43065297359237958 0.1209462698129852 0 -0.41476836959139018 0.1331962314721386 0 -0.42744685409532329 0.14353762451550101 0 -0.43065297359237958 0.1209462698129852 0 -0.44634321402380611 0.1391285174140266 0 -0.42744685409532329 0.14353762451550101 0 -0.44634321402380611 0.1391285174140266 0 -0.42744685409532329 0.14353762451550101 0 -0.43035867670445921 0.16382344032514509 0 -0.44322792427538088 0.18809912995818681 0 -0.42411787028082659 0.18785863588571661 0 -0.43035867670445921 0.16382344032514509 0 -0.42411787028082659 0.18785863588571661 0 -0.43035867670445921 0.16382344032514509 0 -0.40590514403387201 0.17654740454784359 0 -0.43035867670445921 0.16382344032514509 0 -0.40590514403387201 0.17654740454784359 0 -0.40228191198133739 0.14889561302910881 0 -0.40590514403387201 0.17654740454784359 0 -0.40228191198133739 0.14889561302910881 0 -0.40590514403387201 0.17654740454784359 0 -0.38636959218539291 0.15957468538747199 0 -0.40228191198133739 0.14889561302910881 0 -0.38965085213761907 0.1985858102056704 0 -0.40590514403387201 0.17654740454784359 0 -0.37950676658585469 0.1796949693130605 0 -0.40590514403387201 0.17654740454784359 0 -0.37950676658585469 0.1796949693130605 0 -0.38636959218539291 0.15957468538747199 0 -0.37950676658585469 0.1796949693130605 0 -0.38636959218539291 0.15957468538747199 0 -0.37082754488469238 0.16121404290725419 0 -0.38636959218539291 0.15957468538747199 0 -0.38814370578275559 0.1452819191531626 0 -0.37155247984384532 0.1458141633744027 0 -0.38636959218539291 0.15957468538747199 0 -0.37155247984384532 0.1458141633744027 0 -0.37082754488469238 0.16121404290725419 0 -0.38636959218539291 0.15957468538747199 0 -0.38814370578275559 0.1452819191531626 0 -0.40228191198133739 0.14889561302910881 0 -0.38814370578275559 0.1452819191531626 0 -0.40228191198133739 0.14889561302910881 0 -0.3909526504366338 0.12785980678409539 0 -0.39865867992880277 0.12124382151037411 0 -0.40228191198133739 0.14889561302910881 0 -0.3909526504366338 0.12785980678409539 0 -0.39865867992880277 0.12124382151037411 0 -0.40228191198133739 0.14889561302910881 0 -0.39865867992880277 0.12124382151037411 0 -0.41476836959139018 0.1331962314721386 0 -0.40228191198133739 0.14889561302910881 0 -0.38814370578275559 0.1452819191531626 0 -0.3909526504366338 0.12785980678409539 0 -0.37155247984384532 0.1458141633744027 0 -0.3909526504366338 0.12785980678409539 0 -0.37155247984384532 0.1458141633744027 0 -0.37275902665185562 0.12018334607211489 0 -0.3909526504366338 0.12785980678409539 0 -0.37155247984384532 0.1458141633744027 0 -0.37155247984384532 0.1458141633744027 0 -0.37275902665185562 0.12018334607211489 0 -0.35639739080166449 0.12811914757345941 0 -0.35344272049971981 0.14515792152621981 0 -0.37155247984384532 0.1458141633744027 0 -0.35639739080166449 0.12811914757345941 0 -0.37155247984384532 0.1458141633744027 0 -0.37275902665185562 0.12018334607211489 0 -0.35639739080166449 0.12811914757345941 0 -0.34238199309120548 0.1354254839296706 0 -0.34205563768044911 0.1170882789600443 0 -0.35639739080166449 0.12811914757345941 0 -0.35344272049971981 0.14515792152621981 0 -0.34238199309120548 0.1354254839296706 0 -0.35344272049971981 0.14515792152621981 0 -0.35438379555253807 0.16170333705347831 0 -0.33727215864180532 0.15185767274231049 0 -0.35344272049971981 0.14515792152621981 0 -0.34238199309120548 0.1354254839296706 0 -0.33727215864180532 0.15185767274231049 0 -0.37155247984384532 0.1458141633744027 0 -0.35438379555253807 0.16170333705347831 0 -0.35344272049971981 0.14515792152621981 0 -0.37155247984384532 0.1458141633744027 0 -0.35438379555253807 0.16170333705347831 0 -0.37155247984384532 0.1458141633744027 0 -0.37082754488469238 0.16121404290725419 0 -0.35438379555253807 0.16170333705347831 0 -0.37155247984384532 0.1458141633744027 0 -0.37082754488469238 0.16121404290725419 0 -0.37082754488469238 0.16121404290725419 0 -0.35776753964758229 0.18029723292024449 0 -0.35438379555253807 0.16170333705347831 0 -0.37950676658585469 0.1796949693130605 0 -0.37082754488469238 0.16121404290725419 0 -0.35776753964758229 0.18029723292024449 0 -0.37950676658585469 0.1796949693130605 0 -0.35776753964758229 0.18029723292024449 0 -0.36387835235687521 0.19894898725510021 0 -0.35776753964758229 0.18029723292024449 0 -0.33721511126123133 0.1775925107325543 0 -0.34160344318118407 0.2001539082056899 0 -0.35776753964758229 0.18029723292024449 0 -0.35438379555253807 0.16170333705347831 0 -0.33721511126123133 0.1775925107325543 0 -0.35438379555253807 0.16170333705347831 0 -0.34121921743793138 0.1646988543618424 0 -0.33721511126123133 0.1775925107325543 0 -0.35438379555253807 0.16170333705347831 0 -0.33721511126123133 0.1775925107325543 0 -0.35438379555253807 0.16170333705347831 0 -0.34121921743793138 0.1646988543618424 0 -0.33727215864180532 0.15185767274231049 0 -0.34121921743793138 0.1646988543618424 0 -0.32862789406152548 0.16957100137430481 0 -0.33727215864180532 0.15185767274231049 0 -0.32862789406152548 0.16957100137430481 0 -0.32035496234918759 0.1546751894925498 0 -0.33727215864180532 0.15185767274231049 0 -0.34121921743793138 0.1646988543618424 0 -0.32862789406152548 0.16957100137430481 0 -0.33721511126123133 0.1775925107325543 0 -0.33721511126123133 0.1775925107325543 0 -0.32004642696992441 0.1934816844116303 0 -0.32862789406152548 0.16957100137430481 0 -0.33721511126123133 0.1775925107325543 0 -0.32004642696992441 0.1934816844116303 0 -0.32862789406152548 0.16957100137430481 0 -0.3042222875817529 0.17658562660160651 0 -0.32862789406152548 0.16957100137430481 0 -0.32004642696992441 0.1934816844116303 0 -0.3042222875817529 0.17658562660160651 0 -0.32862789406152548 0.16957100137430481 0 -0.32035496234918759 0.1546751894925498 0 -0.3042222875817529 0.17658562660160651 0 -0.32035496234918759 0.1546751894925498 0 -0.32274205783238902 0.13490439884631891 0 -0.30342847798432881 0.15272051873259351 0 -0.32035496234918759 0.1546751894925498 0 -0.32274205783238902 0.13490439884631891 0 -0.33727215864180532 0.15185767274231049 0 -0.32274205783238902 0.13490439884631891 0 -0.30342847798432881 0.15272051873259351 0 -0.32274205783238902 0.13490439884631891 0 -0.34205563768044911 0.1170882789600443 0 -0.32274205783238902 0.13490439884631891 0 -0.34238199309120548 0.1354254839296706 0 -0.34205563768044911 0.1170882789600443 0 -0.32274205783238902 0.13490439884631891 0 -0.34238199309120548 0.1354254839296706 0 -0.33727215864180532 0.15185767274231049 0 -0.3455884453089616 0.24690633041501961 0 -0.36365086681028891 0.22999983821805661 0 -0.36540517029611502 0.25030160285924552 0 -0.38100676516391779 0.23903117215196371 0 -0.36365086681028891 0.22999983821805661 0 -0.36540517029611502 0.25030160285924552 0 -0.38219129732322588 0.21871674917815109 0 -0.36365086681028891 0.22999983821805661 0 -0.35308974063502069 0.21439620623588021 0 -0.36365086681028891 0.22999983821805661 0 -0.33494175690787081 0.22536478424521619 0 -0.36365086681028891 0.22999983821805661 0 -0.35308974063502069 0.21439620623588021 0 -0.33494175690787081 0.22536478424521619 0 -0.3455884453089616 0.24690633041501961 0 -0.36365086681028891 0.22999983821805661 0 -0.33494175690787081 0.22536478424521619 0 -0.35308974063502069 0.21439620623588021 0 -0.36387835235687521 0.19894898725510021 0 -0.34160344318118407 0.2001539082056899 0 -0.38219129732322588 0.21871674917815109 0 -0.36387835235687521 0.19894898725510021 0 -0.38219129732322588 0.21871674917815109 0 -0.35308974063502069 0.21439620623588021 0 -0.36387835235687521 0.19894898725510021 0 -0.35776753964758229 0.18029723292024449 0 -0.36387835235687521 0.19894898725510021 0 -0.34160344318118407 0.2001539082056899 0 -0.33721511126123133 0.1775925107325543 0 -0.34160344318118407 0.2001539082056899 0 -0.32004642696992441 0.1934816844116303 0 -0.34160344318118407 0.2001539082056899 0 -0.32004642696992441 0.1934816844116303 0 -0.32323086836851861 0.20935724863035651 0 -0.32004642696992441 0.1934816844116303 0 -0.32323086836851861 0.20935724863035651 0 -0.30836695096137362 0.2052594274674972 0 -0.32323086836851861 0.20935724863035651 0 -0.30623264700545272 0.22072973027237569 0 -0.30836695096137362 0.2052594274674972 0 -0.32323086836851861 0.20935724863035651 0 -0.33494175690787081 0.22536478424521619 0 -0.30623264700545272 0.22072973027237569 0 -0.34160344318118407 0.2001539082056899 0 -0.32323086836851861 0.20935724863035651 0 -0.33494175690787081 0.22536478424521619 0 -0.35308974063502069 0.21439620623588021 0 -0.34160344318118407 0.2001539082056899 0 -0.33494175690787081 0.22536478424521619 0 -0.33494175690787081 0.22536478424521619 0 -0.31190565721249391 0.24509665905200231 0 -0.30623264700545272 0.22072973027237569 0 -0.33494175690787081 0.22536478424521619 0 -0.30623264700545272 0.22072973027237569 0 -0.33494175690787081 0.22536478424521619 0 -0.33025788016244562 0.24527560138489821 0 -0.31190565721249391 0.24509665905200231 0 -0.3455884453089616 0.24690633041501961 0 -0.33494175690787081 0.22536478424521619 0 -0.33025788016244562 0.24527560138489821 0 -0.29419891809494841 0.2471668481617397 0 -0.28963975419164112 0.23227626788427749 0 -0.27518016358912079 0.24640308147974949 0 -0.29419891809494841 0.2471668481617397 0 -0.30049424412613401 0.23631737634259881 0 -0.28963975419164112 0.23227626788427749 0 -0.29419891809494841 0.2471668481617397 0 -0.31190565721249391 0.24509665905200231 0 -0.30049424412613401 0.23631737634259881 0 -0.31190565721249391 0.24509665905200231 0 -0.30049424412613401 0.23631737634259881 0 -0.30623264700545272 0.22072973027237569 0 -0.30049424412613401 0.23631737634259881 0 -0.30623264700545272 0.22072973027237569 0 -0.28963975419164112 0.23227626788427749 0 -0.30623264700545272 0.22072973027237569 0 -0.28963975419164112 0.23227626788427749 0 -0.27752353710303468 0.21609467629953441 0 -0.30623264700545272 0.22072973027237569 0 -0.29340790776274561 0.20925875107020689 0 -0.27752353710303468 0.21609467629953441 0 -0.29340790776274561 0.20925875107020689 0 -0.27752353710303468 0.21609467629953441 0 -0.30623264700545272 0.22072973027237569 0 -0.27752353710303468 0.21609467629953441 0 -0.29340790776274561 0.20925875107020689 0 -0.28343527923475692 0.20024079245952051 0 -0.27752353710303468 0.21609467629953441 0 -0.30623264700545272 0.22072973027237569 0 -0.29340790776274561 0.20925875107020689 0 -0.30836695096137362 0.2052594274674972 0 -0.29340790776274561 0.20925875107020689 0 -0.30836695096137362 0.2052594274674972 0 -0.29643534629183282 0.19257136867822969 0 -0.32004642696992441 0.1934816844116303 0 -0.29643534629183282 0.19257136867822969 0 -0.3042222875817529 0.17658562660160651 0 -0.32004642696992441 0.1934816844116303 0 -0.30836695096137362 0.2052594274674972 0 -0.29643534629183282 0.19257136867822969 0 -0.29643534629183282 0.19257136867822969 0 -0.28343527923475692 0.20024079245952051 0 -0.27981668110198038 0.1836002518289083 0 -0.29340790776274561 0.20925875107020689 0 -0.29643534629183282 0.19257136867822969 0 -0.28343527923475692 0.20024079245952051 0 -0.28343527923475692 0.20024079245952051 0 -0.26999292391419127 0.19967891442072369 0 -0.27981668110198038 0.1836002518289083 0 -0.26999292391419127 0.19967891442072369 0 -0.25541107462220769 0.19061487705621011 0 -0.27981668110198038 0.1836002518289083 0 -0.26999292391419127 0.19967891442072369 0 -0.25541107462220769 0.19061487705621011 0 -0.25388231195624389 0.21227782670329551 0 -0.25541107462220769 0.19061487705621011 0 -0.25388231195624389 0.21227782670329551 0 -0.245120142501527 0.2007740595365167 0 -0.25388231195624389 0.21227782670329551 0 -0.27752353710303468 0.21609467629953441 0 -0.25553602082765797 0.22555712340915129 0 -0.26999292391419127 0.19967891442072369 0 -0.25388231195624389 0.21227782670329551 0 -0.27752353710303468 0.21609467629953441 0 -0.28343527923475692 0.20024079245952051 0 -0.26999292391419127 0.19967891442072369 0 -0.27752353710303468 0.21609467629953441 0 -0.25388231195624389 0.21227782670329551 0 -0.27752353710303468 0.21609467629953441 0 -0.27752353710303468 0.21609467629953441 0 -0.27057164885580959 0.23170170255409431 0 -0.25553602082765797 0.22555712340915129 0 -0.27752353710303468 0.21609467629953441 0 -0.25553602082765797 0.22555712340915129 0 -0.28963975419164112 0.23227626788427749 0 -0.27752353710303468 0.21609467629953441 0 -0.27057164885580959 0.23170170255409431 0 -0.27057164885580959 0.23170170255409431 0 -0.25553602082765797 0.22555712340915129 0 -0.25373058837607149 0.24239958558230729 0 -0.25388231195624389 0.21227782670329551 0 -0.25553602082765797 0.22555712340915129 0 -0.2468055528499199 0.2211533892087075 0 -0.25373058837607149 0.24239958558230729 0 -0.27518016358912079 0.24640308147974949 0 -0.25373058837607149 0.24239958558230729 0 -0.25760887749593592 0.25495998211357801 0 -0.24121289446268329 0.25000371201541732 0 -0.25373058837607149 0.24239958558230729 0 -0.27518016358912079 0.24640308147974949 0 -0.25760887749593592 0.25495998211357801 0 -0.27057164885580959 0.23170170255409431 0 -0.25373058837607149 0.24239958558230729 0 -0.27518016358912079 0.24640308147974949 0 -0.28963975419164112 0.23227626788427749 0 -0.27057164885580959 0.23170170255409431 0 -0.27518016358912079 0.24640308147974949 0 -0.28813710562026063 0.15552040481066839 0 -0.29994613274751031 0.13525362314218159 0 -0.27500958457387958 0.147193723478732 0 -0.29994613274751031 0.13525362314218159 0 -0.27500958457387958 0.147193723478732 0 -0.29994613274751031 0.13525362314218159 0 -0.27500958457387958 0.147193723478732 0 -0.27356454797868057 0.1204281898047846 0 -0.32274205783238902 0.13490439884631891 0 -0.29994613274751031 0.13525362314218159 0 -0.30970426794170669 0.12161266284043321 0 -0.28813710562026063 0.15552040481066839 0 -0.29994613274751031 0.13525362314218159 0 -0.30342847798432881 0.15272051873259351 0 -0.32274205783238902 0.13490439884631891 0 -0.29994613274751031 0.13525362314218159 0 -0.30342847798432881 0.15272051873259351 0 -0.30342847798432881 0.15272051873259351 0 -0.3042222875817529 0.17658562660160651 0 -0.28411489813626872 0.17053663861886789 0 -0.32035496234918759 0.1546751894925498 0 -0.30342847798432881 0.15272051873259351 0 -0.3042222875817529 0.17658562660160651 0 -0.3042222875817529 0.17658562660160651 0 -0.28411489813626872 0.17053663861886789 0 -0.27981668110198038 0.1836002518289083 0 -0.29643534629183282 0.19257136867822969 0 -0.3042222875817529 0.17658562660160651 0 -0.27981668110198038 0.1836002518289083 0 -0.3042222875817529 0.17658562660160651 0 -0.27981668110198038 0.1836002518289083 0 -0.30342847798432881 0.15272051873259351 0 -0.28411489813626872 0.17053663861886789 0 -0.28813710562026063 0.15552040481066839 0 -0.28411489813626872 0.17053663861886789 0 -0.27500958457387958 0.147193723478732 0 -0.28813710562026063 0.15552040481066839 0 -0.30342847798432881 0.15272051873259351 0 -0.28411489813626872 0.17053663861886789 0 -0.28411489813626872 0.17053663861886789 0 -0.26465432913558212 0.17162838323039339 0 -0.27500958457387958 0.147193723478732 0 -0.25541107462220769 0.19061487705621011 0 -0.27981668110198038 0.1836002518289083 0 -0.26465432913558212 0.17162838323039339 0 -0.25541107462220769 0.19061487705621011 0 -0.27981668110198038 0.1836002518289083 0 -0.28411489813626872 0.17053663861886789 0 -0.27981668110198038 0.1836002518289083 0 -0.26465432913558212 0.17162838323039339 0 -0.25541107462220769 0.19061487705621011 0 -0.26465432913558212 0.17162838323039339 0 -0.24062041860344829 0.18086303909261409 0 -0.26465432913558212 0.17162838323039339 0 -0.25007303640024908 0.1591338238152824 0 -0.24062041860344829 0.18086303909261409 0 -0.26465432913558212 0.17162838323039339 0 -0.25007303640024908 0.1591338238152824 0 -0.27500958457387958 0.147193723478732 0 -0.25007303640024908 0.1591338238152824 0 -0.27500958457387958 0.147193723478732 0 -0.25007303640024908 0.1591338238152824 0 -0.27500958457387958 0.147193723478732 0 -0.25144432090369467 0.13342534154184049 0 -0.27500958457387958 0.147193723478732 0 -0.25144432090369467 0.13342534154184049 0 -0.27356454797868057 0.1204281898047846 0 -0.25144432090369467 0.13342534154184049 0 -0.27356454797868057 0.1204281898047846 0 -0.249237848705259 0.11660028365418799 0 -0.25696442734096347 0.101505970596828 0 -0.27356454797868057 0.1204281898047846 0 -0.249237848705259 0.11660028365418799 0 -0.25696442734096347 0.101505970596828 0 -0.25346460396090092 0.088833757568607716 0 -0.24308723687433231 0.095287870509487199 0 -0.25696442734096347 0.101505970596828 0 -0.28000929191811053 0.095493716325661684 0 -0.26231879490383209 0.089239115862815327 0 -0.28000929191811053 0.095493716325661684 0 -0.27356454797868057 0.1204281898047846 0 -0.25696442734096347 0.101505970596828 0 -0.28000929191811053 0.095493716325661684 0 -0.27356454797868057 0.1204281898047846 0 -0.28000929191811053 0.095493716325661684 0 -0.27356454797868057 0.1204281898047846 0 -0.29292917357669901 0.1168546843127828 0 -0.29994613274751031 0.13525362314218159 0 -0.27356454797868057 0.1204281898047846 0 -0.29292917357669901 0.1168546843127828 0 -0.28000929191811053 0.095493716325661684 0 -0.29292917357669901 0.1168546843127828 0 -0.29536223776171711 0.1011867284424279 0 -0.28000929191811053 0.095493716325661684 0 -0.29536223776171711 0.1011867284424279 0 -0.29911499688421789 0.088163987434570198 0 -0.29536223776171711 0.1011867284424279 0 -0.30939548866784072 0.10423452569669681 0 -0.29911499688421789 0.088163987434570198 0 -0.29292917357669901 0.1168546843127828 0 -0.29536223776171711 0.1011867284424279 0 -0.30939548866784072 0.10423452569669681 0 -0.29292917357669901 0.1168546843127828 0 -0.30939548866784072 0.10423452569669681 0 -0.30970426794170669 0.12161266284043321 0 -0.29994613274751031 0.13525362314218159 0 -0.29292917357669901 0.1168546843127828 0 -0.30970426794170669 0.12161266284043321 0 -0.31070364258129191 0.074855570824746601 0 -0.2864540358575387 0.07055924284653857 0 -0.31070364258129191 0.074855570824746601 0 -0.30346784463536353 0.06114345333932715 0 -0.32264993347221549 0.062505409233574477 0 -0.31070364258129191 0.074855570824746601 0 -0.29911499688421789 0.088163987434570198 0 -0.2864540358575387 0.07055924284653857 0 -0.31070364258129191 0.074855570824746601 0 -0.2864540358575387 0.07055924284653857 0 -0.30346784463536353 0.06114345333932715 0 -0.31070364258129191 0.074855570824746601 0 -0.29911499688421789 0.088163987434570198 0 -0.32076325794706662 0.088445808952326455 0 -0.30939548866784072 0.10423452569669681 0 -0.29911499688421789 0.088163987434570198 0 -0.32076325794706662 0.088445808952326455 0 -0.28000929191811053 0.095493716325661684 0 -0.2864540358575387 0.07055924284653857 0 -0.28000929191811053 0.095493716325661684 0 -0.29911499688421789 0.088163987434570198 0 -0.2864540358575387 0.07055924284653857 0 -0.2864540358575387 0.07055924284653857 0 -0.27169784912568029 0.067944873936149064 0 -0.2864540358575387 0.07055924284653857 0 -0.2726639676877623 0.063356885417806805 0 -0.27169784912568029 0.067944873936149064 0 -0.2864540358575387 0.07055924284653857 0 -0.27169784912568029 0.067944873936149064 0 -0.27682320503793822 0.07853233261513165 0 -0.27169784912568029 0.067944873936149064 0 -0.27682320503793822 0.07853233261513165 0 -0.26913164325042332 0.080131497352177311 0 -0.27169784912568029 0.067944873936149064 0 -0.26913164325042332 0.080131497352177311 0 -0.27169784912568029 0.067944873936149064 0 -0.26913164325042332 0.080131497352177311 0 -0.26367722220484952 0.069088873615314711 0 -0.2668244969260416 0.067081457071640843 0 -0.27169784912568029 0.067944873936149064 0 -0.2668244969260416 0.067081457071640843 0 -0.27169784912568029 0.067944873936149064 0 -0.26367722220484952 0.069088873615314711 0 -0.2668244969260416 0.067081457071640843 0 -0.26495039575088197 0.06674942062236805 0 -0.2668244969260416 0.067081457071640843 0 -0.2726639676877623 0.063356885417806805 0 -0.26495039575088197 0.06674942062236805 0 -0.2726639676877623 0.063356885417806805 0 -0.27169784912568029 0.067944873936149064 0 -0.2668244969260416 0.067081457071640843 0 -0.2726639676877623 0.063356885417806805 0 -0.2668244969260416 0.067081457071640843 0 -0.2726639676877623 0.063356885417806805 0 -0.27169784912568029 0.067944873936149064 0 -0.28000929191811053 0.095493716325661684 0 -0.2864540358575387 0.07055924284653857 0 -0.27682320503793822 0.07853233261513165 0 -0.28000929191811053 0.095493716325661684 0 -0.27682320503793822 0.07853233261513165 0 -0.26913164325042332 0.080131497352177311 0 -0.28000929191811053 0.095493716325661684 0 -0.26913164325042332 0.080131497352177311 0 -0.26231879490383209 0.089239115862815327 0 -0.26913164325042332 0.080131497352177311 0 -0.26231879490383209 0.089239115862815327 0 -0.2589512915809381 0.077772758524035993 0 -0.26231879490383209 0.089239115862815327 0 -0.25346460396090092 0.088833757568607716 0 -0.2589512915809381 0.077772758524035993 0 -0.25346460396090092 0.088833757568607716 0 -0.2589512915809381 0.077772758524035993 0 -0.2460012691044387 0.080363072349872125 0 -0.25696442734096347 0.101505970596828 0 -0.26231879490383209 0.089239115862815327 0 -0.25346460396090092 0.088833757568607716 0 -0.26495039575088197 0.06674942062236805 0 -0.24549481882380511 0.063302455876250885 0 -0.26367722220484952 0.069088873615314711 0 -0.25503092647099379 0.069875955615951335 0 -0.2460012691044387 0.080363072349872125 0 -0.26367722220484952 0.069088873615314711 0 -0.2460012691044387 0.080363072349872125 0 -0.26495039575088197 0.06674942062236805 0 -0.25503092647099379 0.069875955615951335 0 -0.24549481882380511 0.063302455876250885 0 -0.26367722220484952 0.069088873615314711 0 -0.2589512915809381 0.077772758524035993 0 -0.2460012691044387 0.080363072349872125 0 -0.26495039575088197 0.06674942062236805 0 -0.26367722220484952 0.069088873615314711 0 -0.25503092647099379 0.069875955615951335 0 -0.2668244969260416 0.067081457071640843 0 -0.26495039575088197 0.06674942062236805 0 -0.26367722220484952 0.069088873615314711 0 -0.2668244969260416 0.067081457071640843 0 -0.26367722220484952 0.069088873615314711 0 -0.26495039575088197 0.06674942062236805 0 -0.26367722220484952 0.069088873615314711 0 -0.26367722220484952 0.069088873615314711 0 -0.2589512915809381 0.077772758524035993 0 -0.26913164325042332 0.080131497352177311 0 -0.26367722220484952 0.069088873615314711 0 -0.2589512915809381 0.077772758524035993 0 -0.26495039575088197 0.06674942062236805 0 -0.25799649903461741 0.049369362609172331 0 -0.24549481882380511 0.063302455876250885 0 -0.25799649903461741 0.049369362609172331 0 -0.27636705501808001 0.045771339688046857 0 -0.26149433036992947 0.028104568545064729 0 -0.25799649903461741 0.049369362609172331 0 -0.26149433036992947 0.028104568545064729 0 -0.24125131776758291 0.046094712329836821 0 -0.27636705501808001 0.045771339688046857 0 -0.28222855130075802 0.017935752317506441 0 -0.26495039575088197 0.06674942062236805 0 -0.25799649903461741 0.049369362609172331 0 -0.27636705501808001 0.045771339688046857 0 -0.2726639676877623 0.063356885417806805 0 -0.27636705501808001 0.045771339688046857 0 -0.2914052466915974 0.051403193142839927 0 -0.2726639676877623 0.063356885417806805 0 -0.26495039575088197 0.06674942062236805 0 -0.27636705501808001 0.045771339688046857 0 -0.2726639676877623 0.063356885417806805 0 -0.27636705501808001 0.045771339688046857 0 -0.26495039575088197 0.06674942062236805 0 -0.27636705501808001 0.045771339688046857 0 -0.25646739882962399 0.0055647659645772299 0 -0.26787673663821382 0.014895346754017319 0 -0.27174873755910511 0.00342512925504642 0 -0.25646739882962399 0.0055647659645772299 0 -0.26149433036992947 0.028104568545064729 0 -0.26787673663821382 0.014895346754017319 0 -0.25646739882962399 0.0055647659645772299 0 -0.26149433036992947 0.028104568545064729 0 -0.2377665045498876 0.028013157541959259 0 -0.27636705501808001 0.045771339688046857 0 -0.26149433036992947 0.028104568545064729 0 -0.28222855130075802 0.017935752317506441 0 -0.26149433036992947 0.028104568545064729 0 -0.26787673663821382 0.014895346754017319 0 -0.28222855130075802 0.017935752317506441 0 -0.28809004758343471 -0.0098998350530341908 0 -0.27174873755910511 0.00342512925504642 0 -0.28222855130075802 0.017935752317506441 0 -0.26787673663821382 0.014895346754017319 0 -0.27174873755910511 0.00342512925504642 0 -0.28222855130075802 0.017935752317506441 0 -0.28809004758343471 -0.0098998350530341908 0 -0.28222855130075802 0.017935752317506441 0 -0.28735988866532253 0.02557203719926782 0 -0.29835272231256632 0.0053727347104894768 0 -0.28735988866532253 0.02557203719926782 0 -0.30099045406418179 0.0143183839914067 0 -0.29835272231256632 0.0053727347104894768 0 -0.28809004758343471 -0.0098998350530341908 0 -0.28222855130075802 0.017935752317506441 0 -0.29835272231256632 0.0053727347104894768 0 -0.28222855130075802 0.017935752317506441 0 -0.28735988866532253 0.02557203719926782 0 -0.29835272231256632 0.0053727347104894768 0 -0.27636705501808001 0.045771339688046857 0 -0.28222855130075802 0.017935752317506441 0 -0.28735988866532253 0.02557203719926782 0 -0.28735988866532253 0.02557203719926782 0 -0.30099045406418179 0.0143183839914067 0 -0.29619785037788943 0.032860788567123239 0 -0.30670361142272401 0.023019072579035588 0 -0.30099045406418179 0.0143183839914067 0 -0.29619785037788943 0.032860788567123239 0 -0.30099045406418179 0.0143183839914067 0 -0.29619785037788943 0.032860788567123239 0 -0.31092909429456689 0.029089423978150512 0 -0.30670361142272401 0.023019072579035588 0 -0.29619785037788943 0.032860788567123239 0 -0.31092909429456689 0.029089423978150512 0 -0.30670361142272401 0.023019072579035588 0 -0.31518568639740319 0.022412609299891129 0 -0.30670361142272401 0.023019072579035588 0 -0.31136599154448752 0.01516118271197957 0 -0.31518568639740319 0.022412609299891129 0 -0.30670361142272401 0.023019072579035588 0 -0.30099045406418179 0.0143183839914067 0 -0.31136599154448752 0.01516118271197957 0 -0.30099045406418179 0.0143183839914067 0 -0.30662128180240661 0.0085079906423759354 0 -0.29835272231256632 0.0053727347104894768 0 -0.30099045406418179 0.0143183839914067 0 -0.30662128180240661 0.0085079906423759354 0 -0.31136599154448752 0.01516118271197957 0 -0.30662128180240661 0.0085079906423759354 0 -0.31136599154448752 0.01516118271197957 0 -0.31518441910958961 0.0069090034828277087 0 -0.30662128180240661 0.0085079906423759354 0 -0.30721282198120747 0.0007786483151762106 0 -0.31518441910958961 0.0069090034828277087 0 -0.31440000161692611 -0.0053431533753960873 0 -0.30721282198120747 0.0007786483151762106 0 -0.31518441910958961 0.0069090034828277087 0 -0.30662128180240661 0.0085079906423759354 0 -0.30721282198120747 0.0007786483151762106 0 -0.29835272231256632 0.0053727347104894768 0 -0.2864540358575387 0.07055924284653857 0 -0.2914052466915974 0.051403193142839927 0 -0.30346784463536353 0.06114345333932715 0 -0.2726639676877623 0.063356885417806805 0 -0.2914052466915974 0.051403193142839927 0 -0.2864540358575387 0.07055924284653857 0 -0.2914052466915974 0.051403193142839927 0 -0.2864540358575387 0.07055924284653857 0 -0.2726639676877623 0.063356885417806805 0 -0.2914052466915974 0.051403193142839927 0 -0.27636705501808001 0.045771339688046857 0 -0.2914052466915974 0.051403193142839927 0 -0.28783251018822248 0.038901839649319508 0 -0.27636705501808001 0.045771339688046857 0 -0.28735988866532253 0.02557203719926782 0 -0.28783251018822248 0.038901839649319508 0 -0.2914052466915974 0.051403193142839927 0 -0.28783251018822248 0.038901839649319508 0 -0.29619785037788943 0.032860788567123239 0 -0.2914052466915974 0.051403193142839927 0 -0.29619785037788943 0.032860788567123239 0 -0.27636705501808001 0.045771339688046857 0 -0.28735988866532253 0.02557203719926782 0 -0.28735988866532253 0.02557203719926782 0 -0.28783251018822248 0.038901839649319508 0 -0.29619785037788943 0.032860788567123239 0 -0.2914052466915974 0.051403193142839927 0 -0.31145673548991459 0.038613813789331312 0 -0.2914052466915974 0.051403193142839927 0 -0.29619785037788943 0.032860788567123239 0 -0.31145673548991459 0.038613813789331312 0 -0.31092909429456689 0.029089423978150512 0 -0.29619785037788943 0.032860788567123239 0 -0.31145673548991459 0.038613813789331312 0 -0.2914052466915974 0.051403193142839927 0 -0.30346784463536353 0.06114345333932715 0 -0.3155142391831387 0.051383160503168088 0 -0.2914052466915974 0.051403193142839927 0 -0.31145673548991459 0.038613813789331312 0 -0.3155142391831387 0.051383160503168088 0 -0.30346784463536353 0.06114345333932715 0 -0.3155142391831387 0.051383160503168088 0 -0.32264993347221549 0.062505409233574477 0 -0.3155142391831387 0.051383160503168088 0 -0.33104538325923749 0.049641413015805123 0 -0.32264993347221549 0.062505409233574477 0 -0.3155142391831387 0.051383160503168088 0 -0.33421322675038068 0.034337332245046717 0 -0.33104538325923749 0.049641413015805123 0 -0.31145673548991459 0.038613813789331312 0 -0.33421322675038068 0.034337332245046717 0 -0.33150822428823129 0.025824434435822202 0 -0.31145673548991459 0.038613813789331312 0 -0.3155142391831387 0.051383160503168088 0 -0.33421322675038068 0.034337332245046717 0 -0.31145673548991459 0.038613813789331312 0 -0.33150822428823129 0.025824434435822202 0 -0.3155142391831387 0.051383160503168088 0 -0.33421322675038068 0.034337332245046717 0 -0.31092909429456689 0.029089423978150512 0 -0.31145673548991459 0.038613813789331312 0 -0.31859297952223681 0.026372335061486771 0 -0.33421322675038068 0.034337332245046717 0 -0.33797110289215831 0.043404438471090538 0 -0.33104538325923749 0.049641413015805123 0 -0.33421322675038068 0.034337332245046717 0 -0.34811701095957609 0.031211290020934829 0 -0.34405922502220498 0.040094505740603671 0 -0.33421322675038068 0.034337332245046717 0 -0.33797110289215831 0.043404438471090538 0 -0.34405922502220498 0.040094505740603671 0 -0.33797110289215831 0.043404438471090538 0 -0.34581009507071719 0.050710848183108538 0 -0.34405922502220498 0.040094505740603671 0 -0.33797110289215831 0.043404438471090538 0 -0.33104538325923749 0.049641413015805123 0 -0.34581009507071719 0.050710848183108538 0 -0.33104538325923749 0.049641413015805123 0 -0.34581009507071719 0.050710848183108538 0 -0.33610056149029949 0.064429762946560346 0 -0.33104538325923749 0.049641413015805123 0 -0.32264993347221549 0.062505409233574477 0 -0.33610056149029949 0.064429762946560346 0 -0.31440000161692611 -0.0053431533753960873 0 -0.31518441910958961 0.0069090034828277087 0 -0.33027450719716839 0.004928938199476509 0 -0.31136599154448752 0.01516118271197957 0 -0.31518441910958961 0.0069090034828277087 0 -0.32388515714106791 0.015921393804238709 0 -0.31518441910958961 0.0069090034828277087 0 -0.32388515714106791 0.015921393804238709 0 -0.33027450719716839 0.004928938199476509 0 -0.31145673548991459 0.038613813789331312 0 -0.31859297952223681 0.026372335061486771 0 -0.33150822428823129 0.025824434435822202 0 -0.32388515714106791 0.015921393804238709 0 -0.31859297952223681 0.026372335061486771 0 -0.33150822428823129 0.025824434435822202 0 -0.32388515714106791 0.015921393804238709 0 -0.31518568639740319 0.022412609299891129 0 -0.31859297952223681 0.026372335061486771 0 -0.31136599154448752 0.01516118271197957 0 -0.32388515714106791 0.015921393804238709 0 -0.31518568639740319 0.022412609299891129 0 -0.31092909429456689 0.029089423978150512 0 -0.31518568639740319 0.022412609299891129 0 -0.31859297952223681 0.026372335061486771 0 -0.33150822428823129 0.025824434435822202 0 -0.33820938379264998 0.012693503264510389 0 -0.35155971308654799 0.01303505508231315 0 -0.33421322675038068 0.034337332245046717 0 -0.33150822428823129 0.025824434435822202 0 -0.35291221431762271 0.01729150398692534 0 -0.33150822428823129 0.025824434435822202 0 -0.35155971308654799 0.01303505508231315 0 -0.33421322675038068 0.034337332245046717 0 -0.35291221431762271 0.01729150398692534 0 -0.32388515714106791 0.015921393804238709 0 -0.33150822428823129 0.025824434435822202 0 -0.33820938379264998 0.012693503264510389 0 -0.35168593874130122 -0.00048752217919912488 0 -0.33027450719716839 0.004928938199476509 0 -0.35168593874130122 -0.00048752217919912488 0 -0.33820938379264998 0.012693503264510389 0 -0.33027450719716839 0.004928938199476509 0 -0.32388515714106791 0.015921393804238709 0 -0.33820938379264998 0.012693503264510389 0 -0.33027450719716839 0.004928938199476509 0 -0.35155971308654799 0.01303505508231315 0 -0.35291221431762271 0.01729150398692534 0 -0.37161120188486468 0.00024567572880401063 0 -0.35168593874130122 -0.00048752217919912488 0 -0.35155971308654799 0.01303505508231315 0 -0.37161120188486468 0.00024567572880401063 0 -0.35168593874130122 -0.00048752217919912488 0 -0.33820938379264998 0.012693503264510389 0 -0.35155971308654799 0.01303505508231315 0 -0.35291221431762271 0.01729150398692534 0 -0.36045339627349882 0.017290021715180001 0 -0.36291340650497922 0.01226630270061106 0 -0.33150822428823129 0.025824434435822202 0 -0.35155971308654799 0.01303505508231315 0 -0.35291221431762271 0.01729150398692534 0 -0.33421322675038068 0.034337332245046717 0 -0.35291221431762271 0.01729150398692534 0 -0.34811701095957609 0.031211290020934829 0 -0.35727098930732698 0.020316491103578929 0 -0.35291221431762271 0.01729150398692534 0 -0.35496958526086231 0.02596838646030197 0 -0.35727098930732698 0.020316491103578929 0 -0.35291221431762271 0.01729150398692534 0 -0.36045339627349882 0.017290021715180001 0 -0.35727098930732698 0.020316491103578929 0 -0.35496958526086231 0.02596838646030197 0 -0.36092757530244091 0.022309799425529419 0 -0.35291221431762271 0.01729150398692534 0 -0.34811701095957609 0.031211290020934829 0 -0.35496958526086231 0.02596838646030197 0 -0.35496958526086231 0.02596838646030197 0 -0.36087980534095149 0.02957818772645979 0 -0.36092757530244091 0.022309799425529419 0 -0.36087980534095149 0.02957818772645979 0 -0.3665884835661134 0.025770662382252989 0 -0.3665235211603477 0.035053497163230307 0 -0.36087980534095149 0.02957818772645979 0 -0.3665884835661134 0.025770662382252989 0 -0.36092757530244091 0.022309799425529419 0 -0.37749702624210812 0.019533457423059241 0 -0.3665884835661134 0.025770662382252989 0 -0.3665235211603477 0.035053497163230307 0 -0.37749702624210812 0.019533457423059241 0 -0.3665884835661134 0.025770662382252989 0 -0.37064648434805181 0.020358026880871152 0 -0.37064648434805181 0.020358026880871152 0 -0.36531699351850472 0.017970701177091 0 -0.36837610397078341 0.01232195214767574 0 -0.3665884835661134 0.025770662382252989 0 -0.37064648434805181 0.020358026880871152 0 -0.36531699351850472 0.017970701177091 0 -0.3665884835661134 0.025770662382252989 0 -0.36531699351850472 0.017970701177091 0 -0.36092757530244091 0.022309799425529419 0 -0.35727098930732698 0.020316491103578929 0 -0.36092757530244091 0.022309799425529419 0 -0.36045339627349882 0.017290021715180001 0 -0.36531699351850472 0.017970701177091 0 -0.36092757530244091 0.022309799425529419 0 -0.36045339627349882 0.017290021715180001 0 -0.36531699351850472 0.017970701177091 0 -0.36045339627349882 0.017290021715180001 0 -0.36291340650497922 0.01226630270061106 0 -0.35291221431762271 0.01729150398692534 0 -0.36744777447196009 0.0069034684371799427 0 -0.37161120188486468 0.00024567572880401063 0 -0.35291221431762271 0.01729150398692534 0 -0.37161120188486468 0.00024567572880401063 0 -0.35155971308654799 0.01303505508231315 0 -0.37161120188486468 0.00024567572880401063 0 -0.35291221431762271 0.01729150398692534 0 -0.36291340650497922 0.01226630270061106 0 -0.36744777447196009 0.0069034684371799427 0 -0.36291340650497922 0.01226630270061106 0 -0.36677781085523958 0.010169967197899961 0 -0.36837610397078341 0.01232195214767574 0 -0.36291340650497922 0.01226630270061106 0 -0.36677781085523958 0.010169967197899961 0 -0.36744777447196009 0.0069034684371799427 0 -0.36531699351850472 0.017970701177091 0 -0.36291340650497922 0.01226630270061106 0 -0.36837610397078341 0.01232195214767574 0 -0.37064648434805181 0.020358026880871152 0 -0.36837610397078341 0.01232195214767574 0 -0.37368273475937358 0.0099733430161859371 0 -0.36837610397078341 0.01232195214767574 0 -0.37368273475937358 0.0099733430161859371 0 -0.3709600586846164 0.0082156747053359746 0 -0.36837610397078341 0.01232195214767574 0 -0.3709600586846164 0.0082156747053359746 0 -0.36837395847323579 0.0091881455061331076 0 -0.36677781085523958 0.010169967197899961 0 -0.36837610397078341 0.01232195214767574 0 -0.36837395847323579 0.0091881455061331076 0 -0.3709600586846164 0.0082156747053359746 0 -0.36837395847323579 0.0091881455061331076 0 -0.36744777447196009 0.0069034684371799427 0 -0.36677781085523958 0.010169967197899961 0 -0.36837395847323579 0.0091881455061331076 0 -0.36744777447196009 0.0069034684371799427 0 -0.3709600586846164 0.0082156747053359746 0 -0.36744777447196009 0.0069034684371799427 0 -0.37183666696277301 0.0049313010605824053 0 -0.36744777447196009 0.0069034684371799427 0 -0.37183666696277301 0.0049313010605824053 0 -0.37161120188486468 0.00024567572880401063 0 -0.37567153036986112 0.0046771945744729024 0 -0.37368273475937358 0.0099733430161859371 0 -0.3709600586846164 0.0082156747053359746 0 -0.37567153036986112 0.0046771945744729024 0 -0.3709600586846164 0.0082156747053359746 0 -0.37183666696277301 0.0049313010605824053 0 -0.37567153036986112 0.0046771945744729024 0 -0.37183666696277301 0.0049313010605824053 0 -0.3727939685959194 0.0022718182957841958 0 -0.37183666696277301 0.0049313010605824053 0 -0.3727939685959194 0.0022718182957841958 0 -0.37161120188486468 0.00024567572880401063 0 -0.37336520549115432 -0.00087307499010229328 0 -0.37567153036986112 0.0046771945744729024 0 -0.3727939685959194 0.0022718182957841958 0 -0.37336520549115432 -0.00087307499010229328 0 -0.3727939685959194 0.0022718182957841958 0 -0.37161120188486468 0.00024567572880401063 0 -0.34581009507071719 0.050710848183108538 0 -0.35563634087908752 0.06667573720705014 0 -0.33610056149029949 0.064429762946560346 0 -0.34581009507071719 0.050710848183108538 0 -0.35538986141499318 0.038788593200984288 0 -0.36249538962073191 0.052670452512291861 0 -0.34581009507071719 0.050710848183108538 0 -0.36249538962073191 0.052670452512291861 0 -0.35563634087908752 0.06667573720705014 0 -0.34581009507071719 0.050710848183108538 0 -0.34405922502220498 0.040094505740603671 0 -0.35538986141499318 0.038788593200984288 0 -0.34811701095957609 0.031211290020934829 0 -0.34405922502220498 0.040094505740603671 0 -0.35538986141499318 0.038788593200984288 0 -0.34811701095957609 0.031211290020934829 0 -0.35496958526086231 0.02596838646030197 0 -0.35538986141499318 0.038788593200984288 0 -0.35496958526086231 0.02596838646030197 0 -0.36087980534095149 0.02957818772645979 0 -0.35538986141499318 0.038788593200984288 0 -0.37633457325499192 0.044227584445299277 0 -0.37749702624210812 0.019533457423059241 0 -0.3665235211603477 0.035053497163230307 0 -0.35538986141499318 0.038788593200984288 0 -0.3665235211603477 0.035053497163230307 0 -0.36249538962073191 0.052670452512291861 0 -0.37633457325499192 0.044227584445299277 0 -0.3665235211603477 0.035053497163230307 0 -0.36249538962073191 0.052670452512291861 0 -0.36087980534095149 0.02957818772645979 0 -0.35538986141499318 0.038788593200984288 0 -0.3665235211603477 0.035053497163230307 0 -0.37633457325499192 0.044227584445299277 0 -0.37517212026787561 0.068921711467539393 0 -0.36249538962073191 0.052670452512291861 0 -0.37517212026787561 0.068921711467539393 0 -0.36249538962073191 0.052670452512291861 0 -0.35563634087908752 0.06667573720705014 0 -0.37517212026787561 0.068921711467539393 0 -0.35563634087908752 0.06667573720705014 0 -0.37517212026787561 0.068921711467539393 0 -0.35563634087908752 0.06667573720705014 0 -0.36296130229201579 0.078568676131026194 0 -0.35563634087908752 0.06667573720705014 0 -0.34795307821624222 0.078016143791861975 0 -0.33610056149029949 0.064429762946560346 0 -0.35563634087908752 0.06667573720705014 0 -0.33610056149029949 0.064429762946560346 0 -0.35563634087908752 0.06667573720705014 0 -0.34795307821624222 0.078016143791861975 0 -0.36296130229201579 0.078568676131026194 0 -0.34795307821624222 0.078016143791861975 0 -0.35587411322056511 0.088352641860477074 0 -0.34090013431534788 0.091683850478441978 0 -0.34795307821624222 0.078016143791861975 0 -0.35587411322056511 0.088352641860477074 0 -0.36296130229201579 0.078568676131026194 0 -0.35587411322056511 0.088352641860477074 0 -0.36296130229201579 0.078568676131026194 0 -0.37396557345986559 0.094552528769827157 0 -0.37517212026787561 0.068921711467539393 0 -0.36296130229201579 0.078568676131026194 0 -0.37396557345986559 0.094552528769827157 0 -0.37517212026787561 0.068921711467539393 0 -0.37396557345986559 0.094552528769827157 0 -0.37396557345986559 0.094552528769827157 0 -0.37275902665185562 0.12018334607211489 0 -0.35699197935495802 0.1066632989523941 0 -0.35587411322056511 0.088352641860477074 0 -0.37396557345986559 0.094552528769827157 0 -0.35699197935495802 0.1066632989523941 0 -0.37396557345986559 0.094552528769827157 0 -0.37275902665185562 0.12018334607211489 0 -0.35639739080166449 0.12811914757345941 0 -0.37275902665185562 0.12018334607211489 0 -0.35699197935495802 0.1066632989523941 0 -0.35639739080166449 0.12811914757345941 0 -0.35699197935495802 0.1066632989523941 0 -0.34205563768044911 0.1170882789600443 0 -0.35699197935495802 0.1066632989523941 0 -0.34205563768044911 0.1170882789600443 0 -0.34090013431534788 0.091683850478441978 0 -0.35587411322056511 0.088352641860477074 0 -0.35699197935495802 0.1066632989523941 0 -0.34090013431534788 0.091683850478441978 0 -0.34205563768044911 0.1170882789600443 0 -0.32739800495230542 0.103282276748883 0 -0.34090013431534788 0.091683850478441978 0 -0.32739800495230542 0.103282276748883 0 -0.32076325794706662 0.088445808952326455 0 -0.34090013431534788 0.091683850478441978 0 -0.32274205783238902 0.13490439884631891 0 -0.34205563768044911 0.1170882789600443 0 -0.32350848688409473 0.1168160822041857 0 -0.34205563768044911 0.1170882789600443 0 -0.32350848688409473 0.1168160822041857 0 -0.32739800495230542 0.103282276748883 0 -0.30939548866784072 0.10423452569669681 0 -0.30970426794170669 0.12161266284043321 0 -0.32350848688409473 0.1168160822041857 0 -0.32274205783238902 0.13490439884631891 0 -0.30970426794170669 0.12161266284043321 0 -0.32350848688409473 0.1168160822041857 0 -0.30939548866784072 0.10423452569669681 0 -0.32350848688409473 0.1168160822041857 0 -0.32739800495230542 0.103282276748883 0 -0.30939548866784072 0.10423452569669681 0 -0.32739800495230542 0.103282276748883 0 -0.32076325794706662 0.088445808952326455 0 -0.31070364258129191 0.074855570824746601 0 -0.32076325794706662 0.088445808952326455 0 -0.33495324930504511 0.079151898802954757 0 -0.31070364258129191 0.074855570824746601 0 -0.33495324930504511 0.079151898802954757 0 -0.31070364258129191 0.074855570824746601 0 -0.32264993347221549 0.062505409233574477 0 -0.33495324930504511 0.079151898802954757 0 -0.32264993347221549 0.062505409233574477 0 -0.33610056149029949 0.064429762946560346 0 -0.33495324930504511 0.079151898802954757 0 -0.34795307821624222 0.078016143791861975 0 -0.33610056149029949 0.064429762946560346 0 -0.33495324930504511 0.079151898802954757 0 -0.32076325794706662 0.088445808952326455 0 -0.34090013431534788 0.091683850478441978 0 -0.33495324930504511 0.079151898802954757 0 -0.34795307821624222 0.078016143791861975 0 -0.34090013431534788 0.091683850478441978 0 -0.33495324930504511 0.079151898802954757 0 -0.39085164782657361 0.48372933744100932 0 -0.39021283488380698 0.46999680037887359 0 -0.41014284759549341 0.47376924145191218 0 -0.39085164782657361 0.48372933744100932 0 -0.41014284759549341 0.47376924145191218 0 -0.41171225533725903 0.4880947420641692 0 -0.39085164782657361 0.48372933744100932 0 -0.39953140039316681 0.49295601987629462 0 -0.38478787898322808 0.5 0 -0.39085164782657361 0.48372933744100932 0 -0.41171225533725903 0.4880947420641692 0 -0.39085164782657361 0.48372933744100932 0 -0.39953140039316681 0.49295601987629462 0 -0.41171225533725903 0.4880947420641692 0 -0.39953140039316681 0.49295601987629462 0 -0.38478787898322808 0.5 0 -0.41077381942560692 0.5 0 -0.39085164782657361 0.48372933744100932 0 -0.38478787898322808 0.5 0 -0.36999104031588809 0.47936393281784911 0 -0.39021283488380698 0.46999680037887359 0 -0.38157079154199219 0.45800739061643508 0 -0.36999104031588809 0.47936393281784911 0 -0.39085164782657361 0.48372933744100932 0 -0.39021283488380698 0.46999680037887359 0 -0.36999104031588809 0.47936393281784911 0 -0.39085164782657361 0.48372933744100932 0 -0.36999104031588809 0.47936393281784911 0 -0.38157079154199219 0.45800739061643508 0 -0.36999104031588809 0.47936393281784911 0 -0.38157079154199219 0.45800739061643508 0 -0.39311406443823887 0.43671812542086857 0 -0.38157079154199219 0.45800739061643508 0 -0.37505412448050351 0.44115238909635118 0 -0.39311406443823887 0.43671812542086857 0 -0.38157079154199219 0.45800739061643508 0 -0.40204390841711868 0.46196916111705111 0 -0.39311406443823887 0.43671812542086857 0 -0.40204390841711868 0.46196916111705111 0 -0.4186700580566714 0.43819140409898899 0 -0.39311406443823887 0.43671812542086857 0 -0.39021283488380698 0.46999680037887359 0 -0.38157079154199219 0.45800739061643508 0 -0.40204390841711868 0.46196916111705111 0 -0.38157079154199219 0.45800739061643508 0 -0.40204390841711868 0.46196916111705111 0 -0.39021283488380698 0.46999680037887359 0 -0.40204390841711868 0.46196916111705111 0 -0.41014284759549341 0.47376924145191218 0 -0.40204390841711868 0.46196916111705111 0 -0.42480425237246522 0.46441136263605559 0 -0.41014284759549341 0.47376924145191218 0 -0.40204390841711868 0.46196916111705111 0 -0.4186700580566714 0.43819140409898899 0 -0.42480425237246522 0.46441136263605559 0 -0.4186700580566714 0.43819140409898899 0 -0.44182544038853572 0.44995383944259298 0 -0.44112858689594431 0.42611244176271618 0 -0.4186700580566714 0.43819140409898899 0 -0.42480425237246522 0.46441136263605559 0 -0.44182544038853572 0.44995383944259298 0 -0.42480425237246522 0.46441136263605559 0 -0.42506076305193452 0.48040280876441699 0 -0.44985902544477352 0.47774506963425772 0 -0.42506076305193452 0.48040280876441699 0 -0.43257286284794461 0.49246014668732913 0 -0.44985902544477352 0.47774506963425772 0 -0.42480425237246522 0.46441136263605559 0 -0.42506076305193452 0.48040280876441699 0 -0.41014284759549341 0.47376924145191218 0 -0.42506076305193452 0.48040280876441699 0 -0.41014284759549341 0.47376924145191218 0 -0.41171225533725903 0.4880947420641692 0 -0.41077381942560692 0.5 0 -0.41171225533725903 0.4880947420641692 0 -0.43257286284794461 0.49246014668732913 0 -0.39953140039316681 0.49295601987629462 0 -0.41077381942560692 0.5 0 -0.41171225533725903 0.4880947420641692 0 -0.42506076305193452 0.48040280876441699 0 -0.41171225533725903 0.4880947420641692 0 -0.43257286284794461 0.49246014668732913 0 -0.41077381942560692 0.5 0 -0.43257286284794461 0.49246014668732913 0 -0.43675975986798549 0.49999999999999939 0 -0.41171225533725903 0.4880947420641692 0 -0.43257286284794461 0.49246014668732913 0 -0.43675975986798549 0.49999999999999939 0 -0.44985902544477352 0.47774506963425772 0 -0.43675975986798549 0.49999999999999939 0 -0.5 0.5 0 -0.47601465601734699 0.47459928595048267 0 -0.5 0.5 0 -0.47601465601734699 0.47459928595048267 0 -0.5 0.42596515040688449 0 -0.43675975986798549 0.49999999999999939 0 -0.44985902544477352 0.47774506963425772 0 -0.47601465601734699 0.47459928595048267 0 -0.43257286284794461 0.49246014668732913 0 -0.43675975986798549 0.49999999999999939 0 -0.44985902544477352 0.47774506963425772 0 -0.44985902544477352 0.47774506963425772 0 -0.47601465601734699 0.47459928595048267 0 -0.46295829102156172 0.45549013926851611 0 -0.47601465601734699 0.47459928595048267 0 -0.46295829102156172 0.45549013926851611 0 -0.47605755659834992 0.43323520890277439 0 -0.47601465601734699 0.47459928595048267 0 -0.47605755659834992 0.43323520890277439 0 -0.5 0.42596515040688449 0 -0.46295829102156172 0.45549013926851611 0 -0.47605755659834992 0.43323520890277439 0 -0.46295829102156172 0.45549013926851611 0 -0.45664306857586701 0.43622176742339502 0 -0.47605755659834992 0.43323520890277439 0 -0.46295829102156172 0.45549013926851611 0 -0.44182544038853572 0.44995383944259298 0 -0.45664306857586701 0.43622176742339502 0 -0.44985902544477352 0.47774506963425772 0 -0.46295829102156172 0.45549013926851611 0 -0.42480425237246522 0.46441136263605559 0 -0.44985902544477352 0.47774506963425772 0 -0.44182544038853572 0.44995383944259298 0 -0.44985902544477352 0.47774506963425772 0 -0.46295829102156172 0.45549013926851611 0 -0.44182544038853572 0.44995383944259298 0 -0.44182544038853572 0.44995383944259298 0 -0.44112858689594431 0.42611244176271618 0 -0.45664306857586701 0.43622176742339502 0 -0.44112858689594431 0.42611244176271618 0 -0.46124546797494342 0.41631720774037528 0 -0.45664306857586701 0.43622176742339502 0 -0.44112858689594431 0.42611244176271618 0 -0.4455329476893588 0.40260977585783869 0 -0.4259190892605148 0.41111798601142019 0 -0.44112858689594431 0.42611244176271618 0 -0.46124546797494342 0.41631720774037528 0 -0.4455329476893588 0.40260977585783869 0 -0.46124546797494342 0.41631720774037528 0 -0.45664306857586701 0.43622176742339502 0 -0.47605755659834992 0.43323520890277439 0 -0.46124546797494342 0.41631720774037528 0 -0.47605755659834992 0.43323520890277439 0 -0.4803390931938481 0.4033562079433608 0 -0.47605755659834992 0.43323520890277439 0 -0.5 0.42596515040688449 0 -0.4803390931938481 0.4033562079433608 0 -0.4803390931938481 0.4033562079433608 0 -0.47803986506080609 0.37979429587096319 0 -0.5 0.37095581662938609 0 -0.5 0.42596515040688449 0 -0.4803390931938481 0.4033562079433608 0 -0.5 0.37095581662938609 0 -0.4803390931938481 0.4033562079433608 0 -0.47803986506080609 0.37979429587096319 0 -0.46395015733075512 0.39340206798219668 0 -0.47803986506080609 0.37979429587096319 0 -0.46395015733075512 0.39340206798219668 0 -0.46338897755690378 0.36980598822266247 0 -0.46395015733075512 0.39340206798219668 0 -0.44794164012769278 0.38057391333197171 0 -0.46338897755690378 0.36980598822266247 0 -0.46124546797494342 0.41631720774037528 0 -0.46395015733075512 0.39340206798219668 0 -0.4455329476893588 0.40260977585783869 0 -0.46124546797494342 0.41631720774037528 0 -0.4803390931938481 0.4033562079433608 0 -0.46395015733075512 0.39340206798219668 0 -0.46395015733075512 0.39340206798219668 0 -0.4455329476893588 0.40260977585783869 0 -0.44794164012769278 0.38057391333197171 0 -0.4455329476893588 0.40260977585783869 0 -0.44794164012769278 0.38057391333197171 0 -0.43389907500284669 0.38774959044612939 0 -0.44794164012769278 0.38057391333197171 0 -0.43389907500284669 0.38774959044612939 0 -0.43916711646053419 0.37395320017115058 0 -0.43389907500284669 0.38774959044612939 0 -0.42774388312698508 0.37285032983417249 0 -0.43916711646053419 0.37395320017115058 0 -0.43389907500284669 0.38774959044612939 0 -0.41620061023073629 0.39413959502973778 0 -0.42774388312698508 0.37285032983417249 0 -0.41620061023073629 0.39413959502973778 0 -0.42774388312698508 0.37285032983417249 0 -0.41620061023073629 0.39413959502973778 0 -0.40751636585940809 0.37489918037603931 0 -0.42774388312698508 0.37285032983417249 0 -0.41620061023073629 0.39413959502973778 0 -0.40465733733448772 0.41542886022530318 0 -0.43389907500284669 0.38774959044612939 0 -0.41620061023073629 0.39413959502973778 0 -0.4259190892605148 0.41111798601142019 0 -0.4455329476893588 0.40260977585783869 0 -0.43389907500284669 0.38774959044612939 0 -0.4259190892605148 0.41111798601142019 0 -0.4186700580566714 0.43819140409898899 0 -0.44112858689594431 0.42611244176271618 0 -0.4259190892605148 0.41111798601142019 0 -0.4186700580566714 0.43819140409898899 0 -0.4259190892605148 0.41111798601142019 0 -0.40465733733448772 0.41542886022530318 0 -0.41620061023073629 0.39413959502973778 0 -0.4259190892605148 0.41111798601142019 0 -0.40465733733448772 0.41542886022530318 0 -0.40465733733448772 0.41542886022530318 0 -0.37795163519498909 0.423483399053039 0 -0.39006572766835701 0.4041849648663503 0 -0.40465733733448772 0.41542886022530318 0 -0.39311406443823887 0.43671812542086857 0 -0.37795163519498909 0.423483399053039 0 -0.40465733733448772 0.41542886022530318 0 -0.39311406443823887 0.43671812542086857 0 -0.4186700580566714 0.43819140409898899 0 -0.40465733733448772 0.41542886022530318 0 -0.39311406443823887 0.43671812542086857 0 -0.37505412448050351 0.44115238909635118 0 -0.39311406443823887 0.43671812542086857 0 -0.37795163519498909 0.423483399053039 0 -0.37795163519498909 0.423483399053039 0 -0.39006572766835701 0.4041849648663503 0 -0.36906846146532379 0.4026526914181896 0 -0.39006572766835701 0.4041849648663503 0 -0.38972323600290182 0.38473558079806991 0 -0.36906846146532379 0.4026526914181896 0 -0.38972323600290182 0.38473558079806991 0 -0.36756458606203218 0.38130368428685218 0 -0.36906846146532379 0.4026526914181896 0 -0.38972323600290182 0.38473558079806991 0 -0.3760226915576792 0.36869615792848698 0 -0.36756458606203218 0.38130368428685218 0 -0.41620061023073629 0.39413959502973778 0 -0.38972323600290182 0.38473558079806991 0 -0.40751636585940809 0.37489918037603931 0 -0.38972323600290182 0.38473558079806991 0 -0.39314323793141259 0.36991078951299711 0 -0.40751636585940809 0.37489918037603931 0 -0.41620061023073629 0.39413959502973778 0 -0.40465733733448772 0.41542886022530318 0 -0.39006572766835701 0.4041849648663503 0 -0.41620061023073629 0.39413959502973778 0 -0.39006572766835701 0.4041849648663503 0 -0.38972323600290182 0.38473558079806991 0 -0.38504720768549539 0.35702959608636858 0 -0.39913690740241142 0.33453197305005972 0 -0.40772086596928447 0.35456919210604521 0 -0.38504720768549539 0.35702959608636858 0 -0.40772086596928447 0.35456919210604521 0 -0.39314323793141259 0.36991078951299711 0 -0.40772086596928447 0.35456919210604521 0 -0.40751636585940809 0.37489918037603931 0 -0.39314323793141259 0.36991078951299711 0 -0.38504720768549539 0.35702959608636858 0 -0.40772086596928447 0.35456919210604521 0 -0.39314323793141259 0.36991078951299711 0 -0.3760226915576792 0.36869615792848698 0 -0.38504720768549539 0.35702959608636858 0 -0.38972323600290182 0.38473558079806991 0 -0.39314323793141259 0.36991078951299711 0 -0.3760226915576792 0.36869615792848698 0 -0.38504720768549539 0.35702959608636858 0 -0.3752694341936334 0.34026464348767022 0 -0.39913690740241142 0.33453197305005972 0 -0.3752694341936334 0.34026464348767022 0 -0.38387127715063379 0.31801567539827619 0 -0.39913690740241142 0.33453197305005972 0 -0.3752694341936334 0.34026464348767022 0 -0.39913690740241142 0.33453197305005972 0 -0.38387127715063379 0.31801567539827619 0 -0.39913690740241142 0.33453197305005972 0 -0.40897078238350842 0.32196450975771229 0 -0.38387127715063379 0.31801567539827619 0 -0.40897078238350842 0.32196450975771229 0 -0.40236417216931342 0.30782205685657738 0 -0.39913690740241142 0.33453197305005972 0 -0.42300438061118939 0.32879930261244922 0 -0.41812671704321608 0.34417449477529127 0 -0.39913690740241142 0.33453197305005972 0 -0.40897078238350842 0.32196450975771229 0 -0.42300438061118939 0.32879930261244922 0 -0.39913690740241142 0.33453197305005972 0 -0.42300438061118939 0.32879930261244922 0 -0.40897078238350842 0.32196450975771229 0 -0.42247784449023168 0.31414047334239281 0 -0.40236417216931342 0.30782205685657738 0 -0.40897078238350842 0.32196450975771229 0 -0.42247784449023168 0.31414047334239281 0 -0.42300438061118939 0.32879930261244922 0 -0.42247784449023168 0.31414047334239281 0 -0.44259151681115 0.32045888982820808 0 -0.43373639893313459 0.32161632448947219 0 -0.42300438061118939 0.32879930261244922 0 -0.44687185381996741 0.32306663217483872 0 -0.42300438061118939 0.32879930261244922 0 -0.43853656903921051 0.33029098185416772 0 -0.44687185381996741 0.32306663217483872 0 -0.42247784449023168 0.31414047334239281 0 -0.44259151681115 0.32045888982820808 0 -0.43426401914220658 0.30851149212351492 0 -0.42247784449023168 0.31414047334239281 0 -0.43373639893313459 0.32161632448947219 0 -0.44259151681115 0.32045888982820808 0 -0.42300438061118939 0.32879930261244922 0 -0.44687185381996741 0.32306663217483872 0 -0.42247784449023168 0.31414047334239281 0 -0.43373639893313459 0.32161632448947219 0 -0.42300438061118939 0.32879930261244922 0 -0.42300438061118939 0.32879930261244922 0 -0.43077802535486048 0.3433665101514739 0 -0.41812671704321608 0.34417449477529127 0 -0.42300438061118939 0.32879930261244922 0 -0.43746386543934479 0.33572550322272182 0 -0.43853656903921051 0.33029098185416772 0 -0.43746386543934479 0.33572550322272182 0 -0.43077802535486048 0.3433665101514739 0 -0.44123762211481249 0.34211364311803838 0 -0.42300438061118939 0.32879930261244922 0 -0.43746386543934479 0.33572550322272182 0 -0.43077802535486048 0.3433665101514739 0 -0.43077802535486048 0.3433665101514739 0 -0.43928715602323382 0.35156106463860709 0 -0.44123762211481249 0.34211364311803838 0 -0.43077802535486048 0.3433665101514739 0 -0.42485894486232051 0.35651170761126089 0 -0.43928715602323382 0.35156106463860709 0 -0.43077802535486048 0.3433665101514739 0 -0.42485894486232051 0.35651170761126089 0 -0.41812671704321608 0.34417449477529127 0 -0.42485894486232051 0.35651170761126089 0 -0.40772086596928447 0.35456919210604521 0 -0.41696001495449952 0.36470760248187939 0 -0.39913690740241142 0.33453197305005972 0 -0.41812671704321608 0.34417449477529127 0 -0.40772086596928447 0.35456919210604521 0 -0.42485894486232051 0.35651170761126089 0 -0.41812671704321608 0.34417449477529127 0 -0.40772086596928447 0.35456919210604521 0 -0.41696001495449952 0.36470760248187939 0 -0.40751636585940809 0.37489918037603931 0 -0.42774388312698508 0.37285032983417249 0 -0.40772086596928447 0.35456919210604521 0 -0.41696001495449952 0.36470760248187939 0 -0.40751636585940809 0.37489918037603931 0 -0.42485894486232051 0.35651170761126089 0 -0.42774388312698508 0.37285032983417249 0 -0.43928715602323382 0.35156106463860709 0 -0.42774388312698508 0.37285032983417249 0 -0.43824272166831357 0.36065461030553181 0 -0.43928715602323382 0.35156106463860709 0 -0.42774388312698508 0.37285032983417249 0 -0.43928715602323382 0.35156106463860709 0 -0.42485894486232051 0.35651170761126089 0 -0.41696001495449952 0.36470760248187939 0 -0.42774388312698508 0.37285032983417249 0 -0.42774388312698508 0.37285032983417249 0 -0.43916711646053419 0.37395320017115058 0 -0.43824272166831357 0.36065461030553181 0 -0.44794164012769278 0.38057391333197171 0 -0.43916711646053419 0.37395320017115058 0 -0.44800826237683311 0.36793755693794761 0 -0.43916711646053419 0.37395320017115058 0 -0.43824272166831357 0.36065461030553181 0 -0.44800826237683311 0.36793755693794761 0 -0.43824272166831357 0.36065461030553181 0 -0.44800826237683311 0.36793755693794761 0 -0.45310820123195028 0.35814187308881712 0 -0.44794164012769278 0.38057391333197171 0 -0.44800826237683311 0.36793755693794761 0 -0.46338897755690378 0.36980598822266247 0 -0.43824272166831357 0.36065461030553181 0 -0.45310820123195028 0.35814187308881712 0 -0.45047395540019097 0.34371595830977852 0 -0.43824272166831357 0.36065461030553181 0 -0.45047395540019097 0.34371595830977852 0 -0.43824272166831357 0.36065461030553181 0 -0.43928715602323382 0.35156106463860709 0 -0.45047395540019097 0.34371595830977852 0 -0.43928715602323382 0.35156106463860709 0 -0.45047395540019097 0.34371595830977852 0 -0.44123762211481249 0.34211364311803838 0 -0.45310820123195028 0.35814187308881712 0 -0.46649567598922498 0.34850361231501781 0 -0.46338897755690378 0.36980598822266247 0 -0.45310820123195028 0.35814187308881712 0 -0.46649567598922498 0.34850361231501781 0 -0.45047395540019097 0.34371595830977852 0 -0.44800826237683311 0.36793755693794761 0 -0.45310820123195028 0.35814187308881712 0 -0.46338897755690378 0.36980598822266247 0 -0.48142916815436537 0.35525957060941271 0 -0.5 0.37095581662938609 0 -0.5 0.33008314995052063 0 -0.47803986506080609 0.37979429587096319 0 -0.46338897755690378 0.36980598822266247 0 -0.48142916815436537 0.35525957060941271 0 -0.46649567598922498 0.34850361231501781 0 -0.46338897755690378 0.36980598822266247 0 -0.48142916815436537 0.35525957060941271 0 -0.46649567598922498 0.34850361231501781 0 -0.48142916815436537 0.35525957060941271 0 -0.48065049031925788 0.33241456066792568 0 -0.47803986506080609 0.37979429587096319 0 -0.48142916815436537 0.35525957060941271 0 -0.5 0.37095581662938609 0 -0.48975400784629458 0.31510213814698579 0 -0.5 0.33008314995052063 0 -0.49999999999999861 0.29971120674435181 0 -0.48975400784629458 0.31510213814698579 0 -0.5 0.33008314995052063 0 -0.48065049031925788 0.33241456066792568 0 -0.48142916815436537 0.35525957060941271 0 -0.5 0.33008314995052063 0 -0.48065049031925788 0.33241456066792568 0 -0.48065049031925788 0.33241456066792568 0 -0.46270518913206782 0.32677730631402502 0 -0.46649567598922498 0.34850361231501781 0 -0.48065049031925788 0.33241456066792568 0 -0.46270518913206782 0.32677730631402502 0 -0.48975400784629458 0.31510213814698579 0 -0.48065049031925788 0.33241456066792568 0 -0.474928689724819 0.30984936370011962 0 -0.46270518913206782 0.32677730631402502 0 -0.474928689724819 0.30984936370011962 0 -0.48065049031925788 0.33241456066792568 0 -0.46270518913206782 0.32677730631402502 0 -0.474928689724819 0.30984936370011962 0 -0.46270518913206782 0.32677730631402502 0 -0.45427935565376898 0.31682752066576558 0 -0.474928689724819 0.30984936370011962 0 -0.46270518913206782 0.32677730631402502 0 -0.45427935565376898 0.31682752066576558 0 -0.44259151681115 0.32045888982820808 0 -0.46270518913206782 0.32677730631402502 0 -0.45047395540019097 0.34371595830977852 0 -0.46270518913206782 0.32677730631402502 0 -0.45047395540019097 0.34371595830977852 0 -0.44680617628634028 0.3335724894066614 0 -0.46649567598922498 0.34850361231501781 0 -0.46270518913206782 0.32677730631402502 0 -0.45047395540019097 0.34371595830977852 0 -0.45047395540019097 0.34371595830977852 0 -0.44680617628634028 0.3335724894066614 0 -0.44123762211481249 0.34211364311803838 0 -0.44680617628634028 0.3335724894066614 0 -0.43853656903921051 0.33029098185416772 0 -0.44687185381996741 0.32306663217483872 0 -0.43746386543934479 0.33572550322272182 0 -0.44680617628634028 0.3335724894066614 0 -0.43853656903921051 0.33029098185416772 0 -0.43746386543934479 0.33572550322272182 0 -0.44680617628634028 0.3335724894066614 0 -0.44123762211481249 0.34211364311803838 0 -0.46270518913206782 0.32677730631402502 0 -0.44259151681115 0.32045888982820808 0 -0.46270518913206782 0.32677730631402502 0 -0.44680617628634028 0.3335724894066614 0 -0.44687185381996741 0.32306663217483872 0 -0.46270518913206782 0.32677730631402502 0 -0.44687185381996741 0.32306663217483872 0 -0.44259151681115 0.32045888982820808 0 -0.45427935565376898 0.31682752066576558 0 -0.44259151681115 0.32045888982820808 0 -0.44549429277838909 0.30942083973994761 0 -0.43373639893313459 0.32161632448947219 0 -0.44687185381996741 0.32306663217483872 0 -0.44259151681115 0.32045888982820808 0 -0.44259151681115 0.32045888982820808 0 -0.44549429277838909 0.30942083973994761 0 -0.43426401914220658 0.30851149212351492 0 -0.43813764928238808 0.29946352353282879 0 -0.44549429277838909 0.30942083973994761 0 -0.43426401914220658 0.30851149212351492 0 -0.43813764928238808 0.29946352353282879 0 -0.44926212084038369 0.30004828274478218 0 -0.44549429277838909 0.30942083973994761 0 -0.44926212084038369 0.30004828274478218 0 -0.44549429277838909 0.30942083973994761 0 -0.4573643704356819 0.30664429771768192 0 -0.45427935565376898 0.31682752066576558 0 -0.44549429277838909 0.30942083973994761 0 -0.4573643704356819 0.30664429771768192 0 -0.4498279298840917 0.288362351445349 0 -0.43895258439679868 0.27801642063756132 0 -0.43166155673799522 0.28891518382440629 0 -0.43813764928238808 0.29946352353282879 0 -0.4498279298840917 0.288362351445349 0 -0.43166155673799522 0.28891518382440629 0 -0.43813764928238808 0.29946352353282879 0 -0.44926212084038369 0.30004828274478218 0 -0.4498279298840917 0.288362351445349 0 -0.4498279298840917 0.288362351445349 0 -0.46419445934210202 0.29628312458618361 0 -0.46872046272247908 0.28414315015738301 0 -0.4498279298840917 0.288362351445349 0 -0.46872046272247908 0.28414315015738301 0 -0.45899593332812799 0.27227297973808701 0 -0.44926212084038369 0.30004828274478218 0 -0.4498279298840917 0.288362351445349 0 -0.46419445934210202 0.29628312458618361 0 -0.46419445934210202 0.29628312458618361 0 -0.4573643704356819 0.30664429771768192 0 -0.474928689724819 0.30984936370011962 0 -0.45427935565376898 0.31682752066576558 0 -0.4573643704356819 0.30664429771768192 0 -0.474928689724819 0.30984936370011962 0 -0.44926212084038369 0.30004828274478218 0 -0.46419445934210202 0.29628312458618361 0 -0.4573643704356819 0.30664429771768192 0 -0.46419445934210202 0.29628312458618361 0 -0.474928689724819 0.30984936370011962 0 -0.47517886724295422 0.29388429023497981 0 -0.474928689724819 0.30984936370011962 0 -0.47517886724295422 0.29388429023497981 0 -0.48715219031756968 0.29292142108621377 0 -0.474928689724819 0.30984936370011962 0 -0.48715219031756968 0.29292142108621377 0 -0.474928689724819 0.30984936370011962 0 -0.48715219031756968 0.29292142108621377 0 -0.48958819153119942 0.30386232927111051 0 -0.46419445934210202 0.29628312458618361 0 -0.46872046272247908 0.28414315015738301 0 -0.47517886724295422 0.29388429023497981 0 -0.46872046272247908 0.28414315015738301 0 -0.47517886724295422 0.29388429023497981 0 -0.47992208873443759 0.28411975462173528 0 -0.47517886724295422 0.29388429023497981 0 -0.47992208873443759 0.28411975462173528 0 -0.48715219031756968 0.29292142108621377 0 -0.48715219031756968 0.29292142108621377 0 -0.48951964112972762 0.28312037279148411 0 -0.49999999999999861 0.29971120674435181 0 -0.48951964112972762 0.28312037279148411 0 -0.49999999999999861 0.29971120674435181 0 -0.48951964112972762 0.28312037279148411 0 -0.49999999999999861 0.29971120674435181 0 -0.5 0.28011721588477428 0 -0.47992208873443759 0.28411975462173528 0 -0.48715219031756968 0.29292142108621377 0 -0.48951964112972762 0.28312037279148411 0 -0.48715219031756968 0.29292142108621377 0 -0.49999999999999861 0.29971120674435181 0 -0.48958819153119942 0.30386232927111051 0 -0.48975400784629458 0.31510213814698579 0 -0.49999999999999861 0.29971120674435181 0 -0.48958819153119942 0.30386232927111051 0 -0.48975400784629458 0.31510213814698579 0 -0.474928689724819 0.30984936370011962 0 -0.48958819153119942 0.30386232927111051 0 -0.49999999999999828 0.26052322502519693 0 -0.47903928225945808 0.26652953883861519 0 -0.48320420273740289 0.24695889459721909 0 -0.49999999999999828 0.26052322502519693 0 -0.47903928225945808 0.26652953883861519 0 -0.48951964112972762 0.28312037279148411 0 -0.49999999999999828 0.26052322502519693 0 -0.47903928225945808 0.26652953883861519 0 -0.48951964112972762 0.28312037279148411 0 -0.49999999999999828 0.26052322502519693 0 -0.5 0.28011721588477428 0 -0.46872046272247908 0.28414315015738301 0 -0.47992208873443759 0.28411975462173528 0 -0.47903928225945808 0.26652953883861519 0 -0.48951964112972762 0.28312037279148411 0 -0.47903928225945808 0.26652953883861519 0 -0.47992208873443759 0.28411975462173528 0 -0.48951964112972762 0.28312037279148411 0 -0.47903928225945808 0.26652953883861519 0 -0.46872046272247908 0.28414315015738301 0 -0.47903928225945808 0.26652953883861519 0 -0.45899593332812799 0.27227297973808701 0 -0.47903928225945808 0.26652953883861519 0 -0.45899593332812799 0.27227297973808701 0 -0.46374203776488843 0.24231337921208099 0 -0.47903928225945808 0.26652953883861519 0 -0.48320420273740289 0.24695889459721909 0 -0.46374203776488843 0.24231337921208099 0 -0.47903928225945808 0.26652953883861519 0 -0.46374203776488843 0.24231337921208099 0 -0.47903928225945808 0.26652953883861519 0 -0.45835804524387219 0.2587855154523056 0 -0.46374203776488843 0.24231337921208099 0 -0.45835804524387219 0.2587855154523056 0 -0.44930022691654531 0.25017209886845743 0 -0.47903928225945808 0.26652953883861519 0 -0.45835804524387219 0.2587855154523056 0 -0.45899593332812799 0.27227297973808701 0 -0.45899593332812799 0.27227297973808701 0 -0.43895258439679868 0.27801642063756132 0 -0.44071274595034188 0.2626395806042871 0 -0.4498279298840917 0.288362351445349 0 -0.45899593332812799 0.27227297973808701 0 -0.43895258439679868 0.27801642063756132 0 -0.45899593332812799 0.27227297973808701 0 -0.43895258439679868 0.27801642063756132 0 -0.45835804524387219 0.2587855154523056 0 -0.45899593332812799 0.27227297973808701 0 -0.44071274595034188 0.2626395806042871 0 -0.45835804524387219 0.2587855154523056 0 -0.44930022691654531 0.25017209886845743 0 -0.44071274595034188 0.2626395806042871 0 -0.43473247059964099 0.24923134854679699 0 -0.44930022691654531 0.25017209886845743 0 -0.44071274595034188 0.2626395806042871 0 -0.42010440478602878 0.2491953094301102 0 -0.43026107808329328 0.25663162239814458 0 -0.42549469099716181 0.26546025101138421 0 -0.43473247059964099 0.24923134854679699 0 -0.44071274595034188 0.2626395806042871 0 -0.43026107808329328 0.25663162239814458 0 -0.44071274595034188 0.2626395806042871 0 -0.43026107808329328 0.25663162239814458 0 -0.42549469099716181 0.26546025101138421 0 -0.42010440478602878 0.2491953094301102 0 -0.43473247059964099 0.24923134854679699 0 -0.43026107808329328 0.25663162239814458 0 -0.40657440031051839 0.2450368946099046 0 -0.42549469099716181 0.26546025101138421 0 -0.40439379115945251 0.25783555641197192 0 -0.42549469099716181 0.26546025101138421 0 -0.41093856572203791 0.26725667897927669 0 -0.40439379115945251 0.25783555641197192 0 -0.40657440031051839 0.2450368946099046 0 -0.42010440478602878 0.2491953094301102 0 -0.42549469099716181 0.26546025101138421 0 -0.40657440031051839 0.2450368946099046 0 -0.42549469099716181 0.26546025101138421 0 -0.42549469099716181 0.26546025101138421 0 -0.41093856572203791 0.26725667897927669 0 -0.41890923546546938 0.28375986153703581 0 -0.41093856572203791 0.26725667897927669 0 -0.41890923546546938 0.28375986153703581 0 -0.40170683629408788 0.27827032732820589 0 -0.43895258439679868 0.27801642063756132 0 -0.41890923546546938 0.28375986153703581 0 -0.43895258439679868 0.27801642063756132 0 -0.42549469099716181 0.26546025101138421 0 -0.41890923546546938 0.28375986153703581 0 -0.43895258439679868 0.27801642063756132 0 -0.44071274595034188 0.2626395806042871 0 -0.42549469099716181 0.26546025101138421 0 -0.43895258439679868 0.27801642063756132 0 -0.43166155673799522 0.28891518382440629 0 -0.41890923546546938 0.28375986153703581 0 -0.43813764928238808 0.29946352353282879 0 -0.43166155673799522 0.28891518382440629 0 -0.42272506680948579 0.29871153745319928 0 -0.43166155673799522 0.28891518382440629 0 -0.42272506680948579 0.29871153745319928 0 -0.41890923546546938 0.28375986153703581 0 -0.43813764928238808 0.29946352353282879 0 -0.43426401914220658 0.30851149212351492 0 -0.42272506680948579 0.29871153745319928 0 -0.42247784449023168 0.31414047334239281 0 -0.43426401914220658 0.30851149212351492 0 -0.42272506680948579 0.29871153745319928 0 -0.42247784449023168 0.31414047334239281 0 -0.40236417216931342 0.30782205685657738 0 -0.42272506680948579 0.29871153745319928 0 -0.40565899302666453 0.29183976406283568 0 -0.40236417216931342 0.30782205685657738 0 -0.42247784449023168 0.31414047334239281 0 -0.42272506680948579 0.29871153745319928 0 -0.40236417216931342 0.30782205685657738 0 -0.41890923546546938 0.28375986153703581 0 -0.40565899302666453 0.29183976406283568 0 -0.40170683629408788 0.27827032732820589 0 -0.42272506680948579 0.29871153745319928 0 -0.41890923546546938 0.28375986153703581 0 -0.40565899302666453 0.29183976406283568 0 -0.40565899302666453 0.29183976406283568 0 -0.3917770834870043 0.28828389349624528 0 -0.38956786516614761 0.30182395034997522 0 -0.40565899302666453 0.29183976406283568 0 -0.3917770834870043 0.28828389349624528 0 -0.40170683629408788 0.27827032732820589 0 -0.38387127715063379 0.31801567539827619 0 -0.40236417216931342 0.30782205685657738 0 -0.38956786516614761 0.30182395034997522 0 -0.40565899302666453 0.29183976406283568 0 -0.40236417216931342 0.30782205685657738 0 -0.38956786516614761 0.30182395034997522 0 -0.3917770834870043 0.28828389349624528 0 -0.38956786516614761 0.30182395034997522 0 -0.37548966575895648 0.30058820926254293 0 -0.38387127715063379 0.31801567539827619 0 -0.38956786516614761 0.30182395034997522 0 -0.37548966575895648 0.30058820926254293 0 -0.3917770834870043 0.28828389349624528 0 -0.37519835702419319 0.28349081786542579 0 -0.38647204194291912 0.27714314152915809 0 -0.3917770834870043 0.28828389349624528 0 -0.37548966575895648 0.30058820926254293 0 -0.37519835702419319 0.28349081786542579 0 -0.37519835702419319 0.28349081786542579 0 -0.38647204194291912 0.27714314152915809 0 -0.37682068453262613 0.26579735729272469 0 -0.37682068453262613 0.26579735729272469 0 -0.39387962512733188 0.2665270181360011 0 -0.38647204194291912 0.27714314152915809 0 -0.37682068453262613 0.26579735729272469 0 -0.39387962512733188 0.2665270181360011 0 -0.37682068453262613 0.26579735729272469 0 -0.39169754242157212 0.25541712595131438 0 -0.39387962512733188 0.2665270181360011 0 -0.37682068453262613 0.26579735729272469 0 -0.37935258164615399 0.25196824170108978 0 -0.39169754242157212 0.25541712595131438 0 -0.39148872151107222 0.24551346298935281 0 -0.37935258164615399 0.25196824170108978 0 -0.39169754242157212 0.25541712595131438 0 -0.37682068453262613 0.26579735729272469 0 -0.39169754242157212 0.25541712595131438 0 -0.41093856572203791 0.26725667897927669 0 -0.40439379115945251 0.25783555641197192 0 -0.39387962512733188 0.2665270181360011 0 -0.39169754242157212 0.25541712595131438 0 -0.40439379115945251 0.25783555641197192 0 -0.39387962512733188 0.2665270181360011 0 -0.40657440031051839 0.2450368946099046 0 -0.39169754242157212 0.25541712595131438 0 -0.40439379115945251 0.25783555641197192 0 -0.40657440031051839 0.2450368946099046 0 -0.39169754242157212 0.25541712595131438 0 -0.41093856572203791 0.26725667897927669 0 -0.39387962512733188 0.2665270181360011 0 -0.41093856572203791 0.26725667897927669 0 -0.40170683629408788 0.27827032732820589 0 -0.39387962512733188 0.2665270181360011 0 -0.38647204194291912 0.27714314152915809 0 -0.40170683629408788 0.27827032732820589 0 -0.39387962512733188 0.2665270181360011 0 -0.3917770834870043 0.28828389349624528 0 -0.38647204194291912 0.27714314152915809 0 -0.40170683629408788 0.27827032732820589 0 -0.35809229300301038 0.27886497131317872 0 -0.35270817287654121 0.26476599456004007 0 -0.34242642094027831 0.27639253567141242 0 -0.3455884453089616 0.24690633041501961 0 -0.35270817287654121 0.26476599456004007 0 -0.36540517029611502 0.25030160285924552 0 -0.37682068453262613 0.26579735729272469 0 -0.35270817287654121 0.26476599456004007 0 -0.36540517029611502 0.25030160285924552 0 -0.37682068453262613 0.26579735729272469 0 -0.35270817287654121 0.26476599456004007 0 -0.37682068453262613 0.26579735729272469 0 -0.37935258164615399 0.25196824170108978 0 -0.36540517029611502 0.25030160285924552 0 -0.37682068453262613 0.26579735729272469 0 -0.35809229300301038 0.27886497131317872 0 -0.35270817287654121 0.26476599456004007 0 -0.37519835702419319 0.28349081786542579 0 -0.37682068453262613 0.26579735729272469 0 -0.35809229300301038 0.27886497131317872 0 -0.37682068453262613 0.26579735729272469 0 -0.35809229300301038 0.27886497131317872 0 -0.37548966575895648 0.30058820926254293 0 -0.37519835702419319 0.28349081786542579 0 -0.36365559989382029 0.29223760479668659 0 -0.37519835702419319 0.28349081786542579 0 -0.35809229300301038 0.27886497131317872 0 -0.36365559989382029 0.29223760479668659 0 -0.37548966575895648 0.30058820926254293 0 -0.36365559989382029 0.29223760479668659 0 -0.36402727612756591 0.30897192367663351 0 -0.36365559989382029 0.29223760479668659 0 -0.36402727612756591 0.30897192367663351 0 -0.35572563162216753 0.30191420540420832 0 -0.38387127715063379 0.31801567539827619 0 -0.37548966575895648 0.30058820926254293 0 -0.36402727612756591 0.30897192367663351 0 -0.36402727612756591 0.30897192367663351 0 -0.35572563162216753 0.30191420540420832 0 -0.34602783841049711 0.314968998066808 0 -0.34919181205678712 0.2914782950767052 0 -0.34602783841049711 0.314968998066808 0 -0.35572563162216753 0.30191420540420832 0 -0.34919181205678712 0.2914782950767052 0 -0.34602783841049711 0.314968998066808 0 -0.35809229300301038 0.27886497131317872 0 -0.33936390147339501 0.29193258533363331 0 -0.34242642094027831 0.27639253567141242 0 -0.35809229300301038 0.27886497131317872 0 -0.34919181205678712 0.2914782950767052 0 -0.33936390147339501 0.29193258533363331 0 -0.35809229300301038 0.27886497131317872 0 -0.33936390147339501 0.29193258533363331 0 -0.35809229300301038 0.27886497131317872 0 -0.36365559989382029 0.29223760479668659 0 -0.34919181205678712 0.2914782950767052 0 -0.36365559989382029 0.29223760479668659 0 -0.35572563162216753 0.30191420540420832 0 -0.34919181205678712 0.2914782950767052 0 -0.33936390147339501 0.29193258533363331 0 -0.33277258388835063 0.28204390958329562 0 -0.34242642094027831 0.27639253567141242 0 -0.34919181205678712 0.2914782950767052 0 -0.33936390147339501 0.29193258533363331 0 -0.33582937426359799 0.30507120273589922 0 -0.33936390147339501 0.29193258533363331 0 -0.33277258388835063 0.28204390958329562 0 -0.32563357861460329 0.29388501476082141 0 -0.34919181205678712 0.2914782950767052 0 -0.33582937426359799 0.30507120273589922 0 -0.34602783841049711 0.314968998066808 0 -0.33936390147339501 0.29193258533363331 0 -0.33582937426359799 0.30507120273589922 0 -0.32563357861460329 0.29388501476082141 0 -0.32090284168234767 0.31023695850331429 0 -0.31277486747174998 0.29880914607304399 0 -0.32563357861460329 0.29388501476082141 0 -0.33582937426359799 0.30507120273589922 0 -0.32090284168234767 0.31023695850331429 0 -0.32563357861460329 0.29388501476082141 0 -0.32090284168234767 0.31023695850331429 0 -0.31277486747174998 0.29880914607304399 0 -0.30604790200974002 0.30939308129515181 0 -0.33277258388835063 0.28204390958329562 0 -0.32563357861460329 0.29388501476082141 0 -0.32261578486338022 0.27886327267429961 0 -0.32563357861460329 0.29388501476082141 0 -0.31315778289475538 0.2846378400577208 0 -0.32261578486338022 0.27886327267429961 0 -0.31277486747174998 0.29880914607304399 0 -0.32563357861460329 0.29388501476082141 0 -0.31315778289475538 0.2846378400577208 0 -0.31315778289475538 0.2846378400577208 0 -0.31303742465109952 0.26896342863191652 0 -0.32261578486338022 0.27886327267429961 0 -0.33277258388835063 0.28204390958329562 0 -0.32261578486338022 0.27886327267429961 0 -0.32859566122045641 0.26373463182735479 0 -0.31303742465109952 0.26896342863191652 0 -0.32261578486338022 0.27886327267429961 0 -0.32859566122045641 0.26373463182735479 0 -0.33277258388835063 0.28204390958329562 0 -0.34242642094027831 0.27639253567141242 0 -0.32859566122045641 0.26373463182735479 0 -0.35270817287654121 0.26476599456004007 0 -0.34242642094027831 0.27639253567141242 0 -0.32859566122045641 0.26373463182735479 0 -0.3455884453089616 0.24690633041501961 0 -0.35270817287654121 0.26476599456004007 0 -0.32859566122045641 0.26373463182735479 0 -0.3455884453089616 0.24690633041501961 0 -0.33025788016244562 0.24527560138489821 0 -0.32859566122045641 0.26373463182735479 0 -0.35270817287654121 0.26476599456004007 0 -0.32859566122045641 0.26373463182735479 0 -0.31190565721249391 0.24509665905200231 0 -0.31303742465109952 0.26896342863191652 0 -0.32859566122045641 0.26373463182735479 0 -0.33025788016244562 0.24527560138489821 0 -0.31190565721249391 0.24509665905200231 0 -0.32859566122045641 0.26373463182735479 0 -0.29419891809494841 0.2471668481617397 0 -0.31190565721249391 0.24509665905200231 0 -0.29737371902344428 0.26442201178773772 0 -0.31190565721249391 0.24509665905200231 0 -0.31303742465109952 0.26896342863191652 0 -0.29737371902344428 0.26442201178773772 0 -0.31303742465109952 0.26896342863191652 0 -0.29737371902344428 0.26442201178773772 0 -0.30248740166917448 0.2780208691890913 0 -0.31315778289475538 0.2846378400577208 0 -0.31303742465109952 0.26896342863191652 0 -0.30248740166917448 0.2780208691890913 0 -0.29737371902344428 0.26442201178773772 0 -0.30248740166917448 0.2780208691890913 0 -0.29106479265084467 0.27656508776355138 0 -0.30248740166917448 0.2780208691890913 0 -0.29106479265084467 0.27656508776355138 0 -0.29624671748246301 0.28479183797547669 0 -0.29737371902344428 0.26442201178773772 0 -0.29106479265084467 0.27656508776355138 0 -0.2869266795861542 0.26765860608486552 0 -0.29106479265084467 0.27656508776355138 0 -0.2869266795861542 0.26765860608486552 0 -0.28264850091742832 0.27415990693116687 0 -0.2869266795861542 0.26765860608486552 0 -0.28264850091742832 0.27415990693116687 0 -0.27696204333616581 0.26921130419047801 0 -0.29106479265084467 0.27656508776355138 0 -0.28264850091742832 0.27415990693116687 0 -0.28328786313443283 0.28183526840834688 0 -0.29419891809494841 0.2471668481617397 0 -0.27518016358912079 0.24640308147974949 0 -0.28526606506582791 0.25784863490664722 0 -0.29419891809494841 0.2471668481617397 0 -0.29737371902344428 0.26442201178773772 0 -0.28526606506582791 0.25784863490664722 0 -0.29737371902344428 0.26442201178773772 0 -0.2869266795861542 0.26765860608486552 0 -0.28526606506582791 0.25784863490664722 0 -0.2869266795861542 0.26765860608486552 0 -0.28526606506582791 0.25784863490664722 0 -0.27696204333616581 0.26921130419047801 0 -0.28526606506582791 0.25784863490664722 0 -0.2693385149581532 0.26002476153194298 0 -0.27696204333616581 0.26921130419047801 0 -0.27518016358912079 0.24640308147974949 0 -0.28526606506582791 0.25784863490664722 0 -0.2693385149581532 0.26002476153194298 0 -0.27518016358912079 0.24640308147974949 0 -0.2693385149581532 0.26002476153194298 0 -0.25760887749593592 0.25495998211357801 0 -0.27696204333616581 0.26921130419047801 0 -0.27753423886379092 0.27768282393518279 0 -0.27066736772318312 0.27680168510134889 0 -0.28264850091742832 0.27415990693116687 0 -0.27696204333616581 0.26921130419047801 0 -0.27753423886379092 0.27768282393518279 0 -0.27753423886379092 0.27768282393518279 0 -0.27066736772318312 0.27680168510134889 0 -0.27493947902593052 0.28633093095793899 0 -0.28264850091742832 0.27415990693116687 0 -0.27753423886379092 0.27768282393518279 0 -0.28328786313443283 0.28183526840834688 0 -0.27066736772318312 0.27680168510134889 0 -0.26700954780311342 0.26931791693918811 0 -0.26397699713690731 0.27707614282720638 0 -0.2693385149581532 0.26002476153194298 0 -0.27696204333616581 0.26921130419047801 0 -0.26700954780311342 0.26931791693918811 0 -0.27696204333616581 0.26921130419047801 0 -0.27066736772318312 0.27680168510134889 0 -0.26700954780311342 0.26931791693918811 0 -0.26700954780311342 0.26931791693918811 0 -0.25900664575311022 0.26617588397934061 0 -0.26397699713690731 0.27707614282720638 0 -0.25900664575311022 0.26617588397934061 0 -0.26397699713690731 0.27707614282720638 0 -0.25370649241833992 0.27359663318005562 0 -0.26397699713690731 0.27707614282720638 0 -0.25370649241833992 0.27359663318005562 0 -0.25522670604482972 0.28323008179088571 0 -0.25370649241833992 0.27359663318005562 0 -0.25522670604482972 0.28323008179088571 0 -0.24580011426293311 0.27678205154970847 0 -0.25900664575311022 0.26617588397934061 0 -0.25370649241833992 0.27359663318005562 0 -0.2471844578364765 0.26475286809271081 0 -0.25900664575311022 0.26617588397934061 0 -0.25760887749593592 0.25495998211357801 0 -0.2471844578364765 0.26475286809271081 0 -0.2693385149581532 0.26002476153194298 0 -0.26700954780311342 0.26931791693918811 0 -0.25900664575311022 0.26617588397934061 0 -0.2693385149581532 0.26002476153194298 0 -0.25900664575311022 0.26617588397934061 0 -0.25760887749593592 0.25495998211357801 0 -0.25448036183916473 0.31096557372527822 0 -0.26418328375977979 0.29048683008375659 0 -0.25448036183916473 0.31096557372527822 0 -0.26418328375977979 0.29048683008375659 0 -0.26459104389199228 0.3169953042285153 0 -0.25448036183916473 0.31096557372527822 0 -0.25012362875183491 0.2950850322426678 0 -0.26418328375977979 0.29048683008375659 0 -0.26418328375977979 0.29048683008375659 0 -0.26459104389199228 0.3169953042285153 0 -0.25012362875183491 0.2950850322426678 0 -0.25522670604482972 0.28323008179088571 0 -0.26418328375977979 0.29048683008375659 0 -0.25012362875183491 0.2950850322426678 0 -0.25522670604482972 0.28323008179088571 0 -0.24608302367879911 0.28619632235516351 0 -0.26397699713690731 0.27707614282720638 0 -0.26418328375977979 0.29048683008375659 0 -0.26397699713690731 0.27707614282720638 0 -0.25522670604482972 0.28323008179088571 0 -0.26418328375977979 0.29048683008375659 0 -0.26418328375977979 0.29048683008375659 0 -0.27215199669561652 0.29529880973147332 0 -0.27493947902593052 0.28633093095793899 0 -0.27066736772318312 0.27680168510134889 0 -0.26418328375977979 0.29048683008375659 0 -0.27066736772318312 0.27680168510134889 0 -0.26418328375977979 0.29048683008375659 0 -0.27493947902593052 0.28633093095793899 0 -0.27066736772318312 0.27680168510134889 0 -0.26397699713690731 0.27707614282720638 0 -0.26418328375977979 0.29048683008375659 0 -0.27493947902593052 0.28633093095793899 0 -0.28328786313443283 0.28183526840834688 0 -0.28419128194700261 0.29078355142558709 0 -0.27753423886379092 0.27768282393518279 0 -0.27493947902593052 0.28633093095793899 0 -0.28328786313443283 0.28183526840834688 0 -0.27215199669561652 0.29529880973147332 0 -0.27493947902593052 0.28633093095793899 0 -0.28419128194700261 0.29078355142558709 0 -0.27215199669561652 0.29529880973147332 0 -0.28438374282064549 0.31863198710493212 0 -0.27215199669561652 0.29529880973147332 0 -0.28438374282064549 0.31863198710493212 0 -0.26459104389199228 0.3169953042285153 0 -0.26418328375977979 0.29048683008375659 0 -0.27215199669561652 0.29529880973147332 0 -0.26459104389199228 0.3169953042285153 0 -0.27215199669561652 0.29529880973147332 0 -0.29107765707251348 0.30309630761832912 0 -0.28438374282064549 0.31863198710493212 0 -0.29107765707251348 0.30309630761832912 0 -0.29425953754496981 0.29268659820700499 0 -0.30131050432071182 0.30001184355507249 0 -0.27215199669561652 0.29529880973147332 0 -0.29107765707251348 0.30309630761832912 0 -0.28419128194700261 0.29078355142558709 0 -0.28328786313443283 0.28183526840834688 0 -0.28419128194700261 0.29078355142558709 0 -0.28934888540159992 0.28548930943665418 0 -0.29106479265084467 0.27656508776355138 0 -0.28328786313443283 0.28183526840834688 0 -0.28934888540159992 0.28548930943665418 0 -0.29107765707251348 0.30309630761832912 0 -0.28419128194700261 0.29078355142558709 0 -0.29425953754496981 0.29268659820700499 0 -0.28419128194700261 0.29078355142558709 0 -0.29425953754496981 0.29268659820700499 0 -0.28934888540159992 0.28548930943665418 0 -0.29106479265084467 0.27656508776355138 0 -0.29624671748246301 0.28479183797547669 0 -0.28934888540159992 0.28548930943665418 0 -0.29425953754496981 0.29268659820700499 0 -0.29624671748246301 0.28479183797547669 0 -0.28934888540159992 0.28548930943665418 0 -0.30248740166917448 0.2780208691890913 0 -0.29624671748246301 0.28479183797547669 0 -0.30443964492257819 0.29129407742909402 0 -0.29425953754496981 0.29268659820700499 0 -0.30443964492257819 0.29129407742909402 0 -0.30131050432071182 0.30001184355507249 0 -0.29425953754496981 0.29268659820700499 0 -0.29624671748246301 0.28479183797547669 0 -0.30443964492257819 0.29129407742909402 0 -0.31277486747174998 0.29880914607304399 0 -0.30443964492257819 0.29129407742909402 0 -0.30131050432071182 0.30001184355507249 0 -0.31277486747174998 0.29880914607304399 0 -0.31315778289475538 0.2846378400577208 0 -0.30443964492257819 0.29129407742909402 0 -0.31315778289475538 0.2846378400577208 0 -0.30248740166917448 0.2780208691890913 0 -0.30443964492257819 0.29129407742909402 0 -0.29107765707251348 0.30309630761832912 0 -0.30604790200974002 0.30939308129515181 0 -0.29856822714752013 0.32187353324935869 0 -0.29107765707251348 0.30309630761832912 0 -0.30131050432071182 0.30001184355507249 0 -0.30604790200974002 0.30939308129515181 0 -0.31277486747174998 0.29880914607304399 0 -0.30131050432071182 0.30001184355507249 0 -0.30604790200974002 0.30939308129515181 0 -0.30604790200974002 0.30939308129515181 0 -0.29856822714752013 0.32187353324935869 0 -0.31273077583321179 0.32520961354683409 0 -0.29856822714752013 0.32187353324935869 0 -0.29661548894567452 0.34196516447839098 0 -0.31273077583321179 0.32520961354683409 0 -0.29661548894567452 0.34196516447839098 0 -0.31969809312195813 0.33883111506530827 0 -0.31273077583321179 0.32520961354683409 0 -0.29661548894567452 0.34196516447839098 0 -0.28438374282064549 0.31863198710493212 0 -0.29661548894567452 0.34196516447839098 0 -0.28438374282064549 0.31863198710493212 0 -0.28045812703915241 0.33556253707268802 0 -0.29856822714752013 0.32187353324935869 0 -0.29661548894567452 0.34196516447839098 0 -0.28438374282064549 0.31863198710493212 0 -0.29107765707251348 0.30309630761832912 0 -0.29856822714752013 0.32187353324935869 0 -0.28438374282064549 0.31863198710493212 0 -0.28438374282064549 0.31863198710493212 0 -0.28045812703915241 0.33556253707268802 0 -0.26459104389199228 0.3169953042285153 0 -0.28045812703915241 0.33556253707268802 0 -0.26499880402420573 0.34350377837327389 0 -0.26459104389199228 0.3169953042285153 0 -0.26499880402420573 0.34350377837327389 0 -0.26459104389199228 0.3169953042285153 0 -0.24477743991854939 0.33144431736679969 0 -0.26499880402420573 0.34350377837327389 0 -0.25210603837637863 0.35455916836988111 0 -0.24477743991854939 0.33144431736679969 0 -0.26499880402420573 0.34350377837327389 0 -0.26459104389199228 0.3169953042285153 0 -0.25448036183916473 0.31096557372527822 0 -0.26459104389199228 0.3169953042285153 0 -0.24477743991854939 0.33144431736679969 0 -0.28045812703915241 0.33556253707268802 0 -0.26499880402420573 0.34350377837327389 0 -0.28712689961356158 0.3676552971849395 0 -0.25210603837637863 0.35455916836988111 0 -0.25943463683420731 0.37767401937296258 0 -0.23903966537243571 0.37694962875812998 0 -0.25210603837637863 0.35455916836988111 0 -0.25943463683420731 0.37767401937296258 0 -0.25832536911841941 0.37078065963782247 0 -0.25210603837637863 0.35455916836988111 0 -0.25943463683420731 0.37767401937296258 0 -0.26540656415641911 0.37001225251803282 0 -0.25832536911841941 0.37078065963782247 0 -0.25210603837637863 0.35455916836988111 0 -0.26540656415641911 0.37001225251803282 0 -0.25832536911841941 0.37078065963782247 0 -0.26540656415641911 0.37001225251803282 0 -0.25832536911841941 0.37078065963782247 0 -0.25943463683420731 0.37767401937296258 0 -0.26499880402420573 0.34350377837327389 0 -0.26540656415641911 0.37001225251803282 0 -0.25210603837637863 0.35455916836988111 0 -0.26499880402420573 0.34350377837327389 0 -0.26540656415641911 0.37001225251803282 0 -0.26499880402420573 0.34350377837327389 0 -0.26540656415641911 0.37001225251803282 0 -0.28712689961356158 0.3676552971849395 0 -0.26540656415641911 0.37001225251803282 0 -0.28712689961356158 0.3676552971849395 0 -0.27688875545321839 0.38025143648726439 0 -0.26540656415641911 0.37001225251803282 0 -0.28712689961356158 0.3676552971849395 0 -0.29661548894567452 0.34196516447839098 0 -0.28045812703915241 0.33556253707268802 0 -0.28712689961356158 0.3676552971849395 0 -0.29661548894567452 0.34196516447839098 0 -0.30884723507070461 0.36529834185184928 0 -0.31585607257360387 0.35173938122196341 0 -0.29661548894567452 0.34196516447839098 0 -0.30884723507070461 0.36529834185184928 0 -0.29661548894567452 0.34196516447839098 0 -0.31585607257360387 0.35173938122196341 0 -0.31969809312195813 0.33883111506530827 0 -0.29661548894567452 0.34196516447839098 0 -0.28712689961356158 0.3676552971849395 0 -0.30884723507070461 0.36529834185184928 0 -0.28712689961356158 0.3676552971849395 0 -0.30884723507070461 0.36529834185184928 0 -0.30155746628275598 0.38032333032902121 0 -0.28712689961356158 0.3676552971849395 0 -0.30884723507070461 0.36529834185184928 0 -0.30884723507070461 0.36529834185184928 0 -0.32427356309431082 0.36362437294943067 0 -0.32673481328077653 0.37488396874115282 0 -0.30884723507070461 0.36529834185184928 0 -0.32427356309431082 0.36362437294943067 0 -0.31585607257360387 0.35173938122196341 0 -0.30884723507070461 0.36529834185184928 0 -0.32427356309431082 0.36362437294943067 0 -0.33969989111791732 0.36195040404701367 0 -0.33636716183958298 0.3866940215280118 0 -0.32673481328077653 0.37488396874115282 0 -0.33969989111791732 0.36195040404701367 0 -0.33636716183958298 0.3866940215280118 0 -0.33969989111791732 0.36195040404701367 0 -0.35206264621311922 0.3751080232095787 0 -0.33636716183958298 0.3866940215280118 0 -0.32427356309431082 0.36362437294943067 0 -0.33969989111791732 0.36195040404701367 0 -0.32427356309431082 0.36362437294943067 0 -0.32673481328077653 0.37488396874115282 0 -0.33969989111791732 0.36195040404701367 0 -0.33969989111791732 0.36195040404701367 0 -0.32984598263537168 0.34897791176484039 0 -0.34286386476420699 0.33845970105691081 0 -0.33969989111791732 0.36195040404701367 0 -0.34286386476420699 0.33845970105691081 0 -0.32427356309431082 0.36362437294943067 0 -0.33969989111791732 0.36195040404701367 0 -0.32984598263537168 0.34897791176484039 0 -0.32984598263537168 0.34897791176484039 0 -0.31585607257360387 0.35173938122196341 0 -0.31969809312195813 0.33883111506530827 0 -0.32427356309431082 0.36362437294943067 0 -0.32984598263537168 0.34897791176484039 0 -0.31585607257360387 0.35173938122196341 0 -0.31969809312195813 0.33883111506530827 0 -0.31273077583321179 0.32520961354683409 0 -0.32988902563543138 0.32585611082726551 0 -0.31969809312195813 0.33883111506530827 0 -0.32988902563543138 0.32585611082726551 0 -0.33077536066650848 0.33785268314120731 0 -0.32984598263537168 0.34897791176484039 0 -0.31969809312195813 0.33883111506530827 0 -0.33077536066650848 0.33785268314120731 0 -0.32090284168234767 0.31023695850331429 0 -0.30604790200974002 0.30939308129515181 0 -0.31273077583321179 0.32520961354683409 0 -0.32090284168234767 0.31023695850331429 0 -0.31273077583321179 0.32520961354683409 0 -0.32988902563543138 0.32585611082726551 0 -0.33582937426359799 0.30507120273589922 0 -0.32090284168234767 0.31023695850331429 0 -0.32988902563543138 0.32585611082726551 0 -0.32988902563543138 0.32585611082726551 0 -0.34286386476420699 0.33845970105691081 0 -0.34602783841049711 0.314968998066808 0 -0.33582937426359799 0.30507120273589922 0 -0.32988902563543138 0.32585611082726551 0 -0.34602783841049711 0.314968998066808 0 -0.32984598263537168 0.34897791176484039 0 -0.33077536066650848 0.33785268314120731 0 -0.34286386476420699 0.33845970105691081 0 -0.32988902563543138 0.32585611082726551 0 -0.33077536066650848 0.33785268314120731 0 -0.34286386476420699 0.33845970105691081 0 -0.34286386476420699 0.33845970105691081 0 -0.35908807020496031 0.32868651675706201 0 -0.35140196098485549 0.34599731392528071 0 -0.36402727612756591 0.30897192367663351 0 -0.35908807020496031 0.32868651675706201 0 -0.34602783841049711 0.314968998066808 0 -0.34286386476420699 0.33845970105691081 0 -0.35908807020496031 0.32868651675706201 0 -0.34602783841049711 0.314968998066808 0 -0.34286386476420699 0.33845970105691081 0 -0.34602783841049711 0.314968998066808 0 -0.38387127715063379 0.31801567539827619 0 -0.36402727612756591 0.30897192367663351 0 -0.35908807020496031 0.32868651675706201 0 -0.3752694341936334 0.34026464348767022 0 -0.35140196098485549 0.34599731392528071 0 -0.3752694341936334 0.34026464348767022 0 -0.35908807020496031 0.32868651675706201 0 -0.35140196098485549 0.34599731392528071 0 -0.3752694341936334 0.34026464348767022 0 -0.38387127715063379 0.31801567539827619 0 -0.35908807020496031 0.32868651675706201 0 -0.3752694341936334 0.34026464348767022 0 -0.36237354940170652 0.35949000006669202 0 -0.35140196098485549 0.34599731392528071 0 -0.38504720768549539 0.35702959608636858 0 -0.3752694341936334 0.34026464348767022 0 -0.36237354940170652 0.35949000006669202 0 -0.38504720768549539 0.35702959608636858 0 -0.36237354940170652 0.35949000006669202 0 -0.3760226915576792 0.36869615792848698 0 -0.36237354940170652 0.35949000006669202 0 -0.36756458606203218 0.38130368428685218 0 -0.36237354940170652 0.35949000006669202 0 -0.35206264621311922 0.3751080232095787 0 -0.36756458606203218 0.38130368428685218 0 -0.3760226915576792 0.36869615792848698 0 -0.38504720768549539 0.35702959608636858 0 -0.36237354940170652 0.35949000006669202 0 -0.33969989111791732 0.36195040404701367 0 -0.36237354940170652 0.35949000006669202 0 -0.33969989111791732 0.36195040404701367 0 -0.36237354940170652 0.35949000006669202 0 -0.35206264621311922 0.3751080232095787 0 -0.33969989111791732 0.36195040404701367 0 -0.34286386476420699 0.33845970105691081 0 -0.35140196098485549 0.34599731392528071 0 -0.33969989111791732 0.36195040404701367 0 -0.36237354940170652 0.35949000006669202 0 -0.35140196098485549 0.34599731392528071 0 -0.35055187910296293 0.40546276970984679 0 -0.35361122147112622 0.38954746905395499 0 -0.36906846146532379 0.4026526914181896 0 -0.35055187910296293 0.40546276970984679 0 -0.35361122147112622 0.38954746905395499 0 -0.33636716183958298 0.3866940215280118 0 -0.35206264621311922 0.3751080232095787 0 -0.35361122147112622 0.38954746905395499 0 -0.33636716183958298 0.3866940215280118 0 -0.35206264621311922 0.3751080232095787 0 -0.35361122147112622 0.38954746905395499 0 -0.36756458606203218 0.38130368428685218 0 -0.35361122147112622 0.38954746905395499 0 -0.36756458606203218 0.38130368428685218 0 -0.36906846146532379 0.4026526914181896 0 -0.35055187910296293 0.40546276970984679 0 -0.36906846146532379 0.4026526914181896 0 -0.35910011039893042 0.42160339887452858 0 -0.37795163519498909 0.423483399053039 0 -0.36906846146532379 0.4026526914181896 0 -0.35910011039893042 0.42160339887452858 0 -0.37505412448050351 0.44115238909635118 0 -0.37795163519498909 0.423483399053039 0 -0.36080924587260338 0.4395312755603909 0 -0.37795163519498909 0.423483399053039 0 -0.35910011039893042 0.42160339887452858 0 -0.36080924587260338 0.4395312755603909 0 -0.35910011039893042 0.42160339887452858 0 -0.34347364929659518 0.43135140219834839 0 -0.36080924587260338 0.4395312755603909 0 -0.35055187910296293 0.40546276970984679 0 -0.35910011039893042 0.42160339887452858 0 -0.34347364929659518 0.43135140219834839 0 -0.35055187910296293 0.40546276970984679 0 -0.33303443256124687 0.41143763900900959 0 -0.34347364929659518 0.43135140219834839 0 -0.33303443256124687 0.41143763900900959 0 -0.34347364929659518 0.43135140219834839 0 -0.33303443256124687 0.41143763900900959 0 -0.33059430889054381 0.42955416803726909 0 -0.33303443256124687 0.41143763900900959 0 -0.34347364929659518 0.43135140219834839 0 -0.33059430889054381 0.42955416803726909 0 -0.34347364929659518 0.43135140219834839 0 -0.33059430889054381 0.42955416803726909 0 -0.34186285844962438 0.44247095159363842 0 -0.33303443256124687 0.41143763900900959 0 -0.33059430889054381 0.42955416803726909 0 -0.31403523830288949 0.42790952638179069 0 -0.33059430889054381 0.42955416803726909 0 -0.31403523830288949 0.42790952638179069 0 -0.32815418521983658 0.44767069706552809 0 -0.33303443256124687 0.41143763900900959 0 -0.31403523830288949 0.42790952638179069 0 -0.31714859822533908 0.40660383852009868 0 -0.33303443256124687 0.41143763900900959 0 -0.31714859822533908 0.40660383852009868 0 -0.32094083381597388 0.38836799043043041 0 -0.33303443256124687 0.41143763900900959 0 -0.32094083381597388 0.38836799043043041 0 -0.31714859822533908 0.40660383852009868 0 -0.32094083381597388 0.38836799043043041 0 -0.30537743199702438 0.39652515311147762 0 -0.33303443256124687 0.41143763900900959 0 -0.33636716183958298 0.3866940215280118 0 -0.32094083381597388 0.38836799043043041 0 -0.33303443256124687 0.41143763900900959 0 -0.33636716183958298 0.3866940215280118 0 -0.35055187910296293 0.40546276970984679 0 -0.33303443256124687 0.41143763900900959 0 -0.33636716183958298 0.3866940215280118 0 -0.30884723507070461 0.36529834185184928 0 -0.32673481328077653 0.37488396874115282 0 -0.32094083381597388 0.38836799043043041 0 -0.30884723507070461 0.36529834185184928 0 -0.32094083381597388 0.38836799043043041 0 -0.32673481328077653 0.37488396874115282 0 -0.33636716183958298 0.3866940215280118 0 -0.32094083381597388 0.38836799043043041 0 -0.30155746628275598 0.38032333032902121 0 -0.30537743199702438 0.39652515311147762 0 -0.29282944594718557 0.39012431451793922 0 -0.32094083381597388 0.38836799043043041 0 -0.30155746628275598 0.38032333032902121 0 -0.30537743199702438 0.39652515311147762 0 -0.30884723507070461 0.36529834185184928 0 -0.32094083381597388 0.38836799043043041 0 -0.30155746628275598 0.38032333032902121 0 -0.31714859822533908 0.40660383852009868 0 -0.30537743199702438 0.39652515311147762 0 -0.30449071850553011 0.41346805436898149 0 -0.30537743199702438 0.39652515311147762 0 -0.29432978828856349 0.40092821397908007 0 -0.30449071850553011 0.41346805436898149 0 -0.30537743199702438 0.39652515311147762 0 -0.29432978828856349 0.40092821397908007 0 -0.29282944594718557 0.39012431451793922 0 -0.29432978828856349 0.40092821397908007 0 -0.28420270736621028 0.39670996693978589 0 -0.29282944594718557 0.39012431451793922 0 -0.28420270736621028 0.39670996693978589 0 -0.29282944594718557 0.39012431451793922 0 -0.28200476478649172 0.3878393916683428 0 -0.29432978828856349 0.40092821397908007 0 -0.28420270736621028 0.39670996693978589 0 -0.28324166114999688 0.40821325150984422 0 -0.28420270736621028 0.39670996693978589 0 -0.276370572799367 0.40121319349873957 0 -0.28324166114999688 0.40821325150984422 0 -0.28712689961356158 0.3676552971849395 0 -0.30155746628275598 0.38032333032902121 0 -0.28808146641664267 0.38123875403750151 0 -0.30155746628275598 0.38032333032902121 0 -0.29282944594718557 0.39012431451793922 0 -0.28808146641664267 0.38123875403750151 0 -0.28200476478649172 0.3878393916683428 0 -0.28808146641664267 0.38123875403750151 0 -0.27688875545321839 0.38025143648726439 0 -0.29282944594718557 0.39012431451793922 0 -0.28200476478649172 0.3878393916683428 0 -0.28808146641664267 0.38123875403750151 0 -0.28712689961356158 0.3676552971849395 0 -0.28808146641664267 0.38123875403750151 0 -0.27688875545321839 0.38025143648726439 0 -0.26540656415641911 0.37001225251803282 0 -0.27688875545321839 0.38025143648726439 0 -0.26566916564820908 0.38708396773870779 0 -0.27688875545321839 0.38025143648726439 0 -0.26566916564820908 0.38708396773870779 0 -0.27126192873134258 0.39085651334517679 0 -0.28200476478649172 0.3878393916683428 0 -0.27688875545321839 0.38025143648726439 0 -0.27126192873134258 0.39085651334517679 0 -0.28420270736621028 0.39670996693978589 0 -0.28200476478649172 0.3878393916683428 0 -0.27681813993932902 0.39426179325105648 0 -0.28420270736621028 0.39670996693978589 0 -0.27681813993932902 0.39426179325105648 0 -0.276370572799367 0.40121319349873957 0 -0.28200476478649172 0.3878393916683428 0 -0.27681813993932902 0.39426179325105648 0 -0.27126192873134258 0.39085651334517679 0 -0.27681813993932902 0.39426179325105648 0 -0.276370572799367 0.40121319349873957 0 -0.27163434041246609 0.39756863543081739 0 -0.276370572799367 0.40121319349873957 0 -0.26676323529203649 0.40078887037604388 0 -0.27163434041246609 0.39756863543081739 0 -0.26676323529203649 0.40078887037604388 0 -0.27126192873134258 0.39085651334517679 0 -0.27163434041246609 0.39756863543081739 0 -0.26566916564820908 0.38708396773870779 0 -0.26676323529203649 0.40078887037604388 0 -0.27126192873134258 0.39085651334517679 0 -0.27681813993932902 0.39426179325105648 0 -0.27126192873134258 0.39085651334517679 0 -0.27163434041246609 0.39756863543081739 0 -0.26676323529203649 0.40078887037604388 0 -0.24014343659716669 0.40218028733372557 0 -0.26676323529203649 0.40078887037604388 0 -0.25943463683420731 0.37767401937296258 0 -0.24014343659716669 0.40218028733372557 0 -0.26540656415641911 0.37001225251803282 0 -0.26566916564820908 0.38708396773870779 0 -0.25943463683420731 0.37767401937296258 0 -0.26540656415641911 0.37001225251803282 0 -0.26566916564820908 0.38708396773870779 0 -0.26676323529203649 0.40078887037604388 0 -0.25943463683420731 0.37767401937296258 0 -0.26566916564820908 0.38708396773870779 0 -0.26676323529203649 0.40078887037604388 0 -0.25943463683420731 0.37767401937296258 0 -0.26499734339360359 0.43141898348397689 0 -0.25983886846826509 0.41991242990365379 0 -0.24841067906302619 0.43160818368477277 0 -0.26499734339360359 0.43141898348397689 0 -0.26585419964339152 0.44562642338145358 0 -0.24841067906302619 0.43160818368477277 0 -0.25983886846826509 0.41991242990365379 0 -0.2463484473198263 0.416312315587127 0 -0.24841067906302619 0.43160818368477277 0 -0.26676323529203649 0.40078887037604388 0 -0.2463484473198263 0.416312315587127 0 -0.24014343659716669 0.40218028733372557 0 -0.26676323529203649 0.40078887037604388 0 -0.25983886846826509 0.41991242990365379 0 -0.2463484473198263 0.416312315587127 0 -0.276370572799367 0.40121319349873957 0 -0.26676323529203649 0.40078887037604388 0 -0.2726746372728332 0.41943379638634848 0 -0.26676323529203649 0.40078887037604388 0 -0.2726746372728332 0.41943379638634848 0 -0.26676323529203649 0.40078887037604388 0 -0.25983886846826509 0.41991242990365379 0 -0.2726746372728332 0.41943379638634848 0 -0.276370572799367 0.40121319349873957 0 -0.2726746372728332 0.41943379638634848 0 -0.28324166114999688 0.40821325150984422 0 -0.26499734339360359 0.43141898348397689 0 -0.2726746372728332 0.41943379638634848 0 -0.27858603925362913 0.43807872239665341 0 -0.2726746372728332 0.41943379638634848 0 -0.27858603925362913 0.43807872239665341 0 -0.26499734339360359 0.43141898348397689 0 -0.25983886846826509 0.41991242990365379 0 -0.2726746372728332 0.41943379638634848 0 -0.26499734339360359 0.43141898348397689 0 -0.27858603925362913 0.43807872239665341 0 -0.27056793160562481 0.43993842235820307 0 -0.2726746372728332 0.41943379638634848 0 -0.29287911859424648 0.42171633782418472 0 -0.27858603925362913 0.43807872239665341 0 -0.29287911859424648 0.42171633782418472 0 -0.30337011223673283 0.44287470973109111 0 -0.27858603925362913 0.43807872239665341 0 -0.2726746372728332 0.41943379638634848 0 -0.29287911859424648 0.42171633782418472 0 -0.28324166114999688 0.40821325150984422 0 -0.29432978828856349 0.40092821397908007 0 -0.29287911859424648 0.42171633782418472 0 -0.28324166114999688 0.40821325150984422 0 -0.29432978828856349 0.40092821397908007 0 -0.29287911859424648 0.42171633782418472 0 -0.30449071850553011 0.41346805436898149 0 -0.31403523830288949 0.42790952638179069 0 -0.31714859822533908 0.40660383852009868 0 -0.30449071850553011 0.41346805436898149 0 -0.31403523830288949 0.42790952638179069 0 -0.29287911859424648 0.42171633782418472 0 -0.30449071850553011 0.41346805436898149 0 -0.31403523830288949 0.42790952638179069 0 -0.29287911859424648 0.42171633782418472 0 -0.30337011223673283 0.44287470973109111 0 -0.30337011223673283 0.44287470973109111 0 -0.29754459593119859 0.45715502267291469 0 -0.31288459682314151 0.45526768918854282 0 -0.29754459593119859 0.45715502267291469 0 -0.30432855591761532 0.46562304282633987 0 -0.31288459682314151 0.45526768918854282 0 -0.29754459593119859 0.45715502267291469 0 -0.30432855591761532 0.46562304282633987 0 -0.28821308473849788 0.46844301691532581 0 -0.29754459593119859 0.45715502267291469 0 -0.28339956199606409 0.45326086965598927 0 -0.28821308473849788 0.46844301691532581 0 -0.28339956199606409 0.45326086965598927 0 -0.28821308473849788 0.46844301691532581 0 -0.30337011223673283 0.44287470973109111 0 -0.29754459593119859 0.45715502267291469 0 -0.28339956199606409 0.45326086965598927 0 -0.30337011223673283 0.44287470973109111 0 -0.28339956199606409 0.45326086965598927 0 -0.27858603925362913 0.43807872239665341 0 -0.30337011223673283 0.44287470973109111 0 -0.27858603925362913 0.43807872239665341 0 -0.27858603925362913 0.43807872239665341 0 -0.27056793160562481 0.43993842235820307 0 -0.27548843224081659 0.44746364281905948 0 -0.27056793160562481 0.43993842235820307 0 -0.26585419964339152 0.44562642338145358 0 -0.27548843224081659 0.44746364281905948 0 -0.26499734339360359 0.43141898348397689 0 -0.27056793160562481 0.43993842235820307 0 -0.26585419964339152 0.44562642338145358 0 -0.26585419964339152 0.44562642338145358 0 -0.27548843224081659 0.44746364281905948 0 -0.26284453767403781 0.4559930010645713 0 -0.28339956199606409 0.45326086965598927 0 -0.27858603925362913 0.43807872239665341 0 -0.28339956199606409 0.45326086965598927 0 -0.27858603925362913 0.43807872239665341 0 -0.27548843224081659 0.44746364281905948 0 -0.28339956199606409 0.45326086965598927 0 -0.28821308473849788 0.46844301691532581 0 -0.27071583886073491 0.46531319099337243 0 -0.27548843224081659 0.44746364281905948 0 -0.27071583886073491 0.46531319099337243 0 -0.26284453767403781 0.4559930010645713 0 -0.28339956199606409 0.45326086965598927 0 -0.27548843224081659 0.44746364281905948 0 -0.27071583886073491 0.46531319099337243 0 -0.27071583886073491 0.46531319099337243 0 -0.26284453767403781 0.4559930010645713 0 -0.2541816267613114 0.4669435506499493 0 -0.26284453767403781 0.4559930010645713 0 -0.2541816267613114 0.4669435506499493 0 -0.2514398721300638 0.4540587521529999 0 -0.26585419964339152 0.44562642338145358 0 -0.2514398721300638 0.4540587521529999 0 -0.249076139594228 0.44427688746197802 0 -0.26585419964339152 0.44562642338145358 0 -0.24841067906302619 0.43160818368477277 0 -0.26585419964339152 0.44562642338145358 0 -0.249076139594228 0.44427688746197802 0 -0.24841067906302619 0.43160818368477277 0 -0.26585419964339152 0.44562642338145358 0 -0.26284453767403781 0.4559930010645713 0 -0.2514398721300638 0.4540587521529999 0 -0.25596448231736102 0.48257636072655452 0 -0.27058500823202231 0.5 0 -0.24532454874104681 0.5 0 -0.27071583886073491 0.46531319099337243 0 -0.2541816267613114 0.4669435506499493 0 -0.25596448231736102 0.48257636072655452 0 -0.2541816267613114 0.4669435506499493 0 -0.25596448231736102 0.48257636072655452 0 -0.24341805917853909 0.47566257934358031 0 -0.28821308473849788 0.46844301691532581 0 -0.27071583886073491 0.46531319099337243 0 -0.28005134833479373 0.48314532580424158 0 -0.27071583886073491 0.46531319099337243 0 -0.25596448231736102 0.48257636072655452 0 -0.28005134833479373 0.48314532580424158 0 -0.25596448231736102 0.48257636072655452 0 -0.28005134833479373 0.48314532580424158 0 -0.27058500823202231 0.5 0 -0.28005134833479373 0.48314532580424158 0 -0.29584546772299769 0.5 0 -0.29898420813714888 0.48253938619019732 0 -0.28005134833479373 0.48314532580424158 0 -0.27058500823202231 0.5 0 -0.29584546772299769 0.5 0 -0.28821308473849788 0.46844301691532581 0 -0.28005134833479373 0.48314532580424158 0 -0.29898420813714888 0.48253938619019732 0 -0.30432855591761532 0.46562304282633987 0 -0.28821308473849788 0.46844301691532581 0 -0.29898420813714888 0.48253938619019732 0 -0.30432855591761532 0.46562304282633987 0 -0.29898420813714888 0.48253938619019732 0 -0.3125404244633595 0.47857220547223589 0 -0.29898420813714888 0.48253938619019732 0 -0.32110592721397307 0.49999999999999972 0 -0.3125404244633595 0.47857220547223589 0 -0.29584546772299769 0.5 0 -0.29898420813714888 0.48253938619019732 0 -0.32110592721397307 0.49999999999999972 0 -0.32110592721397307 0.49999999999999972 0 -0.32514932012807612 0.46998010962295689 0 -0.32110592721397307 0.49999999999999972 0 -0.33311889577992582 0.48664519978933601 0 -0.32514932012807612 0.46998010962295689 0 -0.32526985541015918 0.50000000000000111 0 -0.32110592721397307 0.49999999999999972 0 -0.33311889577992582 0.48664519978933601 0 -0.32526985541015918 0.50000000000000111 0 -0.34203589697550429 0.5 0 -0.33311889577992582 0.48664519978933601 0 -0.34203589697550429 0.5 0 -0.33311889577992582 0.48664519978933601 0 -0.34898314155237209 0.48785990643717231 0 -0.32526985541015918 0.50000000000000111 0 -0.33311889577992582 0.48664519978933601 0 -0.33311889577992582 0.48664519978933601 0 -0.34096793614969251 0.47329039957867092 0 -0.32514932012807612 0.46998010962295689 0 -0.33311889577992582 0.48664519978933601 0 -0.34096793614969251 0.47329039957867092 0 -0.34898314155237209 0.48785990643717231 0 -0.34096793614969251 0.47329039957867092 0 -0.32514932012807612 0.46998010962295689 0 -0.33311889577992582 0.48664519978933601 0 -0.34096793614969251 0.47329039957867092 0 -0.32110592721397307 0.49999999999999972 0 -0.3125404244633595 0.47857220547223589 0 -0.32514932012807612 0.46998010962295689 0 -0.30432855591761532 0.46562304282633987 0 -0.3125404244633595 0.47857220547223589 0 -0.32514932012807612 0.46998010962295689 0 -0.32514932012807612 0.46998010962295689 0 -0.32815418521983658 0.44767069706552809 0 -0.30432855591761532 0.46562304282633987 0 -0.32514932012807612 0.46998010962295689 0 -0.31288459682314151 0.45526768918854282 0 -0.32514932012807612 0.46998010962295689 0 -0.31288459682314151 0.45526768918854282 0 -0.32815418521983658 0.44767069706552809 0 -0.30432855591761532 0.46562304282633987 0 -0.32514932012807612 0.46998010962295689 0 -0.30337011223673283 0.44287470973109111 0 -0.31288459682314151 0.45526768918854282 0 -0.32815418521983658 0.44767069706552809 0 -0.31403523830288949 0.42790952638179069 0 -0.30337011223673283 0.44287470973109111 0 -0.32815418521983658 0.44767069706552809 0 -0.30337011223673283 0.44287470973109111 0 -0.32815418521983658 0.44767069706552809 0 -0.33059430889054381 0.42955416803726909 0 -0.32815418521983658 0.44767069706552809 0 -0.34186285844962438 0.44247095159363842 0 -0.32815418521983658 0.44767069706552809 0 -0.35317928280920008 0.45251332527936011 0 -0.33059430889054381 0.42955416803726909 0 -0.32815418521983658 0.44767069706552809 0 -0.32815418521983658 0.44767069706552809 0 -0.34186285844962438 0.44247095159363842 0 -0.35317928280920008 0.45251332527936011 0 -0.34096793614969251 0.47329039957867092 0 -0.32514932012807612 0.46998010962295689 0 -0.33599035463158972 0.46032481101302669 0 -0.34096793614969251 0.47329039957867092 0 -0.33599035463158972 0.46032481101302669 0 -0.35317928280920008 0.45251332527936011 0 -0.32514932012807612 0.46998010962295689 0 -0.32815418521983658 0.44767069706552809 0 -0.33599035463158972 0.46032481101302669 0 -0.32815418521983658 0.44767069706552809 0 -0.33599035463158972 0.46032481101302669 0 -0.35317928280920008 0.45251332527936011 0 -0.34096793614969251 0.47329039957867092 0 -0.35317928280920008 0.45251332527936011 0 -0.36999104031588809 0.47936393281784911 0 -0.34096793614969251 0.47329039957867092 0 -0.35317928280920008 0.45251332527936011 0 -0.35317928280920008 0.45251332527936011 0 -0.35463501475684539 0.45279502522383658 0 -0.36999104031588809 0.47936393281784911 0 -0.34347364929659518 0.43135140219834839 0 -0.35317928280920008 0.45251332527936011 0 -0.34347364929659518 0.43135140219834839 0 -0.34186285844962438 0.44247095159363842 0 -0.35317928280920008 0.45251332527936011 0 -0.34347364929659518 0.43135140219834839 0 -0.35317928280920008 0.45251332527936011 0 -0.36080924587260338 0.4395312755603909 0 -0.35317928280920008 0.45251332527936011 0 -0.36080924587260338 0.4395312755603909 0 -0.35317928280920008 0.45251332527936011 0 -0.35463501475684539 0.45279502522383658 0 -0.36182488535469598 0.44802175483102341 0 -0.35317928280920008 0.45251332527936011 0 -0.36080924587260338 0.4395312755603909 0 -0.36182488535469598 0.44802175483102341 0 -0.35317928280920008 0.45251332527936011 0 -0.35463501475684539 0.45279502522383658 0 -0.38157079154199219 0.45800739061643508 0 -0.37505412448050351 0.44115238909635118 0 -0.36182488535469598 0.44802175483102341 0 -0.38157079154199219 0.45800739061643508 0 -0.35463501475684539 0.45279502522383658 0 -0.36182488535469598 0.44802175483102341 0 -0.37505412448050351 0.44115238909635118 0 -0.36080924587260338 0.4395312755603909 0 -0.36182488535469598 0.44802175483102341 0 -0.38157079154199219 0.45800739061643508 0 -0.35463501475684539 0.45279502522383658 0 -0.38157079154199219 0.45800739061643508 0 -0.35463501475684539 0.45279502522383658 0 -0.36999104031588809 0.47936393281784911 0 -0.36999104031588809 0.47936393281784911 0 -0.35880193854084941 0.50000000000000244 0 -0.38478787898322808 0.5 0 -0.36999104031588809 0.47936393281784911 0 -0.35880193854084941 0.50000000000000244 0 -0.36999104031588809 0.47936393281784911 0 -0.34898314155237209 0.48785990643717231 0 -0.35880193854084941 0.50000000000000244 0 -0.34203589697550429 0.5 0 -0.34898314155237209 0.48785990643717231 0 -0.35880193854084941 0.50000000000000244 0 -0.34096793614969251 0.47329039957867092 0 -0.36999104031588809 0.47936393281784911 0 -0.34898314155237209 0.48785990643717231 0 -0.34096793614969251 0.47329039957867092 0 -0.36999104031588809 0.47936393281784911 0 -0.15332379588685291 0.47248742700835072 0 -0.15610659366150381 0.48607618763524402 0 -0.13602657262403481 0.48349583756215792 0 -0.15332379588685291 0.47248742700835072 0 -0.13602657262403481 0.48349583756215792 0 -0.13562522330005211 0.46518364476866608 0 -0.15610659366150381 0.48607618763524402 0 -0.14819175481544741 0.5 0 -0.13602657262403481 0.48349583756215792 0 -0.14819175481544741 0.5 0 -0.13602657262403481 0.48349583756215792 0 -0.1181445233769096 0.5 0 -0.13602657262403481 0.48349583756215792 0 -0.13562522330005211 0.46518364476866608 0 -0.11953230362418241 0.47195934598914452 0 -0.13562522330005211 0.46518364476866608 0 -0.14820853205987919 0.45099312062223768 0 -0.1210703445702655 0.44790393204536838 0 -0.13562522330005211 0.46518364476866608 0 -0.1210703445702655 0.44790393204536838 0 -0.11953230362418241 0.47195934598914452 0 -0.14820853205987919 0.45099312062223768 0 -0.1364404150512111 0.43178865947690731 0 -0.1210703445702655 0.44790393204536838 0 -0.14820853205987919 0.45099312062223768 0 -0.1364404150512111 0.43178865947690731 0 -0.15332379588685291 0.47248742700835072 0 -0.14820853205987919 0.45099312062223768 0 -0.15997664906854669 0.47019758176756871 0 -0.15332379588685291 0.47248742700835072 0 -0.13562522330005211 0.46518364476866608 0 -0.14820853205987919 0.45099312062223768 0 -0.14820853205987919 0.45099312062223768 0 -0.15997664906854669 0.47019758176756871 0 -0.16827965696956401 0.45190179524431051 0 -0.18608423638994689 0.46121161244832931 0 -0.15997664906854669 0.47019758176756871 0 -0.14820853205987919 0.45099312062223768 0 -0.16827965696956401 0.45190179524431051 0 -0.15997664906854669 0.47019758176756871 0 -0.14820853205987919 0.45099312062223768 0 -0.16827965696956401 0.45190179524431051 0 -0.168626902728998 0.4349562391952625 0 -0.16827965696956401 0.45190179524431051 0 -0.1813143228620997 0.44255566070993502 0 -0.18608423638994689 0.46121161244832931 0 -0.16827965696956401 0.45190179524431051 0 -0.1813143228620997 0.44255566070993502 0 -0.168626902728998 0.4349562391952625 0 -0.18608423638994689 0.46121161244832931 0 -0.15997664906854669 0.47019758176756871 0 -0.18608423638994689 0.46121161244832931 0 -0.1691078176612649 0.48509879088378832 0 -0.18753434756636689 0.4855708610765026 0 -0.18608423638994689 0.46121161244832931 0 -0.15997664906854669 0.47019758176756871 0 -0.1691078176612649 0.48509879088378832 0 -0.15332379588685291 0.47248742700835072 0 -0.15610659366150381 0.48607618763524402 0 -0.15997664906854669 0.47019758176756871 0 -0.15610659366150381 0.48607618763524402 0 -0.15997664906854669 0.47019758176756871 0 -0.1691078176612649 0.48509879088378832 0 -0.15997664906854669 0.47019758176756871 0 -0.1691078176612649 0.48509879088378832 0 -0.15332379588685291 0.47248742700835072 0 -0.15997664906854669 0.47019758176756871 0 -0.15610659366150381 0.48607618763524402 0 -0.14819175481544741 0.5 0 -0.17823898625398529 0.50000000000000644 0 -0.15610659366150381 0.48607618763524402 0 -0.1691078176612649 0.48509879088378832 0 -0.17823898625398529 0.50000000000000644 0 -0.1691078176612649 0.48509879088378832 0 -0.17823898625398529 0.50000000000000644 0 -0.1691078176612649 0.48509879088378832 0 -0.17823898625398529 0.50000000000000644 0 -0.18753434756636689 0.4855708610765026 0 -0.17823898625398529 0.50000000000000644 0 -0.19480362975909599 0.49999999999999939 0 -0.18753434756636689 0.4855708610765026 0 -0.19480362975909599 0.49999999999999939 0 -0.18753434756636689 0.4855708610765026 0 -0.20204971797366331 0.48914788844227852 0 -0.18608423638994689 0.46121161244832931 0 -0.18753434756636689 0.4855708610765026 0 -0.200680856241918 0.47807420989598992 0 -0.18753434756636689 0.4855708610765026 0 -0.20204971797366331 0.48914788844227852 0 -0.200680856241918 0.47807420989598992 0 -0.200680856241918 0.47807420989598992 0 -0.21188130575009689 0.48376513843291857 0 -0.2176950226790175 0.47251023278021798 0 -0.20204971797366331 0.48914788844227852 0 -0.200680856241918 0.47807420989598992 0 -0.21188130575009689 0.48376513843291857 0 -0.21188130575009689 0.48376513843291857 0 -0.2176950226790175 0.47251023278021798 0 -0.222511591507526 0.48281032301965482 0 -0.19480362975909599 0.49999999999999939 0 -0.2151905806118509 0.49419212024218401 0 -0.19480362975909599 0.49999999999999939 0 -0.2151905806118509 0.49419212024218401 0 -0.22006408925007151 0.5 0 -0.19480362975909599 0.49999999999999939 0 -0.20204971797366331 0.48914788844227852 0 -0.2151905806118509 0.49419212024218401 0 -0.20204971797366331 0.48914788844227852 0 -0.21188130575009689 0.48376513843291857 0 -0.2151905806118509 0.49419212024218401 0 -0.21188130575009689 0.48376513843291857 0 -0.2151905806118509 0.49419212024218401 0 -0.222511591507526 0.48281032301965482 0 -0.2151905806118509 0.49419212024218401 0 -0.23557753146460589 0.48838424048436929 0 -0.2151905806118509 0.49419212024218401 0 -0.22006408925007151 0.5 0 -0.23557753146460589 0.48838424048436929 0 -0.2151905806118509 0.49419212024218401 0 -0.222511591507526 0.48281032301965482 0 -0.23557753146460589 0.48838424048436929 0 -0.22006408925007151 0.5 0 -0.24532454874104681 0.5 0 -0.23557753146460589 0.48838424048436929 0 -0.2176950226790175 0.47251023278021798 0 -0.222511591507526 0.48281032301965482 0 -0.23114237176176489 0.47439867781256251 0 -0.2176950226790175 0.47251023278021798 0 -0.23114237176176489 0.47439867781256251 0 -0.2271829063305465 0.4594505956630287 0 -0.222511591507526 0.48281032301965482 0 -0.23114237176176489 0.47439867781256251 0 -0.23557753146460589 0.48838424048436929 0 -0.23114237176176489 0.47439867781256251 0 -0.24341805917853909 0.47566257934358031 0 -0.23557753146460589 0.48838424048436929 0 -0.25596448231736102 0.48257636072655452 0 -0.24341805917853909 0.47566257934358031 0 -0.23557753146460589 0.48838424048436929 0 -0.23114237176176489 0.47439867781256251 0 -0.24341805917853909 0.47566257934358031 0 -0.24022428358765241 0.46601006704446613 0 -0.2541816267613114 0.4669435506499493 0 -0.24341805917853909 0.47566257934358031 0 -0.24022428358765241 0.46601006704446613 0 -0.25596448231736102 0.48257636072655452 0 -0.23557753146460589 0.48838424048436929 0 -0.25596448231736102 0.48257636072655452 0 -0.24532454874104681 0.5 0 -0.23557753146460589 0.48838424048436929 0 -0.2382994110327453 0.4432396738098448 0 -0.23988005262270359 0.45457261105565172 0 -0.2271829063305465 0.4594505956630287 0 -0.2382994110327453 0.4432396738098448 0 -0.249076139594228 0.44427688746197802 0 -0.24841067906302619 0.43160818368477277 0 -0.2514398721300638 0.4540587521529999 0 -0.249076139594228 0.44427688746197802 0 -0.23988005262270359 0.45457261105565172 0 -0.2382994110327453 0.4432396738098448 0 -0.249076139594228 0.44427688746197802 0 -0.23988005262270359 0.45457261105565172 0 -0.2514398721300638 0.4540587521529999 0 -0.24022428358765241 0.46601006704446613 0 -0.23988005262270359 0.45457261105565172 0 -0.2541816267613114 0.4669435506499493 0 -0.2514398721300638 0.4540587521529999 0 -0.24022428358765241 0.46601006704446613 0 -0.24022428358765241 0.46601006704446613 0 -0.23988005262270359 0.45457261105565172 0 -0.2271829063305465 0.4594505956630287 0 -0.2176950226790175 0.47251023278021798 0 -0.2271829063305465 0.4594505956630287 0 -0.21219182371134609 0.45222564312908697 0 -0.23114237176176489 0.47439867781256251 0 -0.24022428358765241 0.46601006704446613 0 -0.2271829063305465 0.4594505956630287 0 -0.2382994110327453 0.4432396738098448 0 -0.21219182371134609 0.45222564312908697 0 -0.2382994110327453 0.4432396738098448 0 -0.2271829063305465 0.4594505956630287 0 -0.21219182371134609 0.45222564312908697 0 -0.2382994110327453 0.4432396738098448 0 -0.21219182371134609 0.45222564312908697 0 -0.21982883602378869 0.43377564201945218 0 -0.21219182371134609 0.45222564312908697 0 -0.19963518936349289 0.43853281791882348 0 -0.21982883602378869 0.43377564201945218 0 -0.200680856241918 0.47807420989598992 0 -0.2176950226790175 0.47251023278021798 0 -0.21219182371134609 0.45222564312908697 0 -0.18608423638994689 0.46121161244832931 0 -0.21219182371134609 0.45222564312908697 0 -0.18608423638994689 0.46121161244832931 0 -0.200680856241918 0.47807420989598992 0 -0.21219182371134609 0.45222564312908697 0 -0.18608423638994689 0.46121161244832931 0 -0.21219182371134609 0.45222564312908697 0 -0.19963518936349289 0.43853281791882348 0 -0.1813143228620997 0.44255566070993502 0 -0.18608423638994689 0.46121161244832931 0 -0.19963518936349289 0.43853281791882348 0 -0.19963518936349289 0.43853281791882348 0 -0.19744793282443579 0.42079767677202268 0 -0.20873517528643659 0.42679455752112527 0 -0.1813143228620997 0.44255566070993502 0 -0.19963518936349289 0.43853281791882348 0 -0.18394562885849669 0.4261758387429494 0 -0.19963518936349289 0.43853281791882348 0 -0.19744793282443579 0.42079767677202268 0 -0.18394562885849669 0.4261758387429494 0 -0.2028745097370338 0.41052347183689969 0 -0.1827685541106632 0.40517927261350989 0 -0.19744793282443579 0.42079767677202268 0 -0.1827685541106632 0.40517927261350989 0 -0.18394562885849669 0.4261758387429494 0 -0.19744793282443579 0.42079767677202268 0 -0.2028745097370338 0.41052347183689969 0 -0.1827685541106632 0.40517927261350989 0 -0.2028745097370338 0.41052347183689969 0 -0.21052899107617759 0.40372823448999728 0 -0.1827685541106632 0.40517927261350989 0 -0.2028745097370338 0.41052347183689969 0 -0.2097485880350356 0.4195460645322327 0 -0.22298046536340449 0.41586767106028888 0 -0.2028745097370338 0.41052347183689969 0 -0.20885693001982281 0.40725724461768958 0 -0.22298046536340449 0.41586767106028888 0 -0.2028745097370338 0.41052347183689969 0 -0.22298046536340449 0.41586767106028888 0 -0.2028745097370338 0.41052347183689969 0 -0.20885693001982281 0.40725724461768958 0 -0.21052899107617759 0.40372823448999728 0 -0.19744793282443579 0.42079767677202268 0 -0.2028745097370338 0.41052347183689969 0 -0.2097485880350356 0.4195460645322327 0 -0.2097485880350356 0.4195460645322327 0 -0.21670485696386721 0.42374694547082681 0 -0.22298046536340449 0.41586767106028888 0 -0.20885693001982281 0.40725724461768958 0 -0.22298046536340449 0.41586767106028888 0 -0.213523637902297 0.40357170429140921 0 -0.19963518936349289 0.43853281791882348 0 -0.20873517528643659 0.42679455752112527 0 -0.21982883602378869 0.43377564201945218 0 -0.19744793282443579 0.42079767677202268 0 -0.2097485880350356 0.4195460645322327 0 -0.20873517528643659 0.42679455752112527 0 -0.2097485880350356 0.4195460645322327 0 -0.20873517528643659 0.42679455752112527 0 -0.21670485696386721 0.42374694547082681 0 -0.20873517528643659 0.42679455752112527 0 -0.21670485696386721 0.42374694547082681 0 -0.21982883602378869 0.43377564201945218 0 -0.2382994110327453 0.4432396738098448 0 -0.21982883602378869 0.43377564201945218 0 -0.23255147063148709 0.43018603965132002 0 -0.23255147063148709 0.43018603965132002 0 -0.2252512685552143 0.42471675475443832 0 -0.23096715848266089 0.41758994398809191 0 -0.21670485696386721 0.42374694547082681 0 -0.21982883602378869 0.43377564201945218 0 -0.2252512685552143 0.42471675475443832 0 -0.21982883602378869 0.43377564201945218 0 -0.23255147063148709 0.43018603965132002 0 -0.2252512685552143 0.42471675475443832 0 -0.22298046536340449 0.41586767106028888 0 -0.23096715848266089 0.41758994398809191 0 -0.213523637902297 0.40357170429140921 0 -0.2252512685552143 0.42471675475443832 0 -0.22298046536340449 0.41586767106028888 0 -0.23096715848266089 0.41758994398809191 0 -0.21670485696386721 0.42374694547082681 0 -0.2252512685552143 0.42471675475443832 0 -0.22298046536340449 0.41586767106028888 0 -0.23096715848266089 0.41758994398809191 0 -0.213523637902297 0.40357170429140921 0 -0.23096715848266089 0.41758994398809191 0 -0.24014343659716669 0.40218028733372557 0 -0.213523637902297 0.40357170429140921 0 -0.23096715848266089 0.41758994398809191 0 -0.2463484473198263 0.416312315587127 0 -0.24841067906302619 0.43160818368477277 0 -0.23096715848266089 0.41758994398809191 0 -0.2463484473198263 0.416312315587127 0 -0.24014343659716669 0.40218028733372557 0 -0.2382994110327453 0.4432396738098448 0 -0.23255147063148709 0.43018603965132002 0 -0.24841067906302619 0.43160818368477277 0 -0.23255147063148709 0.43018603965132002 0 -0.23096715848266089 0.41758994398809191 0 -0.24841067906302619 0.43160818368477277 0 -0.23096715848266089 0.41758994398809191 0 -0.24841067906302619 0.43160818368477277 0 -0.25943463683420731 0.37767401937296258 0 -0.23903966537243571 0.37694962875812998 0 -0.24014343659716669 0.40218028733372557 0 -0.23903966537243571 0.37694962875812998 0 -0.24014343659716669 0.40218028733372557 0 -0.2253293510052583 0.3925939187220524 0 -0.2253293510052583 0.3925939187220524 0 -0.22253149404546699 0.37839605276415811 0 -0.21140852110892641 0.40187192046283748 0 -0.24014343659716669 0.40218028733372557 0 -0.2253293510052583 0.3925939187220524 0 -0.213523637902297 0.40357170429140921 0 -0.24014343659716669 0.40218028733372557 0 -0.213523637902297 0.40357170429140921 0 -0.23903966537243571 0.37694962875812998 0 -0.2253293510052583 0.3925939187220524 0 -0.22253149404546699 0.37839605276415811 0 -0.22253149404546699 0.37839605276415811 0 -0.21140852110892641 0.40187192046283748 0 -0.22253149404546699 0.37839605276415811 0 -0.21140852110892641 0.40187192046283748 0 -0.19703135211769821 0.39031791104425639 0 -0.22253149404546699 0.37839605276415811 0 -0.19703135211769821 0.39031791104425639 0 -0.19894273828631559 0.37356667273835348 0 -0.2253293510052583 0.3925939187220524 0 -0.213523637902297 0.40357170429140921 0 -0.21140852110892641 0.40187192046283748 0 -0.20885693001982281 0.40725724461768958 0 -0.213523637902297 0.40357170429140921 0 -0.21052899107617759 0.40372823448999728 0 -0.213523637902297 0.40357170429140921 0 -0.21052899107617759 0.40372823448999728 0 -0.213523637902297 0.40357170429140921 0 -0.21140852110892641 0.40187192046283748 0 -0.213523637902297 0.40357170429140921 0 -0.21140852110892641 0.40187192046283748 0 -0.21052899107617759 0.40372823448999728 0 -0.21140852110892641 0.40187192046283748 0 -0.21052899107617759 0.40372823448999728 0 -0.21140852110892641 0.40187192046283748 0 -0.19703135211769821 0.39031791104425639 0 -0.21140852110892641 0.40187192046283748 0 -0.21052899107617759 0.40372823448999728 0 -0.19703135211769821 0.39031791104425639 0 -0.20885693001982281 0.40725724461768958 0 -0.21052899107617759 0.40372823448999728 0 -0.21052899107617759 0.40372823448999728 0 -0.1827685541106632 0.40517927261350989 0 -0.21052899107617759 0.40372823448999728 0 -0.19703135211769821 0.39031791104425639 0 -0.1827685541106632 0.40517927261350989 0 -0.19703135211769821 0.39031791104425639 0 -0.17667360113082239 0.38390358843628608 0 -0.19894273828631559 0.37356667273835348 0 -0.17667360113082239 0.38390358843628608 0 -0.15753961049025739 0.38360064008684058 0 -0.16107311168954411 0.36933628638836652 0 -0.17667360113082239 0.38390358843628608 0 -0.15753961049025739 0.38360064008684058 0 -0.16238744100431171 0.39976193603628712 0 -0.15753961049025739 0.38360064008684058 0 -0.15285048187445599 0.37679051356046589 0 -0.16107311168954411 0.36933628638836652 0 -0.1827685541106632 0.40517927261350989 0 -0.15455558631079411 0.40665396452509139 0 -0.16238744100431171 0.39976193603628712 0 -0.1827685541106632 0.40517927261350989 0 -0.15455558631079411 0.40665396452509139 0 -0.16238744100431171 0.39976193603628712 0 -0.1827685541106632 0.40517927261350989 0 -0.17667360113082239 0.38390358843628608 0 -0.16238744100431171 0.39976193603628712 0 -0.1827685541106632 0.40517927261350989 0 -0.19703135211769821 0.39031791104425639 0 -0.17667360113082239 0.38390358843628608 0 -0.1827685541106632 0.40517927261350989 0 -0.1827685541106632 0.40517927261350989 0 -0.18394562885849669 0.4261758387429494 0 -0.16856519124658009 0.4197223491363315 0 -0.1813143228620997 0.44255566070993502 0 -0.18394562885849669 0.4261758387429494 0 -0.168626902728998 0.4349562391952625 0 -0.18394562885849669 0.4261758387429494 0 -0.168626902728998 0.4349562391952625 0 -0.16856519124658009 0.4197223491363315 0 -0.14820853205987919 0.45099312062223768 0 -0.168626902728998 0.4349562391952625 0 -0.15292928422394819 0.42564643060484469 0 -0.168626902728998 0.4349562391952625 0 -0.16856519124658009 0.4197223491363315 0 -0.15292928422394819 0.42564643060484469 0 -0.1827685541106632 0.40517927261350989 0 -0.16856519124658009 0.4197223491363315 0 -0.15455558631079411 0.40665396452509139 0 -0.16856519124658009 0.4197223491363315 0 -0.15455558631079411 0.40665396452509139 0 -0.15292928422394819 0.42564643060484469 0 -0.14212078230529149 0.41420357047949702 0 -0.15455558631079411 0.40665396452509139 0 -0.15292928422394819 0.42564643060484469 0 -0.14212078230529149 0.41420357047949702 0 -0.15292928422394819 0.42564643060484469 0 -0.1364404150512111 0.43178865947690731 0 -0.14820853205987919 0.45099312062223768 0 -0.15292928422394819 0.42564643060484469 0 -0.1364404150512111 0.43178865947690731 0 -0.1364404150512111 0.43178865947690731 0 -0.12467229804254321 0.41258419833157672 0 -0.14212078230529149 0.41420357047949702 0 -0.14200632789796019 0.39434459945906392 0 -0.12467229804254321 0.41258419833157672 0 -0.14212078230529149 0.41420357047949702 0 -0.1364404150512111 0.43178865947690731 0 -0.12467229804254321 0.41258419833157672 0 -0.1331172212521336 0.39198185890019438 0 -0.1230102781205875 0.39160426028859469 0 -0.12467229804254321 0.41258419833157672 0 -0.1331172212521336 0.39198185890019438 0 -0.14200632789796019 0.39434459945906392 0 -0.12467229804254321 0.41258419833157672 0 -0.14200632789796019 0.39434459945906392 0 -0.12467229804254321 0.41258419833157672 0 -0.1331172212521336 0.39198185890019438 0 -0.13904988104549471 0.38613675025650079 0 -0.14200632789796019 0.39434459945906392 0 -0.1331172212521336 0.39198185890019438 0 -0.14200632789796019 0.39434459945906392 0 -0.13042793620948209 0.38397920095123877 0 -0.12305257188854329 0.38047587744447242 0 -0.1230102781205875 0.39160426028859469 0 -0.1331172212521336 0.39198185890019438 0 -0.13042793620948209 0.38397920095123877 0 -0.1230102781205875 0.39160426028859469 0 -0.13042793620948209 0.38397920095123877 0 -0.127778484495712 0.37269093911970153 0 -0.12305257188854329 0.38047587744447242 0 -0.13042793620948209 0.38397920095123877 0 -0.13640844457340501 0.37431397048859683 0 -0.127778484495712 0.37269093911970153 0 -0.13904988104549471 0.38613675025650079 0 -0.14598412959352799 0.38069284319635133 0 -0.13640844457340501 0.37431397048859683 0 -0.13042793620948209 0.38397920095123877 0 -0.13904988104549471 0.38613675025650079 0 -0.13640844457340501 0.37431397048859683 0 -0.1331172212521336 0.39198185890019438 0 -0.13042793620948209 0.38397920095123877 0 -0.13904988104549471 0.38613675025650079 0 -0.13904988104549471 0.38613675025650079 0 -0.14663991341200239 0.38946894493310941 0 -0.14200632789796019 0.39434459945906392 0 -0.13904988104549471 0.38613675025650079 0 -0.14663991341200239 0.38946894493310941 0 -0.14598412959352799 0.38069284319635133 0 -0.14598412959352799 0.38069284319635133 0 -0.14590574677045701 0.37046548151803421 0 -0.13640844457340501 0.37431397048859683 0 -0.14598412959352799 0.38069284319635133 0 -0.15285048187445599 0.37679051356046589 0 -0.14590574677045701 0.37046548151803421 0 -0.15753961049025739 0.38360064008684058 0 -0.14598412959352799 0.38069284319635133 0 -0.15285048187445599 0.37679051356046589 0 -0.15753961049025739 0.38360064008684058 0 -0.14663991341200239 0.38946894493310941 0 -0.14598412959352799 0.38069284319635133 0 -0.16238744100431171 0.39976193603628712 0 -0.14663991341200239 0.38946894493310941 0 -0.14200632789796019 0.39434459945906392 0 -0.16238744100431171 0.39976193603628712 0 -0.14200632789796019 0.39434459945906392 0 -0.14212078230529149 0.41420357047949702 0 -0.15455558631079411 0.40665396452509139 0 -0.14200632789796019 0.39434459945906392 0 -0.16238744100431171 0.39976193603628712 0 -0.15455558631079411 0.40665396452509139 0 -0.14200632789796019 0.39434459945906392 0 -0.15753961049025739 0.38360064008684058 0 -0.16238744100431171 0.39976193603628712 0 -0.14663991341200239 0.38946894493310941 0 -0.14663991341200239 0.38946894493310941 0 -0.14200632789796019 0.39434459945906392 0 -0.14558921595229199 0.35191215611381482 0 -0.14099712415873111 0.33885218550753371 0 -0.15701721164585 0.3436583450761872 0 -0.14558921595229199 0.35191215611381482 0 -0.14924885499233831 0.36172702731303658 0 -0.1390789074743439 0.36326491961405871 0 -0.14558921595229199 0.35191215611381482 0 -0.15701721164585 0.3436583450761872 0 -0.15794583494166289 0.35573143369207488 0 -0.14558921595229199 0.35191215611381482 0 -0.14924885499233831 0.36172702731303658 0 -0.15794583494166289 0.35573143369207488 0 -0.14924885499233831 0.36172702731303658 0 -0.14590574677045701 0.37046548151803421 0 -0.16107311168954411 0.36933628638836652 0 -0.14924885499233831 0.36172702731303658 0 -0.15794583494166289 0.35573143369207488 0 -0.16107311168954411 0.36933628638836652 0 -0.15285048187445599 0.37679051356046589 0 -0.14590574677045701 0.37046548151803421 0 -0.16107311168954411 0.36933628638836652 0 -0.14924885499233831 0.36172702731303658 0 -0.14590574677045701 0.37046548151803421 0 -0.1390789074743439 0.36326491961405871 0 -0.1390789074743439 0.36326491961405871 0 -0.1294365060122728 0.36362932685724608 0 -0.13348421144801451 0.35251392015533572 0 -0.1390789074743439 0.36326491961405871 0 -0.13640844457340501 0.37431397048859683 0 -0.1294365060122728 0.36362932685724608 0 -0.14590574677045701 0.37046548151803421 0 -0.1390789074743439 0.36326491961405871 0 -0.13640844457340501 0.37431397048859683 0 -0.13640844457340501 0.37431397048859683 0 -0.127778484495712 0.37269093911970153 0 -0.1294365060122728 0.36362932685724608 0 -0.127778484495712 0.37269093911970153 0 -0.1294365060122728 0.36362932685724608 0 -0.1182221704642743 0.36655747791265952 0 -0.1294365060122728 0.36362932685724608 0 -0.13348421144801451 0.35251392015533572 0 -0.1232217038063005 0.35122250419899848 0 -0.14558921595229199 0.35191215611381482 0 -0.1390789074743439 0.36326491961405871 0 -0.13348421144801451 0.35251392015533572 0 -0.14558921595229199 0.35191215611381482 0 -0.13348421144801451 0.35251392015533572 0 -0.14099712415873111 0.33885218550753371 0 -0.13348421144801451 0.35251392015533572 0 -0.12892385576854551 0.33954943627778522 0 -0.1232217038063005 0.35122250419899848 0 -0.12892385576854551 0.33954943627778522 0 -0.13499361133797011 0.32767935808510201 0 -0.12357237534843921 0.32732441732210948 0 -0.12892385576854551 0.33954943627778522 0 -0.13499361133797011 0.32767935808510201 0 -0.14099712415873111 0.33885218550753371 0 -0.13348421144801451 0.35251392015533572 0 -0.12892385576854551 0.33954943627778522 0 -0.14099712415873111 0.33885218550753371 0 -0.12859811351865319 0.31806394890578898 0 -0.13037360798590419 0.30926279168836601 0 -0.12365668137363239 0.31055485054408111 0 -0.12859811351865319 0.31806394890578898 0 -0.13499361133797011 0.32767935808510201 0 -0.12357237534843921 0.32732441732210948 0 -0.12859811351865319 0.31806394890578898 0 -0.13499361133797011 0.32767935808510201 0 -0.14096551074205579 0.31526816691265408 0 -0.12859811351865319 0.31806394890578898 0 -0.14096551074205579 0.31526816691265408 0 -0.13037360798590419 0.30926279168836601 0 -0.14096551074205579 0.31526816691265408 0 -0.15865395163249599 0.31716547195299077 0 -0.15078835454142239 0.30659981577970841 0 -0.14096551074205579 0.31526816691265408 0 -0.14887593703854329 0.32888705418793052 0 -0.15865395163249599 0.31716547195299077 0 -0.13499361133797011 0.32767935808510201 0 -0.14096551074205579 0.31526816691265408 0 -0.14887593703854329 0.32888705418793052 0 -0.14887593703854329 0.32888705418793052 0 -0.15989640711591821 0.33033413503257941 0 -0.15865395163249599 0.31716547195299077 0 -0.14099712415873111 0.33885218550753371 0 -0.14887593703854329 0.32888705418793052 0 -0.15701721164585 0.3436583450761872 0 -0.13499361133797011 0.32767935808510201 0 -0.14099712415873111 0.33885218550753371 0 -0.14887593703854329 0.32888705418793052 0 -0.14887593703854329 0.32888705418793052 0 -0.15701721164585 0.3436583450761872 0 -0.15989640711591821 0.33033413503257941 0 -0.15701721164585 0.3436583450761872 0 -0.15989640711591821 0.33033413503257941 0 -0.17386763918960119 0.33104220881635171 0 -0.15701721164585 0.3436583450761872 0 -0.17386763918960119 0.33104220881635171 0 -0.17098689478962381 0.35270227519899261 0 -0.15865395163249599 0.31716547195299077 0 -0.17386763918960119 0.33104220881635171 0 -0.17501434126782331 0.31179356718834772 0 -0.15989640711591821 0.33033413503257941 0 -0.15865395163249599 0.31716547195299077 0 -0.17386763918960119 0.33104220881635171 0 -0.18710675461067949 0.3218780424838979 0 -0.17386763918960119 0.33104220881635171 0 -0.17501434126782331 0.31179356718834772 0 -0.18710675461067949 0.3218780424838979 0 -0.17386763918960119 0.33104220881635171 0 -0.1936910307083205 0.34119743136076042 0 -0.17386763918960119 0.33104220881635171 0 -0.17098689478962381 0.35270227519899261 0 -0.1936910307083205 0.34119743136076042 0 -0.17098689478962381 0.35270227519899261 0 -0.18521378476421271 0.36378029357879332 0 -0.1936910307083205 0.34119743136076042 0 -0.17098689478962381 0.35270227519899261 0 -0.15794583494166289 0.35573143369207488 0 -0.16107311168954411 0.36933628638836652 0 -0.15701721164585 0.3436583450761872 0 -0.17098689478962381 0.35270227519899261 0 -0.15794583494166289 0.35573143369207488 0 -0.17098689478962381 0.35270227519899261 0 -0.16107311168954411 0.36933628638836652 0 -0.18521378476421271 0.36378029357879332 0 -0.17667360113082239 0.38390358843628608 0 -0.16107311168954411 0.36933628638836652 0 -0.18521378476421271 0.36378029357879332 0 -0.17667360113082239 0.38390358843628608 0 -0.18521378476421271 0.36378029357879332 0 -0.19894273828631559 0.37356667273835348 0 -0.18521378476421271 0.36378029357879332 0 -0.19894273828631559 0.37356667273835348 0 -0.20792613193796741 0.35871412976554368 0 -0.18521378476421271 0.36378029357879332 0 -0.1936910307083205 0.34119743136076042 0 -0.18521378476421271 0.36378029357879332 0 -0.20792613193796741 0.35871412976554368 0 -0.1936910307083205 0.34119743136076042 0 -0.20792613193796741 0.35871412976554368 0 -0.23365446698200781 0.35492018506547868 0 -0.21253572264954601 0.3399714199729591 0 -0.20792613193796741 0.35871412976554368 0 -0.21253572264954601 0.3399714199729591 0 -0.1936910307083205 0.34119743136076042 0 -0.22253149404546699 0.37839605276415811 0 -0.19894273828631559 0.37356667273835348 0 -0.20792613193796741 0.35871412976554368 0 -0.22253149404546699 0.37839605276415811 0 -0.20792613193796741 0.35871412976554368 0 -0.23365446698200781 0.35492018506547868 0 -0.23903966537243571 0.37694962875812998 0 -0.22253149404546699 0.37839605276415811 0 -0.23365446698200781 0.35492018506547868 0 -0.22253149404546699 0.37839605276415811 0 -0.23365446698200781 0.35492018506547868 0 -0.25210603837637863 0.35455916836988111 0 -0.23365446698200781 0.35492018506547868 0 -0.24477743991854939 0.33144431736679969 0 -0.25210603837637863 0.35455916836988111 0 -0.23903966537243571 0.37694962875812998 0 -0.23365446698200781 0.35492018506547868 0 -0.24477743991854939 0.33144431736679969 0 -0.22523870696700601 0.32641078453028533 0 -0.23640370787273771 0.30503305064336311 0 -0.25448036183916473 0.31096557372527822 0 -0.24477743991854939 0.33144431736679969 0 -0.23640370787273771 0.30503305064336311 0 -0.24477743991854939 0.33144431736679969 0 -0.23640370787273771 0.30503305064336311 0 -0.25448036183916473 0.31096557372527822 0 -0.24477743991854939 0.33144431736679969 0 -0.23365446698200781 0.35492018506547868 0 -0.24477743991854939 0.33144431736679969 0 -0.25210603837637863 0.35455916836988111 0 -0.24477743991854939 0.33144431736679969 0 -0.23365446698200781 0.35492018506547868 0 -0.24477743991854939 0.33144431736679969 0 -0.22523870696700601 0.32641078453028533 0 -0.23365446698200781 0.35492018506547868 0 -0.22523870696700601 0.32641078453028533 0 -0.21253572264954601 0.3399714199729591 0 -0.22523870696700601 0.32641078453028533 0 -0.2209050735348331 0.30802844187762501 0 -0.23640370787273771 0.30503305064336311 0 -0.22523870696700601 0.32641078453028533 0 -0.20216827665242831 0.31861456914272762 0 -0.2209050735348331 0.30802844187762501 0 -0.22523870696700601 0.32641078453028533 0 -0.21253572264954601 0.3399714199729591 0 -0.20216827665242831 0.31861456914272762 0 -0.1936910307083205 0.34119743136076042 0 -0.20216827665242831 0.31861456914272762 0 -0.21253572264954601 0.3399714199729591 0 -0.1936910307083205 0.34119743136076042 0 -0.20216827665242831 0.31861456914272762 0 -0.18710675461067949 0.3218780424838979 0 -0.1936910307083205 0.34119743136076042 0 -0.20216827665242831 0.31861456914272762 0 -0.18710675461067949 0.3218780424838979 0 -0.20216827665242831 0.31861456914272762 0 -0.19117256500449539 0.30059715378889779 0 -0.20216827665242831 0.31861456914272762 0 -0.19117256500449539 0.30059715378889779 0 -0.21064552259653599 0.29603170692469488 0 -0.19117256500449539 0.30059715378889779 0 -0.21064552259653599 0.29603170692469488 0 -0.2013362408056302 0.28046583387664098 0 -0.19117256500449539 0.30059715378889779 0 -0.2013362408056302 0.28046583387664098 0 -0.1833355415636902 0.28108632163293962 0 -0.21064552259653599 0.29603170692469488 0 -0.21912276854064389 0.2734488447066622 0 -0.2013362408056302 0.28046583387664098 0 -0.21064552259653599 0.29603170692469488 0 -0.2206495036588679 0.28863658084374039 0 -0.21912276854064389 0.2734488447066622 0 -0.21064552259653599 0.29603170692469488 0 -0.21912276854064389 0.2734488447066622 0 -0.20216827665242831 0.31861456914272762 0 -0.21064552259653599 0.29603170692469488 0 -0.21064552259653599 0.29603170692469488 0 -0.2209050735348331 0.30802844187762501 0 -0.2206495036588679 0.28863658084374039 0 -0.20216827665242831 0.31861456914272762 0 -0.21064552259653599 0.29603170692469488 0 -0.2209050735348331 0.30802844187762501 0 -0.2209050735348331 0.30802844187762501 0 -0.2206495036588679 0.28863658084374039 0 -0.23640370787273771 0.30503305064336311 0 -0.2206495036588679 0.28863658084374039 0 -0.23640370787273771 0.30503305064336311 0 -0.22802997582692541 0.2786217839199267 0 -0.23640370787273771 0.30503305064336311 0 -0.22802997582692541 0.2786217839199267 0 -0.2206495036588679 0.28863658084374039 0 -0.22802997582692541 0.2786217839199267 0 -0.22257924784774191 0.28020611831235631 0 -0.25012362875183491 0.2950850322426678 0 -0.2398606245012905 0.28908323302018429 0 -0.23640370787273771 0.30503305064336311 0 -0.2398606245012905 0.28908323302018429 0 -0.23640370787273771 0.30503305064336311 0 -0.22802997582692541 0.2786217839199267 0 -0.2398606245012905 0.28908323302018429 0 -0.24608302367879911 0.28619632235516351 0 -0.23866278637615529 0.28047997593980062 0 -0.2398606245012905 0.28908323302018429 0 -0.23866278637615529 0.28047997593980062 0 -0.22802997582692541 0.2786217839199267 0 -0.25522670604482972 0.28323008179088571 0 -0.24608302367879911 0.28619632235516351 0 -0.24580011426293311 0.27678205154970847 0 -0.25012362875183491 0.2950850322426678 0 -0.2398606245012905 0.28908323302018429 0 -0.24608302367879911 0.28619632235516351 0 -0.25448036183916473 0.31096557372527822 0 -0.25012362875183491 0.2950850322426678 0 -0.23640370787273771 0.30503305064336311 0 -0.25760887749593592 0.25495998211357801 0 -0.24121289446268329 0.25000371201541732 0 -0.2471844578364765 0.26475286809271081 0 -0.23636855241478849 0.26187269509802119 0 -0.24121289446268329 0.25000371201541732 0 -0.2471844578364765 0.26475286809271081 0 -0.23636855241478849 0.26187269509802119 0 -0.24121289446268329 0.25000371201541732 0 -0.22570189085183301 0.25592246719576289 0 -0.2471844578364765 0.26475286809271081 0 -0.24580011426293311 0.27678205154970847 0 -0.23878295577229419 0.27162713183452081 0 -0.25370649241833992 0.27359663318005562 0 -0.2471844578364765 0.26475286809271081 0 -0.24580011426293311 0.27678205154970847 0 -0.24608302367879911 0.28619632235516351 0 -0.24580011426293311 0.27678205154970847 0 -0.23866278637615529 0.28047997593980062 0 -0.24580011426293311 0.27678205154970847 0 -0.23866278637615529 0.28047997593980062 0 -0.23878295577229419 0.27162713183452081 0 -0.23866278637615529 0.28047997593980062 0 -0.23878295577229419 0.27162713183452081 0 -0.23224456482049499 0.27409764559845051 0 -0.23636855241478849 0.26187269509802119 0 -0.23878295577229419 0.27162713183452081 0 -0.2289605631506553 0.2670572963516944 0 -0.23636855241478849 0.26187269509802119 0 -0.2471844578364765 0.26475286809271081 0 -0.23878295577229419 0.27162713183452081 0 -0.23878295577229419 0.27162713183452081 0 -0.2289605631506553 0.2670572963516944 0 -0.23224456482049499 0.27409764559845051 0 -0.2289605631506553 0.2670572963516944 0 -0.23224456482049499 0.27409764559845051 0 -0.22605027201734029 0.27389678870717188 0 -0.23866278637615529 0.28047997593980062 0 -0.23224456482049499 0.27409764559845051 0 -0.22802997582692541 0.2786217839199267 0 -0.23224456482049499 0.27409764559845051 0 -0.22802997582692541 0.2786217839199267 0 -0.22605027201734029 0.27389678870717188 0 -0.2206495036588679 0.28863658084374039 0 -0.21912276854064389 0.2734488447066622 0 -0.22257924784774191 0.28020611831235631 0 -0.22802997582692541 0.2786217839199267 0 -0.22189348774798229 0.27625837295912592 0 -0.22257924784774191 0.28020611831235631 0 -0.22802997582692541 0.2786217839199267 0 -0.22605027201734029 0.27389678870717188 0 -0.22189348774798229 0.27625837295912592 0 -0.22605027201734029 0.27389678870717188 0 -0.21912276854064389 0.2734488447066622 0 -0.22189348774798229 0.27625837295912592 0 -0.21912276854064389 0.2734488447066622 0 -0.22189348774798229 0.27625837295912592 0 -0.22257924784774191 0.28020611831235631 0 -0.21912276854064389 0.2734488447066622 0 -0.22189348774798229 0.27625837295912592 0 -0.2289605631506553 0.2670572963516944 0 -0.22605027201734029 0.27389678870717188 0 -0.21912276854064389 0.2734488447066622 0 -0.2289605631506553 0.2670572963516944 0 -0.21912276854064389 0.2734488447066622 0 -0.22570189085183301 0.25592246719576289 0 -0.21912276854064389 0.2734488447066622 0 -0.22570189085183301 0.25592246719576289 0 -0.23636855241478849 0.26187269509802119 0 -0.2289605631506553 0.2670572963516944 0 -0.22570189085183301 0.25592246719576289 0 -0.21912276854064389 0.2734488447066622 0 -0.22570189085183301 0.25592246719576289 0 -0.20796868320901199 0.262138525787799 0 -0.22570189085183301 0.25592246719576289 0 -0.21307632774261889 0.2522390340512346 0 -0.20796868320901199 0.262138525787799 0 -0.21307632774261889 0.2522390340512346 0 -0.20796868320901199 0.262138525787799 0 -0.1968145978773769 0.25082820686893909 0 -0.21912276854064389 0.2734488447066622 0 -0.20796868320901199 0.262138525787799 0 -0.2013362408056302 0.28046583387664098 0 -0.21912276854064389 0.2734488447066622 0 -0.20796868320901199 0.262138525787799 0 -0.20796868320901199 0.262138525787799 0 -0.1926800079544683 0.26655382457033389 0 -0.2013362408056302 0.28046583387664098 0 -0.1926800079544683 0.26655382457033389 0 -0.2013362408056302 0.28046583387664098 0 -0.1833355415636902 0.28108632163293962 0 -0.1926800079544683 0.26655382457033389 0 -0.1968145978773769 0.25082820686893909 0 -0.17349535935259039 0.26086376788519172 0 -0.20796868320901199 0.262138525787799 0 -0.1926800079544683 0.26655382457033389 0 -0.1968145978773769 0.25082820686893909 0 -0.20796868320901199 0.262138525787799 0 -0.1968145978773769 0.25082820686893909 0 -0.1968145978773769 0.25082820686893909 0 -0.17349535935259039 0.26086376788519172 0 -0.1968145978773769 0.25082820686893909 0 -0.17349535935259039 0.26086376788519172 0 -0.17689255049902139 0.2485605765090477 0 -0.17349535935259039 0.26086376788519172 0 -0.16686518216044699 0.25204982426816269 0 -0.17689255049902139 0.2485605765090477 0 -0.17349535935259039 0.26086376788519172 0 -0.16686518216044699 0.25204982426816269 0 -0.1574094249489055 0.25732309248548901 0 -0.17349535935259039 0.26086376788519172 0 -0.1574094249489055 0.25732309248548901 0 -0.1501761208278031 0.27089932890144292 0 -0.16686518216044699 0.25204982426816269 0 -0.1574094249489055 0.25732309248548901 0 -0.15826470219308841 0.2493619880534178 0 -0.17349535935259039 0.26086376788519172 0 -0.1501761208278031 0.27089932890144292 0 -0.17349535935259039 0.26086376788519172 0 -0.16578507573448539 0.28284089244290023 0 -0.1501761208278031 0.27089932890144292 0 -0.17349535935259039 0.26086376788519172 0 -0.1833355415636902 0.28108632163293962 0 -0.16578507573448539 0.28284089244290023 0 -0.1926800079544683 0.26655382457033389 0 -0.17349535935259039 0.26086376788519172 0 -0.1833355415636902 0.28108632163293962 0 -0.19117256500449539 0.30059715378889779 0 -0.1833355415636902 0.28108632163293962 0 -0.17554400053047151 0.29519645723367333 0 -0.1833355415636902 0.28108632163293962 0 -0.17554400053047151 0.29519645723367333 0 -0.16578507573448539 0.28284089244290023 0 -0.18710675461067949 0.3218780424838979 0 -0.19117256500449539 0.30059715378889779 0 -0.17501434126782331 0.31179356718834772 0 -0.19117256500449539 0.30059715378889779 0 -0.17554400053047151 0.29519645723367333 0 -0.17501434126782331 0.31179356718834772 0 -0.15865395163249599 0.31716547195299077 0 -0.16237039016177551 0.3008394481854163 0 -0.15078835454142239 0.30659981577970841 0 -0.15865395163249599 0.31716547195299077 0 -0.17501434126782331 0.31179356718834772 0 -0.16237039016177551 0.3008394481854163 0 -0.17554400053047151 0.29519645723367333 0 -0.17501434126782331 0.31179356718834772 0 -0.16237039016177551 0.3008394481854163 0 -0.16237039016177551 0.3008394481854163 0 -0.16578507573448539 0.28284089244290023 0 -0.1508336704606264 0.29167182852984957 0 -0.17554400053047151 0.29519645723367333 0 -0.16237039016177551 0.3008394481854163 0 -0.16578507573448539 0.28284089244290023 0 -0.1508336704606264 0.29167182852984957 0 -0.13858713469711251 0.28754482286643301 0 -0.1501761208278031 0.27089932890144292 0 -0.16578507573448539 0.28284089244290023 0 -0.1508336704606264 0.29167182852984957 0 -0.1501761208278031 0.27089932890144292 0 -0.1508336704606264 0.29167182852984957 0 -0.13729494680115961 0.30130666300319681 0 -0.13858713469711251 0.28754482286643301 0 -0.16237039016177551 0.3008394481854163 0 -0.1508336704606264 0.29167182852984957 0 -0.15078835454142239 0.30659981577970841 0 -0.1508336704606264 0.29167182852984957 0 -0.15078835454142239 0.30659981577970841 0 -0.13729494680115961 0.30130666300319681 0 -0.14096551074205579 0.31526816691265408 0 -0.15078835454142239 0.30659981577970841 0 -0.13729494680115961 0.30130666300319681 0 -0.14096551074205579 0.31526816691265408 0 -0.13729494680115961 0.30130666300319681 0 -0.13037360798590419 0.30926279168836601 0 -0.13729494680115961 0.30130666300319681 0 -0.12660031894078611 0.30381250427552359 0 -0.1278493219562932 0.29507131592604358 0 -0.13729494680115961 0.30130666300319681 0 -0.12660031894078611 0.30381250427552359 0 -0.13037360798590419 0.30926279168836601 0 -0.12660031894078611 0.30381250427552359 0 -0.13037360798590419 0.30926279168836601 0 -0.12365668137363239 0.31055485054408111 0 -0.13729494680115961 0.30130666300319681 0 -0.13858713469711251 0.28754482286643301 0 -0.1278493219562932 0.29507131592604358 0 -0.13858713469711251 0.28754482286643301 0 -0.1278493219562932 0.29507131592604358 0 -0.1268568823030162 0.28093488991769477 0 -0.1329784544896532 0.26777257715934222 0 -0.1227340100917039 0.28270919037758507 0 -0.1268568823030162 0.28093488991769477 0 -0.1329784544896532 0.26777257715934222 0 -0.1227340100917039 0.28270919037758507 0 -0.1268568823030162 0.28093488991769477 0 -0.1329784544896532 0.26777257715934222 0 -0.1501761208278031 0.27089932890144292 0 -0.13858713469711251 0.28754482286643301 0 -0.1268568823030162 0.28093488991769477 0 -0.1501761208278031 0.27089932890144292 0 -0.1268568823030162 0.28093488991769477 0 -0.1329784544896532 0.26777257715934222 0 -0.1268568823030162 0.28093488991769477 0 -0.1501761208278031 0.27089932890144292 0 -0.1329784544896532 0.26777257715934222 0 -0.1193440581396574 0.26952055690357202 0 -0.1227340100917039 0.28270919037758507 0 -0.1329784544896532 0.26777257715934222 0 -0.1239766289256486 0.25630149127924817 0 -0.1193440581396574 0.26952055690357202 0 -0.1329784544896532 0.26777257715934222 0 -0.1446834173305456 0.24260512392355571 0 -0.1329784544896532 0.26777257715934222 0 -0.1239766289256486 0.25630149127924817 0 -0.1446834173305456 0.24260512392355571 0 -0.14695712701553029 0.2591875442742545 0 -0.1521511432026019 0.25275815155841619 0 -0.14987614569707911 0.24313539157442449 0 -0.1329784544896532 0.26777257715934222 0 -0.14695712701553029 0.2591875442742545 0 -0.14987614569707911 0.24313539157442449 0 -0.1329784544896532 0.26777257715934222 0 -0.1446834173305456 0.24260512392355571 0 -0.14987614569707911 0.24313539157442449 0 -0.1329784544896532 0.26777257715934222 0 -0.14987614569707911 0.24313539157442449 0 -0.1574094249489055 0.25732309248548901 0 -0.14695712701553029 0.2591875442742545 0 -0.1521511432026019 0.25275815155841619 0 -0.1574094249489055 0.25732309248548901 0 -0.1521511432026019 0.25275815155841619 0 -0.15826470219308841 0.2493619880534178 0 -0.1574094249489055 0.25732309248548901 0 -0.14695712701553029 0.2591875442742545 0 -0.1501761208278031 0.27089932890144292 0 -0.1329784544896532 0.26777257715934222 0 -0.14695712701553029 0.2591875442742545 0 -0.1501761208278031 0.27089932890144292 0 -0.1085909230709388 0.26862657891799191 0 -0.10246231749614761 0.27840941519456658 0 -0.10007231661457069 0.26949139540651562 0 -0.1085909230709388 0.26862657891799191 0 -0.10007231661457069 0.26949139540651562 0 -0.1048348686533539 0.25904847573724021 0 -0.1085909230709388 0.26862657891799191 0 -0.10246231749614761 0.27840941519456658 0 -0.1112060667723369 0.27864572209277921 0 -0.10246231749614761 0.27840941519456658 0 -0.10007231661457069 0.26949139540651562 0 -0.092413908714521778 0.28143029095144573 0 -0.10007231661457069 0.26949139540651562 0 -0.09483202311687966 0.26095692348813249 0 -0.090619023142522639 0.26867809676350041 0 -0.10007231661457069 0.26949139540651562 0 -0.092413908714521778 0.28143029095144573 0 -0.090619023142522639 0.26867809676350041 0 -0.10007231661457069 0.26949139540651562 0 -0.09483202311687966 0.26095692348813249 0 -0.1048348686533539 0.25904847573724021 0 -0.09483202311687966 0.26095692348813249 0 -0.0989158467765993 0.25309665145459631 0 -0.091386376909351821 0.25443773884270499 0 -0.09483202311687966 0.26095692348813249 0 -0.0989158467765993 0.25309665145459631 0 -0.1048348686533539 0.25904847573724021 0 -0.095077489632479514 0.25011447402696019 0 -0.0989158467765993 0.25309665145459631 0 -0.091386376909351821 0.25443773884270499 0 -0.10401631280426241 0.25144762901233048 0 -0.1048348686533539 0.25904847573724021 0 -0.1117718155164511 0.24958781315497869 0 -0.0989158467765993 0.25309665145459631 0 -0.10401631280426241 0.25144762901233048 0 -0.1048348686533539 0.25904847573724021 0 -0.1085909230709388 0.26862657891799191 0 -0.1048348686533539 0.25904847573724021 0 -0.11370365886120989 0.26061698319860621 0 -0.11370365886120989 0.26061698319860621 0 -0.1239766289256486 0.25630149127924817 0 -0.1117718155164511 0.24958781315497869 0 -0.1048348686533539 0.25904847573724021 0 -0.11370365886120989 0.26061698319860621 0 -0.1117718155164511 0.24958781315497869 0 -0.11370365886120989 0.26061698319860621 0 -0.1239766289256486 0.25630149127924817 0 -0.1193440581396574 0.26952055690357202 0 -0.1085909230709388 0.26862657891799191 0 -0.1193440581396574 0.26952055690357202 0 -0.1112060667723369 0.27864572209277921 0 -0.1085909230709388 0.26862657891799191 0 -0.11370365886120989 0.26061698319860621 0 -0.1193440581396574 0.26952055690357202 0 -0.1193440581396574 0.26952055690357202 0 -0.1112060667723369 0.27864572209277921 0 -0.1227340100917039 0.28270919037758507 0 -0.1227340100917039 0.28270919037758507 0 -0.11101426027963041 0.29979682960500692 0 -0.1162900219160489 0.30365524949962758 0 -0.1112060667723369 0.27864572209277921 0 -0.1227340100917039 0.28270919037758507 0 -0.096390878735101923 0.29404610010588839 0 -0.1268568823030162 0.28093488991769477 0 -0.1162900219160489 0.30365524949962758 0 -0.1227340100917039 0.28270919037758507 0 -0.11101426027963041 0.29979682960500692 0 -0.096390878735101923 0.29404610010588839 0 -0.1227340100917039 0.28270919037758507 0 -0.096390878735101923 0.29404610010588839 0 -0.1227340100917039 0.28270919037758507 0 -0.11101426027963041 0.29979682960500692 0 -0.1278493219562932 0.29507131592604358 0 -0.1268568823030162 0.28093488991769477 0 -0.1162900219160489 0.30365524949962758 0 -0.1268568823030162 0.28093488991769477 0 -0.1227340100917039 0.28270919037758507 0 -0.1268568823030162 0.28093488991769477 0 -0.1227340100917039 0.28270919037758507 0 -0.1162900219160489 0.30365524949962758 0 -0.12365668137363239 0.31055485054408111 0 -0.1162900219160489 0.30365524949962758 0 -0.1180268943239173 0.31829410888242188 0 -0.12660031894078611 0.30381250427552359 0 -0.12365668137363239 0.31055485054408111 0 -0.1162900219160489 0.30365524949962758 0 -0.12660031894078611 0.30381250427552359 0 -0.1278493219562932 0.29507131592604358 0 -0.1162900219160489 0.30365524949962758 0 -0.11101426027963041 0.29979682960500692 0 -0.1162900219160489 0.30365524949962758 0 -0.099294510467556482 0.31688446883242838 0 -0.11101426027963041 0.29979682960500692 0 -0.099294510467556482 0.31688446883242838 0 -0.11101426027963041 0.29979682960500692 0 -0.09863686681676595 0.30513172045865478 0 -0.099294510467556482 0.31688446883242838 0 -0.09863686681676595 0.30513172045865478 0 -0.096390878735101923 0.29404610010588839 0 -0.087847817784775004 0.30979948329129542 0 -0.11101426027963041 0.29979682960500692 0 -0.09863686681676595 0.30513172045865478 0 -0.096390878735101923 0.29404610010588839 0 -0.09863686681676595 0.30513172045865478 0 -0.087847817784775004 0.30979948329129542 0 -0.099294510467556482 0.31688446883242838 0 -0.10246231749614761 0.27840941519456658 0 -0.1112060667723369 0.27864572209277921 0 -0.096390878735101923 0.29404610010588839 0 -0.10246231749614761 0.27840941519456658 0 -0.096390878735101923 0.29404610010588839 0 -0.092413908714521778 0.28143029095144573 0 -0.096390878735101923 0.29404610010588839 0 -0.0700477473785001 0.3053830098341922 0 -0.077963392548513866 0.28544391258389579 0 -0.096390878735101923 0.29404610010588839 0 -0.092413908714521778 0.28143029095144573 0 -0.077963392548513866 0.28544391258389579 0 -0.096390878735101923 0.29404610010588839 0 -0.0700477473785001 0.3053830098341922 0 -0.096390878735101923 0.29404610010588839 0 -0.087847817784775004 0.30979948329129542 0 -0.0700477473785001 0.3053830098341922 0 -0.0700477473785001 0.3053830098341922 0 -0.077963392548513866 0.28544391258389579 0 -0.062374349663525792 0.28819124847839211 0 -0.077963392548513866 0.28544391258389579 0 -0.06691440103238902 0.27298732808871923 0 -0.062374349663525792 0.28819124847839211 0 -0.06691440103238902 0.27298732808871923 0 -0.081438811834068717 0.27178302595548232 0 -0.074650019815310123 0.26144764516129348 0 -0.077963392548513866 0.28544391258389579 0 -0.06691440103238902 0.27298732808871923 0 -0.081438811834068717 0.27178302595548232 0 -0.092413908714521778 0.28143029095144573 0 -0.077963392548513866 0.28544391258389579 0 -0.081438811834068717 0.27178302595548232 0 -0.081438811834068717 0.27178302595548232 0 -0.090619023142522639 0.26867809676350041 0 -0.084928098502876206 0.26055513695133647 0 -0.092413908714521778 0.28143029095144573 0 -0.081438811834068717 0.27178302595548232 0 -0.090619023142522639 0.26867809676350041 0 -0.091386376909351821 0.25443773884270499 0 -0.084928098502876206 0.26055513695133647 0 -0.084416520788166097 0.25294011364912 0 -0.091386376909351821 0.25443773884270499 0 -0.084416520788166097 0.25294011364912 0 -0.089176712133117161 0.24915300047066799 0 -0.095077489632479514 0.25011447402696019 0 -0.091386376909351821 0.25443773884270499 0 -0.089176712133117161 0.24915300047066799 0 -0.09483202311687966 0.26095692348813249 0 -0.091386376909351821 0.25443773884270499 0 -0.084928098502876206 0.26055513695133647 0 -0.09483202311687966 0.26095692348813249 0 -0.090619023142522639 0.26867809676350041 0 -0.084928098502876206 0.26055513695133647 0 -0.081438811834068717 0.27178302595548232 0 -0.084928098502876206 0.26055513695133647 0 -0.074650019815310123 0.26144764516129348 0 -0.084928098502876206 0.26055513695133647 0 -0.078186648915827134 0.25424420449284618 0 -0.074650019815310123 0.26144764516129348 0 -0.084928098502876206 0.26055513695133647 0 -0.078186648915827134 0.25424420449284618 0 -0.084416520788166097 0.25294011364912 0 -0.084416520788166097 0.25294011364912 0 -0.079741700521254677 0.24995608120041299 0 -0.08307958774656965 0.24929451993675139 0 -0.084416520788166097 0.25294011364912 0 -0.08307958774656965 0.24929451993675139 0 -0.089176712133117161 0.24915300047066799 0 -0.078186648915827134 0.25424420449284618 0 -0.084416520788166097 0.25294011364912 0 -0.079741700521254677 0.24995608120041299 0 -0.078186648915827134 0.25424420449284618 0 -0.070154031474147727 0.25102526399170239 0 -0.075703113864559829 0.24827353902808419 0 -0.078186648915827134 0.25424420449284618 0 -0.074650019815310123 0.26144764516129348 0 -0.070154031474147727 0.25102526399170239 0 -0.078186648915827134 0.25424420449284618 0 -0.075703113864559829 0.24827353902808419 0 -0.079741700521254677 0.24995608120041299 0 -0.06691440103238902 0.27298732808871923 0 -0.074650019815310123 0.26144764516129348 0 -0.063807910196970893 0.25949703243683381 0 -0.063807910196970893 0.25949703243683381 0 -0.070154031474147727 0.25102526399170239 0 -0.059783561539443392 0.25024809540601262 0 -0.074650019815310123 0.26144764516129348 0 -0.063807910196970893 0.25949703243683381 0 -0.070154031474147727 0.25102526399170239 0 -0.063807910196970893 0.25949703243683381 0 -0.059783561539443392 0.25024809540601262 0 -0.054204114564897377 0.25822405998516218 0 -0.063807910196970893 0.25949703243683381 0 -0.054204114564897377 0.25822405998516218 0 -0.055836023509068397 0.26642707041076502 0 -0.054204114564897377 0.25822405998516218 0 -0.055836023509068397 0.26642707041076502 0 -0.042808902760818383 0.26494481051508539 0 -0.059783561539443392 0.25024809540601262 0 -0.054204114564897377 0.25822405998516218 0 -0.048784174818185817 0.25000329115711462 0 -0.054204114564897377 0.25822405998516218 0 -0.048784174818185817 0.25000329115711462 0 -0.042808902760818383 0.26494481051508539 0 -0.06691440103238902 0.27298732808871923 0 -0.050034736884093392 0.27854565891126448 0 -0.062374349663525792 0.28819124847839211 0 -0.06691440103238902 0.27298732808871923 0 -0.055836023509068397 0.26642707041076502 0 -0.050034736884093392 0.27854565891126448 0 -0.06691440103238902 0.27298732808871923 0 -0.063807910196970893 0.25949703243683381 0 -0.055836023509068397 0.26642707041076502 0 -0.055836023509068397 0.26642707041076502 0 -0.050034736884093392 0.27854565891126448 0 -0.042808902760818383 0.26494481051508539 0 -0.050034736884093392 0.27854565891126448 0 -0.042808902760818383 0.26494481051508539 0 -0.028089582604041319 0.2789450395811004 0 -0.048784174818185817 0.25000329115711462 0 -0.042808902760818383 0.26494481051508539 0 -0.019988444069455762 0.25827971975216069 0 -0.048784174818185817 0.25000329115711462 0 -0.019988444069455762 0.25827971975216069 0 -0.034345102079151098 0.24187325480248789 0 -0.048784174818185817 0.25000329115711462 0 -0.019988444069455762 0.25827971975216069 0 -0.042808902760818383 0.26494481051508539 0 -0.019988444069455762 0.25827971975216069 0 -0.028089582604041319 0.2789450395811004 0 -0.019988444069455762 0.25827971975216069 0 -0.028089582604041319 0.2789450395811004 0 -0.0089844249806646306 0.27450082907846579 0 -0.0089844249806646306 0.27450082907846579 0 -0.0035745871881237069 0.29016526308647278 0 0.0036149251413673039 0.27841645479767602 0 -0.019988444069455762 0.25827971975216069 0 -0.0089844249806646306 0.27450082907846579 0 0.0088072866792743287 0.26655614834720681 0 -0.019988444069455762 0.25827971975216069 0 0.0029103859176947779 0.26210914935366419 0 0.0088072866792743287 0.26655614834720681 0 -0.019988444069455762 0.25827971975216069 0 0.0088072866792743287 0.26655614834720681 0 -0.019988444069455762 0.25827971975216069 0 -0.0062597745884404137 0.24669456694776759 0 0.0029103859176947779 0.26210914935366419 0 -0.010767779942919491 0.30356420991188787 0 -0.0035745871881237069 0.29016526308647278 0 0.0075070620371276344 0.29823244588183651 0 -0.010767779942919491 0.30356420991188787 0 0.0075070620371276344 0.29823244588183651 0 0.0019219012671535731 0.31061956462466661 0 -0.010767779942919491 0.30356420991188787 0 -0.016192513730158418 0.31778165004320202 0 -0.0073021246407942008 0.31319630379952018 0 -0.010767779942919491 0.30356420991188787 0 -0.0073021246407942008 0.31319630379952018 0 0.0019219012671535731 0.31061956462466661 0 -0.0089844249806646306 0.27450082907846579 0 -0.0035745871881237069 0.29016526308647278 0 -0.0173320766587724 0.29035771478580552 0 -0.010767779942919491 0.30356420991188787 0 -0.0035745871881237069 0.29016526308647278 0 -0.0173320766587724 0.29035771478580552 0 -0.028089582604041319 0.2789450395811004 0 -0.0173320766587724 0.29035771478580552 0 -0.03032754311704974 0.2992303676673001 0 -0.028089582604041319 0.2789450395811004 0 -0.0089844249806646306 0.27450082907846579 0 -0.0173320766587724 0.29035771478580552 0 -0.03032754311704974 0.2992303676673001 0 -0.027727099275115869 0.31488849798916679 0 -0.016192513730158418 0.31778165004320202 0 -0.03032754311704974 0.2992303676673001 0 -0.016192513730158418 0.31778165004320202 0 -0.010767779942919491 0.30356420991188787 0 -0.03032754311704974 0.2992303676673001 0 -0.016192513730158418 0.31778165004320202 0 -0.010767779942919491 0.30356420991188787 0 -0.0173320766587724 0.29035771478580552 0 -0.03032754311704974 0.2992303676673001 0 -0.03032754311704974 0.2992303676673001 0 -0.049884371790316767 0.29813269114781138 0 -0.043704616021898422 0.3167199195624959 0 -0.03032754311704974 0.2992303676673001 0 -0.043704616021898422 0.3167199195624959 0 -0.027727099275115869 0.31488849798916679 0 -0.050034736884093392 0.27854565891126448 0 -0.039584058598875302 0.2887134393268691 0 -0.049884371790316767 0.29813269114781138 0 -0.050034736884093392 0.27854565891126448 0 -0.028089582604041319 0.2789450395811004 0 -0.039584058598875302 0.2887134393268691 0 -0.028089582604041319 0.2789450395811004 0 -0.03032754311704974 0.2992303676673001 0 -0.039584058598875302 0.2887134393268691 0 -0.03032754311704974 0.2992303676673001 0 -0.039584058598875302 0.2887134393268691 0 -0.049884371790316767 0.29813269114781138 0 -0.050034736884093392 0.27854565891126448 0 -0.062374349663525792 0.28819124847839211 0 -0.049884371790316767 0.29813269114781138 0 -0.0700477473785001 0.3053830098341922 0 -0.043704616021898422 0.3167199195624959 0 -0.0700477473785001 0.3053830098341922 0 -0.049884371790316767 0.29813269114781138 0 -0.043704616021898422 0.3167199195624959 0 -0.0700477473785001 0.3053830098341922 0 -0.062374349663525792 0.28819124847839211 0 -0.049884371790316767 0.29813269114781138 0 -0.0700477473785001 0.3053830098341922 0 -0.051048554324746198 0.32939681600771142 0 -0.064808345213109506 0.33487120604827969 0 -0.0700477473785001 0.3053830098341922 0 -0.051048554324746198 0.32939681600771142 0 -0.043704616021898422 0.3167199195624959 0 -0.051048554324746198 0.32939681600771142 0 -0.046299454425035663 0.3512020623275105 0 -0.064808345213109506 0.33487120604827969 0 -0.051048554324746198 0.32939681600771142 0 -0.036194436115229878 0.33554351393262483 0 -0.046299454425035663 0.3512020623275105 0 -0.051048554324746198 0.32939681600771142 0 -0.036194436115229878 0.33554351393262483 0 -0.043704616021898422 0.3167199195624959 0 -0.036194436115229878 0.33554351393262483 0 -0.043704616021898422 0.3167199195624959 0 -0.017361484665296769 0.32805682929079971 0 -0.043704616021898422 0.3167199195624959 0 -0.027727099275115869 0.31488849798916679 0 -0.017361484665296769 0.32805682929079971 0 -0.043704616021898422 0.3167199195624959 0 -0.017361484665296769 0.32805682929079971 0 -0.027727099275115869 0.31488849798916679 0 -0.016192513730158418 0.31778165004320202 0 -0.017361484665296769 0.32805682929079971 0 -0.036194436115229878 0.33554351393262483 0 -0.023198157630917149 0.33902209206102601 0 -0.024545448327784668 0.3513851027554557 0 -0.036194436115229878 0.33554351393262483 0 -0.017361484665296769 0.32805682929079971 0 -0.023198157630917149 0.33902209206102601 0 -0.017361484665296769 0.32805682929079971 0 -0.023198157630917149 0.33902209206102601 0 -0.01469126141535727 0.34110292226522387 0 -0.017361484665296769 0.32805682929079971 0 -0.01469126141535727 0.34110292226522387 0 -0.002057484343267062 0.33633293241910378 0 -0.01469126141535727 0.34110292226522387 0 -0.002057484343267062 0.33633293241910378 0 -0.0046155988463842347 0.35315587578669161 0 -0.016192513730158418 0.31778165004320202 0 -0.002057484343267062 0.33633293241910378 0 -0.016192513730158418 0.31778165004320202 0 -0.017361484665296769 0.32805682929079971 0 -0.002057484343267062 0.33633293241910378 0 -0.002057484343267062 0.33633293241910378 0 -0.003661392589800307 0.32117461813571219 0 0.0052195423281692268 0.32077794563559481 0 -0.016192513730158418 0.31778165004320202 0 -0.002057484343267062 0.33633293241910378 0 -0.003661392589800307 0.32117461813571219 0 -0.003661392589800307 0.32117461813571219 0 -0.0073021246407942008 0.31319630379952018 0 0.0019219012671535731 0.31061956462466661 0 -0.016192513730158418 0.31778165004320202 0 -0.003661392589800307 0.32117461813571219 0 -0.0073021246407942008 0.31319630379952018 0 -0.014125080564913231 0.37389603655147158 0 -0.0046155988463842347 0.35315587578669161 0 0.0055407272730910043 0.37287867199166469 0 -0.014125080564913231 0.37389603655147158 0 -0.0046155988463842347 0.35315587578669161 0 -0.024545448327784668 0.3513851027554557 0 -0.01469126141535727 0.34110292226522387 0 -0.0046155988463842347 0.35315587578669161 0 -0.024545448327784668 0.3513851027554557 0 -0.023198157630917149 0.33902209206102601 0 -0.01469126141535727 0.34110292226522387 0 -0.024545448327784668 0.3513851027554557 0 -0.014125080564913231 0.37389603655147158 0 -0.024545448327784668 0.3513851027554557 0 -0.035978890345749241 0.37199686226672779 0 -0.035978890345749241 0.37199686226672779 0 -0.046299454425035663 0.3512020623275105 0 -0.05805976768060718 0.37603929804326808 0 -0.024545448327784668 0.3513851027554557 0 -0.035978890345749241 0.37199686226672779 0 -0.046299454425035663 0.3512020623275105 0 -0.036194436115229878 0.33554351393262483 0 -0.024545448327784668 0.3513851027554557 0 -0.046299454425035663 0.3512020623275105 0 -0.046299454425035663 0.3512020623275105 0 -0.065529441534174226 0.35654843053928448 0 -0.064808345213109506 0.33487120604827969 0 -0.046299454425035663 0.3512020623275105 0 -0.065529441534174226 0.35654843053928448 0 -0.05805976768060718 0.37603929804326808 0 -0.085072593449330339 0.36540669731928782 0 -0.065529441534174226 0.35654843053928448 0 -0.05805976768060718 0.37603929804326808 0 -0.085072593449330339 0.36540669731928782 0 -0.10187190735827591 0.36323960922925042 0 -0.093792907039136009 0.3833975144198235 0 -0.085072593449330339 0.36540669731928782 0 -0.090678723613590903 0.3374837940342405 0 -0.10187190735827591 0.36323960922925042 0 -0.085072593449330339 0.36540669731928782 0 -0.076427853305306506 0.34480489977851242 0 -0.090678723613590903 0.3374837940342405 0 -0.085072593449330339 0.36540669731928782 0 -0.090678723613590903 0.3374837940342405 0 -0.076427853305306506 0.34480489977851242 0 -0.065529441534174226 0.35654843053928448 0 -0.064808345213109506 0.33487120604827969 0 -0.085072593449330339 0.36540669731928782 0 -0.076427853305306506 0.34480489977851242 0 -0.065529441534174226 0.35654843053928448 0 -0.076427853305306506 0.34480489977851242 0 -0.064808345213109506 0.33487120604827969 0 -0.080718973761060575 0.32393980055808141 0 -0.0700477473785001 0.3053830098341922 0 -0.064808345213109506 0.33487120604827969 0 -0.080718973761060575 0.32393980055808141 0 -0.087847817784775004 0.30979948329129542 0 -0.0700477473785001 0.3053830098341922 0 -0.080718973761060575 0.32393980055808141 0 -0.087847817784775004 0.30979948329129542 0 -0.080718973761060575 0.32393980055808141 0 -0.094567614107987516 0.32700888103445108 0 -0.076427853305306506 0.34480489977851242 0 -0.080718973761060575 0.32393980055808141 0 -0.090678723613590903 0.3374837940342405 0 -0.080718973761060575 0.32393980055808141 0 -0.090678723613590903 0.3374837940342405 0 -0.094567614107987516 0.32700888103445108 0 -0.090678723613590903 0.3374837940342405 0 -0.10656332418560879 0.33481945154333448 0 -0.1106006664308877 0.34872334305459102 0 -0.090678723613590903 0.3374837940342405 0 -0.10656332418560879 0.33481945154333448 0 -0.094567614107987516 0.32700888103445108 0 -0.10656332418560879 0.33481945154333448 0 -0.094567614107987516 0.32700888103445108 0 -0.1057231615290805 0.32637560908155999 0 -0.10656332418560879 0.33481945154333448 0 -0.1057231615290805 0.32637560908155999 0 -0.1144577752066876 0.32830251846264819 0 -0.1162900219160489 0.30365524949962758 0 -0.099294510467556482 0.31688446883242838 0 -0.1057231615290805 0.32637560908155999 0 -0.087847817784775004 0.30979948329129542 0 -0.099294510467556482 0.31688446883242838 0 -0.094567614107987516 0.32700888103445108 0 -0.099294510467556482 0.31688446883242838 0 -0.094567614107987516 0.32700888103445108 0 -0.1057231615290805 0.32637560908155999 0 -0.1162900219160489 0.30365524949962758 0 -0.1057231615290805 0.32637560908155999 0 -0.1180268943239173 0.31829410888242188 0 -0.1162900219160489 0.30365524949962758 0 -0.1057231615290805 0.32637560908155999 0 -0.1057231615290805 0.32637560908155999 0 -0.1180268943239173 0.31829410888242188 0 -0.1144577752066876 0.32830251846264819 0 -0.12859811351865319 0.31806394890578898 0 -0.12357237534843921 0.32732441732210948 0 -0.1180268943239173 0.31829410888242188 0 -0.12357237534843921 0.32732441732210948 0 -0.1180268943239173 0.31829410888242188 0 -0.1144577752066876 0.32830251846264819 0 -0.12859811351865319 0.31806394890578898 0 -0.12365668137363239 0.31055485054408111 0 -0.1180268943239173 0.31829410888242188 0 -0.10656332418560879 0.33481945154333448 0 -0.11866281271380839 0.33636152093637378 0 -0.1106006664308877 0.34872334305459102 0 -0.10656332418560879 0.33481945154333448 0 -0.1144577752066876 0.32830251846264819 0 -0.11866281271380839 0.33636152093637378 0 -0.12357237534843921 0.32732441732210948 0 -0.1144577752066876 0.32830251846264819 0 -0.11866281271380839 0.33636152093637378 0 -0.12892385576854551 0.33954943627778522 0 -0.12357237534843921 0.32732441732210948 0 -0.11866281271380839 0.33636152093637378 0 -0.12892385576854551 0.33954943627778522 0 -0.11866281271380839 0.33636152093637378 0 -0.1232217038063005 0.35122250419899848 0 -0.11866281271380839 0.33636152093637378 0 -0.1232217038063005 0.35122250419899848 0 -0.1106006664308877 0.34872334305459102 0 -0.1232217038063005 0.35122250419899848 0 -0.1106006664308877 0.34872334305459102 0 -0.1182221704642743 0.36655747791265952 0 -0.1106006664308877 0.34872334305459102 0 -0.1182221704642743 0.36655747791265952 0 -0.10187190735827591 0.36323960922925042 0 -0.1182221704642743 0.36655747791265952 0 -0.10187190735827591 0.36323960922925042 0 -0.1101228385751576 0.38884084764759252 0 -0.1294365060122728 0.36362932685724608 0 -0.1232217038063005 0.35122250419899848 0 -0.1182221704642743 0.36655747791265952 0 -0.127778484495712 0.37269093911970153 0 -0.1182221704642743 0.36655747791265952 0 -0.12305257188854329 0.38047587744447242 0 -0.090678723613590903 0.3374837940342405 0 -0.1106006664308877 0.34872334305459102 0 -0.10187190735827591 0.36323960922925042 0 -0.1022886452664392 0.40542446799829968 0 -0.093792907039136009 0.3833975144198235 0 -0.087979263597736126 0.40290993388012131 0 -0.1022886452664392 0.40542446799829968 0 -0.093792907039136009 0.3833975144198235 0 -0.1101228385751576 0.38884084764759252 0 -0.10187190735827591 0.36323960922925042 0 -0.093792907039136009 0.3833975144198235 0 -0.1101228385751576 0.38884084764759252 0 -0.1182221704642743 0.36655747791265952 0 -0.1101228385751576 0.38884084764759252 0 -0.12305257188854329 0.38047587744447242 0 -0.1101228385751576 0.38884084764759252 0 -0.12305257188854329 0.38047587744447242 0 -0.1230102781205875 0.39160426028859469 0 -0.1022886452664392 0.40542446799829968 0 -0.1101228385751576 0.38884084764759252 0 -0.12467229804254321 0.41258419833157672 0 -0.1101228385751576 0.38884084764759252 0 -0.12467229804254321 0.41258419833157672 0 -0.1101228385751576 0.38884084764759252 0 -0.1230102781205875 0.39160426028859469 0 -0.12467229804254321 0.41258419833157672 0 -0.1022886452664392 0.40542446799829968 0 -0.12467229804254321 0.41258419833157672 0 -0.1091907404544219 0.42887454758586763 0 -0.12467229804254321 0.41258419833157672 0 -0.1091907404544219 0.42887454758586763 0 -0.1364404150512111 0.43178865947690731 0 -0.12467229804254321 0.41258419833157672 0 -0.1091907404544219 0.42887454758586763 0 -0.1364404150512111 0.43178865947690731 0 -0.1091907404544219 0.42887454758586763 0 -0.1210703445702655 0.44790393204536838 0 -0.1091907404544219 0.42887454758586763 0 -0.091318601999136606 0.43050110654722201 0 -0.093709182866300172 0.44516489684015809 0 -0.1091907404544219 0.42887454758586763 0 -0.090571978508815945 0.41622750626548721 0 -0.091318601999136606 0.43050110654722201 0 -0.1091907404544219 0.42887454758586763 0 -0.093709182866300172 0.44516489684015809 0 -0.1022886452664392 0.40542446799829968 0 -0.1091907404544219 0.42887454758586763 0 -0.090571978508815945 0.41622750626548721 0 -0.1022886452664392 0.40542446799829968 0 -0.090571978508815945 0.41622750626548721 0 -0.087979263597736126 0.40290993388012131 0 -0.078586139502075519 0.41495266683896159 0 -0.083145022426011406 0.42421270005333428 0 -0.073860333120809446 0.42125250388938268 0 -0.090571978508815945 0.41622750626548721 0 -0.078586139502075519 0.41495266683896159 0 -0.083145022426011406 0.42421270005333428 0 -0.090571978508815945 0.41622750626548721 0 -0.078586139502075519 0.41495266683896159 0 -0.087979263597736126 0.40290993388012131 0 -0.083145022426011406 0.42421270005333428 0 -0.073860333120809446 0.42125250388938268 0 -0.081388058999219789 0.4381297167256184 0 -0.090571978508815945 0.41622750626548721 0 -0.091318601999136606 0.43050110654722201 0 -0.083145022426011406 0.42421270005333428 0 -0.091318601999136606 0.43050110654722201 0 -0.083145022426011406 0.42421270005333428 0 -0.081388058999219789 0.4381297167256184 0 -0.073860333120809446 0.42125250388938268 0 -0.060716148192499257 0.4387746401193453 0 -0.073860333120809446 0.42125250388938268 0 -0.06859024224715074 0.44750166925958851 0 -0.081388058999219789 0.4381297167256184 0 -0.064468555581801867 0.42454073652497398 0 -0.073860333120809446 0.42125250388938268 0 -0.060716148192499257 0.4387746401193453 0 -0.073860333120809446 0.42125250388938268 0 -0.060716148192499257 0.4387746401193453 0 -0.06859024224715074 0.44750166925958851 0 -0.073860333120809446 0.42125250388938268 0 -0.06859024224715074 0.44750166925958851 0 -0.064468555581801867 0.42454073652497398 0 -0.060716148192499257 0.4387746401193453 0 -0.073860333120809446 0.42125250388938268 0 -0.079466463285069774 0.39332960060433508 0 -0.078586139502075519 0.41495266683896159 0 -0.073860333120809446 0.42125250388938268 0 -0.079466463285069774 0.39332960060433508 0 -0.073860333120809446 0.42125250388938268 0 -0.06334075517184154 0.4093915263539506 0 -0.079466463285069774 0.39332960060433508 0 -0.078586139502075519 0.41495266683896159 0 -0.073860333120809446 0.42125250388938268 0 -0.064468555581801867 0.42454073652497398 0 -0.073860333120809446 0.42125250388938268 0 -0.06334075517184154 0.4093915263539506 0 -0.06334075517184154 0.4093915263539506 0 -0.079466463285069774 0.39332960060433508 0 -0.05872328107221831 0.39446052786704289 0 -0.078586139502075519 0.41495266683896159 0 -0.079466463285069774 0.39332960060433508 0 -0.087979263597736126 0.40290993388012131 0 -0.093792907039136009 0.3833975144198235 0 -0.079466463285069774 0.39332960060433508 0 -0.087979263597736126 0.40290993388012131 0 -0.085072593449330339 0.36540669731928782 0 -0.093792907039136009 0.3833975144198235 0 -0.079466463285069774 0.39332960060433508 0 -0.085072593449330339 0.36540669731928782 0 -0.079466463285069774 0.39332960060433508 0 -0.079466463285069774 0.39332960060433508 0 -0.05805976768060718 0.37603929804326808 0 -0.05872328107221831 0.39446052786704289 0 -0.085072593449330339 0.36540669731928782 0 -0.079466463285069774 0.39332960060433508 0 -0.05805976768060718 0.37603929804326808 0 -0.05805976768060718 0.37603929804326808 0 -0.05872328107221831 0.39446052786704289 0 -0.043588496513897262 0.39034750926269762 0 -0.06334075517184154 0.4093915263539506 0 -0.05872328107221831 0.39446052786704289 0 -0.049168868152421941 0.40581709979357078 0 -0.05872328107221831 0.39446052786704289 0 -0.049168868152421941 0.40581709979357078 0 -0.043588496513897262 0.39034750926269762 0 -0.031305963393989777 0.40619224531501441 0 -0.043588496513897262 0.39034750926269762 0 -0.02829420843839716 0.38757902229056168 0 -0.049168868152421941 0.40581709979357078 0 -0.031305963393989777 0.40619224531501441 0 -0.043588496513897262 0.39034750926269762 0 -0.035978890345749241 0.37199686226672779 0 -0.05805976768060718 0.37603929804326808 0 -0.043588496513897262 0.39034750926269762 0 -0.035978890345749241 0.37199686226672779 0 -0.043588496513897262 0.39034750926269762 0 -0.02829420843839716 0.38757902229056168 0 -0.014125080564913231 0.37389603655147158 0 -0.02829420843839716 0.38757902229056168 0 -0.01488515235523085 0.39405434461675182 0 -0.014125080564913231 0.37389603655147158 0 -0.035978890345749241 0.37199686226672779 0 -0.02829420843839716 0.38757902229056168 0 -0.031305963393989777 0.40619224531501441 0 -0.02829420843839716 0.38757902229056168 0 -0.01488515235523085 0.39405434461675182 0 -0.031305963393989777 0.40619224531501441 0 -0.01488515235523085 0.39405434461675182 0 -0.01426725041891337 0.40861320565395809 0 -0.01488515235523085 0.39405434461675182 0 0.00021319624375416989 0.38951694631222428 0 0.0029869861225532341 0.4045249183689904 0 -0.01488515235523085 0.39405434461675182 0 -0.01426725041891337 0.40861320565395809 0 0.0029869861225532341 0.4045249183689904 0 -0.014125080564913231 0.37389603655147158 0 0.00021319624375416989 0.38951694631222428 0 0.0055407272730910043 0.37287867199166469 0 -0.014125080564913231 0.37389603655147158 0 -0.01488515235523085 0.39405434461675182 0 0.00021319624375416989 0.38951694631222428 0 -0.0012252832230208561 0.4371263677764447 0 -0.014176983293302669 0.42908580794885143 0 -0.0063201798071254173 0.41931395890268031 0 -0.0012252832230208561 0.4371263677764447 0 -0.014176983293302669 0.42908580794885143 0 -0.017193002532518889 0.44265689841794731 0 -0.0012252832230208561 0.4371263677764447 0 -0.0063201798071254173 0.41931395890268031 0 0.0059080310226450614 0.42217165303392262 0 -0.014176983293302669 0.42908580794885143 0 -0.0063201798071254173 0.41931395890268031 0 -0.02104787021901168 0.41880203520902048 0 -0.0063201798071254173 0.41931395890268031 0 -0.01426725041891337 0.40861320565395809 0 0.0029869861225532341 0.4045249183689904 0 -0.0063201798071254173 0.41931395890268031 0 -0.01426725041891337 0.40861320565395809 0 -0.02104787021901168 0.41880203520902048 0 -0.031305963393989777 0.40619224531501441 0 -0.01426725041891337 0.40861320565395809 0 -0.02104787021901168 0.41880203520902048 0 -0.031305963393989777 0.40619224531501441 0 -0.02104787021901168 0.41880203520902048 0 -0.032557336175629281 0.42380711766750639 0 -0.024630428793025658 0.43372327857464982 0 -0.032557336175629281 0.42380711766750639 0 -0.033981557668445822 0.44258925253660342 0 -0.02104787021901168 0.41880203520902048 0 -0.024630428793025658 0.43372327857464982 0 -0.032557336175629281 0.42380711766750639 0 -0.014176983293302669 0.42908580794885143 0 -0.02104787021901168 0.41880203520902048 0 -0.024630428793025658 0.43372327857464982 0 -0.014176983293302669 0.42908580794885143 0 -0.024630428793025658 0.43372327857464982 0 -0.017193002532518889 0.44265689841794731 0 -0.032557336175629281 0.42380711766750639 0 -0.045618786548617583 0.42836689621898699 0 -0.033981557668445822 0.44258925253660342 0 -0.032557336175629281 0.42380711766750639 0 -0.045618786548617583 0.42836689621898699 0 -0.042443756947888447 0.41667195638916282 0 -0.045618786548617583 0.42836689621898699 0 -0.047812310746173863 0.44082164053146389 0 -0.033981557668445822 0.44258925253660342 0 -0.049168868152421941 0.40581709979357078 0 -0.031305963393989777 0.40619224531501441 0 -0.042443756947888447 0.41667195638916282 0 -0.031305963393989777 0.40619224531501441 0 -0.032557336175629281 0.42380711766750639 0 -0.042443756947888447 0.41667195638916282 0 -0.049168868152421941 0.40581709979357078 0 -0.042443756947888447 0.41667195638916282 0 -0.053567830468783662 0.41917642295073548 0 -0.045618786548617583 0.42836689621898699 0 -0.042443756947888447 0.41667195638916282 0 -0.053567830468783662 0.41917642295073548 0 -0.064468555581801867 0.42454073652497398 0 -0.06334075517184154 0.4093915263539506 0 -0.053567830468783662 0.41917642295073548 0 -0.06334075517184154 0.4093915263539506 0 -0.049168868152421941 0.40581709979357078 0 -0.053567830468783662 0.41917642295073548 0 -0.045618786548617583 0.42836689621898699 0 -0.055141807433105573 0.43028525754817909 0 -0.047812310746173863 0.44082164053146389 0 -0.055141807433105573 0.43028525754817909 0 -0.060716148192499257 0.4387746401193453 0 -0.047812310746173863 0.44082164053146389 0 -0.045618786548617583 0.42836689621898699 0 -0.053567830468783662 0.41917642295073548 0 -0.055141807433105573 0.43028525754817909 0 -0.064468555581801867 0.42454073652497398 0 -0.053567830468783662 0.41917642295073548 0 -0.055141807433105573 0.43028525754817909 0 -0.064468555581801867 0.42454073652497398 0 -0.055141807433105573 0.43028525754817909 0 -0.060716148192499257 0.4387746401193453 0 -0.060716148192499257 0.4387746401193453 0 -0.055335977501078687 0.45918309341289648 0 -0.060716148192499257 0.4387746401193453 0 -0.055335977501078687 0.45918309341289648 0 -0.044032148145857111 0.46101560243632278 0 -0.060716148192499257 0.4387746401193453 0 -0.044032148145857111 0.46101560243632278 0 -0.060716148192499257 0.4387746401193453 0 -0.047812310746173863 0.44082164053146389 0 -0.044032148145857111 0.46101560243632278 0 -0.060716148192499257 0.4387746401193453 0 -0.055335977501078687 0.45918309341289648 0 -0.06859024224715074 0.44750166925958851 0 -0.055335977501078687 0.45918309341289648 0 -0.063320151373492298 0.47375083462979428 0 -0.06859024224715074 0.44750166925958851 0 -0.055335977501078687 0.45918309341289648 0 -0.044032148145857111 0.46101560243632278 0 -0.049955806809657687 0.4795915467064476 0 -0.047812310746173863 0.44082164053146389 0 -0.044032148145857111 0.46101560243632278 0 -0.033981557668445822 0.44258925253660342 0 -0.033981557668445822 0.44258925253660342 0 -0.017193002532518889 0.44265689841794731 0 -0.014300370873853521 0.46018372283103193 0 -0.024630428793025658 0.43372327857464982 0 -0.033981557668445822 0.44258925253660342 0 -0.017193002532518889 0.44265689841794731 0 -0.044032148145857111 0.46101560243632278 0 -0.014300370873853521 0.46018372283103193 0 -0.027348148099215461 0.48325656475330048 0 -0.044032148145857111 0.46101560243632278 0 -0.033981557668445822 0.44258925253660342 0 -0.014300370873853521 0.46018372283103193 0 -0.0012252832230208561 0.4371263677764447 0 -0.014300370873853521 0.46018372283103193 0 -0.0012252832230208561 0.4371263677764447 0 -0.014300370873853521 0.46018372283103193 0 0.01369004266474102 0.45764255309210577 0 -0.0012252832230208561 0.4371263677764447 0 -0.017193002532518889 0.44265689841794731 0 -0.014300370873853521 0.46018372283103193 0 -0.0093200033469937882 0.5 0 -0.027348148099215461 0.48325656475330048 0 0.0014917528058618059 0.47938453985530888 0 -0.014300370873853521 0.46018372283103193 0 -0.027348148099215461 0.48325656475330048 0 0.0014917528058618059 0.47938453985530888 0 -0.014300370873853521 0.46018372283103193 0 -0.027348148099215461 0.48325656475330048 0 -0.0093200033469937882 0.5 0 -0.027348148099215461 0.48325656475330048 0 -0.036878906559391487 0.50000000000000044 0 -0.027348148099215461 0.48325656475330048 0 -0.036878906559391487 0.50000000000000044 0 -0.049955806809657687 0.4795915467064476 0 -0.027348148099215461 0.48325656475330048 0 -0.036878906559391487 0.50000000000000044 0 -0.036878906559391487 0.50000000000000044 0 -0.044575636118236991 0.49999999999999878 0 -0.049955806809657687 0.4795915467064476 0 -0.044032148145857111 0.46101560243632278 0 -0.027348148099215461 0.48325656475330048 0 -0.049955806809657687 0.4795915467064476 0 -0.044032148145857111 0.46101560243632278 0 -0.027348148099215461 0.48325656475330048 0 -0.055335977501078687 0.45918309341289648 0 -0.049955806809657687 0.4795915467064476 0 -0.055335977501078687 0.45918309341289648 0 -0.049955806809657687 0.4795915467064476 0 -0.063320151373492298 0.47375083462979428 0 -0.058050060499833772 0.50000000000000022 0 -0.063320151373492298 0.47375083462979428 0 -0.044575636118236991 0.49999999999999878 0 -0.049955806809657687 0.4795915467064476 0 -0.049955806809657687 0.4795915467064476 0 -0.058050060499833772 0.50000000000000022 0 -0.063320151373492298 0.47375083462979428 0 -0.044575636118236991 0.49999999999999878 0 -0.049955806809657687 0.4795915467064476 0 -0.058050060499833772 0.50000000000000022 0 -0.058050060499833772 0.50000000000000022 0 -0.08809729193837168 0.5 0 -0.077191687730213926 0.48268153420508331 0 -0.058050060499833772 0.50000000000000022 0 -0.063320151373492298 0.47375083462979428 0 -0.077191687730213926 0.48268153420508331 0 -0.08809729193837168 0.5 0 -0.077191687730213926 0.48268153420508331 0 -0.098263309561193432 0.47820159030117371 0 -0.077191687730213926 0.48268153420508331 0 -0.078227625278178475 0.4614552460944486 0 -0.098263309561193432 0.47820159030117371 0 -0.063320151373492298 0.47375083462979428 0 -0.077191687730213926 0.48268153420508331 0 -0.078227625278178475 0.4614552460944486 0 -0.063320151373492298 0.47375083462979428 0 -0.06859024224715074 0.44750166925958851 0 -0.063320151373492298 0.47375083462979428 0 -0.06859024224715074 0.44750166925958851 0 -0.078227625278178475 0.4614552460944486 0 -0.06859024224715074 0.44750166925958851 0 -0.081388058999219789 0.4381297167256184 0 -0.078227625278178475 0.4614552460944486 0 -0.081388058999219789 0.4381297167256184 0 -0.093709182866300172 0.44516489684015809 0 -0.078227625278178475 0.4614552460944486 0 -0.091318601999136606 0.43050110654722201 0 -0.081388058999219789 0.4381297167256184 0 -0.093709182866300172 0.44516489684015809 0 -0.093709182866300172 0.44516489684015809 0 -0.078227625278178475 0.4614552460944486 0 -0.093709182866300172 0.44516489684015809 0 -0.078227625278178475 0.4614552460944486 0 -0.10549080490447631 0.45969184410820019 0 -0.078227625278178475 0.4614552460944486 0 -0.10549080490447631 0.45969184410820019 0 -0.098263309561193432 0.47820159030117371 0 -0.093709182866300172 0.44516489684015809 0 -0.10549080490447631 0.45969184410820019 0 -0.1210703445702655 0.44790393204536838 0 -0.1091907404544219 0.42887454758586763 0 -0.093709182866300172 0.44516489684015809 0 -0.1210703445702655 0.44790393204536838 0 -0.10549080490447631 0.45969184410820019 0 -0.1210703445702655 0.44790393204536838 0 -0.11953230362418241 0.47195934598914452 0 -0.11953230362418241 0.47195934598914452 0 -0.1181445233769096 0.5 0 -0.098263309561193432 0.47820159030117371 0 -0.13602657262403481 0.48349583756215792 0 -0.11953230362418241 0.47195934598914452 0 -0.1181445233769096 0.5 0 -0.08809729193837168 0.5 0 -0.1181445233769096 0.5 0 -0.098263309561193432 0.47820159030117371 0 -0.10549080490447631 0.45969184410820019 0 -0.11953230362418241 0.47195934598914452 0 -0.098263309561193432 0.47820159030117371 0 -0.16166252147307811 0.072994580555162475 0 -0.1861559421883483 0.087953025187073347 0 -0.1636392091083799 0.095364080082510863 0 -0.16166252147307811 0.072994580555162475 0 -0.18208847170877501 0.063988314452462197 0 -0.16551346889016361 0.053296611104083333 0 -0.16166252147307811 0.072994580555162475 0 -0.18208847170877501 0.063988314452462197 0 -0.1861559421883483 0.087953025187073347 0 -0.16166252147307811 0.072994580555162475 0 -0.1861559421883483 0.087953025187073347 0 -0.1861559421883483 0.087953025187073347 0 -0.18127459484805611 0.1040757331739406 0 -0.1636392091083799 0.095364080082510863 0 -0.18127459484805611 0.1040757331739406 0 -0.18357388106489361 0.1163475086609268 0 -0.16678377392412741 0.114105936447557 0 -0.18357388106489361 0.1163475086609268 0 -0.16678377392412741 0.114105936447557 0 -0.17659592672432381 0.1282032668436818 0 -0.18357388106489361 0.1163475086609268 0 -0.18928433163375721 0.12870458802269191 0 -0.17659592672432381 0.1282032668436818 0 -0.18127459484805611 0.1040757331739406 0 -0.18357388106489361 0.1163475086609268 0 -0.19127319521830641 0.10966672470294531 0 -0.16678377392412741 0.114105936447557 0 -0.16483911995528461 0.12815067393965601 0 -0.17659592672432381 0.1282032668436818 0 -0.16678377392412741 0.114105936447557 0 -0.1515529173508707 0.1240700751676026 0 -0.16483911995528461 0.12815067393965601 0 -0.16678377392412741 0.114105936447557 0 -0.1636392091083799 0.095364080082510863 0 -0.14408694591991819 0.1076948353586062 0 -0.18127459484805611 0.1040757331739406 0 -0.16678377392412741 0.114105936447557 0 -0.1636392091083799 0.095364080082510863 0 -0.1636392091083799 0.095364080082510863 0 -0.14408694591991819 0.1076948353586062 0 -0.1424146838009345 0.085731467942166337 0 -0.16678377392412741 0.114105936447557 0 -0.14408694591991819 0.1076948353586062 0 -0.1515529173508707 0.1240700751676026 0 -0.14408694591991819 0.1076948353586062 0 -0.1515529173508707 0.1240700751676026 0 -0.13595424735371209 0.1247234506388072 0 -0.13595424735371209 0.1247234506388072 0 -0.1208034154229443 0.13044854550697749 0 -0.1227641955874489 0.1115855065486925 0 -0.14408694591991819 0.1076948353586062 0 -0.13595424735371209 0.1247234506388072 0 -0.1227641955874489 0.1115855065486925 0 -0.14408694591991819 0.1076948353586062 0 -0.1271504528479396 0.095425347850228423 0 -0.1424146838009345 0.085731467942166337 0 -0.14408694591991819 0.1076948353586062 0 -0.1271504528479396 0.095425347850228423 0 -0.1227641955874489 0.1115855065486925 0 -0.1271504528479396 0.095425347850228423 0 -0.1424146838009345 0.085731467942166337 0 -0.1218304021615899 0.077731979792593761 0 -0.16166252147307811 0.072994580555162475 0 -0.1636392091083799 0.095364080082510863 0 -0.1424146838009345 0.085731467942166337 0 -0.16166252147307811 0.072994580555162475 0 -0.13716910075780789 0.058036135923251457 0 -0.16166252147307811 0.072994580555162475 0 -0.1424146838009345 0.085731467942166337 0 -0.13716910075780789 0.058036135923251457 0 -0.1424146838009345 0.085731467942166337 0 -0.13716910075780789 0.058036135923251457 0 -0.1218304021615899 0.077731979792593761 0 -0.13716910075780789 0.058036135923251457 0 -0.1218304021615899 0.077731979792593761 0 -0.13716910075780789 0.058036135923251457 0 -0.1160745561544011 0.045153428311541281 0 -0.13716910075780789 0.058036135923251457 0 -0.13322610351056571 0.039631976870515208 0 -0.1160745561544011 0.045153428311541281 0 -0.13716910075780789 0.058036135923251457 0 -0.13322610351056571 0.039631976870515208 0 -0.15297476781074701 0.037740675485541691 0 -0.13322610351056571 0.039631976870515208 0 -0.15297476781074701 0.037740675485541691 0 -0.1407156287999099 0.021113955067819622 0 -0.13716910075780789 0.058036135923251457 0 -0.15297476781074701 0.037740675485541691 0 -0.16551346889016361 0.053296611104083333 0 -0.16166252147307811 0.072994580555162475 0 -0.13716910075780789 0.058036135923251457 0 -0.16551346889016361 0.053296611104083333 0 -0.13716910075780789 0.058036135923251457 0 -0.15297476781074701 0.037740675485541691 0 -0.1407156287999099 0.021113955067819622 0 -0.14889000309009101 0.00072237580605188456 0 -0.12483296450371829 0.0042944719630943241 0 -0.1407156287999099 0.021113955067819622 0 -0.12483296450371829 0.0042944719630943241 0 -0.1153164096044406 0.02614741966070426 0 -0.13322610351056571 0.039631976870515208 0 -0.1407156287999099 0.021113955067819622 0 -0.1153164096044406 0.02614741966070426 0 -0.15297476781074701 0.037740675485541691 0 -0.1407156287999099 0.021113955067819622 0 -0.16878043486368599 0.01744521504783204 0 -0.1407156287999099 0.021113955067819622 0 -0.14889000309009101 0.00072237580605188456 0 -0.16878043486368599 0.01744521504783204 0 -0.17065618491538839 -0.0026151246944228139 0 -0.14889000309009101 0.00072237580605188456 0 -0.16878043486368599 0.01744521504783204 0 -0.15297476781074701 0.037740675485541691 0 -0.16878043486368599 0.01744521504783204 0 -0.16878043486368599 0.01744521504783204 0 -0.1795792462517827 0.041818000333755677 0 -0.18891438056107451 0.02385204542892503 0 -0.17065618491538839 -0.0026151246944228139 0 -0.16878043486368599 0.01744521504783204 0 -0.187178956341786 0.005394432984028804 0 -0.16878043486368599 0.01744521504783204 0 -0.187178956341786 0.005394432984028804 0 -0.18891438056107451 0.02385204542892503 0 -0.15297476781074701 0.037740675485541691 0 -0.16878043486368599 0.01744521504783204 0 -0.1795792462517827 0.041818000333755677 0 -0.15297476781074701 0.037740675485541691 0 -0.16551346889016361 0.053296611104083333 0 -0.1795792462517827 0.041818000333755677 0 -0.18208847170877501 0.063988314452462197 0 -0.16551346889016361 0.053296611104083333 0 -0.1795792462517827 0.041818000333755677 0 -0.18208847170877501 0.063988314452462197 0 -0.1795792462517827 0.041818000333755677 0 -0.1972476516074517 0.053022901212862163 0 -0.1795792462517827 0.041818000333755677 0 -0.1972476516074517 0.053022901212862163 0 -0.2051402138161344 0.035936701462028327 0 -0.1795792462517827 0.041818000333755677 0 -0.2051402138161344 0.035936701462028327 0 -0.18891438056107451 0.02385204542892503 0 -0.1972476516074517 0.053022901212862163 0 -0.2051402138161344 0.035936701462028327 0 -0.21906561027015131 0.050461549119341281 0 -0.21906561027015131 0.050461549119341281 0 -0.200364715990415 0.072909940696723297 0 -0.1972476516074517 0.053022901212862163 0 -0.21906561027015131 0.050461549119341281 0 -0.200364715990415 0.072909940696723297 0 -0.2051402138161344 0.035936701462028327 0 -0.20862816007811191 0.01436957770344683 0 -0.2377665045498876 0.028013157541959259 0 -0.20748422491642321 -0.0099107992156447638 0 -0.187178956341786 0.005394432984028804 0 -0.20862816007811191 0.01436957770344683 0 -0.187178956341786 0.005394432984028804 0 -0.18891438056107451 0.02385204542892503 0 -0.20862816007811191 0.01436957770344683 0 -0.2051402138161344 0.035936701462028327 0 -0.18891438056107451 0.02385204542892503 0 -0.20862816007811191 0.01436957770344683 0 -0.20748422491642321 -0.0099107992156447638 0 -0.20862816007811191 0.01436957770344683 0 -0.2280162795440209 0.00094182137733508128 0 -0.20862816007811191 0.01436957770344683 0 -0.2280162795440209 0.00094182137733508128 0 -0.2377665045498876 0.028013157541959259 0 -0.25646739882962399 0.0055647659645772299 0 -0.2377665045498876 0.028013157541959259 0 -0.25646739882962399 0.0055647659645772299 0 -0.2280162795440209 0.00094182137733508128 0 -0.2377665045498876 0.028013157541959259 0 -0.2051402138161344 0.035936701462028327 0 -0.2377665045498876 0.028013157541959259 0 -0.21906561027015131 0.050461549119341281 0 -0.21906561027015131 0.050461549119341281 0 -0.23079615185685831 0.060614218970900191 0 -0.21853329662787921 0.068231593594189066 0 -0.21906561027015131 0.050461549119341281 0 -0.23079615185685831 0.060614218970900191 0 -0.24125131776758291 0.046094712329836821 0 -0.2377665045498876 0.028013157541959259 0 -0.21906561027015131 0.050461549119341281 0 -0.2377665045498876 0.028013157541959259 0 -0.21906561027015131 0.050461549119341281 0 -0.24125131776758291 0.046094712329836821 0 -0.26149433036992947 0.028104568545064729 0 -0.2377665045498876 0.028013157541959259 0 -0.24125131776758291 0.046094712329836821 0 -0.23079615185685831 0.060614218970900191 0 -0.24125131776758291 0.046094712329836821 0 -0.24549481882380511 0.063302455876250885 0 -0.25799649903461741 0.049369362609172331 0 -0.24125131776758291 0.046094712329836821 0 -0.24549481882380511 0.063302455876250885 0 -0.23079615185685831 0.060614218970900191 0 -0.24549481882380511 0.063302455876250885 0 -0.22963571579487271 0.074980783934882916 0 -0.24549481882380511 0.063302455876250885 0 -0.2460012691044387 0.080363072349872125 0 -0.22963571579487271 0.074980783934882916 0 -0.25503092647099379 0.069875955615951335 0 -0.24549481882380511 0.063302455876250885 0 -0.2460012691044387 0.080363072349872125 0 -0.2460012691044387 0.080363072349872125 0 -0.22832531600402819 0.091637271084430066 0 -0.2460012691044387 0.080363072349872125 0 -0.22832531600402819 0.091637271084430066 0 -0.24308723687433231 0.095287870509487199 0 -0.2460012691044387 0.080363072349872125 0 -0.22832531600402819 0.091637271084430066 0 -0.22963571579487271 0.074980783934882916 0 -0.25346460396090092 0.088833757568607716 0 -0.2460012691044387 0.080363072349872125 0 -0.24308723687433231 0.095287870509487199 0 -0.22832531600402819 0.091637271084430066 0 -0.22963571579487271 0.074980783934882916 0 -0.21182750870783429 0.084782578047833623 0 -0.22963571579487271 0.074980783934882916 0 -0.21853329662787921 0.068231593594189066 0 -0.21182750870783429 0.084782578047833623 0 -0.23079615185685831 0.060614218970900191 0 -0.22963571579487271 0.074980783934882916 0 -0.21853329662787921 0.068231593594189066 0 -0.21906561027015131 0.050461549119341281 0 -0.21853329662787921 0.068231593594189066 0 -0.200364715990415 0.072909940696723297 0 -0.21853329662787921 0.068231593594189066 0 -0.21182750870783429 0.084782578047833623 0 -0.200364715990415 0.072909940696723297 0 -0.22832531600402819 0.091637271084430066 0 -0.21182750870783429 0.084782578047833623 0 -0.21064936290361691 0.1029114698189869 0 -0.1861559421883483 0.087953025187073347 0 -0.21182750870783429 0.084782578047833623 0 -0.200364715990415 0.072909940696723297 0 -0.1861559421883483 0.087953025187073347 0 -0.21182750870783429 0.084782578047833623 0 -0.21064936290361691 0.1029114698189869 0 -0.18208847170877501 0.063988314452462197 0 -0.1972476516074517 0.053022901212862163 0 -0.200364715990415 0.072909940696723297 0 -0.18208847170877501 0.063988314452462197 0 -0.1861559421883483 0.087953025187073347 0 -0.200364715990415 0.072909940696723297 0 -0.19577395087429281 0.1167150256071267 0 -0.19979094164805619 0.10928025989107799 0 -0.20760555920320309 0.1144524242194566 0 -0.19577395087429281 0.1167150256071267 0 -0.19127319521830641 0.10966672470294531 0 -0.19979094164805619 0.10928025989107799 0 -0.19577395087429281 0.1167150256071267 0 -0.18928433163375721 0.12870458802269191 0 -0.20344757381587081 0.12595760698798369 0 -0.19577395087429281 0.1167150256071267 0 -0.20760555920320309 0.1144524242194566 0 -0.20344757381587081 0.12595760698798369 0 -0.18357388106489361 0.1163475086609268 0 -0.19577395087429281 0.1167150256071267 0 -0.18928433163375721 0.12870458802269191 0 -0.18357388106489361 0.1163475086609268 0 -0.19577395087429281 0.1167150256071267 0 -0.19127319521830641 0.10966672470294531 0 -0.18127459484805611 0.1040757331739406 0 -0.19127319521830641 0.10966672470294531 0 -0.1959526076562334 0.1019150961816543 0 -0.1861559421883483 0.087953025187073347 0 -0.18127459484805611 0.1040757331739406 0 -0.1959526076562334 0.1019150961816543 0 -0.1861559421883483 0.087953025187073347 0 -0.21064936290361691 0.1029114698189869 0 -0.1861559421883483 0.087953025187073347 0 -0.1959526076562334 0.1019150961816543 0 -0.21064936290361691 0.1029114698189869 0 -0.19127319521830641 0.10966672470294531 0 -0.19979094164805619 0.10928025989107799 0 -0.1959526076562334 0.1019150961816543 0 -0.19979094164805619 0.10928025989107799 0 -0.1959526076562334 0.1019150961816543 0 -0.20808043536019721 0.104550000963231 0 -0.20808043536019721 0.104550000963231 0 -0.21064936290361691 0.1029114698189869 0 -0.20760555920320309 0.1144524242194566 0 -0.1959526076562334 0.1019150961816543 0 -0.20808043536019721 0.104550000963231 0 -0.21064936290361691 0.1029114698189869 0 -0.20808043536019721 0.104550000963231 0 -0.21064936290361691 0.1029114698189869 0 -0.21064936290361691 0.1029114698189869 0 -0.20760555920320309 0.1144524242194566 0 -0.21672466927304071 0.1180005634043214 0 -0.19979094164805619 0.10928025989107799 0 -0.20808043536019721 0.104550000963231 0 -0.20760555920320309 0.1144524242194566 0 -0.20760555920320309 0.1144524242194566 0 -0.21672466927304071 0.1180005634043214 0 -0.20344757381587081 0.12595760698798369 0 -0.21064936290361691 0.1029114698189869 0 -0.23228752360476199 0.11612617071956741 0 -0.21064936290361691 0.1029114698189869 0 -0.21672466927304071 0.1180005634043214 0 -0.23228752360476199 0.11612617071956741 0 -0.22832531600402819 0.091637271084430066 0 -0.21064936290361691 0.1029114698189869 0 -0.22832531600402819 0.091637271084430066 0 -0.21064936290361691 0.1029114698189869 0 -0.23228752360476199 0.11612617071956741 0 -0.25696442734096347 0.101505970596828 0 -0.24308723687433231 0.095287870509487199 0 -0.249237848705259 0.11660028365418799 0 -0.22832531600402819 0.091637271084430066 0 -0.23228752360476199 0.11612617071956741 0 -0.24308723687433231 0.095287870509487199 0 -0.23228752360476199 0.11612617071956741 0 -0.24308723687433231 0.095287870509487199 0 -0.249237848705259 0.11660028365418799 0 -0.25144432090369467 0.13342534154184049 0 -0.23228752360476199 0.11612617071956741 0 -0.249237848705259 0.11660028365418799 0 -0.25144432090369467 0.13342534154184049 0 -0.23228752360476199 0.11612617071956741 0 -0.22849338415933809 0.14106985777848849 0 -0.21672466927304071 0.1180005634043214 0 -0.23228752360476199 0.11612617071956741 0 -0.22849338415933809 0.14106985777848849 0 -0.21672466927304071 0.1180005634043214 0 -0.22849338415933809 0.14106985777848849 0 -0.21107935452219201 0.13755234874685679 0 -0.22849338415933809 0.14106985777848849 0 -0.22513648822661839 0.17107392415183281 0 -0.21327997619484909 0.15110081103201309 0 -0.25007303640024908 0.1591338238152824 0 -0.25144432090369467 0.13342534154184049 0 -0.22849338415933809 0.14106985777848849 0 -0.25007303640024908 0.1591338238152824 0 -0.24062041860344829 0.18086303909261409 0 -0.22513648822661839 0.17107392415183281 0 -0.25007303640024908 0.1591338238152824 0 -0.22513648822661839 0.17107392415183281 0 -0.25007303640024908 0.1591338238152824 0 -0.22849338415933809 0.14106985777848849 0 -0.22513648822661839 0.17107392415183281 0 -0.2281055171443292 0.18494202755913419 0 -0.22513648822661839 0.17107392415183281 0 -0.21565969360481479 0.190201644708578 0 -0.24062041860344829 0.18086303909261409 0 -0.2281055171443292 0.18494202755913419 0 -0.22513648822661839 0.17107392415183281 0 -0.22513648822661839 0.17107392415183281 0 -0.20019994005298769 0.1830140244883833 0 -0.19906646154706881 0.15926058790104941 0 -0.22513648822661839 0.17107392415183281 0 -0.19906646154706881 0.15926058790104941 0 -0.21327997619484909 0.15110081103201309 0 -0.22513648822661839 0.17107392415183281 0 -0.20019994005298769 0.1830140244883833 0 -0.22513648822661839 0.17107392415183281 0 -0.20019994005298769 0.1830140244883833 0 -0.21565969360481479 0.190201644708578 0 -0.20019994005298769 0.1830140244883833 0 -0.18755162254627811 0.1713747998054258 0 -0.18441662521678309 0.18206070960823911 0 -0.20019994005298769 0.1830140244883833 0 -0.19906646154706881 0.15926058790104941 0 -0.18755162254627811 0.1713747998054258 0 -0.19906646154706881 0.15926058790104941 0 -0.18755162254627811 0.1713747998054258 0 -0.1836354572988588 0.16053827793789369 0 -0.19906646154706881 0.15926058790104941 0 -0.18797148236981651 0.15129222383576529 0 -0.1836354572988588 0.16053827793789369 0 -0.19906646154706881 0.15926058790104941 0 -0.18797148236981651 0.15129222383576529 0 -0.19758957081558789 0.14225162046129461 0 -0.18797148236981651 0.15129222383576529 0 -0.19758957081558789 0.14225162046129461 0 -0.18306863355845601 0.14166570163035619 0 -0.19758957081558789 0.14225162046129461 0 -0.18928433163375721 0.12870458802269191 0 -0.20344757381587081 0.12595760698798369 0 -0.19758957081558789 0.14225162046129461 0 -0.18928433163375721 0.12870458802269191 0 -0.18306863355845601 0.14166570163035619 0 -0.19758957081558789 0.14225162046129461 0 -0.21107935452219201 0.13755234874685679 0 -0.20344757381587081 0.12595760698798369 0 -0.21672466927304071 0.1180005634043214 0 -0.21107935452219201 0.13755234874685679 0 -0.20344757381587081 0.12595760698798369 0 -0.19758957081558789 0.14225162046129461 0 -0.21107935452219201 0.13755234874685679 0 -0.21327997619484909 0.15110081103201309 0 -0.22849338415933809 0.14106985777848849 0 -0.21107935452219201 0.13755234874685679 0 -0.21327997619484909 0.15110081103201309 0 -0.19906646154706881 0.15926058790104941 0 -0.19758957081558789 0.14225162046129461 0 -0.21327997619484909 0.15110081103201309 0 -0.22570189085183301 0.25592246719576289 0 -0.23228101316302249 0.23839608968486389 0 -0.22570189085183301 0.25592246719576289 0 -0.22182013903225359 0.24006693635243731 0 -0.22445802149564709 0.23998013670196189 0 -0.24121289446268329 0.25000371201541732 0 -0.22570189085183301 0.25592246719576289 0 -0.23228101316302249 0.23839608968486389 0 -0.22570189085183301 0.25592246719576289 0 -0.22445802149564709 0.23998013670196189 0 -0.23228101316302249 0.23839608968486389 0 -0.22570189085183301 0.25592246719576289 0 -0.21307632774261889 0.2522390340512346 0 -0.22182013903225359 0.24006693635243731 0 -0.22182013903225359 0.24006693635243731 0 -0.22769262284582051 0.23753968103209461 0 -0.22182013903225359 0.24006693635243731 0 -0.22445802149564709 0.23998013670196189 0 -0.22769262284582051 0.23753968103209461 0 -0.22182013903225359 0.24006693635243731 0 -0.22445802149564709 0.23998013670196189 0 -0.22445802149564709 0.23998013670196189 0 -0.22769262284582051 0.23753968103209461 0 -0.23228101316302249 0.23839608968486389 0 -0.22769262284582051 0.23753968103209461 0 -0.23228101316302249 0.23839608968486389 0 -0.22769262284582051 0.23753968103209461 0 -0.23354850455227991 0.23501957051876521 0 -0.23228101316302249 0.23839608968486389 0 -0.22769262284582051 0.23753968103209461 0 -0.23354850455227991 0.23501957051876521 0 -0.23354850455227991 0.23501957051876521 0 -0.23228101316302249 0.23839608968486389 0 -0.25373058837607149 0.24239958558230729 0 -0.23354850455227991 0.23501957051876521 0 -0.23228101316302249 0.23839608968486389 0 -0.25373058837607149 0.24239958558230729 0 -0.23228101316302249 0.23839608968486389 0 -0.25373058837607149 0.24239958558230729 0 -0.24121289446268329 0.25000371201541732 0 -0.23228101316302249 0.23839608968486389 0 -0.25553602082765797 0.22555712340915129 0 -0.23354850455227991 0.23501957051876521 0 -0.2468055528499199 0.2211533892087075 0 -0.23354850455227991 0.23501957051876521 0 -0.24139464356294579 0.21411793838613891 0 -0.25553602082765797 0.22555712340915129 0 -0.25373058837607149 0.24239958558230729 0 -0.23354850455227991 0.23501957051876521 0 -0.23354850455227991 0.23501957051876521 0 -0.2291234931273555 0.22140841526585639 0 -0.24139464356294579 0.21411793838613891 0 -0.25553602082765797 0.22555712340915129 0 -0.23354850455227991 0.23501957051876521 0 -0.23354850455227991 0.23501957051876521 0 -0.2468055528499199 0.2211533892087075 0 -0.24139464356294579 0.21411793838613891 0 -0.22769262284582051 0.23753968103209461 0 -0.23354850455227991 0.23501957051876521 0 -0.2241775277936309 0.22890718905651791 0 -0.23354850455227991 0.23501957051876521 0 -0.2291234931273555 0.22140841526585639 0 -0.2241775277936309 0.22890718905651791 0 -0.22769262284582051 0.23753968103209461 0 -0.2241775277936309 0.22890718905651791 0 -0.2151063721123937 0.2290235307674936 0 -0.2291234931273555 0.22140841526585639 0 -0.2241775277936309 0.22890718905651791 0 -0.21544181283632249 0.22074939012838701 0 -0.23024108680945329 0.2084609771070558 0 -0.23100546814243519 0.19762950228351189 0 -0.20659986166266289 0.20464412751081501 0 -0.2203515636089485 0.2138157275030288 0 -0.23024108680945329 0.2084609771070558 0 -0.20659986166266289 0.20464412751081501 0 -0.2291234931273555 0.22140841526585639 0 -0.2203515636089485 0.2138157275030288 0 -0.21544181283632249 0.22074939012838701 0 -0.2291234931273555 0.22140841526585639 0 -0.23024108680945329 0.2084609771070558 0 -0.24139464356294579 0.21411793838613891 0 -0.2291234931273555 0.22140841526585639 0 -0.2203515636089485 0.2138157275030288 0 -0.23024108680945329 0.2084609771070558 0 -0.25388231195624389 0.21227782670329551 0 -0.23024108680945329 0.2084609771070558 0 -0.245120142501527 0.2007740595365167 0 -0.25388231195624389 0.21227782670329551 0 -0.23024108680945329 0.2084609771070558 0 -0.24139464356294579 0.21411793838613891 0 -0.25388231195624389 0.21227782670329551 0 -0.23024108680945329 0.2084609771070558 0 -0.25388231195624389 0.21227782670329551 0 -0.2468055528499199 0.2211533892087075 0 -0.24139464356294579 0.21411793838613891 0 -0.23024108680945329 0.2084609771070558 0 -0.245120142501527 0.2007740595365167 0 -0.23100546814243519 0.19762950228351189 0 -0.25541107462220769 0.19061487705621011 0 -0.24062041860344829 0.18086303909261409 0 -0.23100546814243519 0.19762950228351189 0 -0.25541107462220769 0.19061487705621011 0 -0.245120142501527 0.2007740595365167 0 -0.23100546814243519 0.19762950228351189 0 -0.25541107462220769 0.19061487705621011 0 -0.23100546814243519 0.19762950228351189 0 -0.24062041860344829 0.18086303909261409 0 -0.2281055171443292 0.18494202755913419 0 -0.23100546814243519 0.19762950228351189 0 -0.23100546814243519 0.19762950228351189 0 -0.20659986166266289 0.20464412751081501 0 -0.2281055171443292 0.18494202755913419 0 -0.23100546814243519 0.19762950228351189 0 -0.21565969360481479 0.190201644708578 0 -0.23100546814243519 0.19762950228351189 0 -0.21565969360481479 0.190201644708578 0 -0.20659986166266289 0.20464412751081501 0 -0.20019994005298769 0.1830140244883833 0 -0.21565969360481479 0.190201644708578 0 -0.20659986166266289 0.20464412751081501 0 -0.20019994005298769 0.1830140244883833 0 -0.17526339187935711 0.19495412482493371 0 -0.20019994005298769 0.1830140244883833 0 -0.19062892292833331 0.20206563715419551 0 -0.17526339187935711 0.19495412482493371 0 -0.20019994005298769 0.1830140244883833 0 -0.19062892292833331 0.20206563715419551 0 -0.20659986166266289 0.20464412751081501 0 -0.19062892292833331 0.20206563715419551 0 -0.20659986166266289 0.20464412751081501 0 -0.19062892292833331 0.20206563715419551 0 -0.20659986166266289 0.20464412751081501 0 -0.18504411141280089 0.21083965105256289 0 -0.20659986166266289 0.20464412751081501 0 -0.20178820295352909 0.2191565126747666 0 -0.18504411141280089 0.21083965105256289 0 -0.20659986166266289 0.20464412751081501 0 -0.18504411141280089 0.21083965105256289 0 -0.2203515636089485 0.2138157275030288 0 -0.20659986166266289 0.20464412751081501 0 -0.21544181283632249 0.22074939012838701 0 -0.23024108680945329 0.2084609771070558 0 -0.20659986166266289 0.20464412751081501 0 -0.20659986166266289 0.20464412751081501 0 -0.21544181283632249 0.22074939012838701 0 -0.20178820295352909 0.2191565126747666 0 -0.22769262284582051 0.23753968103209461 0 -0.2151063721123937 0.2290235307674936 0 -0.20011367338970981 0.23239215666824589 0 -0.21544181283632249 0.22074939012838701 0 -0.2151063721123937 0.2290235307674936 0 -0.20810622369648371 0.22552923695221991 0 -0.2241775277936309 0.22890718905651791 0 -0.21544181283632249 0.22074939012838701 0 -0.2151063721123937 0.2290235307674936 0 -0.2151063721123937 0.2290235307674936 0 -0.20810622369648371 0.22552923695221991 0 -0.20011367338970981 0.23239215666824589 0 -0.21544181283632249 0.22074939012838701 0 -0.20810622369648371 0.22552923695221991 0 -0.20178820295352909 0.2191565126747666 0 -0.20810622369648371 0.22552923695221991 0 -0.20178820295352909 0.2191565126747666 0 -0.20011367338970981 0.23239215666824589 0 -0.20178820295352909 0.2191565126747666 0 -0.18993447654355849 0.22654181649617491 0 -0.20011367338970981 0.23239215666824589 0 -0.20178820295352909 0.2191565126747666 0 -0.18993447654355849 0.22654181649617491 0 -0.18504411141280089 0.21083965105256289 0 -0.18993447654355849 0.22654181649617491 0 -0.20011367338970981 0.23239215666824589 0 -0.18732147625352211 0.24120211652543139 0 -0.20011367338970981 0.23239215666824589 0 -0.2045708076428879 0.24063452643893379 0 -0.18732147625352211 0.24120211652543139 0 -0.1968145978773769 0.25082820686893909 0 -0.2045708076428879 0.24063452643893379 0 -0.18732147625352211 0.24120211652543139 0 -0.2045708076428879 0.24063452643893379 0 -0.18732147625352211 0.24120211652543139 0 -0.1968145978773769 0.25082820686893909 0 -0.18732147625352211 0.24120211652543139 0 -0.22182013903225359 0.24006693635243731 0 -0.20011367338970981 0.23239215666824589 0 -0.2045708076428879 0.24063452643893379 0 -0.22769262284582051 0.23753968103209461 0 -0.20011367338970981 0.23239215666824589 0 -0.21307632774261889 0.2522390340512346 0 -0.1968145978773769 0.25082820686893909 0 -0.22182013903225359 0.24006693635243731 0 -0.22182013903225359 0.24006693635243731 0 -0.22769262284582051 0.23753968103209461 0 -0.20011367338970981 0.23239215666824589 0 -0.1968145978773769 0.25082820686893909 0 -0.22182013903225359 0.24006693635243731 0 -0.22182013903225359 0.24006693635243731 0 -0.2045708076428879 0.24063452643893379 0 -0.1968145978773769 0.25082820686893909 0 -0.22182013903225359 0.24006693635243731 0 -0.2045708076428879 0.24063452643893379 0 -0.15826470219308841 0.2493619880534178 0 -0.16600244679203391 0.2419036202244931 0 -0.14987614569707911 0.24313539157442449 0 -0.16600244679203391 0.2419036202244931 0 -0.16279185556780171 0.22963976946544321 0 -0.1446834173305456 0.24260512392355571 0 -0.16686518216044699 0.25204982426816269 0 -0.15826470219308841 0.2493619880534178 0 -0.16600244679203391 0.2419036202244931 0 -0.16686518216044699 0.25204982426816269 0 -0.16600244679203391 0.2419036202244931 0 -0.17689255049902139 0.2485605765090477 0 -0.16600244679203391 0.2419036202244931 0 -0.18732147625352211 0.24120211652543139 0 -0.1754049187082305 0.22911864555987049 0 -0.16600244679203391 0.2419036202244931 0 -0.18732147625352211 0.24120211652543139 0 -0.16600244679203391 0.2419036202244931 0 -0.17689255049902139 0.2485605765090477 0 -0.18732147625352211 0.24120211652543139 0 -0.1968145978773769 0.25082820686893909 0 -0.17689255049902139 0.2485605765090477 0 -0.18732147625352211 0.24120211652543139 0 -0.18732147625352211 0.24120211652543139 0 -0.1754049187082305 0.22911864555987049 0 -0.18993447654355849 0.22654181649617491 0 -0.1754049187082305 0.22911864555987049 0 -0.18504411141280089 0.21083965105256289 0 -0.1754049187082305 0.22911864555987049 0 -0.16348836116293849 0.2170351745943099 0 -0.18504411141280089 0.21083965105256289 0 -0.18993447654355849 0.22654181649617491 0 -0.18732147625352211 0.24120211652543139 0 -0.1754049187082305 0.22911864555987049 0 -0.1754049187082305 0.22911864555987049 0 -0.16348836116293849 0.2170351745943099 0 -0.1754049187082305 0.22911864555987049 0 -0.16279185556780171 0.22963976946544321 0 -0.16348836116293849 0.2170351745943099 0 -0.16600244679203391 0.2419036202244931 0 -0.1754049187082305 0.22911864555987049 0 -0.16279185556780171 0.22963976946544321 0 -0.16279185556780171 0.22963976946544321 0 -0.16348836116293849 0.2170351745943099 0 -0.15550893591048001 0.21932860982288069 0 -0.15798577660055191 0.2114555161617013 0 -0.1663796099236319 0.20633413055447791 0 -0.1503268437057266 0.20689422516148401 0 -0.16348836116293849 0.2170351745943099 0 -0.15798577660055191 0.2114555161617013 0 -0.1663796099236319 0.20633413055447791 0 -0.16348836116293849 0.2170351745943099 0 -0.15550893591048001 0.21932860982288069 0 -0.16348836116293849 0.2170351745943099 0 -0.15815022440435431 0.21364943718855339 0 -0.15550893591048001 0.21932860982288069 0 -0.16348836116293849 0.2170351745943099 0 -0.15798577660055191 0.2114555161617013 0 -0.15815022440435431 0.21364943718855339 0 -0.15550893591048001 0.21932860982288069 0 -0.16348836116293849 0.2170351745943099 0 -0.15815022440435431 0.21364943718855339 0 -0.15798577660055191 0.2114555161617013 0 -0.15815022440435431 0.21364943718855339 0 -0.15798577660055191 0.2114555161617013 0 -0.15288426609493369 0.21366467637416861 0 -0.16348836116293849 0.2170351745943099 0 -0.1663796099236319 0.20633413055447791 0 -0.1760397979243418 0.20715234803062471 0 -0.16348836116293849 0.2170351745943099 0 -0.18504411141280089 0.21083965105256289 0 -0.16348836116293849 0.2170351745943099 0 -0.18504411141280089 0.21083965105256289 0 -0.1760397979243418 0.20715234803062471 0 -0.19062892292833331 0.20206563715419551 0 -0.18504411141280089 0.21083965105256289 0 -0.1760397979243418 0.20715234803062471 0 -0.1663796099236319 0.20633413055447791 0 -0.1760397979243418 0.20715234803062471 0 -0.17465798419400369 0.1994871467975749 0 -0.19062892292833331 0.20206563715419551 0 -0.17465798419400369 0.1994871467975749 0 -0.1663796099236319 0.20633413055447791 0 -0.17465798419400369 0.1994871467975749 0 -0.17526339187935711 0.19495412482493371 0 -0.19062892292833331 0.20206563715419551 0 -0.1760397979243418 0.20715234803062471 0 -0.17465798419400369 0.1994871467975749 0 -0.19062892292833331 0.20206563715419551 0 -0.17465798419400369 0.1994871467975749 0 -0.17526339187935711 0.19495412482493371 0 -0.17526339187935711 0.19495412482493371 0 -0.16902917607854639 0.18894578600749831 0 -0.17453358552089801 0.18511763185208041 0 -0.17526339187935711 0.19495412482493371 0 -0.1503268437057266 0.20689422516148401 0 -0.17526339187935711 0.19495412482493371 0 -0.16902917607854639 0.18894578600749831 0 -0.16291619109816599 0.19447073782673069 0 -0.17526339187935711 0.19495412482493371 0 -0.16291619109816599 0.19447073782673069 0 -0.1503268437057266 0.20689422516148401 0 -0.1663796099236319 0.20633413055447791 0 -0.17526339187935711 0.19495412482493371 0 -0.1503268437057266 0.20689422516148401 0 -0.16902917607854639 0.18894578600749831 0 -0.1634445208479246 0.18845471543748579 0 -0.16291619109816599 0.19447073782673069 0 -0.15651702297927539 0.19310483770225159 0 -0.16291619109816599 0.19447073782673069 0 -0.1503268437057266 0.20689422516148401 0 -0.15651702297927539 0.19310483770225159 0 -0.1634445208479246 0.18845471543748579 0 -0.15905624143787919 0.18423140550003189 0 -0.15651702297927539 0.19310483770225159 0 -0.1634445208479246 0.18845471543748579 0 -0.16291619109816599 0.19447073782673069 0 -0.15651702297927539 0.19310483770225159 0 -0.15019564108658859 0.187676511875952 0 -0.15905624143787919 0.18423140550003189 0 -0.15651702297927539 0.19310483770225159 0 -0.15019564108658859 0.187676511875952 0 -0.14834422751698501 0.19629848013854481 0 -0.15651702297927539 0.19310483770225159 0 -0.14834422751698501 0.19629848013854481 0 -0.1503268437057266 0.20689422516148401 0 -0.14834422751698501 0.19629848013854481 0 -0.1411850618066019 0.1992049785081316 0 -0.1503268437057266 0.20689422516148401 0 -0.14834422751698501 0.19629848013854481 0 -0.1411850618066019 0.1992049785081316 0 -0.14197703456466171 0.19185913860191861 0 -0.15019564108658859 0.187676511875952 0 -0.14834422751698501 0.19629848013854481 0 -0.14197703456466171 0.19185913860191861 0 -0.14197703456466171 0.19185913860191861 0 -0.1307370076634132 0.19503909982980169 0 -0.13375019195767021 0.1860746249282425 0 -0.1307370076634132 0.19503909982980169 0 -0.13375019195767021 0.1860746249282425 0 -0.1232272681784138 0.18403051190972661 0 -0.1307370076634132 0.19503909982980169 0 -0.1345401955822228 0.20593394880890889 0 -0.1238155723186708 0.20729653177227181 0 -0.1307370076634132 0.19503909982980169 0 -0.1238155723186708 0.20729653177227181 0 -0.1205556404033593 0.19595861508897239 0 -0.1411850618066019 0.1992049785081316 0 -0.1307370076634132 0.19503909982980169 0 -0.1345401955822228 0.20593394880890889 0 -0.1411850618066019 0.1992049785081316 0 -0.14197703456466171 0.19185913860191861 0 -0.1307370076634132 0.19503909982980169 0 -0.14244954985355529 0.2169955935362233 0 -0.1503268437057266 0.20689422516148401 0 -0.1253902955320961 0.21883432549803439 0 -0.1503268437057266 0.20689422516148401 0 -0.1253902955320961 0.21883432549803439 0 -0.1345401955822228 0.20593394880890889 0 -0.1503268437057266 0.20689422516148401 0 -0.1253902955320961 0.21883432549803439 0 -0.1345401955822228 0.20593394880890889 0 -0.1253902955320961 0.21883432549803439 0 -0.1238155723186708 0.20729653177227181 0 -0.1411850618066019 0.1992049785081316 0 -0.1345401955822228 0.20593394880890889 0 -0.1503268437057266 0.20689422516148401 0 -0.15798577660055191 0.2114555161617013 0 -0.1503268437057266 0.20689422516148401 0 -0.15288426609493369 0.21366467637416861 0 -0.14244954985355529 0.2169955935362233 0 -0.15288426609493369 0.21366467637416861 0 -0.15550893591048001 0.21932860982288069 0 -0.14244954985355529 0.2169955935362233 0 -0.1503268437057266 0.20689422516148401 0 -0.15288426609493369 0.21366467637416861 0 -0.15815022440435431 0.21364943718855339 0 -0.15288426609493369 0.21366467637416861 0 -0.15550893591048001 0.21932860982288069 0 -0.15550893591048001 0.21932860982288069 0 -0.1446834173305456 0.24260512392355571 0 -0.15550893591048001 0.21932860982288069 0 -0.12915367268660741 0.22690360266051221 0 -0.15550893591048001 0.21932860982288069 0 -0.12915367268660741 0.22690360266051221 0 -0.1446834173305456 0.24260512392355571 0 -0.14244954985355529 0.2169955935362233 0 -0.15550893591048001 0.21932860982288069 0 -0.12915367268660741 0.22690360266051221 0 -0.16279185556780171 0.22963976946544321 0 -0.15550893591048001 0.21932860982288069 0 -0.1446834173305456 0.24260512392355571 0 -0.14244954985355529 0.2169955935362233 0 -0.12915367268660741 0.22690360266051221 0 -0.1253902955320961 0.21883432549803439 0 -0.1239766289256486 0.25630149127924817 0 -0.1446834173305456 0.24260512392355571 0 -0.1226130688005956 0.24333134981303239 0 -0.1446834173305456 0.24260512392355571 0 -0.1226130688005956 0.24333134981303239 0 -0.12915367268660741 0.22690360266051221 0 -0.1446834173305456 0.24260512392355571 0 -0.1226130688005956 0.24333134981303239 0 -0.16600244679203391 0.2419036202244931 0 -0.1446834173305456 0.24260512392355571 0 -0.16600244679203391 0.2419036202244931 0 -0.1446834173305456 0.24260512392355571 0 -0.14987614569707911 0.24313539157442449 0 -0.1521511432026019 0.25275815155841619 0 -0.15826470219308841 0.2493619880534178 0 -0.14987614569707911 0.24313539157442449 0 -0.1706859646682414 0.14090263743079509 0 -0.16299315461386379 0.150992439859372 0 -0.16071704060605829 0.13971451114115799 0 -0.1706859646682414 0.14090263743079509 0 -0.16299315461386379 0.150992439859372 0 -0.17649728862911079 0.15274493124823271 0 -0.16299315461386379 0.150992439859372 0 -0.17649728862911079 0.15274493124823271 0 -0.1696797291325968 0.1613868716567354 0 -0.16299315461386379 0.150992439859372 0 -0.1591933941374957 0.15945492604565531 0 -0.15245350657590109 0.1521793943641121 0 -0.16299315461386379 0.150992439859372 0 -0.16071704060605829 0.13971451114115799 0 -0.15245350657590109 0.1521793943641121 0 -0.1515529173508707 0.1240700751676026 0 -0.16071704060605829 0.13971451114115799 0 -0.16483911995528461 0.12815067393965601 0 -0.1706859646682414 0.14090263743079509 0 -0.16483911995528461 0.12815067393965601 0 -0.17659592672432381 0.1282032668436818 0 -0.1706859646682414 0.14090263743079509 0 -0.16071704060605829 0.13971451114115799 0 -0.16483911995528461 0.12815067393965601 0 -0.1706859646682414 0.14090263743079509 0 -0.17659592672432381 0.1282032668436818 0 -0.18306863355845601 0.14166570163035619 0 -0.18928433163375721 0.12870458802269191 0 -0.17659592672432381 0.1282032668436818 0 -0.18306863355845601 0.14166570163035619 0 -0.1706859646682414 0.14090263743079509 0 -0.18306863355845601 0.14166570163035619 0 -0.17649728862911079 0.15274493124823271 0 -0.18797148236981651 0.15129222383576529 0 -0.18306863355845601 0.14166570163035619 0 -0.17649728862911079 0.15274493124823271 0 -0.18797148236981651 0.15129222383576529 0 -0.17649728862911079 0.15274493124823271 0 -0.1836354572988588 0.16053827793789369 0 -0.18755162254627811 0.1713747998054258 0 -0.1836354572988588 0.16053827793789369 0 -0.17694396585340391 0.16798444642326599 0 -0.17694396585340391 0.16798444642326599 0 -0.16937257184922 0.17245205834476021 0 -0.1696797291325968 0.1613868716567354 0 -0.17694396585340391 0.16798444642326599 0 -0.17672742930814961 0.16092494457710471 0 -0.1696797291325968 0.1613868716567354 0 -0.17649728862911079 0.15274493124823271 0 -0.17672742930814961 0.16092494457710471 0 -0.1696797291325968 0.1613868716567354 0 -0.17649728862911079 0.15274493124823271 0 -0.1836354572988588 0.16053827793789369 0 -0.17672742930814961 0.16092494457710471 0 -0.1836354572988588 0.16053827793789369 0 -0.17694396585340391 0.16798444642326599 0 -0.17672742930814961 0.16092494457710471 0 -0.20019994005298769 0.1830140244883833 0 -0.17526339187935711 0.19495412482493371 0 -0.18441662521678309 0.18206070960823911 0 -0.18755162254627811 0.1713747998054258 0 -0.18441662521678309 0.18206070960823911 0 -0.1766715513638456 0.17696877159483651 0 -0.18755162254627811 0.1713747998054258 0 -0.17694396585340391 0.16798444642326599 0 -0.1766715513638456 0.17696877159483651 0 -0.17694396585340391 0.16798444642326599 0 -0.1766715513638456 0.17696877159483651 0 -0.16937257184922 0.17245205834476021 0 -0.18441662521678309 0.18206070960823911 0 -0.1766715513638456 0.17696877159483651 0 -0.17453358552089801 0.18511763185208041 0 -0.1766715513638456 0.17696877159483651 0 -0.17453358552089801 0.18511763185208041 0 -0.16790628588035489 0.18194384046859821 0 -0.17526339187935711 0.19495412482493371 0 -0.18441662521678309 0.18206070960823911 0 -0.17453358552089801 0.18511763185208041 0 -0.16902917607854639 0.18894578600749831 0 -0.1634445208479246 0.18845471543748579 0 -0.16790628588035489 0.18194384046859821 0 -0.16902917607854639 0.18894578600749831 0 -0.17453358552089801 0.18511763185208041 0 -0.16790628588035489 0.18194384046859821 0 -0.16937257184922 0.17245205834476021 0 -0.16224083276616949 0.17614851103204671 0 -0.1621992919116711 0.16773826417489041 0 -0.16790628588035489 0.18194384046859821 0 -0.16937257184922 0.17245205834476021 0 -0.16224083276616949 0.17614851103204671 0 -0.1766715513638456 0.17696877159483651 0 -0.16790628588035489 0.18194384046859821 0 -0.16937257184922 0.17245205834476021 0 -0.16224083276616949 0.17614851103204671 0 -0.1621992919116711 0.16773826417489041 0 -0.15408869704799569 0.17212978401751089 0 -0.16790628588035489 0.18194384046859821 0 -0.16224083276616949 0.17614851103204671 0 -0.15905624143787919 0.18423140550003189 0 -0.16224083276616949 0.17614851103204671 0 -0.15905624143787919 0.18423140550003189 0 -0.1523314060503182 0.17876814024780779 0 -0.1634445208479246 0.18845471543748579 0 -0.16790628588035489 0.18194384046859821 0 -0.15905624143787919 0.18423140550003189 0 -0.16937257184922 0.17245205834476021 0 -0.1696797291325968 0.1613868716567354 0 -0.1621992919116711 0.16773826417489041 0 -0.1696797291325968 0.1613868716567354 0 -0.1621992919116711 0.16773826417489041 0 -0.1591933941374957 0.15945492604565531 0 -0.16299315461386379 0.150992439859372 0 -0.1696797291325968 0.1613868716567354 0 -0.1591933941374957 0.15945492604565531 0 -0.1621992919116711 0.16773826417489041 0 -0.1591933941374957 0.15945492604565531 0 -0.1486412884534456 0.1649776601731667 0 -0.1591933941374957 0.15945492604565531 0 -0.1486412884534456 0.1649776601731667 0 -0.15245350657590109 0.1521793943641121 0 -0.1486412884534456 0.1649776601731667 0 -0.15408869704799569 0.17212978401751089 0 -0.14503066605837411 0.17301634445964281 0 -0.1621992919116711 0.16773826417489041 0 -0.1486412884534456 0.1649776601731667 0 -0.15408869704799569 0.17212978401751089 0 -0.1486412884534456 0.1649776601731667 0 -0.14503066605837411 0.17301634445964281 0 -0.13586995889798181 0.17030058546038671 0 -0.15019564108658859 0.187676511875952 0 -0.15905624143787919 0.18423140550003189 0 -0.1523314060503182 0.17876814024780779 0 -0.15408869704799569 0.17212978401751089 0 -0.1523314060503182 0.17876814024780779 0 -0.14503066605837411 0.17301634445964281 0 -0.16224083276616949 0.17614851103204671 0 -0.15408869704799569 0.17212978401751089 0 -0.1523314060503182 0.17876814024780779 0 -0.1523314060503182 0.17876814024780779 0 -0.14503066605837411 0.17301634445964281 0 -0.14110633487542729 0.18084486148412399 0 -0.14503066605837411 0.17301634445964281 0 -0.14110633487542729 0.18084486148412399 0 -0.13586995889798181 0.17030058546038671 0 -0.15019564108658859 0.187676511875952 0 -0.14197703456466171 0.19185913860191861 0 -0.14110633487542729 0.18084486148412399 0 -0.15019564108658859 0.187676511875952 0 -0.1523314060503182 0.17876814024780779 0 -0.14110633487542729 0.18084486148412399 0 -0.14110633487542729 0.18084486148412399 0 -0.13375019195767021 0.1860746249282425 0 -0.13170331450643519 0.17859951281564171 0 -0.14197703456466171 0.19185913860191861 0 -0.14110633487542729 0.18084486148412399 0 -0.13375019195767021 0.1860746249282425 0 -0.14110633487542729 0.18084486148412399 0 -0.13170331450643519 0.17859951281564171 0 -0.13586995889798181 0.17030058546038671 0 -0.13170331450643519 0.17859951281564171 0 -0.13586995889798181 0.17030058546038671 0 -0.1217295883143905 0.1687200965237865 0 -0.13170331450643519 0.17859951281564171 0 -0.1217295883143905 0.1687200965237865 0 -0.1232272681784138 0.18403051190972661 0 -0.13375019195767021 0.1860746249282425 0 -0.13170331450643519 0.17859951281564171 0 -0.1232272681784138 0.18403051190972661 0 -0.1486412884534456 0.1649776601731667 0 -0.13148314292353749 0.1601170938047754 0 -0.13985410915487639 0.151222222766314 0 -0.13148314292353749 0.1601170938047754 0 -0.12318111409811559 0.15002839899767301 0 -0.1217295883143905 0.1687200965237865 0 -0.1486412884534456 0.1649776601731667 0 -0.13586995889798181 0.17030058546038671 0 -0.13148314292353749 0.1601170938047754 0 -0.13586995889798181 0.17030058546038671 0 -0.13148314292353749 0.1601170938047754 0 -0.1217295883143905 0.1687200965237865 0 -0.13985410915487639 0.151222222766314 0 -0.13323578727881241 0.1387060295842282 0 -0.12318111409811559 0.15002839899767301 0 -0.13148314292353749 0.1601170938047754 0 -0.13985410915487639 0.151222222766314 0 -0.12318111409811559 0.15002839899767301 0 -0.13985410915487639 0.151222222766314 0 -0.14860307022308189 0.13801597168610719 0 -0.13323578727881241 0.1387060295842282 0 -0.1486412884534456 0.1649776601731667 0 -0.13985410915487639 0.151222222766314 0 -0.15245350657590109 0.1521793943641121 0 -0.13985410915487639 0.151222222766314 0 -0.15245350657590109 0.1521793943641121 0 -0.14860307022308189 0.13801597168610719 0 -0.16071704060605829 0.13971451114115799 0 -0.15245350657590109 0.1521793943641121 0 -0.14860307022308189 0.13801597168610719 0 -0.1515529173508707 0.1240700751676026 0 -0.16071704060605829 0.13971451114115799 0 -0.14860307022308189 0.13801597168610719 0 -0.1515529173508707 0.1240700751676026 0 -0.13595424735371209 0.1247234506388072 0 -0.14860307022308189 0.13801597168610719 0 -0.13323578727881241 0.1387060295842282 0 -0.1208034154229443 0.13044854550697749 0 -0.12318111409811559 0.15002839899767301 0 -0.13595424735371209 0.1247234506388072 0 -0.14860307022308189 0.13801597168610719 0 -0.13323578727881241 0.1387060295842282 0 -0.13595424735371209 0.1247234506388072 0 -0.13323578727881241 0.1387060295842282 0 -0.1208034154229443 0.13044854550697749 0 -0.1208034154229443 0.13044854550697749 0 -0.1066690370715335 0.13932422501723071 0 -0.12318111409811559 0.15002839899767301 0 -0.1208034154229443 0.13044854550697749 0 -0.1066690370715335 0.13932422501723071 0 -0.1054574546211286 0.11933035565578209 0 -0.1066690370715335 0.13932422501723071 0 -0.089105066621532641 0.13034069950508231 0 -0.1054574546211286 0.11933035565578209 0 -0.1066690370715335 0.13932422501723071 0 -0.089105066621532641 0.13034069950508231 0 -0.093354992486785429 0.1491109605376211 0 -0.1066690370715335 0.13932422501723071 0 -0.1078861157358947 0.15624654613951641 0 -0.093354992486785429 0.1491109605376211 0 -0.1066690370715335 0.13932422501723071 0 -0.1078861157358947 0.15624654613951641 0 -0.12318111409811559 0.15002839899767301 0 -0.1078861157358947 0.15624654613951641 0 -0.12318111409811559 0.15002839899767301 0 -0.1217295883143905 0.1687200965237865 0 -0.1078861157358947 0.15624654613951641 0 -0.1217295883143905 0.1687200965237865 0 -0.1056252546906172 0.17010632298228201 0 -0.1217295883143905 0.1687200965237865 0 -0.1136833198835827 0.17839152161351571 0 -0.1056252546906172 0.17010632298228201 0 -0.1217295883143905 0.1687200965237865 0 -0.1232272681784138 0.18403051190972661 0 -0.1136833198835827 0.17839152161351571 0 -0.1232272681784138 0.18403051190972661 0 -0.1136833198835827 0.17839152161351571 0 -0.1115127836482563 0.1899903467910436 0 -0.099261272462352113 0.18262449525285079 0 -0.084037843760298228 0.18084174391835589 0 -0.098320235791987814 0.19867598271040951 0 -0.099261272462352113 0.18262449525285079 0 -0.1056252546906172 0.17010632298228201 0 -0.088659091012575797 0.16455886733864339 0 -0.1136833198835827 0.17839152161351571 0 -0.099261272462352113 0.18262449525285079 0 -0.1115127836482563 0.1899903467910436 0 -0.1136833198835827 0.17839152161351571 0 -0.099261272462352113 0.18262449525285079 0 -0.1056252546906172 0.17010632298228201 0 -0.1078861157358947 0.15624654613951641 0 -0.1056252546906172 0.17010632298228201 0 -0.088659091012575797 0.16455886733864339 0 -0.1078861157358947 0.15624654613951641 0 -0.088659091012575797 0.16455886733864339 0 -0.093354992486785429 0.1491109605376211 0 -0.099261272462352113 0.18262449525285079 0 -0.088659091012575797 0.16455886733864339 0 -0.084037843760298228 0.18084174391835589 0 -0.088659091012575797 0.16455886733864339 0 -0.084037843760298228 0.18084174391835589 0 -0.066608267300808155 0.17730429030850431 0 -0.084037843760298228 0.18084174391835589 0 -0.066608267300808155 0.17730429030850431 0 -0.077890093986694081 0.19512766881719809 0 -0.066608267300808155 0.17730429030850431 0 -0.077890093986694081 0.19512766881719809 0 -0.088659091012575797 0.16455886733864339 0 -0.066608267300808155 0.17730429030850431 0 -0.072484378771177915 0.151249027094052 0 -0.066608267300808155 0.17730429030850431 0 -0.072484378771177915 0.151249027094052 0 -0.057323798783489588 0.16041472407765819 0 -0.072484378771177915 0.151249027094052 0 -0.065204838338383239 0.13138371024205861 0 -0.089105066621532641 0.13034069950508231 0 -0.088659091012575797 0.16455886733864339 0 -0.072484378771177915 0.151249027094052 0 -0.093354992486785429 0.1491109605376211 0 -0.072484378771177915 0.151249027094052 0 -0.089105066621532641 0.13034069950508231 0 -0.093354992486785429 0.1491109605376211 0 -0.095077489632479514 0.25011447402696019 0 -0.0989158467765993 0.25309665145459631 0 -0.10054272027064549 0.244057575702507 0 -0.095077489632479514 0.25011447402696019 0 -0.10054272027064549 0.244057575702507 0 -0.089176712133117161 0.24915300047066799 0 -0.0989158467765993 0.25309665145459631 0 -0.10401631280426241 0.25144762901233048 0 -0.10054272027064549 0.244057575702507 0 -0.10054272027064549 0.244057575702507 0 -0.1027984094627349 0.2344785954981439 0 -0.1083783534800528 0.24379974381148009 0 -0.1027984094627349 0.2344785954981439 0 -0.1083783534800528 0.24379974381148009 0 -0.10054272027064549 0.244057575702507 0 -0.1083783534800528 0.24379974381148009 0 -0.10401631280426241 0.25144762901233048 0 -0.10054272027064549 0.244057575702507 0 -0.1117718155164511 0.24958781315497869 0 -0.10054272027064549 0.244057575702507 0 -0.1083783534800528 0.24379974381148009 0 -0.1117718155164511 0.24958781315497869 0 -0.1083783534800528 0.24379974381148009 0 -0.1117718155164511 0.24958781315497869 0 -0.1226130688005956 0.24333134981303239 0 -0.1027984094627349 0.2344785954981439 0 -0.1083783534800528 0.24379974381148009 0 -0.1226130688005956 0.24333134981303239 0 -0.12915367268660741 0.22690360266051221 0 -0.1027984094627349 0.2344785954981439 0 -0.1226130688005956 0.24333134981303239 0 -0.1083783534800528 0.24379974381148009 0 -0.1226130688005956 0.24333134981303239 0 -0.1239766289256486 0.25630149127924817 0 -0.1117718155164511 0.24958781315497869 0 -0.1226130688005956 0.24333134981303239 0 -0.12915367268660741 0.22690360266051221 0 -0.1253902955320961 0.21883432549803439 0 -0.1027984094627349 0.2344785954981439 0 -0.12915367268660741 0.22690360266051221 0 -0.1027984094627349 0.2344785954981439 0 -0.1253902955320961 0.21883432549803439 0 -0.10045374735846591 0.23077442583458541 0 -0.10918506687015141 0.21699985600912311 0 -0.1253902955320961 0.21883432549803439 0 -0.1027984094627349 0.2344785954981439 0 -0.10045374735846591 0.23077442583458541 0 -0.1253902955320961 0.21883432549803439 0 -0.10045374735846591 0.23077442583458541 0 -0.10045374735846591 0.23077442583458541 0 -0.08917192067257998 0.21295104732589179 0 -0.10045374735846591 0.23077442583458541 0 -0.10918506687015141 0.21699985600912311 0 -0.08917192067257998 0.21295104732589179 0 -0.1027984094627349 0.2344785954981439 0 -0.10045374735846591 0.23077442583458541 0 -0.10918506687015141 0.21699985600912311 0 -0.1134855702080423 0.20343658514201829 0 -0.098320235791987814 0.19867598271040951 0 -0.10918506687015141 0.21699985600912311 0 -0.098320235791987814 0.19867598271040951 0 -0.08917192067257998 0.21295104732589179 0 -0.1253902955320961 0.21883432549803439 0 -0.10918506687015141 0.21699985600912311 0 -0.11796912623224021 0.21164182460536191 0 -0.1253902955320961 0.21883432549803439 0 -0.11796912623224021 0.21164182460536191 0 -0.1238155723186708 0.20729653177227181 0 -0.11796912623224021 0.21164182460536191 0 -0.1238155723186708 0.20729653177227181 0 -0.1134855702080423 0.20343658514201829 0 -0.10918506687015141 0.21699985600912311 0 -0.11796912623224021 0.21164182460536191 0 -0.1134855702080423 0.20343658514201829 0 -0.1134855702080423 0.20343658514201829 0 -0.1205556404033593 0.19595861508897239 0 -0.1115127836482563 0.1899903467910436 0 -0.1238155723186708 0.20729653177227181 0 -0.1134855702080423 0.20343658514201829 0 -0.1205556404033593 0.19595861508897239 0 -0.1232272681784138 0.18403051190972661 0 -0.1205556404033593 0.19595861508897239 0 -0.1115127836482563 0.1899903467910436 0 -0.1307370076634132 0.19503909982980169 0 -0.1232272681784138 0.18403051190972661 0 -0.1205556404033593 0.19595861508897239 0 -0.099261272462352113 0.18262449525285079 0 -0.1115127836482563 0.1899903467910436 0 -0.098320235791987814 0.19867598271040951 0 -0.1134855702080423 0.20343658514201829 0 -0.1115127836482563 0.1899903467910436 0 -0.098320235791987814 0.19867598271040951 0 -0.098320235791987814 0.19867598271040951 0 -0.077890093986694081 0.19512766881719809 0 -0.08917192067257998 0.21295104732589179 0 -0.084037843760298228 0.18084174391835589 0 -0.098320235791987814 0.19867598271040951 0 -0.077890093986694081 0.19512766881719809 0 -0.066608267300808155 0.17730429030850431 0 -0.077890093986694081 0.19512766881719809 0 -0.055111109626019117 0.19344346610971211 0 -0.077890093986694081 0.19512766881719809 0 -0.067231729983415284 0.20838897225189951 0 -0.055111109626019117 0.19344346610971211 0 -0.077890093986694081 0.19512766881719809 0 -0.067231729983415284 0.20838897225189951 0 -0.08917192067257998 0.21295104732589179 0 -0.067231729983415284 0.20838897225189951 0 -0.071666002941013301 0.22328553784445909 0 -0.055252890002465943 0.21827761309816521 0 -0.067231729983415284 0.20838897225189951 0 -0.08917192067257998 0.21295104732589179 0 -0.071666002941013301 0.22328553784445909 0 -0.077890093986694081 0.19512766881719809 0 -0.08917192067257998 0.21295104732589179 0 -0.10045374735846591 0.23077442583458541 0 -0.081911741613107603 0.2284784626656316 0 -0.077579905566915713 0.24172686256206749 0 -0.08917192067257998 0.21295104732589179 0 -0.081911741613107603 0.2284784626656316 0 -0.071666002941013301 0.22328553784445909 0 -0.10045374735846591 0.23077442583458541 0 -0.08917192067257998 0.21295104732589179 0 -0.081911741613107603 0.2284784626656316 0 -0.071666002941013301 0.22328553784445909 0 -0.072241855407986819 0.23270829041029831 0 -0.060297329721188002 0.23582845960766419 0 -0.081911741613107603 0.2284784626656316 0 -0.071666002941013301 0.22328553784445909 0 -0.072241855407986819 0.23270829041029831 0 -0.081911741613107603 0.2284784626656316 0 -0.072241855407986819 0.23270829041029831 0 -0.077579905566915713 0.24172686256206749 0 -0.070154031474147727 0.25102526399170239 0 -0.059783561539443392 0.25024809540601262 0 -0.077579905566915713 0.24172686256206749 0 -0.059783561539443392 0.25024809540601262 0 -0.077579905566915713 0.24172686256206749 0 -0.048784174818185817 0.25000329115711462 0 -0.077579905566915713 0.24172686256206749 0 -0.072241855407986819 0.23270829041029831 0 -0.077579905566915713 0.24172686256206749 0 -0.060297329721188002 0.23582845960766419 0 -0.070154031474147727 0.25102526399170239 0 -0.077579905566915713 0.24172686256206749 0 -0.075703113864559829 0.24827353902808419 0 -0.077579905566915713 0.24172686256206749 0 -0.075703113864559829 0.24827353902808419 0 -0.078472371740695435 0.2447838015919816 0 -0.075703113864559829 0.24827353902808419 0 -0.079741700521254677 0.24995608120041299 0 -0.078472371740695435 0.2447838015919816 0 -0.10054272027064549 0.244057575702507 0 -0.1027984094627349 0.2344785954981439 0 -0.077579905566915713 0.24172686256206749 0 -0.10045374735846591 0.23077442583458541 0 -0.077579905566915713 0.24172686256206749 0 -0.1027984094627349 0.2344785954981439 0 -0.10045374735846591 0.23077442583458541 0 -0.077579905566915713 0.24172686256206749 0 -0.10054272027064549 0.244057575702507 0 -0.078472371740695435 0.2447838015919816 0 -0.089176712133117161 0.24915300047066799 0 -0.10054272027064549 0.244057575702507 0 -0.078472371740695435 0.2447838015919816 0 -0.10054272027064549 0.244057575702507 0 -0.077579905566915713 0.24172686256206749 0 -0.078472371740695435 0.2447838015919816 0 -0.1027984094627349 0.2344785954981439 0 -0.077579905566915713 0.24172686256206749 0 -0.079741700521254677 0.24995608120041299 0 -0.08307958774656965 0.24929451993675139 0 -0.078472371740695435 0.2447838015919816 0 -0.08307958774656965 0.24929451993675139 0 -0.078472371740695435 0.2447838015919816 0 -0.089176712133117161 0.24915300047066799 0 -0.034345102079151098 0.24187325480248789 0 -0.040308572293947062 0.2317528468360717 0 -0.030168420468581859 0.230903501256949 0 -0.034345102079151098 0.24187325480248789 0 -0.047536744537939449 0.23781650245339919 0 -0.040308572293947062 0.2317528468360717 0 -0.048784174818185817 0.25000329115711462 0 -0.034345102079151098 0.24187325480248789 0 -0.047536744537939449 0.23781650245339919 0 -0.059783561539443392 0.25024809540601262 0 -0.048784174818185817 0.25000329115711462 0 -0.077579905566915713 0.24172686256206749 0 -0.048784174818185817 0.25000329115711462 0 -0.077579905566915713 0.24172686256206749 0 -0.060297329721188002 0.23582845960766419 0 -0.048784174818185817 0.25000329115711462 0 -0.060297329721188002 0.23582845960766419 0 -0.047536744537939449 0.23781650245339919 0 -0.0495780447562802 0.22810756038251681 0 -0.037288869546756698 0.21845488271514829 0 -0.055252890002465943 0.21827761309816521 0 -0.060297329721188002 0.23582845960766419 0 -0.0495780447562802 0.22810756038251681 0 -0.055252890002465943 0.21827761309816521 0 -0.071666002941013301 0.22328553784445909 0 -0.060297329721188002 0.23582845960766419 0 -0.055252890002465943 0.21827761309816521 0 -0.060297329721188002 0.23582845960766419 0 -0.047536744537939449 0.23781650245339919 0 -0.0495780447562802 0.22810756038251681 0 -0.0495780447562802 0.22810756038251681 0 -0.040308572293947062 0.2317528468360717 0 -0.037288869546756698 0.21845488271514829 0 -0.047536744537939449 0.23781650245339919 0 -0.0495780447562802 0.22810756038251681 0 -0.040308572293947062 0.2317528468360717 0 -0.040308572293947062 0.2317528468360717 0 -0.037288869546756698 0.21845488271514829 0 -0.030168420468581859 0.230903501256949 0 -0.037288869546756698 0.21845488271514829 0 -0.048962220890147637 0.20744681289804101 0 -0.037125496353448639 0.1974927241106906 0 -0.037288869546756698 0.21845488271514829 0 -0.037125496353448639 0.1974927241106906 0 -0.022085688479124961 0.20685123453256291 0 -0.067231729983415284 0.20838897225189951 0 -0.048962220890147637 0.20744681289804101 0 -0.055252890002465943 0.21827761309816521 0 -0.037288869546756698 0.21845488271514829 0 -0.048962220890147637 0.20744681289804101 0 -0.055252890002465943 0.21827761309816521 0 -0.048962220890147637 0.20744681289804101 0 -0.055111109626019117 0.19344346610971211 0 -0.037125496353448639 0.1974927241106906 0 -0.067231729983415284 0.20838897225189951 0 -0.048962220890147637 0.20744681289804101 0 -0.055111109626019117 0.19344346610971211 0 -0.055111109626019117 0.19344346610971211 0 -0.037125496353448639 0.1974927241106906 0 -0.044296475496951468 0.17403691400826449 0 -0.01113844867145959 0.20323743117894699 0 -0.022085688479124961 0.20685123453256291 0 -0.023999042861978181 0.18469964508469039 0 -0.037125496353448639 0.1974927241106906 0 -0.022085688479124961 0.20685123453256291 0 -0.023999042861978181 0.18469964508469039 0 -0.001530136842525488 0.1966746180621696 0 -0.023999042861978181 0.18469964508469039 0 -0.0024151780727545359 0.1850802928273316 0 -0.001530136842525488 0.1966746180621696 0 -0.023999042861978181 0.18469964508469039 0 -0.001530136842525488 0.1966746180621696 0 -0.01113844867145959 0.20323743117894699 0 -0.023999042861978181 0.18469964508469039 0 -0.001530136842525488 0.1966746180621696 0 -0.01113844867145959 0.20323743117894699 0 -0.0013963450518291679 0.2077342631972135 0 -0.01113844867145959 0.20323743117894699 0 -0.0067213379774168081 0.2140021562253358 0 -0.022085688479124961 0.20685123453256291 0 -0.01113844867145959 0.20323743117894699 0 -0.0013963450518291679 0.2077342631972135 0 -0.0067213379774168081 0.2140021562253358 0 -0.0067213379774168081 0.2140021562253358 0 0.001682353567156914 0.2223534374113833 0 0.002715539190985659 0.21385708885408231 0 -0.0013963450518291679 0.2077342631972135 0 -0.0067213379774168081 0.2140021562253358 0 0.002715539190985659 0.21385708885408231 0 -0.037288869546756698 0.21845488271514829 0 -0.022085688479124961 0.20685123453256291 0 -0.01977582839516448 0.22324532185739679 0 -0.0067213379774168081 0.2140021562253358 0 -0.022085688479124961 0.20685123453256291 0 -0.01977582839516448 0.22324532185739679 0 -0.01977582839516448 0.22324532185739679 0 -0.030168420468581859 0.230903501256949 0 -0.01912373002788989 0.2391912000736402 0 -0.037288869546756698 0.21845488271514829 0 -0.01977582839516448 0.22324532185739679 0 -0.030168420468581859 0.230903501256949 0 -0.01977582839516448 0.22324532185739679 0 -0.0055477197030818423 0.23173916964343369 0 -0.01912373002788989 0.2391912000736402 0 -0.0067213379774168081 0.2140021562253358 0 -0.01977582839516448 0.22324532185739679 0 -0.0055477197030818423 0.23173916964343369 0 -0.0067213379774168081 0.2140021562253358 0 -0.0055477197030818423 0.23173916964343369 0 0.001682353567156914 0.2223534374113833 0 -0.019988444069455762 0.25827971975216069 0 -0.0062597745884404137 0.24669456694776759 0 -0.01912373002788989 0.2391912000736402 0 -0.0055477197030818423 0.23173916964343369 0 -0.0062597745884404137 0.24669456694776759 0 0.01079067299845239 0.23874173694250969 0 -0.0055477197030818423 0.23173916964343369 0 -0.0062597745884404137 0.24669456694776759 0 -0.01912373002788989 0.2391912000736402 0 -0.019988444069455762 0.25827971975216069 0 -0.034345102079151098 0.24187325480248789 0 -0.01912373002788989 0.2391912000736402 0 -0.034345102079151098 0.24187325480248789 0 -0.030168420468581859 0.230903501256949 0 -0.01912373002788989 0.2391912000736402 0 -0.045786287725571181 0.14527229238402681 0 -0.027700552671150371 0.16079097911187279 0 -0.02633192507699093 0.14140504486301031 0 -0.045786287725571181 0.14527229238402681 0 -0.032837156883230689 0.1277239123163442 0 -0.02633192507699093 0.14140504486301031 0 -0.045786287725571181 0.14527229238402681 0 -0.032837156883230689 0.1277239123163442 0 -0.048546824212701442 0.1194162345234905 0 -0.065204838338383239 0.13138371024205861 0 -0.045786287725571181 0.14527229238402681 0 -0.048546824212701442 0.1194162345234905 0 -0.072484378771177915 0.151249027094052 0 -0.065204838338383239 0.13138371024205861 0 -0.045786287725571181 0.14527229238402681 0 -0.072484378771177915 0.151249027094052 0 -0.045786287725571181 0.14527229238402681 0 -0.057323798783489588 0.16041472407765819 0 -0.045786287725571181 0.14527229238402681 0 -0.057323798783489588 0.16041472407765819 0 -0.044296475496951468 0.17403691400826449 0 -0.066608267300808155 0.17730429030850431 0 -0.057323798783489588 0.16041472407765819 0 -0.044296475496951468 0.17403691400826449 0 -0.066608267300808155 0.17730429030850431 0 -0.055111109626019117 0.19344346610971211 0 -0.044296475496951468 0.17403691400826449 0 -0.037125496353448639 0.1974927241106906 0 -0.044296475496951468 0.17403691400826449 0 -0.023999042861978181 0.18469964508469039 0 -0.044296475496951468 0.17403691400826449 0 -0.027700552671150371 0.16079097911187279 0 -0.023999042861978181 0.18469964508469039 0 -0.045786287725571181 0.14527229238402681 0 -0.044296475496951468 0.17403691400826449 0 -0.027700552671150371 0.16079097911187279 0 -0.027700552671150371 0.16079097911187279 0 -0.0147938007726203 0.1665330430163893 0 -0.01048270946389215 0.15280886521538961 0 -0.027700552671150371 0.16079097911187279 0 -0.023999042861978181 0.18469964508469039 0 -0.0147938007726203 0.1665330430163893 0 -0.023999042861978181 0.18469964508469039 0 -0.0044597322812318981 0.17423662677481519 0 -0.0024151780727545359 0.1850802928273316 0 -0.023999042861978181 0.18469964508469039 0 -0.0044597322812318981 0.17423662677481519 0 -0.0147938007726203 0.1665330430163893 0 -0.0044597322812318981 0.17423662677481519 0 -0.0024151780727545359 0.1850802928273316 0 0.0059075033824481076 0.17818906140238999 0 -0.0147938007726203 0.1665330430163893 0 -3.7202257465362663e-05 0.16027018292196391 0 -0.01048270946389215 0.15280886521538961 0 -0.0044597322812318981 0.17423662677481519 0 -0.0147938007726203 0.1665330430163893 0 -3.7202257465362663e-05 0.16027018292196391 0 -0.0037674027585325562 0.1436236272843974 0 -0.01048270946389215 0.15280886521538961 0 -0.0123914795820169 0.13649970001482631 0 -0.0037674027585325562 0.1436236272843974 0 -0.01048270946389215 0.15280886521538961 0 0.0050025092373301126 0.14991124781977061 0 -3.7202257465362663e-05 0.16027018292196391 0 -0.01048270946389215 0.15280886521538961 0 0.0050025092373301126 0.14991124781977061 0 -0.01048270946389215 0.15280886521538961 0 -0.02633192507699093 0.14140504486301031 0 -0.0123914795820169 0.13649970001482631 0 -0.027700552671150371 0.16079097911187279 0 -0.01048270946389215 0.15280886521538961 0 -0.02633192507699093 0.14140504486301031 0 -0.02633192507699093 0.14140504486301031 0 -0.0123914795820169 0.13649970001482631 0 -0.017724123711971369 0.1232353420212267 0 -0.032837156883230689 0.1277239123163442 0 -0.02633192507699093 0.14140504486301031 0 -0.017724123711971369 0.1232353420212267 0 -0.0123914795820169 0.13649970001482631 0 -0.0062718603320555347 0.12814121696827449 0 -0.017724123711971369 0.1232353420212267 0 -0.0037674027585325562 0.1436236272843974 0 -0.0123914795820169 0.13649970001482631 0 -0.00063055240675798639 0.13478913267806761 0 -0.0037674027585325562 0.1436236272843974 0 -0.00063055240675798639 0.13478913267806761 0 0.004169839258478648 0.14192024826789729 0 -0.0123914795820169 0.13649970001482631 0 -0.00063055240675798639 0.13478913267806761 0 -0.0062718603320555347 0.12814121696827449 0 -0.00063055240675798639 0.13478913267806761 0 -0.0062718603320555347 0.12814121696827449 0 0.0048873517368698098 0.12352240092364131 0 -0.0056846503045876228 0.1184142331511072 0 -0.01282083801540127 0.10668805517710719 0 0.0039049980423666209 0.1062563504305202 0 -0.0062718603320555347 0.12814121696827449 0 -0.0056846503045876228 0.1184142331511072 0 0.0048873517368698098 0.12352240092364131 0 -0.0056846503045876228 0.1184142331511072 0 -0.01282083801540127 0.10668805517710719 0 -0.017724123711971369 0.1232353420212267 0 -0.0062718603320555347 0.12814121696827449 0 -0.0056846503045876228 0.1184142331511072 0 -0.017724123711971369 0.1232353420212267 0 -0.01282083801540127 0.10668805517710719 0 -0.003575128190451421 0.088002448257077703 0 -0.023577252885770561 0.089275208412932155 0 -0.01282083801540127 0.10668805517710719 0 -0.003575128190451421 0.088002448257077703 0 0.0039049980423666209 0.1062563504305202 0 -0.01282083801540127 0.10668805517710719 0 -0.029877422075925239 0.1101296670038681 0 -0.023577252885770561 0.089275208412932155 0 -0.032837156883230689 0.1277239123163442 0 -0.029877422075925239 0.1101296670038681 0 -0.017724123711971369 0.1232353420212267 0 -0.01282083801540127 0.10668805517710719 0 -0.029877422075925239 0.1101296670038681 0 -0.017724123711971369 0.1232353420212267 0 -0.01280414417257781 0.070153921976201794 0 -0.011986345039669199 0.049785374462164057 0 0.0065067209500253437 0.067591993169493284 0 -0.01280414417257781 0.070153921976201794 0 -0.003575128190451421 0.088002448257077703 0 0.0065067209500253437 0.067591993169493284 0 -0.01280414417257781 0.070153921976201794 0 -0.003575128190451421 0.088002448257077703 0 -0.023577252885770561 0.089275208412932155 0 -0.01280414417257781 0.070153921976201794 0 -0.023577252885770561 0.089275208412932155 0 -0.032094769839733667 0.071239494100759332 0 -0.01280414417257781 0.070153921976201794 0 -0.032094769839733667 0.071239494100759332 0 -0.011986345039669199 0.049785374462164057 0 -0.023577252885770561 0.089275208412932155 0 -0.032094769839733667 0.071239494100759332 0 -0.05109820210033332 0.090939895902200335 0 -0.032094769839733667 0.071239494100759332 0 -0.05109820210033332 0.090939895902200335 0 -0.032094769839733667 0.071239494100759332 0 -0.05109820210033332 0.090939895902200335 0 -0.061509347880599793 0.065660659877096017 0 -0.032837156883230689 0.1277239123163442 0 -0.029877422075925239 0.1101296670038681 0 -0.048546824212701442 0.1194162345234905 0 -0.029877422075925239 0.1101296670038681 0 -0.05109820210033332 0.090939895902200335 0 -0.048546824212701442 0.1194162345234905 0 -0.029877422075925239 0.1101296670038681 0 -0.023577252885770561 0.089275208412932155 0 -0.05109820210033332 0.090939895902200335 0 -0.05109820210033332 0.090939895902200335 0 -0.048546824212701442 0.1194162345234905 0 -0.070101634360932988 0.1106402977036413 0 -0.05109820210033332 0.090939895902200335 0 -0.070101634360932988 0.1106402977036413 0 -0.065204838338383239 0.13138371024205861 0 -0.048546824212701442 0.1194162345234905 0 -0.070101634360932988 0.1106402977036413 0 -0.05109820210033332 0.090939895902200335 0 -0.070101634360932988 0.1106402977036413 0 -0.083373601063723629 0.090474845278249311 0 -0.065204838338383239 0.13138371024205861 0 -0.089105066621532641 0.13034069950508231 0 -0.070101634360932988 0.1106402977036413 0 -0.089105066621532641 0.13034069950508231 0 -0.070101634360932988 0.1106402977036413 0 -0.089105066621532641 0.13034069950508231 0 -0.070101634360932988 0.1106402977036413 0 -0.090905892046537942 0.10964280436093821 0 -0.090905892046537942 0.10964280436093821 0 -0.083373601063723629 0.090474845278249311 0 -0.1064917035653719 0.097427823661936017 0 -0.070101634360932988 0.1106402977036413 0 -0.090905892046537942 0.10964280436093821 0 -0.083373601063723629 0.090474845278249311 0 -0.05109820210033332 0.090939895902200335 0 -0.061509347880599793 0.065660659877096017 0 -0.083373601063723629 0.090474845278249311 0 -0.061509347880599793 0.065660659877096017 0 -0.088397400844188234 0.066635335258278861 0 -0.083373601063723629 0.090474845278249311 0 -0.088397400844188234 0.066635335258278861 0 -0.083373601063723629 0.090474845278249311 0 -0.10122250753403959 0.07961659978626473 0 -0.083373601063723629 0.090474845278249311 0 -0.10122250753403959 0.07961659978626473 0 -0.1064917035653719 0.097427823661936017 0 -0.088397400844188234 0.066635335258278861 0 -0.10122250753403959 0.07961659978626473 0 -0.1079818024894178 0.063380958597722137 0 -0.13716910075780789 0.058036135923251457 0 -0.1079818024894178 0.063380958597722137 0 -0.1218304021615899 0.077731979792593761 0 -0.10122250753403959 0.07961659978626473 0 -0.1079818024894178 0.063380958597722137 0 -0.1218304021615899 0.077731979792593761 0 -0.1218304021615899 0.077731979792593761 0 -0.1064917035653719 0.097427823661936017 0 -0.1271504528479396 0.095425347850228423 0 -0.1218304021615899 0.077731979792593761 0 -0.1064917035653719 0.097427823661936017 0 -0.10122250753403959 0.07961659978626473 0 -0.1218304021615899 0.077731979792593761 0 -0.1064917035653719 0.097427823661936017 0 -0.1271504528479396 0.095425347850228423 0 -0.1227641955874489 0.1115855065486925 0 -0.1064917035653719 0.097427823661936017 0 -0.1208034154229443 0.13044854550697749 0 -0.1227641955874489 0.1115855065486925 0 -0.1054574546211286 0.11933035565578209 0 -0.1227641955874489 0.1115855065486925 0 -0.1054574546211286 0.11933035565578209 0 -0.1064917035653719 0.097427823661936017 0 -0.089105066621532641 0.13034069950508231 0 -0.090905892046537942 0.10964280436093821 0 -0.1054574546211286 0.11933035565578209 0 -0.090905892046537942 0.10964280436093821 0 -0.1054574546211286 0.11933035565578209 0 -0.1064917035653719 0.097427823661936017 0 -0.10235063350904269 0.010096301537177639 0 -0.094980011550994309 0.032270720699830981 0 -0.088742158803723659 0.01508644913335124 0 -0.10235063350904269 0.010096301537177639 0 -0.1153164096044406 0.02614741966070426 0 -0.094980011550994309 0.032270720699830981 0 -0.1073189957869798 -0.0096193526666831924 0 -0.10235063350904269 0.010096301537177639 0 -0.082260981130149791 0.00054782562876524998 0 -0.1073189957869798 -0.0096193526666831924 0 -0.10235063350904269 0.010096301537177639 0 -0.12483296450371829 0.0042944719630943241 0 -0.10235063350904269 0.010096301537177639 0 -0.12483296450371829 0.0042944719630943241 0 -0.1153164096044406 0.02614741966070426 0 -0.12483296450371829 0.0042944719630943241 0 -0.1153164096044406 0.02614741966070426 0 -0.13322610351056571 0.039631976870515208 0 -0.1153164096044406 0.02614741966070426 0 -0.1160745561544011 0.045153428311541281 0 -0.13716910075780789 0.058036135923251457 0 -0.1079818024894178 0.063380958597722137 0 -0.1160745561544011 0.045153428311541281 0 -0.1079818024894178 0.063380958597722137 0 -0.1160745561544011 0.045153428311541281 0 -0.097318530126689215 0.051126346454649467 0 -0.088397400844188234 0.066635335258278861 0 -0.1079818024894178 0.063380958597722137 0 -0.097318530126689215 0.051126346454649467 0 -0.1160745561544011 0.045153428311541281 0 -0.094980011550994309 0.032270720699830981 0 -0.1153164096044406 0.02614741966070426 0 -0.1160745561544011 0.045153428311541281 0 -0.094980011550994309 0.032270720699830981 0 -0.1160745561544011 0.045153428311541281 0 -0.097318530126689215 0.051126346454649467 0 -0.094980011550994309 0.032270720699830981 0 -0.094980011550994309 0.032270720699830981 0 -0.079158879594444551 0.048191289405874041 0 -0.071545884743816235 0.033811239549240618 0 -0.097318530126689215 0.051126346454649467 0 -0.094980011550994309 0.032270720699830981 0 -0.079158879594444551 0.048191289405874041 0 -0.088397400844188234 0.066635335258278861 0 -0.097318530126689215 0.051126346454649467 0 -0.079158879594444551 0.048191289405874041 0 -0.061509347880599793 0.065660659877096017 0 -0.088397400844188234 0.066635335258278861 0 -0.079158879594444551 0.048191289405874041 0 -0.061509347880599793 0.065660659877096017 0 -0.079158879594444551 0.048191289405874041 0 -0.059079982247203927 0.042091264176419257 0 -0.079158879594444551 0.048191289405874041 0 -0.071545884743816235 0.033811239549240618 0 -0.059079982247203927 0.042091264176419257 0 -0.071545884743816235 0.033811239549240618 0 -0.058552846904101973 0.024094126308619641 0 -0.059079982247203927 0.042091264176419257 0 -0.071545884743816235 0.033811239549240618 0 -0.07388546694758745 0.019388013088120631 0 -0.058552846904101973 0.024094126308619641 0 -0.094980011550994309 0.032270720699830981 0 -0.07388546694758745 0.019388013088120631 0 -0.094980011550994309 0.032270720699830981 0 -0.07388546694758745 0.019388013088120631 0 -0.088742158803723659 0.01508644913335124 0 -0.094980011550994309 0.032270720699830981 0 -0.071545884743816235 0.033811239549240618 0 -0.07388546694758745 0.019388013088120631 0 -0.07388546694758745 0.019388013088120631 0 -0.088742158803723659 0.01508644913335124 0 -0.082260981130149791 0.00054782562876524998 0 -0.10235063350904269 0.010096301537177639 0 -0.088742158803723659 0.01508644913335124 0 -0.082260981130149791 0.00054782562876524998 0 -0.07388546694758745 0.019388013088120631 0 -0.082260981130149791 0.00054782562876524998 0 -0.067255889017233852 0.0021906375367469022 0 -0.07388546694758745 0.019388013088120631 0 -0.052790922344180619 0.0065053054764102891 0 -0.07388546694758745 0.019388013088120631 0 -0.067255889017233852 0.0021906375367469022 0 -0.052790922344180619 0.0065053054764102891 0 -0.052790922344180619 0.0065053054764102891 0 -0.048972477019058262 0.014172137047505629 0 -0.058552846904101973 0.024094126308619641 0 -0.056747129538045941 -0.0032560696045458599 0 -0.067255889017233852 0.0021906375367469022 0 -0.052790922344180619 0.0065053054764102891 0 -0.047716787592567388 0.00024047145424866079 0 -0.052790922344180619 0.0065053054764102891 0 -0.044223081385325193 0.0070224139100245114 0 -0.056747129538045941 -0.0032560696045458599 0 -0.047716787592567388 0.00024047145424866079 0 -0.052790922344180619 0.0065053054764102891 0 -0.052790922344180619 0.0065053054764102891 0 -0.048972477019058262 0.014172137047505629 0 -0.044223081385325193 0.0070224139100245114 0 -0.07388546694758745 0.019388013088120631 0 -0.052790922344180619 0.0065053054764102891 0 -0.058552846904101973 0.024094126308619641 0 -0.048972477019058262 0.014172137047505629 0 -0.058552846904101973 0.024094126308619641 0 -0.047126578971335251 0.032729331053964743 0 -0.048972477019058262 0.014172137047505629 0 -0.047126578971335251 0.032729331053964743 0 -0.030479411029363739 0.031978755754834831 0 -0.048972477019058262 0.014172137047505629 0 -0.032836566692280911 0.016820603676668561 0 -0.030479411029363739 0.031978755754834831 0 -0.048972477019058262 0.014172137047505629 0 -0.030479411029363739 0.031978755754834831 0 -0.048972477019058262 0.014172137047505629 0 -0.032836566692280911 0.016820603676668561 0 -0.044223081385325193 0.0070224139100245114 0 -0.032836566692280911 0.016820603676668561 0 -0.036997347464242658 0.0015974635928336369 0 -0.044223081385325193 0.0070224139100245114 0 -0.047716787592567388 0.00024047145424866079 0 -0.036997347464242658 0.0015974635928336369 0 -0.044223081385325193 0.0070224139100245114 0 -0.061509347880599793 0.065660659877096017 0 -0.059079982247203927 0.042091264176419257 0 -0.039482477747612932 0.050087807996948779 0 -0.059079982247203927 0.042091264176419257 0 -0.047126578971335251 0.032729331053964743 0 -0.039482477747612932 0.050087807996948779 0 -0.058552846904101973 0.024094126308619641 0 -0.059079982247203927 0.042091264176419257 0 -0.047126578971335251 0.032729331053964743 0 -0.047126578971335251 0.032729331053964743 0 -0.039482477747612932 0.050087807996948779 0 -0.030479411029363739 0.031978755754834831 0 -0.032094769839733667 0.071239494100759332 0 -0.061509347880599793 0.065660659877096017 0 -0.039482477747612932 0.050087807996948779 0 -0.032094769839733667 0.071239494100759332 0 -0.039482477747612932 0.050087807996948779 0 -0.011986345039669199 0.049785374462164057 0 -0.030479411029363739 0.031978755754834831 0 -0.011986345039669199 0.049785374462164057 0 -0.014264272863525501 0.02990997916197646 0 -0.030479411029363739 0.031978755754834831 0 -0.011986345039669199 0.049785374462164057 0 -0.039482477747612932 0.050087807996948779 0 -0.030479411029363739 0.031978755754834831 0 -0.011986345039669199 0.049785374462164057 0 -0.011986345039669199 0.049785374462164057 0 -0.014264272863525501 0.02990997916197646 0 0.0071832143718938979 0.037109372693358907 0 -0.011986345039669199 0.049785374462164057 0 0.003435778401244352 0.0522750236189366 0 0.0071832143718938979 0.037109372693358907 0 -0.011986345039669199 0.049785374462164057 0 0.0065067209500253437 0.067591993169493284 0 -0.011986345039669199 0.049785374462164057 0 0.003435778401244352 0.0522750236189366 0 0.0065067209500253437 0.067591993169493284 0 -0.019546237831869481 -0.0032900490834808951 0 -0.032836566692280911 0.016820603676668561 0 -0.003202255928207531 0.013855789222855901 0 -0.019546237831869481 -0.0032900490834808951 0 -0.032836566692280911 0.016820603676668561 0 -0.036997347464242658 0.0015974635928336369 0 -0.032836566692280911 0.016820603676668561 0 -0.014264272863525501 0.02990997916197646 0 -0.003202255928207531 0.013855789222855901 0 -0.032836566692280911 0.016820603676668561 0 -0.030479411029363739 0.031978755754834831 0 -0.014264272863525501 0.02990997916197646 0 -0.014264272863525501 0.02990997916197646 0 -0.003202255928207531 0.013855789222855901 0 0.0071832143718938979 0.037109372693358907 0 -0.003202255928207531 0.013855789222855901 0 0.01730044290164329 0.0039874760215709648 0 0.0035155241191154088 -0.01135911205853103 0 -0.003202255928207531 0.013855789222855901 0 0.015344321904155441 0.020366768833831029 0 0.01730044290164329 0.0039874760215709648 0 -0.003202255928207531 0.013855789222855901 0 0.015344321904155441 0.020366768833831029 0 0.0071832143718938979 0.037109372693358907 0 0.015344321904155441 0.020366768833831029 0 0.027190163370131741 0.032251766945687828 0 0.035294585379250801 0.01136046176207898 0 0.015344321904155441 0.020366768833831029 0 0.0071832143718938979 0.037109372693358907 0 0.027190163370131741 0.032251766945687828 0 0.015344321904155441 0.020366768833831029 0 0.01730044290164329 0.0039874760215709648 0 0.035294585379250801 0.01136046176207898 0 0.01730044290164329 0.0039874760215709648 0 0.035294585379250801 0.01136046176207898 0 0.029298886382164071 -0.014607363622740911 0 0.0071832143718938979 0.037109372693358907 0 0.023203469249664401 0.059523901004067049 0 0.003435778401244352 0.0522750236189366 0 0.0071832143718938979 0.037109372693358907 0 0.023203469249664401 0.059523901004067049 0 0.003435778401244352 0.0522750236189366 0 0.023203469249664401 0.059523901004067049 0 0.0065067209500253437 0.067591993169493284 0 0.0071832143718938979 0.037109372693358907 0 0.024267100383790891 0.044246873670284868 0 0.027190163370131741 0.032251766945687828 0 0.024267100383790891 0.044246873670284868 0 0.027190163370131741 0.032251766945687828 0 0.039491554543473487 0.048102454038025669 0 0.0071832143718938979 0.037109372693358907 0 0.024267100383790891 0.044246873670284868 0 0.023203469249664401 0.059523901004067049 0 0.024267100383790891 0.044246873670284868 0 0.023203469249664401 0.059523901004067049 0 0.039491554543473487 0.048102454038025669 0 0.023203469249664401 0.059523901004067049 0 0.039491554543473487 0.048102454038025669 0 0.042644161531507532 0.068157369894981085 0 0.039491554543473487 0.048102454038025669 0 0.056198099193705317 0.060435093841189572 0 0.042644161531507532 0.068157369894981085 0 0.027190163370131741 0.032251766945687828 0 0.039491554543473487 0.048102454038025669 0 0.047367669002574782 0.03035801177166254 0 0.055551539916265012 0.043865007404962533 0 0.047367669002574782 0.03035801177166254 0 0.067224563354911143 0.032176584626747211 0 0.039491554543473487 0.048102454038025669 0 0.055551539916265012 0.043865007404962533 0 0.047367669002574782 0.03035801177166254 0 0.039491554543473487 0.048102454038025669 0 0.055551539916265012 0.043865007404962533 0 0.056198099193705317 0.060435093841189572 0 0.055551539916265012 0.043865007404962533 0 0.056198099193705317 0.060435093841189572 0 0.067475813486660291 0.048252892747187692 0 0.035294585379250801 0.01136046176207898 0 0.047367669002574782 0.03035801177166254 0 0.055850869580607122 0.01363126715096478 0 0.027190163370131741 0.032251766945687828 0 0.035294585379250801 0.01136046176207898 0 0.047367669002574782 0.03035801177166254 0 0.047367669002574782 0.03035801177166254 0 0.055850869580607122 0.01363126715096478 0 0.067224563354911143 0.032176584626747211 0 0.035294585379250801 0.01136046176207898 0 0.055850869580607122 0.01363126715096478 0 0.050033275005384847 -0.0073253509782571016 0 0.055850869580607122 0.01363126715096478 0 0.050033275005384847 -0.0073253509782571016 0 0.06772632412574682 -0.0022882636656376088 0 0.055850869580607122 0.01363126715096478 0 0.072069551497844886 0.015101304182810979 0 0.06772632412574682 -0.0022882636656376088 0 0.072069551497844886 0.015101304182810979 0 0.090607040008452835 0.010053896467221371 0 0.06772632412574682 -0.0022882636656376088 0 0.072069551497844886 0.015101304182810979 0 0.090607040008452835 0.010053896467221371 0 0.082698508584114871 0.026367514008264301 0 0.090607040008452835 0.010053896467221371 0 0.082698508584114871 0.026367514008264301 0 0.099440238072095399 0.029681734351331111 0 0.072069551497844886 0.015101304182810979 0 0.082698508584114871 0.026367514008264301 0 0.067224563354911143 0.032176584626747211 0 0.055850869580607122 0.01363126715096478 0 0.072069551497844886 0.015101304182810979 0 0.067224563354911143 0.032176584626747211 0 0.055551539916265012 0.043865007404962533 0 0.067224563354911143 0.032176584626747211 0 0.067475813486660291 0.048252892747187692 0 0.082698508584114871 0.026367514008264301 0 0.067224563354911143 0.032176584626747211 0 0.084151149987270135 0.044824050413210831 0 0.067224563354911143 0.032176584626747211 0 0.067475813486660291 0.048252892747187692 0 0.084151149987270135 0.044824050413210831 0 0.056198099193705317 0.060435093841189572 0 0.067475813486660291 0.048252892747187692 0 0.07642502865104385 0.063157854373359357 0 0.067475813486660291 0.048252892747187692 0 0.084151149987270135 0.044824050413210831 0 0.07642502865104385 0.063157854373359357 0 0.084151149987270135 0.044824050413210831 0 0.1010813794946504 0.046835424958940552 0 0.09485020789500867 0.063961548007531996 0 0.084151149987270135 0.044824050413210831 0 0.09485020789500867 0.063961548007531996 0 0.07642502865104385 0.063157854373359357 0 0.082698508584114871 0.026367514008264301 0 0.084151149987270135 0.044824050413210831 0 0.099440238072095399 0.029681734351331111 0 0.1010813794946504 0.046835424958940552 0 0.12276105777316861 0.03318293462126308 0 0.099440238072095399 0.029681734351331111 0 0.084151149987270135 0.044824050413210831 0 0.1010813794946504 0.046835424958940552 0 0.099440238072095399 0.029681734351331111 0 0.1010813794946504 0.046835424958940552 0 0.1152325288965009 0.0571959948370548 0 0.09485020789500867 0.063961548007531996 0 0.1010813794946504 0.046835424958940552 0 0.1152325288965009 0.0571959948370548 0 0.12276105777316861 0.03318293462126308 0 0.1152325288965009 0.0571959948370548 0 0.12276105777316861 0.03318293462126308 0 0.1304731944957114 0.049550342611291563 0 0.12276105777316861 0.03318293462126308 0 0.099440238072095399 0.029681734351331111 0 0.12276105777316861 0.03318293462126308 0 0.1118186485924335 0.0077199284828837469 0 0.099440238072095399 0.029681734351331111 0 0.12276105777316861 0.03318293462126308 0 0.1118186485924335 0.0077199284828837469 0 0.13470805044767281 0.01150178357094943 0 0.090607040008452835 0.010053896467221371 0 0.1118186485924335 0.0077199284828837469 0 0.090218815314160872 -0.0094914044003041979 0 0.090607040008452835 0.010053896467221371 0 0.1118186485924335 0.0077199284828837469 0 0.099440238072095399 0.029681734351331111 0 0.1054688974864019 0.11585052553860981 0 0.11485156960600799 0.083109385826175483 0 0.087255452768803712 0.099678597026442176 0 0.1054688974864019 0.11585052553860981 0 0.11485156960600799 0.083109385826175483 0 0.13485293131700729 0.102257223644819 0 0.1054688974864019 0.11585052553860981 0 0.082985495649108676 0.11680548413907541 0 0.092867004537188408 0.13342122080082061 0 0.1054688974864019 0.11585052553860981 0 0.131665831855138 0.12929491270709259 0 0.13485293131700729 0.102257223644819 0 0.11485156960600799 0.083109385826175483 0 0.13485293131700729 0.102257223644819 0 0.1152325288965009 0.0571959948370548 0 0.11485156960600799 0.083109385826175483 0 0.1310985870178813 0.064564329870870199 0 0.11485156960600799 0.083109385826175483 0 0.09485020789500867 0.063961548007531996 0 0.087513279234173819 0.079939279629827803 0 0.1152325288965009 0.0571959948370548 0 0.11485156960600799 0.083109385826175483 0 0.09485020789500867 0.063961548007531996 0 0.11485156960600799 0.083109385826175483 0 0.09485020789500867 0.063961548007531996 0 0.11485156960600799 0.083109385826175483 0 0.087513279234173819 0.079939279629827803 0 0.087255452768803712 0.099678597026442176 0 0.087513279234173819 0.079939279629827803 0 0.068361622109444881 0.081534261601208247 0 0.087255452768803712 0.099678597026442176 0 0.09485020789500867 0.063961548007531996 0 0.087513279234173819 0.079939279629827803 0 0.07642502865104385 0.063157854373359357 0 0.056198099193705317 0.060435093841189572 0 0.07642502865104385 0.063157854373359357 0 0.068361622109444881 0.081534261601208247 0 0.087513279234173819 0.079939279629827803 0 0.07642502865104385 0.063157854373359357 0 0.068361622109444881 0.081534261601208247 0 0.087255452768803712 0.099678597026442176 0 0.082985495649108676 0.11680548413907541 0 0.056186615860194793 0.1056718355480933 0 0.068361622109444881 0.081534261601208247 0 0.087255452768803712 0.099678597026442176 0 0.056186615860194793 0.1056718355480933 0 0.1054688974864019 0.11585052553860981 0 0.087255452768803712 0.099678597026442176 0 0.082985495649108676 0.11680548413907541 0 0.056186615860194793 0.1056718355480933 0 0.073149507592954618 0.1294052417814113 0 0.082985495649108676 0.11680548413907541 0 0.056186615860194793 0.1056718355480933 0 0.073149507592954618 0.1294052417814113 0 0.056186615860194793 0.1056718355480933 0 0.049662431216020111 0.12804612531926721 0 0.073149507592954618 0.1294052417814113 0 0.056186615860194793 0.1056718355480933 0 0.039223724127436188 0.081938429314774269 0 0.056186615860194793 0.1056718355480933 0 0.033628145413573507 0.10448320755048229 0 0.039223724127436188 0.081938429314774269 0 0.056186615860194793 0.1056718355480933 0 0.033628145413573507 0.10448320755048229 0 0.049662431216020111 0.12804612531926721 0 0.033628145413573507 0.10448320755048229 0 0.028032566699709872 0.12702798578619001 0 0.049662431216020111 0.12804612531926721 0 0.056198099193705317 0.060435093841189572 0 0.052522844564457938 0.079547398040049344 0 0.042644161531507532 0.068157369894981085 0 0.056198099193705317 0.060435093841189572 0 0.068361622109444881 0.081534261601208247 0 0.052522844564457938 0.079547398040049344 0 0.056186615860194793 0.1056718355480933 0 0.052522844564457938 0.079547398040049344 0 0.039223724127436188 0.081938429314774269 0 0.068361622109444881 0.081534261601208247 0 0.056186615860194793 0.1056718355480933 0 0.052522844564457938 0.079547398040049344 0 0.033628145413573507 0.10448320755048229 0 0.039223724127436188 0.081938429314774269 0 0.023203469249664401 0.059523901004067049 0 0.039223724127436188 0.081938429314774269 0 0.042644161531507532 0.068157369894981085 0 0.052522844564457938 0.079547398040049344 0 0.039223724127436188 0.081938429314774269 0 0.042644161531507532 0.068157369894981085 0 0.039223724127436188 0.081938429314774269 0 0.042644161531507532 0.068157369894981085 0 0.023203469249664401 0.059523901004067049 0 0.039223724127436188 0.081938429314774269 0 0.023203469249664401 0.059523901004067049 0 0.039223724127436188 0.081938429314774269 0 0.01948522169965642 0.073139897422424716 0 0.023203469249664401 0.059523901004067049 0 0.01948522169965642 0.073139897422424716 0 0.0065067209500253437 0.067591993169493284 0 0.033628145413573507 0.10448320755048229 0 0.039223724127436188 0.081938429314774269 0 0.017453156548475481 0.087107410963825835 0 0.039223724127436188 0.081938429314774269 0 0.01948522169965642 0.073139897422424716 0 0.017453156548475481 0.087107410963825835 0 -0.003575128190451421 0.088002448257077703 0 0.017453156548475481 0.087107410963825835 0 0.0065067209500253437 0.067591993169493284 0 0.01948522169965642 0.073139897422424716 0 0.017453156548475481 0.087107410963825835 0 0.0065067209500253437 0.067591993169493284 0 0.033628145413573507 0.10448320755048229 0 0.028032566699709872 0.12702798578619001 0 0.033628145413573507 0.10448320755048229 0 0.01847005067678615 0.1121850590268846 0 0.028032566699709872 0.12702798578619001 0 0.01847005067678615 0.1121850590268846 0 0.016330554591628379 0.12616477818366181 0 0.028032566699709872 0.12702798578619001 0 0.033628145413573507 0.10448320755048229 0 0.017453156548475481 0.087107410963825835 0 0.01847005067678615 0.1121850590268846 0 -0.003575128190451421 0.088002448257077703 0 0.017453156548475481 0.087107410963825835 0 0.0039049980423666209 0.1062563504305202 0 0.017453156548475481 0.087107410963825835 0 0.01847005067678615 0.1121850590268846 0 0.0039049980423666209 0.1062563504305202 0 -0.0056846503045876228 0.1184142331511072 0 0.0039049980423666209 0.1062563504305202 0 0.0048873517368698098 0.12352240092364131 0 0.01847005067678615 0.1121850590268846 0 0.0039049980423666209 0.1062563504305202 0 0.0048873517368698098 0.12352240092364131 0 0.01847005067678615 0.1121850590268846 0 0.0048873517368698098 0.12352240092364131 0 0.016330554591628379 0.12616477818366181 0 -0.00063055240675798639 0.13478913267806761 0 0.0048873517368698098 0.12352240092364131 0 0.0090621603421433931 0.13397698228825161 0 -0.00063055240675798639 0.13478913267806761 0 0.0090621603421433931 0.13397698228825161 0 0.004169839258478648 0.14192024826789729 0 0.0090621603421433931 0.13397698228825161 0 0.011994930199759401 0.1402409375346457 0 0.017966995262680231 0.1355354483777664 0 0.0090621603421433931 0.13397698228825161 0 0.011994930199759401 0.1402409375346457 0 0.004169839258478648 0.14192024826789729 0 0.011994930199759401 0.1402409375346457 0 0.017966995262680231 0.1355354483777664 0 0.016436342521611119 0.14329566606433439 0 0.0090621603421433931 0.13397698228825161 0 0.016330554591628379 0.12616477818366181 0 0.017966995262680231 0.1355354483777664 0 0.0048873517368698098 0.12352240092364131 0 0.0090621603421433931 0.13397698228825161 0 0.016330554591628379 0.12616477818366181 0 0.016330554591628379 0.12616477818366181 0 0.017966995262680231 0.1355354483777664 0 0.028032566699709872 0.12702798578619001 0 0.028032566699709872 0.12702798578619001 0 0.022436987985846889 0.1495727640218979 0 0.017966995262680231 0.1355354483777664 0 0.028032566699709872 0.12702798578619001 0 0.02131050883264584 0.14702948960098039 0 0.028032566699709872 0.12702798578619001 0 0.02131050883264584 0.14702948960098039 0 0.022436987985846889 0.1495727640218979 0 0.028032566699709872 0.12702798578619001 0 0.022436987985846889 0.1495727640218979 0 0.041281034711220452 0.1500794381613744 0 0.02131050883264584 0.14702948960098039 0 0.022436987985846889 0.1495727640218979 0 0.017966995262680231 0.1355354483777664 0 0.02131050883264584 0.14702948960098039 0 0.016436342521611119 0.14329566606433439 0 0.02131050883264584 0.14702948960098039 0 0.01732607899172349 0.147428855127162 0 0.022436987985846889 0.1495727640218979 0 0.02131050883264584 0.14702948960098039 0 0.016436342521611119 0.14329566606433439 0 0.01732607899172349 0.147428855127162 0 0.01732607899172349 0.147428855127162 0 0.022436987985846889 0.1495727640218979 0 0.01143622001767472 0.15633255541720931 0 0.01197021765994098 0.14764037191248441 0 0.0050025092373301126 0.14991124781977061 0 0.01143622001767472 0.15633255541720931 0 0.01732607899172349 0.147428855127162 0 0.01197021765994098 0.14764037191248441 0 0.01143622001767472 0.15633255541720931 0 0.011994930199759401 0.1402409375346457 0 0.0082843740888772829 0.1449282013836995 0 0.004169839258478648 0.14192024826789729 0 0.011994930199759401 0.1402409375346457 0 0.016436342521611119 0.14329566606433439 0 0.01197021765994098 0.14764037191248441 0 0.016436342521611119 0.14329566606433439 0 0.01732607899172349 0.147428855127162 0 0.01197021765994098 0.14764037191248441 0 0.01197021765994098 0.14764037191248441 0 0.0082843740888772829 0.1449282013836995 0 0.0050025092373301126 0.14991124781977061 0 0.011994930199759401 0.1402409375346457 0 0.01197021765994098 0.14764037191248441 0 0.0082843740888772829 0.1449282013836995 0 0.0082843740888772829 0.1449282013836995 0 0.004169839258478648 0.14192024826789729 0 0.0050025092373301126 0.14991124781977061 0 -0.0037674027585325562 0.1436236272843974 0 0.004169839258478648 0.14192024826789729 0 0.0050025092373301126 0.14991124781977061 0 -3.7202257465362663e-05 0.16027018292196391 0 0.0050025092373301126 0.14991124781977061 0 0.01143622001767472 0.15633255541720931 0 -3.7202257465362663e-05 0.16027018292196391 0 0.0060899319101226576 0.16855500455372549 0 0.01143622001767472 0.15633255541720931 0 -0.0044597322812318981 0.17423662677481519 0 -3.7202257465362663e-05 0.16027018292196391 0 0.0060899319101226576 0.16855500455372549 0 0.0060899319101226576 0.16855500455372549 0 0.01143622001767472 0.15633255541720931 0 0.01722125311268051 0.17058713841724529 0 0.0059075033824481076 0.17818906140238999 0 0.01722125311268051 0.17058713841724529 0 0.012005518239514779 0.19160151281259299 0 0.01722125311268051 0.17058713841724529 0 0.012005518239514779 0.19160151281259299 0 -0.0024151780727545359 0.1850802928273316 0 0.0059075033824481076 0.17818906140238999 0 0.012005518239514779 0.19160151281259299 0 -0.0044597322812318981 0.17423662677481519 0 0.0060899319101226576 0.16855500455372549 0 0.0059075033824481076 0.17818906140238999 0 0.0060899319101226576 0.16855500455372549 0 0.0059075033824481076 0.17818906140238999 0 0.01722125311268051 0.17058713841724529 0 0.01722125311268051 0.17058713841724529 0 0.012005518239514779 0.19160151281259299 0 0.027548469331112432 0.1890498495792193 0 0.01722125311268051 0.17058713841724529 0 0.032103788117902668 0.17139769121925741 0 0.027548469331112432 0.1890498495792193 0 0.022436987985846889 0.1495727640218979 0 0.01143622001767472 0.15633255541720931 0 0.01722125311268051 0.17058713841724529 0 0.022436987985846889 0.1495727640218979 0 0.01722125311268051 0.17058713841724529 0 0.032103788117902668 0.17139769121925741 0 0.022436987985846889 0.1495727640218979 0 0.01722125311268051 0.17058713841724529 0 0.022436987985846889 0.1495727640218979 0 0.032103788117902668 0.17139769121925741 0 0.032103788117902668 0.17139769121925741 0 0.056360025134057967 0.1735705498300058 0 0.041281034711220452 0.1500794381613744 0 0.022436987985846889 0.1495727640218979 0 0.032103788117902668 0.17139769121925741 0 0.041281034711220452 0.1500794381613744 0 0.032103788117902668 0.17139769121925741 0 0.027548469331112432 0.1890498495792193 0 0.041770588249957677 0.19322261841661731 0 0.032103788117902668 0.17139769121925741 0 0.056360025134057967 0.1735705498300058 0 0.041770588249957677 0.19322261841661731 0 0.032103788117902668 0.17139769121925741 0 0.041770588249957677 0.19322261841661731 0 0.056360025134057967 0.1735705498300058 0 0.041281034711220452 0.1500794381613744 0 0.065696717018467479 0.1516090430880519 0 0.049662431216020111 0.12804612531926721 0 0.041281034711220452 0.1500794381613744 0 0.065696717018467479 0.1516090430880519 0 0.041281034711220452 0.1500794381613744 0 0.065696717018467479 0.1516090430880519 0 0.028032566699709872 0.12702798578619001 0 0.049662431216020111 0.12804612531926721 0 0.041281034711220452 0.1500794381613744 0 0.023327528447678238 0.24450794158057171 0 0.01079067299845239 0.23874173694250969 0 0.015786761060970898 0.25613223772400401 0 0.023327528447678238 0.24450794158057171 0 0.035695860329487808 0.24011695288850191 0 0.028258142437712928 0.25929503072214038 0 0.023327528447678238 0.24450794158057171 0 0.01079067299845239 0.23874173694250969 0 0.02610620541176719 0.22825374962570241 0 0.023327528447678238 0.24450794158057171 0 0.02610620541176719 0.22825374962570241 0 0.035695860329487808 0.24011695288850191 0 -0.0062597745884404137 0.24669456694776759 0 0.01079067299845239 0.23874173694250969 0 0.0029103859176947779 0.26210914935366419 0 0.01079067299845239 0.23874173694250969 0 0.01867096007921017 0.21537432453135519 0 0.01130925901713227 0.21544774262504901 0 -0.0055477197030818423 0.23173916964343369 0 0.01079067299845239 0.23874173694250969 0 0.001682353567156914 0.2223534374113833 0 0.01079067299845239 0.23874173694250969 0 0.001682353567156914 0.2223534374113833 0 0.01130925901713227 0.21544774262504901 0 0.01079067299845239 0.23874173694250969 0 0.01867096007921017 0.21537432453135519 0 0.01079067299845239 0.23874173694250969 0 0.02610620541176719 0.22825374962570241 0 0.01867096007921017 0.21537432453135519 0 0.02610620541176719 0.22825374962570241 0 0.01867096007921017 0.21537432453135519 0 0.033283104931151587 0.2152285979104655 0 0.020938769176927521 0.2086495910396482 0 0.033283104931151587 0.2152285979104655 0 0.01867096007921017 0.21537432453135519 0 0.033283104931151587 0.2152285979104655 0 0.020938769176927521 0.2086495910396482 0 0.01867096007921017 0.21537432453135519 0 0.033283104931151587 0.2152285979104655 0 0.020938769176927521 0.2086495910396482 0 0.034995664014232118 0.20423964051198601 0 0.033283104931151587 0.2152285979104655 0 0.020938769176927521 0.2086495910396482 0 0.01867096007921017 0.21537432453135519 0 0.01493984847527528 0.2103713086942848 0 0.020938769176927521 0.2086495910396482 0 0.01867096007921017 0.21537432453135519 0 0.01130925901713227 0.21544774262504901 0 0.005207632957807711 0.20881700428655989 0 0.01493984847527528 0.2103713086942848 0 -0.001530136842525488 0.1966746180621696 0 0.005207632957807711 0.20881700428655989 0 0.01493984847527528 0.2103713086942848 0 0.01867096007921017 0.21537432453135519 0 0.01130925901713227 0.21544774262504901 0 -0.001530136842525488 0.1966746180621696 0 0.020938769176927521 0.2086495910396482 0 0.01493984847527528 0.2103713086942848 0 0.01867096007921017 0.21537432453135519 0 0.01130925901713227 0.21544774262504901 0 0.01493984847527528 0.2103713086942848 0 0.01130925901713227 0.21544774262504901 0 0.002715539190985659 0.21385708885408231 0 0.005207632957807711 0.20881700428655989 0 0.001682353567156914 0.2223534374113833 0 0.01130925901713227 0.21544774262504901 0 0.002715539190985659 0.21385708885408231 0 -0.001530136842525488 0.1966746180621696 0 -0.0013963450518291679 0.2077342631972135 0 0.005207632957807711 0.20881700428655989 0 -0.0013963450518291679 0.2077342631972135 0 0.002715539190985659 0.21385708885408231 0 0.005207632957807711 0.20881700428655989 0 -0.001530136842525488 0.1966746180621696 0 0.020938769176927521 0.2086495910396482 0 -0.001530136842525488 0.1966746180621696 0 0.020938769176927521 0.2086495910396482 0 0.012005518239514779 0.19160151281259299 0 -0.001530136842525488 0.1966746180621696 0 -0.0024151780727545359 0.1850802928273316 0 0.012005518239514779 0.19160151281259299 0 0.020938769176927521 0.2086495910396482 0 0.027548469331112432 0.1890498495792193 0 0.020938769176927521 0.2086495910396482 0 0.012005518239514779 0.19160151281259299 0 0.027548469331112432 0.1890498495792193 0 0.020938769176927521 0.2086495910396482 0 0.027548469331112432 0.1890498495792193 0 0.034995664014232118 0.20423964051198601 0 0.027548469331112432 0.1890498495792193 0 0.041770588249957677 0.19322261841661731 0 0.034995664014232118 0.20423964051198601 0 0.041770588249957677 0.19322261841661731 0 0.060334046349422792 0.19805369967617009 0 0.051437388382012512 0.21504754561397729 0 0.056360025134057967 0.1735705498300058 0 0.041770588249957677 0.19322261841661731 0 0.060334046349422792 0.19805369967617009 0 0.051437388382012512 0.21504754561397729 0 0.033283104931151587 0.2152285979104655 0 0.056192551271215703 0.22578337158024561 0 0.041770588249957677 0.19322261841661731 0 0.051437388382012512 0.21504754561397729 0 0.051437388382012512 0.21504754561397729 0 0.034995664014232118 0.20423964051198601 0 0.033283104931151587 0.2152285979104655 0 0.041770588249957677 0.19322261841661731 0 0.051437388382012512 0.21504754561397729 0 0.034995664014232118 0.20423964051198601 0 0.051437388382012512 0.21504754561397729 0 0.033283104931151587 0.2152285979104655 0 0.033283104931151587 0.2152285979104655 0 0.057078606749216158 0.2279105901271864 0 0.033283104931151587 0.2152285979104655 0 0.043396480771068023 0.22906150355686819 0 0.057078606749216158 0.2279105901271864 0 0.02610620541176719 0.22825374962570241 0 0.033283104931151587 0.2152285979104655 0 0.034620412860868401 0.2281652009953849 0 0.033283104931151587 0.2152285979104655 0 0.034620412860868401 0.2281652009953849 0 0.043396480771068023 0.22906150355686819 0 0.02610620541176719 0.22825374962570241 0 0.034620412860868401 0.2281652009953849 0 0.035695860329487808 0.24011695288850191 0 0.034620412860868401 0.2281652009953849 0 0.043396480771068023 0.22906150355686819 0 0.035695860329487808 0.24011695288850191 0 0.051437388382012512 0.21504754561397729 0 0.056192551271215703 0.22578337158024561 0 0.033283104931151587 0.2152285979104655 0 0.056192551271215703 0.22578337158024561 0 0.057078606749216158 0.2279105901271864 0 0.056192551271215703 0.22578337158024561 0 0.057078606749216158 0.2279105901271864 0 0.064893078430931714 0.2248215846757248 0 0.051437388382012512 0.21504754561397729 0 0.056192551271215703 0.22578337158024561 0 0.064893078430931714 0.2248215846757248 0 0.057078606749216158 0.2279105901271864 0 0.052721305100490362 0.23372311057589809 0 0.0606490620775791 0.2377095997203926 0 0.043396480771068023 0.22906150355686819 0 0.052721305100490362 0.23372311057589809 0 0.049761070804098202 0.2402107488991452 0 0.043396480771068023 0.22906150355686819 0 0.057078606749216158 0.2279105901271864 0 0.052721305100490362 0.23372311057589809 0 0.052721305100490362 0.23372311057589809 0 0.049761070804098202 0.2402107488991452 0 0.0606490620775791 0.2377095997203926 0 0.049761070804098202 0.2402107488991452 0 0.062774660976461949 0.2461678210784331 0 0.047241702017656297 0.25983213140772798 0 0.049761070804098202 0.2402107488991452 0 0.0606490620775791 0.2377095997203926 0 0.062774660976461949 0.2461678210784331 0 0.049761070804098202 0.2402107488991452 0 0.035695860329487808 0.24011695288850191 0 0.047241702017656297 0.25983213140772798 0 0.043396480771068023 0.22906150355686819 0 0.049761070804098202 0.2402107488991452 0 0.035695860329487808 0.24011695288850191 0 0.080874108567281694 0.24059258234390549 0 0.10466961038534719 0.25327457456062452 0 0.057078606749216158 0.2279105901271864 0 0.0606490620775791 0.2377095997203926 0 0.080874108567281694 0.24059258234390549 0 0.080874108567281694 0.24059258234390549 0 0.062774660976461949 0.2461678210784331 0 0.077283492163479711 0.26110264066524508 0 0.0606490620775791 0.2377095997203926 0 0.080874108567281694 0.24059258234390549 0 0.062774660976461949 0.2461678210784331 0 0.080874108567281694 0.24059258234390549 0 0.064893078430931714 0.2248215846757248 0 0.078882737184932286 0.2147738337133093 0 0.057078606749216158 0.2279105901271864 0 0.080874108567281694 0.24059258234390549 0 0.057078606749216158 0.2279105901271864 0 0.080874108567281694 0.24059258234390549 0 0.064893078430931714 0.2248215846757248 0 0.080874108567281694 0.24059258234390549 0 0.078882737184932286 0.2147738337133093 0 0.099853633850860948 0.2336458889374827 0 0.078882737184932286 0.2147738337133093 0 0.096019534381761182 0.1957965044164709 0 0.1063280859878518 0.2145001218126408 0 0.078882737184932286 0.2147738337133093 0 0.1063280859878518 0.2145001218126408 0 0.051437388382012512 0.21504754561397729 0 0.064893078430931714 0.2248215846757248 0 0.078882737184932286 0.2147738337133093 0 0.051437388382012512 0.21504754561397729 0 0.078882737184932286 0.2147738337133093 0 0.060334046349422792 0.19805369967617009 0 0.051437388382012512 0.21504754561397729 0 0.078882737184932286 0.2147738337133093 0 0.060334046349422792 0.19805369967617009 0 0.078882737184932286 0.2147738337133093 0 0.076262922108915235 0.18495345425627829 0 0.078882737184932286 0.2147738337133093 0 0.096019534381761182 0.1957965044164709 0 0.076262922108915235 0.18495345425627829 0 0.096019534381761182 0.1957965044164709 0 0.1192197563024195 0.19386382261289031 0 0.1063280859878518 0.2145001218126408 0 0.096019534381761182 0.1957965044164709 0 0.1192197563024195 0.19386382261289031 0 0.104666077814067 0.1735012353138099 0 0.1192197563024195 0.19386382261289031 0 0.1063280859878518 0.2145001218126408 0 0.1337734347907715 0.21422640991197109 0 0.1063280859878518 0.2145001218126408 0 0.1337734347907715 0.21422640991197109 0 0.078882737184932286 0.2147738337133093 0 0.1063280859878518 0.2145001218126408 0 0.099853633850860948 0.2336458889374827 0 0.1063280859878518 0.2145001218126408 0 0.12305392426751099 0.23660690166125781 0 0.1337734347907715 0.21422640991197109 0 0.1063280859878518 0.2145001218126408 0 0.099853633850860948 0.2336458889374827 0 0.12305392426751099 0.23660690166125781 0 0.080874108567281694 0.24059258234390549 0 0.099853633850860948 0.2336458889374827 0 0.10466961038534719 0.25327457456062452 0 0.099853633850860948 0.2336458889374827 0 0.12305392426751099 0.23660690166125781 0 0.10466961038534719 0.25327457456062452 0 0.090112399325714493 0.1531386480147294 0 0.073149507592954618 0.1294052417814113 0 0.082985495649108676 0.11680548413907541 0 0.092867004537188408 0.13342122080082061 0 0.073149507592954618 0.1294052417814113 0 0.090112399325714493 0.1531386480147294 0 0.092867004537188408 0.13342122080082061 0 0.073149507592954618 0.1294052417814113 0 0.049662431216020111 0.12804612531926721 0 0.073149507592954618 0.1294052417814113 0 0.065696717018467479 0.1516090430880519 0 0.090112399325714493 0.1531386480147294 0 0.073149507592954618 0.1294052417814113 0 0.065696717018467479 0.1516090430880519 0 0.090112399325714493 0.1531386480147294 0 0.065696717018467479 0.1516090430880519 0 0.090112399325714493 0.1531386480147294 0 0.065696717018467479 0.1516090430880519 0 0.077071079382519517 0.16567790399229149 0 0.056360025134057967 0.1735705498300058 0 0.065696717018467479 0.1516090430880519 0 0.077071079382519517 0.16567790399229149 0 0.056360025134057967 0.1735705498300058 0 0.077071079382519517 0.16567790399229149 0 0.076262922108915235 0.18495345425627829 0 0.056360025134057967 0.1735705498300058 0 0.060334046349422792 0.19805369967617009 0 0.076262922108915235 0.18495345425627829 0 0.096019534381761182 0.1957965044164709 0 0.076262922108915235 0.18495345425627829 0 0.104666077814067 0.1735012353138099 0 0.077071079382519517 0.16567790399229149 0 0.076262922108915235 0.18495345425627829 0 0.104666077814067 0.1735012353138099 0 0.090112399325714493 0.1531386480147294 0 0.077071079382519517 0.16567790399229149 0 0.104666077814067 0.1735012353138099 0 0.090112399325714493 0.1531386480147294 0 0.104666077814067 0.1735012353138099 0 0.1056031111210393 0.15410911727222251 0 0.090112399325714493 0.1531386480147294 0 0.104666077814067 0.1735012353138099 0 0.104666077814067 0.1735012353138099 0 0.11701648891905921 0.1726484390594572 0 0.1056031111210393 0.15410911727222251 0 0.1192197563024195 0.19386382261289031 0 0.11701648891905921 0.1726484390594572 0 0.1284298667170809 0.1911877608466907 0 0.11701648891905921 0.1726484390594572 0 0.1284298667170809 0.1911877608466907 0 0.1192197563024195 0.19386382261289031 0 0.104666077814067 0.1735012353138099 0 0.11701648891905921 0.1726484390594572 0 0.1192197563024195 0.19386382261289031 0 0.104666077814067 0.1735012353138099 0 0.11701648891905921 0.1726484390594572 0 0.1266473481929889 0.16665162540120709 0 0.12998264181339941 0.178320149464292 0 0.11701648891905921 0.1726484390594572 0 0.1056031111210393 0.15410911727222251 0 0.11701648891905921 0.1726484390594572 0 0.1056031111210393 0.15410911727222251 0 0.1266473481929889 0.16665162540120709 0 0.1056031111210393 0.15410911727222251 0 0.13535441289736039 0.15597299054839919 0 0.1266473481929889 0.16665162540120709 0 0.1056031111210393 0.15410911727222251 0 0.1141918515794256 0.13772975337342891 0 0.13535441289736039 0.15597299054839919 0 0.1056031111210393 0.15410911727222251 0 0.13535441289736039 0.15597299054839919 0 0.092867004537188408 0.13342122080082061 0 0.1056031111210393 0.15410911727222251 0 0.1141918515794256 0.13772975337342891 0 0.092867004537188408 0.13342122080082061 0 0.1056031111210393 0.15410911727222251 0 0.090112399325714493 0.1531386480147294 0 0.092867004537188408 0.13342122080082061 0 0.1056031111210393 0.15410911727222251 0 0.090112399325714493 0.1531386480147294 0 0.1056031111210393 0.15410911727222251 0 0.1054688974864019 0.11585052553860981 0 0.092867004537188408 0.13342122080082061 0 0.1141918515794256 0.13772975337342891 0 0.1054688974864019 0.11585052553860981 0 0.1141918515794256 0.13772975337342891 0 0.131665831855138 0.12929491270709259 0 0.131665831855138 0.12929491270709259 0 0.15236718143863839 0.14101254556512741 0 0.15485429302800649 0.1214050614634624 0 0.15236718143863839 0.14101254556512741 0 0.13535441289736039 0.15597299054839919 0 0.1651057146736814 0.15783686382457721 0 0.131665831855138 0.12929491270709259 0 0.15236718143863839 0.14101254556512741 0 0.13535441289736039 0.15597299054839919 0 0.1141918515794256 0.13772975337342891 0 0.131665831855138 0.12929491270709259 0 0.13535441289736039 0.15597299054839919 0 0.13535441289736039 0.15597299054839919 0 0.1266473481929889 0.16665162540120709 0 0.1393217290301299 0.17445327632701441 0 0.11701648891905921 0.1726484390594572 0 0.12998264181339941 0.178320149464292 0 0.1284298667170809 0.1911877608466907 0 0.12998264181339941 0.178320149464292 0 0.13756566857205749 0.18668035779131861 0 0.1284298667170809 0.1911877608466907 0 0.1266473481929889 0.16665162540120709 0 0.12998264181339941 0.178320149464292 0 0.1393217290301299 0.17445327632701441 0 0.12998264181339941 0.178320149464292 0 0.1393217290301299 0.17445327632701441 0 0.13756566857205749 0.18668035779131861 0 0.1393217290301299 0.17445327632701441 0 0.15241876797511619 0.187405752425674 0 0.15313448399021171 0.17125433278188151 0 0.1393217290301299 0.17445327632701441 0 0.13756566857205749 0.18668035779131861 0 0.15241876797511619 0.187405752425674 0 0.13535441289736039 0.15597299054839919 0 0.1393217290301299 0.17445327632701441 0 0.15313448399021171 0.17125433278188151 0 0.13535441289736039 0.15597299054839919 0 0.15313448399021171 0.17125433278188151 0 0.1651057146736814 0.15783686382457721 0 0.13535441289736039 0.15597299054839919 0 0.1651057146736814 0.15783686382457721 0 0.15313448399021171 0.17125433278188151 0 0.1651057146736814 0.15783686382457721 0 0.16918942991009719 0.18071576763963021 0 0.15241876797511619 0.187405752425674 0 0.15313448399021171 0.17125433278188151 0 0.16918942991009719 0.18071576763963021 0 0.16918942991009719 0.18071576763963021 0 0.18560843920780409 0.19226254628251441 0 0.18785664230317409 0.17662345713970021 0 0.1651057146736814 0.15783686382457721 0 0.1948570164500025 0.15970073710075219 0 0.1651057146736814 0.15783686382457721 0 0.16918942991009719 0.18071576763963021 0 0.18785664230317409 0.17662345713970021 0 0.1651057146736814 0.15783686382457721 0 0.1948570164500025 0.15970073710075219 0 0.18785664230317409 0.17662345713970021 0 0.1748556547390058 0.14055289928210579 0 0.1948570164500025 0.15970073710075219 0 0.1651057146736814 0.15783686382457721 0 0.1748556547390058 0.14055289928210579 0 0.1948570164500025 0.15970073710075219 0 0.1748556547390058 0.14055289928210579 0 0.19221318027543469 0.13237860045102201 0 0.17978254766424531 0.12259493100564969 0 0.1748556547390058 0.14055289928210579 0 0.15485429302800649 0.1214050614634624 0 0.17978254766424531 0.12259493100564969 0 0.1748556547390058 0.14055289928210579 0 0.15485429302800649 0.1214050614634624 0 0.15236718143863839 0.14101254556512741 0 0.1748556547390058 0.14055289928210579 0 0.15485429302800649 0.1214050614634624 0 0.15236718143863839 0.14101254556512741 0 0.1651057146736814 0.15783686382457721 0 0.1748556547390058 0.14055289928210579 0 0.13525801617300101 0.22987265546211549 0 0.1476995722134152 0.2337109814060099 0 0.1442232280941956 0.25203027455097049 0 0.1476995722134152 0.2337109814060099 0 0.1442232280941956 0.25203027455097049 0 0.16162570963605849 0.25319555290004903 0 0.1476995722134152 0.2337109814060099 0 0.16162570963605849 0.25319555290004903 0 0.12305392426751099 0.23660690166125781 0 0.13525801617300101 0.22987265546211549 0 0.1442232280941956 0.25203027455097049 0 0.13525801617300101 0.22987265546211549 0 0.1476995722134152 0.2337109814060099 0 0.1337734347907715 0.21422640991197109 0 0.12305392426751099 0.23660690166125781 0 0.13525801617300101 0.22987265546211549 0 0.1337734347907715 0.21422640991197109 0 0.1476995722134152 0.2337109814060099 0 0.1337734347907715 0.21422640991197109 0 0.15887842742386121 0.21397603833538151 0 0.1476995722134152 0.2337109814060099 0 0.1337734347907715 0.21422640991197109 0 0.1337734347907715 0.21422640991197109 0 0.15887842742386121 0.21397603833538151 0 0.1337734347907715 0.21422640991197109 0 0.1398432445151026 0.20972708263392431 0 0.15887842742386121 0.21397603833538151 0 0.1398432445151026 0.20972708263392431 0 0.15169198107693899 0.20198894006105 0 0.15887842742386121 0.21397603833538151 0 0.1192197563024195 0.19386382261289031 0 0.1337734347907715 0.21422640991197109 0 0.1337734347907715 0.21422640991197109 0 0.1398432445151026 0.20972708263392431 0 0.1284298667170809 0.1911877608466907 0 0.1192197563024195 0.19386382261289031 0 0.1337734347907715 0.21422640991197109 0 0.1284298667170809 0.1911877608466907 0 0.1398432445151026 0.20972708263392431 0 0.1284298667170809 0.1911877608466907 0 0.1398432445151026 0.20972708263392431 0 0.1284298667170809 0.1911877608466907 0 0.14206868930132241 0.19568142430035351 0 0.13756566857205749 0.18668035779131861 0 0.1284298667170809 0.1911877608466907 0 0.14206868930132241 0.19568142430035351 0 0.13756566857205749 0.18668035779131861 0 0.15241876797511619 0.187405752425674 0 0.14206868930132241 0.19568142430035351 0 0.1398432445151026 0.20972708263392431 0 0.14206868930132241 0.19568142430035351 0 0.15169198107693899 0.20198894006105 0 0.15241876797511619 0.187405752425674 0 0.14206868930132241 0.19568142430035351 0 0.15169198107693899 0.20198894006105 0 0.15241876797511619 0.187405752425674 0 0.16918942991009719 0.18071576763963021 0 0.16654396007321051 0.1985226481096927 0 0.15241876797511619 0.187405752425674 0 0.15169198107693899 0.20198894006105 0 0.16654396007321051 0.1985226481096927 0 0.16654396007321051 0.1985226481096927 0 0.18560843920780409 0.19226254628251441 0 0.18212330679740421 0.2124709666637945 0 0.16918942991009719 0.18071576763963021 0 0.16654396007321051 0.1985226481096927 0 0.18560843920780409 0.19226254628251441 0 0.18212330679740421 0.2124709666637945 0 0.15887842742386121 0.21397603833538151 0 0.17637909175608851 0.22768311524064599 0 0.16654396007321051 0.1985226481096927 0 0.18212330679740421 0.2124709666637945 0 0.15887842742386121 0.21397603833538151 0 0.15169198107693899 0.20198894006105 0 0.16654396007321051 0.1985226481096927 0 0.15887842742386121 0.21397603833538151 0 0.15887842742386121 0.21397603833538151 0 0.16315042186185211 0.2327770952231949 0 0.17637909175608851 0.22768311524064599 0 0.1476995722134152 0.2337109814060099 0 0.15887842742386121 0.21397603833538151 0 0.16315042186185211 0.2327770952231949 0 0.16315042186185211 0.2327770952231949 0 0.17637909175608851 0.22768311524064599 0 0.1760730435728422 0.24227844884668209 0 0.18212330679740421 0.2124709666637945 0 0.17637909175608851 0.22768311524064599 0 0.18992305820991459 0.23135624815116551 0 0.17637909175608851 0.22768311524064599 0 0.1760730435728422 0.24227844884668209 0 0.18992305820991459 0.23135624815116551 0 0.1760730435728422 0.24227844884668209 0 0.18970113003952641 0.24678134065495691 0 0.18247052713054901 0.25970166619063961 0 0.1760730435728422 0.24227844884668209 0 0.18970113003952641 0.24678134065495691 0 0.18992305820991459 0.23135624815116551 0 0.16315042186185211 0.2327770952231949 0 0.1760730435728422 0.24227844884668209 0 0.16162570963605849 0.25319555290004903 0 0.1476995722134152 0.2337109814060099 0 0.16315042186185211 0.2327770952231949 0 0.16162570963605849 0.25319555290004903 0 0.21131874346998791 0.2493789922516613 0 0.20249052751497881 0.23884585998523031 0 0.19945826437863801 0.25572369430695241 0 0.20249052751497881 0.23884585998523031 0 0.2133355406785139 0.22695204734155119 0 0.22130353977127851 0.23948665527157181 0 0.21131874346998791 0.2493789922516613 0 0.20249052751497881 0.23884585998523031 0 0.22130353977127851 0.23948665527157181 0 0.21131874346998791 0.2493789922516613 0 0.22130353977127851 0.23948665527157181 0 0.22246275293005471 0.25330023484895758 0 0.18970113003952641 0.24678134065495691 0 0.20249052751497881 0.23884585998523031 0 0.19945826437863801 0.25572369430695241 0 0.18970113003952641 0.24678134065495691 0 0.20249052751497881 0.23884585998523031 0 0.18992305820991459 0.23135624815116551 0 0.20249052751497881 0.23884585998523031 0 0.18992305820991459 0.23135624815116551 0 0.19930396016981619 0.22029361383255591 0 0.18212330679740421 0.2124709666637945 0 0.18992305820991459 0.23135624815116551 0 0.19930396016981619 0.22029361383255591 0 0.19930396016981619 0.22029361383255591 0 0.2133355406785139 0.22695204734155119 0 0.21042142735163269 0.21236646675127269 0 0.20249052751497881 0.23884585998523031 0 0.19930396016981619 0.22029361383255591 0 0.2133355406785139 0.22695204734155119 0 0.2133355406785139 0.22695204734155119 0 0.21042142735163269 0.21236646675127269 0 0.22427112079226769 0.2168527805853149 0 0.21042142735163269 0.21236646675127269 0 0.22138134936251211 0.2039519347215932 0 0.22427112079226769 0.2168527805853149 0 0.21042142735163269 0.21236646675127269 0 0.20869268309809591 0.19972830854710391 0 0.22138134936251211 0.2039519347215932 0 0.21042142735163269 0.21236646675127269 0 0.1970651073840364 0.20403259091793399 0 0.20869268309809591 0.19972830854710391 0 0.18212330679740421 0.2124709666637945 0 0.19930396016981619 0.22029361383255591 0 0.1970651073840364 0.20403259091793399 0 0.19930396016981619 0.22029361383255591 0 0.21042142735163269 0.21236646675127269 0 0.1970651073840364 0.20403259091793399 0 0.18560843920780409 0.19226254628251441 0 0.1970651073840364 0.20403259091793399 0 0.20133516657296011 0.1899769287215142 0 0.1970651073840364 0.20403259091793399 0 0.20133516657296011 0.1899769287215142 0 0.20869268309809591 0.19972830854710391 0 0.18560843920780409 0.19226254628251441 0 0.18212330679740421 0.2124709666637945 0 0.1970651073840364 0.20403259091793399 0 0.20133516657296011 0.1899769287215142 0 0.20869268309809591 0.19972830854710391 0 0.21492352204666079 0.19285404868331271 0 0.20869268309809591 0.19972830854710391 0 0.21492352204666079 0.19285404868331271 0 0.22138134936251211 0.2039519347215932 0 0.21492352204666079 0.19285404868331271 0 0.23051993531648879 0.1938418019173184 0 0.21268847588324699 0.17677126950903391 0 0.21492352204666079 0.19285404868331271 0 0.23051993531648879 0.1938418019173184 0 0.22138134936251211 0.2039519347215932 0 0.23051993531648879 0.1938418019173184 0 0.23605621951793329 0.2086446298553008 0 0.22138134936251211 0.2039519347215932 0 0.23765570040088591 0.18192630905314369 0 0.2568408273998305 0.18193715761232529 0 0.25136959817773169 0.20368495171826209 0 0.23051993531648879 0.1938418019173184 0 0.23765570040088591 0.18192630905314369 0 0.25136959817773169 0.20368495171826209 0 0.23051993531648879 0.1938418019173184 0 0.23605621951793329 0.2086446298553008 0 0.25136959817773169 0.20368495171826209 0 0.23765570040088591 0.18192630905314369 0 0.25136959817773169 0.20368495171826209 0 0.23605621951793329 0.2086446298553008 0 0.24742000383649551 0.21938434230277379 0 0.25136959817773169 0.20368495171826209 0 0.24742000383649551 0.21938434230277379 0 0.25136959817773169 0.20368495171826209 0 0.23605621951793329 0.2086446298553008 0 0.23608963055198889 0.22129135418870599 0 0.24742000383649551 0.21938434230277379 0 0.23605621951793329 0.2086446298553008 0 0.22427112079226769 0.2168527805853149 0 0.23608963055198889 0.22129135418870599 0 0.23605621951793329 0.2086446298553008 0 0.22138134936251211 0.2039519347215932 0 0.22427112079226769 0.2168527805853149 0 0.2133355406785139 0.22695204734155119 0 0.22427112079226769 0.2168527805853149 0 0.2287247239075394 0.23022025815349489 0 0.2133355406785139 0.22695204734155119 0 0.2287247239075394 0.23022025815349489 0 0.22130353977127851 0.23948665527157181 0 0.22427112079226769 0.2168527805853149 0 0.2287247239075394 0.23022025815349489 0 0.23608963055198889 0.22129135418870599 0 0.24742000383649551 0.21938434230277379 0 0.24347040949526061 0.2350837328872859 0 0.23608963055198889 0.22129135418870599 0 0.24742000383649551 0.21938434230277379 0 0.24347040949526061 0.2350837328872859 0 0.24742000383649551 0.21938434230277379 0 0.24347040949526061 0.2350837328872859 0 0.25722121739327919 0.23385241047001359 0 0.2287247239075394 0.23022025815349489 0 0.23608963055198889 0.22129135418870599 0 0.24347040949526061 0.2350837328872859 0 0.234504398262533 0.24393984708139541 0 0.23664732049891851 0.25763849948676387 0 0.25441764297214658 0.24790970184029809 0 0.2287247239075394 0.23022025815349489 0 0.24347040949526061 0.2350837328872859 0 0.234504398262533 0.24393984708139541 0 0.24347040949526061 0.2350837328872859 0 0.234504398262533 0.24393984708139541 0 0.25441764297214658 0.24790970184029809 0 0.2287247239075394 0.23022025815349489 0 0.234504398262533 0.24393984708139541 0 0.22130353977127851 0.23948665527157181 0 0.234504398262533 0.24393984708139541 0 0.22130353977127851 0.23948665527157181 0 0.22246275293005471 0.25330023484895758 0 0.20954344656864721 0.15263534961717329 0 0.21022790484719259 0.13840902372290789 0 0.2239418026240392 0.16016766638802571 0 0.21022790484719259 0.13840902372290789 0 0.2239418026240392 0.16016766638802571 0 0.21022790484719259 0.13840902372290789 0 0.2239418026240392 0.16016766638802571 0 0.22197629335813429 0.13884601301957239 0 0.20954344656864721 0.15263534961717329 0 0.21022790484719259 0.13840902372290789 0 0.1979784674235637 0.14422125435407271 0 0.22197629335813429 0.13884601301957239 0 0.21513325645953349 0.116818036128657 0 0.21022790484719259 0.13840902372290789 0 0.22197629335813429 0.13884601301957239 0 0.21513325645953349 0.116818036128657 0 0.21022790484719259 0.13840902372290789 0 0.19651400707034589 0.1166503810577899 0 0.21022790484719259 0.13840902372290789 0 0.19221318027543469 0.13237860045102201 0 0.19651400707034589 0.1166503810577899 0 0.21022790484719259 0.13840902372290789 0 0.19221318027543469 0.13237860045102201 0 0.1979784674235637 0.14422125435407271 0 0.1748556547390058 0.14055289928210579 0 0.19221318027543469 0.13237860045102201 0 0.1979784674235637 0.14422125435407271 0 0.1748556547390058 0.14055289928210579 0 0.1979784674235637 0.14422125435407271 0 0.1948570164500025 0.15970073710075219 0 0.20954344656864721 0.15263534961717329 0 0.1979784674235637 0.14422125435407271 0 0.1948570164500025 0.15970073710075219 0 0.1948570164500025 0.15970073710075219 0 0.18785664230317409 0.17662345713970021 0 0.21268847588324699 0.17677126950903391 0 0.18560843920780409 0.19226254628251441 0 0.20133516657296011 0.1899769287215142 0 0.18785664230317409 0.17662345713970021 0 0.20133516657296011 0.1899769287215142 0 0.18785664230317409 0.17662345713970021 0 0.21268847588324699 0.17677126950903391 0 0.20133516657296011 0.1899769287215142 0 0.21492352204666079 0.19285404868331271 0 0.21268847588324699 0.17677126950903391 0 0.1948570164500025 0.15970073710075219 0 0.2190047218656179 0.16121355368752399 0 0.1948570164500025 0.15970073710075219 0 0.21268847588324699 0.17677126950903391 0 0.2190047218656179 0.16121355368752399 0 0.20954344656864721 0.15263534961717329 0 0.1948570164500025 0.15970073710075219 0 0.2190047218656179 0.16121355368752399 0 0.1948570164500025 0.15970073710075219 0 0.21268847588324699 0.17677126950903391 0 0.21268847588324699 0.17677126950903391 0 0.2190047218656179 0.16121355368752399 0 0.221640751708714 0.16672440516291259 0 0.20954344656864721 0.15263534961717329 0 0.2239418026240392 0.16016766638802571 0 0.2190047218656179 0.16121355368752399 0 0.2239418026240392 0.16016766638802571 0 0.23765570040088591 0.18192630905314369 0 0.2239418026240392 0.16016766638802571 0 0.23765570040088591 0.18192630905314369 0 0.24066336315928 0.16482958354630589 0 0.2239418026240392 0.16016766638802571 0 0.2239268955492377 0.17227291511140011 0 0.23765570040088591 0.18192630905314369 0 0.2239418026240392 0.16016766638802571 0 0.24066336315928 0.16482958354630589 0 0.2346222391768944 0.15586764511817169 0 0.2239418026240392 0.16016766638802571 0 0.2190047218656179 0.16121355368752399 0 0.221640751708714 0.16672440516291259 0 0.2239418026240392 0.16016766638802571 0 0.221640751708714 0.16672440516291259 0 0.2239268955492377 0.17227291511140011 0 0.23051993531648879 0.1938418019173184 0 0.21268847588324699 0.17677126950903391 0 0.2239268955492377 0.17227291511140011 0 0.23051993531648879 0.1938418019173184 0 0.21268847588324699 0.17677126950903391 0 0.23051993531648879 0.1938418019173184 0 0.2239268955492377 0.17227291511140011 0 0.23765570040088591 0.18192630905314369 0 0.21268847588324699 0.17677126950903391 0 0.221640751708714 0.16672440516291259 0 0.2239268955492377 0.17227291511140011 0 0.24780302750714781 0.17412976653985421 0 0.23765570040088591 0.18192630905314369 0 0.2568408273998305 0.18193715761232529 0 0.24780302750714781 0.17412976653985421 0 0.23765570040088591 0.18192630905314369 0 0.24066336315928 0.16482958354630589 0 0.24066336315928 0.16482958354630589 0 0.24254506237559051 0.1497550156088826 0 0.26231205662193069 0.1601893635063889 0 0.24066336315928 0.16482958354630589 0 0.24254506237559051 0.1497550156088826 0 0.2346222391768944 0.15586764511817169 0 0.24254506237559051 0.1497550156088826 0 0.23133872854866769 0.1487183149294726 0 0.2357262102127046 0.13715525956188471 0 0.24254506237559051 0.1497550156088826 0 0.2346222391768944 0.15586764511817169 0 0.23133872854866769 0.1487183149294726 0 0.2239418026240392 0.16016766638802571 0 0.23133872854866769 0.1487183149294726 0 0.22197629335813429 0.13884601301957239 0 0.2239418026240392 0.16016766638802571 0 0.2346222391768944 0.15586764511817169 0 0.23133872854866769 0.1487183149294726 0 0.23133872854866769 0.1487183149294726 0 0.22197629335813429 0.13884601301957239 0 0.2357262102127046 0.13715525956188471 0 0.22197629335813429 0.13884601301957239 0 0.22905349801622699 0.12656021460330269 0 0.21513325645953349 0.116818036128657 0 0.22197629335813429 0.13884601301957239 0 0.22905349801622699 0.12656021460330269 0 0.2357262102127046 0.13715525956188471 0 0.22905349801622699 0.12656021460330269 0 0.2357262102127046 0.13715525956188471 0 0.2397304270761822 0.1249430643331545 0 0.2357262102127046 0.13715525956188471 0 0.2397304270761822 0.1249430643331545 0 0.25199165290369641 0.1345468461551938 0 0.24254506237559051 0.1497550156088826 0 0.2357262102127046 0.13715525956188471 0 0.25199165290369641 0.1345468461551938 0 0.24932500594124729 0.1118728355212248 0 0.23510302987519779 0.1028101741567013 0 0.23250014201588881 0.1147250007980089 0 0.24932500594124729 0.1118728355212248 0 0.2397304270761822 0.1249430643331545 0 0.25199165290369641 0.1345468461551938 0 0.24932500594124729 0.1118728355212248 0 0.2397304270761822 0.1249430643331545 0 0.23250014201588881 0.1147250007980089 0 0.23510302987519779 0.1028101741567013 0 0.2316027499149369 0.089430264567802509 0 0.2546281228741103 0.094958559506332127 0 0.24932500594124729 0.1118728355212248 0 0.23510302987519779 0.1028101741567013 0 0.2546281228741103 0.094958559506332127 0 0.23510302987519779 0.1028101741567013 0 0.2546281228741103 0.094958559506332127 0 0.23510302987519779 0.1028101741567013 0 0.22322592084563581 0.099997234586910358 0 0.2316027499149369 0.089430264567802509 0 0.23510302987519779 0.1028101741567013 0 0.22322592084563581 0.099997234586910358 0 0.23250014201588881 0.1147250007980089 0 0.22322592084563581 0.099997234586910358 0 0.23250014201588881 0.1147250007980089 0 0.21513325645953349 0.116818036128657 0 0.22905349801622699 0.12656021460330269 0 0.23250014201588881 0.1147250007980089 0 0.21513325645953349 0.116818036128657 0 0.22905349801622699 0.12656021460330269 0 0.2397304270761822 0.1249430643331545 0 0.23250014201588881 0.1147250007980089 0 0.21513325645953349 0.116818036128657 0 0.2018806021128392 0.1065723293351344 0 0.19651400707034589 0.1166503810577899 0 0.21022790484719259 0.13840902372290789 0 0.21513325645953349 0.116818036128657 0 0.19651400707034589 0.1166503810577899 0 0.21513325645953349 0.116818036128657 0 0.20829021956093269 0.094790059237741559 0 0.2018806021128392 0.1065723293351344 0 0.22322592084563581 0.099997234586910358 0 0.21513325645953349 0.116818036128657 0 0.20829021956093269 0.094790059237741559 0 0.21513325645953349 0.116818036128657 0 0.20829021956093269 0.094790059237741559 0 0.2018806021128392 0.1065723293351344 0 0.1958619730946313 0.097808670957574298 0 0.19360355437875251 0.1067944992939094 0 0.20829021956093269 0.094790059237741559 0 0.2018806021128392 0.1065723293351344 0 0.1958619730946313 0.097808670957574298 0 0.20829021956093269 0.094790059237741559 0 0.1958619730946313 0.097808670957574298 0 0.19709748741670999 0.090728151833136247 0 0.1958619730946313 0.097808670957574298 0 0.19129531070079989 0.093400060088487669 0 0.187390865421457 0.1005742481980705 0 0.1958619730946313 0.097808670957574298 0 0.19129531070079989 0.093400060088487669 0 0.19709748741670999 0.090728151833136247 0 0.1958619730946313 0.097808670957574298 0 0.19360355437875251 0.1067944992939094 0 0.187390865421457 0.1005742481980705 0 0.19360355437875251 0.1067944992939094 0 0.1852631882771022 0.1103064222916595 0 0.187390865421457 0.1005742481980705 0 0.19221318027543469 0.13237860045102201 0 0.19651400707034589 0.1166503810577899 0 0.17978254766424531 0.12259493100564969 0 0.19360355437875251 0.1067944992939094 0 0.19651400707034589 0.1166503810577899 0 0.1852631882771022 0.1103064222916595 0 0.2018806021128392 0.1065723293351344 0 0.19360355437875251 0.1067944992939094 0 0.19651400707034589 0.1166503810577899 0 0.19698874856301429 0.077603468408722287 0 0.20144718266233089 0.072762082346826351 0 0.19819052059904951 0.083396227630900543 0 0.19698874856301429 0.077603468408722287 0 0.20144718266233089 0.072762082346826351 0 0.19646787786253739 0.07000982240618886 0 0.20144718266233089 0.072762082346826351 0 0.19646787786253739 0.07000982240618886 0 0.20144718266233089 0.072762082346826351 0 0.19920107519361771 0.065531783263464982 0 0.20144718266233089 0.072762082346826351 0 0.19920107519361771 0.065531783263464982 0 0.19646787786253739 0.07000982240618886 0 0.19920107519361771 0.065531783263464982 0 0.19646787786253739 0.07000982240618886 0 0.19646787786253739 0.07000982240618886 0 0.1840521404545625 0.063147150190790549 0 0.19920107519361771 0.065531783263464982 0 0.19646787786253739 0.07000982240618886 0 0.1840521404545625 0.063147150190790549 0 0.19698874856301429 0.077603468408722287 0 0.19646787786253739 0.07000982240618886 0 0.19184941312813639 0.084245741250977141 0 0.19646787786253739 0.07000982240618886 0 0.19184941312813639 0.084245741250977141 0 0.18129956789963089 0.094861407387070468 0 0.20829021956093269 0.094790059237741559 0 0.20144718266233089 0.072762082346826351 0 0.19819052059904951 0.083396227630900543 0 0.19646787786253739 0.07000982240618886 0 0.18129956789963089 0.094861407387070468 0 0.19184941312813639 0.084245741250977141 0 0.19129531070079989 0.093400060088487669 0 0.19709748741670999 0.090728151833136247 0 0.19184941312813639 0.084245741250977141 0 0.19129531070079989 0.093400060088487669 0 0.18129956789963089 0.094861407387070468 0 0.20829021956093269 0.094790059237741559 0 0.19709748741670999 0.090728151833136247 0 0.19819052059904951 0.083396227630900543 0 0.19184941312813639 0.084245741250977141 0 0.19709748741670999 0.090728151833136247 0 0.19819052059904951 0.083396227630900543 0 0.19698874856301429 0.077603468408722287 0 0.19184941312813639 0.084245741250977141 0 0.19819052059904951 0.083396227630900543 0 0.20829021956093269 0.094790059237741559 0 0.20144718266233089 0.072762082346826351 0 0.2165249662886336 0.081096173457315041 0 0.22322592084563581 0.099997234586910358 0 0.20829021956093269 0.094790059237741559 0 0.2165249662886336 0.081096173457315041 0 0.20829021956093269 0.094790059237741559 0 0.20144718266233089 0.072762082346826351 0 0.2165249662886336 0.081096173457315041 0 0.20993135765310961 0.066194872759280723 0 0.22161208338032271 0.065173199991071809 0 0.20144718266233089 0.072762082346826351 0 0.2165249662886336 0.081096173457315041 0 0.20993135765310961 0.066194872759280723 0 0.20144718266233089 0.072762082346826351 0 0.2165249662886336 0.081096173457315041 0 0.20144718266233089 0.072762082346826351 0 0.19920107519361771 0.065531783263464982 0 0.20993135765310961 0.066194872759280723 0 0.22161208338032271 0.065173199991071809 0 0.23095274934916341 0.076677493792800977 0 0.24132666046800741 0.066180119348205529 0 0.2165249662886336 0.081096173457315041 0 0.22161208338032271 0.065173199991071809 0 0.23095274934916341 0.076677493792800977 0 0.22322592084563581 0.099997234586910358 0 0.2165249662886336 0.081096173457315041 0 0.2316027499149369 0.089430264567802509 0 0.2165249662886336 0.081096173457315041 0 0.23095274934916341 0.076677493792800977 0 0.2316027499149369 0.089430264567802509 0 0.2165249662886336 0.081096173457315041 0 0.2316027499149369 0.089430264567802509 0 0.2316027499149369 0.089430264567802509 0 0.2436972866939166 0.081507711599609969 0 0.2546281228741103 0.094958559506332127 0 0.23095274934916341 0.076677493792800977 0 0.2316027499149369 0.089430264567802509 0 0.2436972866939166 0.081507711599609969 0 0.2436972866939166 0.081507711599609969 0 0.24132666046800741 0.066180119348205529 0 0.25705271012520919 0.077488554394347819 0 0.23095274934916341 0.076677493792800977 0 0.2436972866939166 0.081507711599609969 0 0.24132666046800741 0.066180119348205529 0 0.23048462031595951 0.049355683739318167 0 0.25009775989127631 0.05230024274091076 0 0.24132666046800741 0.066180119348205529 0 0.23048462031595951 0.049355683739318167 0 0.25009775989127631 0.05230024274091076 0 0.24279129669631569 0.032872396146936912 0 0.23048462031595951 0.049355683739318167 0 0.25009775989127631 0.05230024274091076 0 0.24279129669631569 0.032872396146936912 0 0.25649826695208849 0.041047730419899557 0 0.25009775989127631 0.05230024274091076 0 0.23048462031595951 0.049355683739318167 0 0.22118183904709271 0.029518752003874351 0 0.2108714807406421 0.046411124737728897 0 0.24279129669631569 0.032872396146936912 0 0.23048462031595951 0.049355683739318167 0 0.22118183904709271 0.029518752003874351 0 0.23048462031595951 0.049355683739318167 0 0.2108714807406421 0.046411124737728897 0 0.22161208338032271 0.065173199991071809 0 0.24132666046800741 0.066180119348205529 0 0.23048462031595951 0.049355683739318167 0 0.22161208338032271 0.065173199991071809 0 0.23048462031595951 0.049355683739318167 0 0.2108714807406421 0.046411124737728897 0 0.24998674372915189 0.01458089409504751 0 0.23149219735354221 0.01262637927001911 0 0.24263170208881479 -0.00092825196113245905 0 0.24279129669631569 0.032872396146936912 0 0.24998674372915189 0.01458089409504751 0 0.23149219735354221 0.01262637927001911 0 0.22118183904709271 0.029518752003874351 0 0.23149219735354221 0.01262637927001911 0 0.22118183904709271 0.029518752003874351 0 0.23149219735354221 0.01262637927001911 0 0.2187391106936816 0.01405135076674746 0 0.24279129669631569 0.032872396146936912 0 0.22118183904709271 0.029518752003874351 0 0.23149219735354221 0.01262637927001911 0 0.23149219735354221 0.01262637927001911 0 0.2187391106936816 0.01405135076674746 0 0.2230911027585212 -0.00300444849190212 0 0.23149219735354221 0.01262637927001911 0 0.24263170208881479 -0.00092825196113245905 0 0.2230911027585212 -0.00300444849190212 0 0.20924513839579101 0.0066470635618813591 0 0.2187391106936816 0.01405135076674746 0 0.2230911027585212 -0.00300444849190212 0 0.20924513839579101 0.0066470635618813591 0 0.19717399826065679 0.0040199428482687056 0 0.20703547109322701 -0.0072914687850257074 0 0.20924513839579101 0.0066470635618813591 0 0.2187391106936816 0.01405135076674746 0 0.20773391585310169 0.020981926346357441 0 0.20924513839579101 0.0066470635618813591 0 0.20773391585310169 0.020981926346357441 0 0.19806548007515701 0.015004109126281671 0 0.22118183904709271 0.029518752003874351 0 0.20773391585310169 0.020981926346357441 0 0.20236178434005381 0.03299808713393422 0 0.22118183904709271 0.029518752003874351 0 0.2187391106936816 0.01405135076674746 0 0.20773391585310169 0.020981926346357441 0 0.20773391585310169 0.020981926346357441 0 0.1968294092944034 0.024757780617569281 0 0.20236178434005381 0.03299808713393422 0 0.1968294092944034 0.024757780617569281 0 0.18812448312884339 0.029875843123376138 0 0.20236178434005381 0.03299808713393422 0 0.18812448312884339 0.029875843123376138 0 0.18941463712227791 0.01933520027646787 0 0.1968294092944034 0.024757780617569281 0 0.18812448312884339 0.029875843123376138 0 0.18941463712227791 0.01933520027646787 0 0.1968294092944034 0.024757780617569281 0 0.18941463712227791 0.01933520027646787 0 0.19806548007515701 0.015004109126281671 0 0.20773391585310169 0.020981926346357441 0 0.1968294092944034 0.024757780617569281 0 0.19806548007515701 0.015004109126281671 0 0.20924513839579101 0.0066470635618813591 0 0.19806548007515701 0.015004109126281671 0 0.19717399826065679 0.0040199428482687056 0 0.19806548007515701 0.015004109126281671 0 0.1883076713309137 0.010050239428672759 0 0.19717399826065679 0.0040199428482687056 0 0.18941463712227791 0.01933520027646787 0 0.19806548007515701 0.015004109126281671 0 0.1883076713309137 0.010050239428672759 0 0.1883076713309137 0.010050239428672759 0 0.19717399826065679 0.0040199428482687056 0 0.1838759129170939 -0.00020578767487325849 0 0.19920107519361771 0.065531783263464982 0 0.20993135765310961 0.066194872759280723 0 0.2108714807406421 0.046411124737728897 0 0.19920107519361771 0.065531783263464982 0 0.2108714807406421 0.046411124737728897 0 0.20993135765310961 0.066194872759280723 0 0.22161208338032271 0.065173199991071809 0 0.2108714807406421 0.046411124737728897 0 0.22118183904709271 0.029518752003874351 0 0.2108714807406421 0.046411124737728897 0 0.20236178434005381 0.03299808713393422 0 0.22118183904709271 0.029518752003874351 0 0.2108714807406421 0.046411124737728897 0 0.2108714807406421 0.046411124737728897 0 0.19239970107571761 0.043637920331621317 0 0.2108714807406421 0.046411124737728897 0 0.20236178434005381 0.03299808713393422 0 0.19239970107571761 0.043637920331621317 0 0.18812448312884339 0.029875843123376138 0 0.20236178434005381 0.03299808713393422 0 0.19239970107571761 0.043637920331621317 0 0.18812448312884339 0.029875843123376138 0 0.19239970107571761 0.043637920331621317 0 0.18812448312884339 0.029875843123376138 0 0.19239970107571761 0.043637920331621317 0 0.1865475698183808 0.042759328421026671 0 0.19239970107571761 0.043637920331621317 0 0.1865475698183808 0.042759328421026671 0 0.19920107519361771 0.065531783263464982 0 0.19239970107571761 0.043637920331621317 0 0.19239970107571761 0.043637920331621317 0 0.1865475698183808 0.042759328421026671 0 0.1840521404545625 0.063147150190790549 0 0.19920107519361771 0.065531783263464982 0 0.19239970107571761 0.043637920331621317 0 0.1840521404545625 0.063147150190790549 0 0.19920107519361771 0.065531783263464982 0 0.2108714807406421 0.046411124737728897 0 0.19239970107571761 0.043637920331621317 0 0.1667148957263194 0.053564165002043702 0 0.1840521404545625 0.063147150190790549 0 0.1865475698183808 0.042759328421026671 0 0.1667148957263194 0.053564165002043702 0 0.1840521404545625 0.063147150190790549 0 0.1865475698183808 0.042759328421026671 0 0.1840521404545625 0.063147150190790549 0 0.18812448312884339 0.029875843123376138 0 0.1865475698183808 0.042759328421026671 0 0.173488935941983 0.026551776886557701 0 0.1865475698183808 0.042759328421026671 0 0.1663147236463115 0.039721731656109913 0 0.173488935941983 0.026551776886557701 0 0.1865475698183808 0.042759328421026671 0 0.1663147236463115 0.039721731656109913 0 0.1667148957263194 0.053564165002043702 0 0.1865475698183808 0.042759328421026671 0 0.1663147236463115 0.039721731656109913 0 0.18812448312884339 0.029875843123376138 0 0.1865475698183808 0.042759328421026671 0 0.1663147236463115 0.039721731656109913 0 0.173488935941983 0.026551776886557701 0 0.15677270178437039 0.027819780268282621 0 0.1663147236463115 0.039721731656109913 0 0.1667148957263194 0.053564165002043702 0 0.14937765099807629 0.043981179813296883 0 0.1663147236463115 0.039721731656109913 0 0.15677270178437039 0.027819780268282621 0 0.14608187747424189 0.036684134891194223 0 0.1667148957263194 0.053564165002043702 0 0.14937765099807629 0.043981179813296883 0 0.1667148957263194 0.053564165002043702 0 0.14937765099807629 0.043981179813296883 0 0.16005992225841681 0.067632384209813587 0 0.1791784056994373 0.008018320492102533 0 0.16943111426023069 0.0044822841073192208 0 0.1838759129170939 -0.00020578767487325849 0 0.1883076713309137 0.010050239428672759 0 0.1791784056994373 0.008018320492102533 0 0.1838759129170939 -0.00020578767487325849 0 0.1883076713309137 0.010050239428672759 0 0.18310458036210209 0.01371659924102457 0 0.1791784056994373 0.008018320492102533 0 0.18941463712227791 0.01933520027646787 0 0.1883076713309137 0.010050239428672759 0 0.18310458036210209 0.01371659924102457 0 0.18310458036210209 0.01371659924102457 0 0.1728468143574966 0.014749247564900869 0 0.1791784056994373 0.008018320492102533 0 0.1728468143574966 0.014749247564900869 0 0.1791784056994373 0.008018320492102533 0 0.16943111426023069 0.0044822841073192208 0 0.18812448312884339 0.029875843123376138 0 0.18310458036210209 0.01371659924102457 0 0.18812448312884339 0.029875843123376138 0 0.18941463712227791 0.01933520027646787 0 0.18310458036210209 0.01371659924102457 0 0.18812448312884339 0.029875843123376138 0 0.18310458036210209 0.01371659924102457 0 0.173488935941983 0.026551776886557701 0 0.18310458036210209 0.01371659924102457 0 0.1728468143574966 0.014749247564900869 0 0.173488935941983 0.026551776886557701 0 0.173488935941983 0.026551776886557701 0 0.15677270178437039 0.027819780268282621 0 0.1600550832171144 0.014578440734696781 0 0.1728468143574966 0.014749247564900869 0 0.173488935941983 0.026551776886557701 0 0.1600550832171144 0.014578440734696781 0 0.1600550832171144 0.014578440734696781 0 0.16943111426023069 0.0044822841073192208 0 0.15318218741943701 -0.0010446543047324449 0 0.1728468143574966 0.014749247564900869 0 0.1600550832171144 0.014578440734696781 0 0.16943111426023069 0.0044822841073192208 0 0.1600550832171144 0.014578440734696781 0 0.13470805044767281 0.01150178357094943 0 0.15318218741943701 -0.0010446543047324449 0 0.15677270178437039 0.027819780268282621 0 0.1600550832171144 0.014578440734696781 0 0.13470805044767281 0.01150178357094943 0 0.15677270178437039 0.027819780268282621 0 0.13470805044767281 0.01150178357094943 0 0.14608187747424189 0.036684134891194223 0 0.12276105777316861 0.03318293462126308 0 0.13470805044767281 0.01150178357094943 0 0.14608187747424189 0.036684134891194223 0 0.13470805044767281 0.01150178357094943 0 0.14608187747424189 0.036684134891194223 0 0.1118186485924335 0.0077199284828837469 0 0.13470805044767281 0.01150178357094943 0 0.13269467940095861 -0.0063507146358696351 0 0.13470805044767281 0.01150178357094943 0 0.15318218741943701 -0.0010446543047324449 0 0.13269467940095861 -0.0063507146358696351 0 0.14937765099807629 0.043981179813296883 0 0.16005992225841681 0.067632384209813587 0 0.14937765099807629 0.043981179813296883 0 0.14634542390537739 0.065197229746505131 0 0.16005992225841681 0.067632384209813587 0 0.14937765099807629 0.043981179813296883 0 0.1403405813832577 0.051689950440878443 0 0.14634542390537739 0.065197229746505131 0 0.1663147236463115 0.039721731656109913 0 0.14608187747424189 0.036684134891194223 0 0.1663147236463115 0.039721731656109913 0 0.14937765099807629 0.043981179813296883 0 0.14608187747424189 0.036684134891194223 0 0.14937765099807629 0.043981179813296883 0 0.14357919360625929 0.040776141632527352 0 0.1403405813832577 0.051689950440878443 0 0.14937765099807629 0.043981179813296883 0 0.14357919360625929 0.040776141632527352 0 0.14937765099807629 0.043981179813296883 0 0.14608187747424189 0.036684134891194223 0 0.14357919360625929 0.040776141632527352 0 0.14937765099807629 0.043981179813296883 0 0.14608187747424189 0.036684134891194223 0 0.12276105777316861 0.03318293462126308 0 0.14608187747424189 0.036684134891194223 0 0.14357919360625929 0.040776141632527352 0 0.12276105777316861 0.03318293462126308 0 0.14357919360625929 0.040776141632527352 0 0.1304731944957114 0.049550342611291563 0 0.12276105777316861 0.03318293462126308 0 0.14608187747424189 0.036684134891194223 0 0.1152325288965009 0.0571959948370548 0 0.1304731944957114 0.049550342611291563 0 0.1310985870178813 0.064564329870870199 0 0.14357919360625929 0.040776141632527352 0 0.1304731944957114 0.049550342611291563 0 0.1403405813832577 0.051689950440878443 0 0.1403405813832577 0.051689950440878443 0 0.1310985870178813 0.064564329870870199 0 0.14634542390537739 0.065197229746505131 0 0.1304731944957114 0.049550342611291563 0 0.1403405813832577 0.051689950440878443 0 0.1310985870178813 0.064564329870870199 0 0.1310985870178813 0.064564329870870199 0 0.14634542390537739 0.065197229746505131 0 0.13412762258307259 0.081424581257826756 0 0.11485156960600799 0.083109385826175483 0 0.1310985870178813 0.064564329870870199 0 0.13412762258307259 0.081424581257826756 0 0.14634542390537739 0.065197229746505131 0 0.15141932291787721 0.085890867427506984 0 0.13412762258307259 0.081424581257826756 0 0.14634542390537739 0.065197229746505131 0 0.15141932291787721 0.085890867427506984 0 0.16005992225841681 0.067632384209813587 0 0.15141932291787721 0.085890867427506984 0 0.13412762258307259 0.081424581257826756 0 0.13485293131700729 0.102257223644819 0 0.11485156960600799 0.083109385826175483 0 0.13412762258307259 0.081424581257826756 0 0.13485293131700729 0.102257223644819 0 0.131665831855138 0.12929491270709259 0 0.13485293131700729 0.102257223644819 0 0.15485429302800649 0.1214050614634624 0 0.13485293131700729 0.102257223644819 0 0.15485429302800649 0.1214050614634624 0 0.13485293131700729 0.102257223644819 0 0.15485429302800649 0.1214050614634624 0 0.16244720385653949 0.10495153337695989 0 0.15141932291787721 0.085890867427506984 0 0.13485293131700729 0.102257223644819 0 0.16244720385653949 0.10495153337695989 0 0.15141932291787721 0.085890867427506984 0 0.16244720385653949 0.10495153337695989 0 0.17074219351875741 0.091283588606330138 0 0.16244720385653949 0.10495153337695989 0 0.1794015391418714 0.1011428683065299 0 0.17074219351875741 0.091283588606330138 0 0.15485429302800649 0.1214050614634624 0 0.17491055824625409 0.11060825277299401 0 0.17978254766424531 0.12259493100564969 0 0.15485429302800649 0.1214050614634624 0 0.16244720385653949 0.10495153337695989 0 0.17491055824625409 0.11060825277299401 0 0.19651400707034589 0.1166503810577899 0 0.1852631882771022 0.1103064222916595 0 0.17978254766424531 0.12259493100564969 0 0.17491055824625409 0.11060825277299401 0 0.1852631882771022 0.1103064222916595 0 0.17978254766424531 0.12259493100564969 0 0.16244720385653949 0.10495153337695989 0 0.17491055824625409 0.11060825277299401 0 0.1794015391418714 0.1011428683065299 0 0.1852631882771022 0.1103064222916595 0 0.1794015391418714 0.1011428683065299 0 0.187390865421457 0.1005742481980705 0 0.17491055824625409 0.11060825277299401 0 0.1852631882771022 0.1103064222916595 0 0.1794015391418714 0.1011428683065299 0 0.19129531070079989 0.093400060088487669 0 0.187390865421457 0.1005742481980705 0 0.18129956789963089 0.094861407387070468 0 0.1794015391418714 0.1011428683065299 0 0.187390865421457 0.1005742481980705 0 0.18129956789963089 0.094861407387070468 0 0.18172683979821691 0.082145009248660264 0 0.17319063870500409 0.071458959344358433 0 0.17074219351875741 0.091283588606330138 0 0.1794015391418714 0.1011428683065299 0 0.18129956789963089 0.094861407387070468 0 0.18172683979821691 0.082145009248660264 0 0.19646787786253739 0.07000982240618886 0 0.18129956789963089 0.094861407387070468 0 0.18172683979821691 0.082145009248660264 0 0.1794015391418714 0.1011428683065299 0 0.18172683979821691 0.082145009248660264 0 0.17074219351875741 0.091283588606330138 0 0.1794015391418714 0.1011428683065299 0 0.18172683979821691 0.082145009248660264 0 0.18172683979821691 0.082145009248660264 0 0.17319063870500409 0.071458959344358433 0 0.1840521404545625 0.063147150190790549 0 0.19646787786253739 0.07000982240618886 0 0.18172683979821691 0.082145009248660264 0 0.1840521404545625 0.063147150190790549 0 0.18172683979821691 0.082145009248660264 0 0.1840521404545625 0.063147150190790549 0 0.1667148957263194 0.053564165002043702 0 0.17319063870500409 0.071458959344358433 0 0.1840521404545625 0.063147150190790549 0 0.17319063870500409 0.071458959344358433 0 0.16005992225841681 0.067632384209813587 0 0.17074219351875741 0.091283588606330138 0 0.1667148957263194 0.053564165002043702 0 0.17319063870500409 0.071458959344358433 0 0.16005992225841681 0.067632384209813587 0 0.15141932291787721 0.085890867427506984 0 0.16005992225841681 0.067632384209813587 0 0.17074219351875741 0.091283588606330138 0 0.16005992225841681 0.067632384209813587 0 0.17074219351875741 0.091283588606330138 0 0.09772770043964811 0.47490323412458613 0 0.1009156095025974 0.5 0 0.11662774865761159 0.4833383640317383 0 0.1009156095025974 0.5 0 0.11662774865761159 0.4833383640317383 0 0.12847451271499499 0.5 0 0.11662774865761159 0.4833383640317383 0 0.1195523704859263 0.4631571519766276 0 0.1364685501448912 0.47863143405747771 0 0.09772770043964811 0.47490323412458613 0 0.11662774865761159 0.4833383640317383 0 0.1195523704859263 0.4631571519766276 0 0.1030725489115699 0.44862884044212331 0 0.10573483365955701 0.42412254013190681 0 0.1251466826282692 0.44222114923196132 0 0.1195523704859263 0.4631571519766276 0 0.1030725489115699 0.44862884044212331 0 0.1251466826282692 0.44222114923196132 0 0.09772770043964811 0.47490323412458613 0 0.1030725489115699 0.44862884044212331 0 0.082131301498617026 0.4549843294942813 0 0.09772770043964811 0.47490323412458613 0 0.1195523704859263 0.4631571519766276 0 0.1030725489115699 0.44862884044212331 0 0.09772770043964811 0.47490323412458613 0 0.082131301498617026 0.4549843294942813 0 0.062597989763775105 0.47195452375348079 0 0.1030725489115699 0.44862884044212331 0 0.082131301498617026 0.4549843294942813 0 0.084050312602149679 0.43279899533277738 0 0.082131301498617026 0.4549843294942813 0 0.06333899203195105 0.44308191375127498 0 0.084050312602149679 0.43279899533277738 0 0.082131301498617026 0.4549843294942813 0 0.06333899203195105 0.44308191375127498 0 0.062597989763775105 0.47195452375348079 0 0.09772770043964811 0.47490323412458613 0 0.062597989763775105 0.47195452375348079 0 0.073356706290199636 0.5 0 0.09772770043964811 0.47490323412458613 0 0.1009156095025974 0.5 0 0.073356706290199636 0.5 0 0.062597989763775105 0.47195452375348079 0 0.073356706290199636 0.5 0 0.045797803077801853 0.5 0 0.062597989763775105 0.47195452375348079 0 0.032682972914337471 0.47695198158320512 0 0.045797803077801853 0.5 0 0.032682972914337471 0.47695198158320512 0 0.045797803077801853 0.5 0 0.018238899865404001 0.5 0 0.032682972914337471 0.47695198158320512 0 0.018238899865404001 0.5 0 0.0014917528058618059 0.47938453985530888 0 0.032682972914337471 0.47695198158320512 0 0.0014917528058618059 0.47938453985530888 0 0.01369004266474102 0.45764255309210577 0 -0.0093200033469937882 0.5 0 0.018238899865404001 0.5 0 0.0014917528058618059 0.47938453985530888 0 -0.0012252832230208561 0.4371263677764447 0 0.01369004266474102 0.45764255309210577 0 0.022243985731551331 0.43572315351749319 0 -0.014300370873853521 0.46018372283103193 0 0.0014917528058618059 0.47938453985530888 0 0.01369004266474102 0.45764255309210577 0 0.032682972914337471 0.47695198158320512 0 0.01369004266474102 0.45764255309210577 0 0.040403627936067187 0.45382671174979428 0 0.01369004266474102 0.45764255309210577 0 0.040403627936067187 0.45382671174979428 0 0.022243985731551331 0.43572315351749319 0 0.040403627936067187 0.45382671174979428 0 0.044595957694383632 0.42782241472061 0 0.022243985731551331 0.43572315351749319 0 0.062597989763775105 0.47195452375348079 0 0.032682972914337471 0.47695198158320512 0 0.040403627936067187 0.45382671174979428 0 0.06333899203195105 0.44308191375127498 0 0.062597989763775105 0.47195452375348079 0 0.040403627936067187 0.45382671174979428 0 0.06333899203195105 0.44308191375127498 0 0.040403627936067187 0.45382671174979428 0 0.044595957694383632 0.42782241472061 0 0.044595957694383632 0.42782241472061 0 0.054079530448226179 0.39282093670298601 0 0.068520553990673222 0.42084852091511271 0 0.044595957694383632 0.42782241472061 0 0.02999378073543562 0.40749629486845429 0 0.054079530448226179 0.39282093670298601 0 0.06333899203195105 0.44308191375127498 0 0.044595957694383632 0.42782241472061 0 0.068520553990673222 0.42084852091511271 0 0.044595957694383632 0.42782241472061 0 0.022243985731551331 0.43572315351749319 0 0.02999378073543562 0.40749629486845429 0 0.022243985731551331 0.43572315351749319 0 0.02999378073543562 0.40749629486845429 0 0.0059080310226450614 0.42217165303392262 0 0.02999378073543562 0.40749629486845429 0 0.0059080310226450614 0.42217165303392262 0 0.02999378073543562 0.40749629486845429 0 0.0059080310226450614 0.42217165303392262 0 0.0029869861225532341 0.4045249183689904 0 -0.0063201798071254173 0.41931395890268031 0 0.0059080310226450614 0.42217165303392262 0 0.0029869861225532341 0.4045249183689904 0 -0.0012252832230208561 0.4371263677764447 0 0.022243985731551331 0.43572315351749319 0 0.0059080310226450614 0.42217165303392262 0 0.00021319624375416989 0.38951694631222428 0 0.019762897386486761 0.39139177921078527 0 0.0055407272730910043 0.37287867199166469 0 0.00021319624375416989 0.38951694631222428 0 0.0029869861225532341 0.4045249183689904 0 0.019762897386486761 0.39139177921078527 0 0.02999378073543562 0.40749629486845429 0 0.0029869861225532341 0.4045249183689904 0 0.019762897386486761 0.39139177921078527 0 0.02999378073543562 0.40749629486845429 0 0.019762897386486761 0.39139177921078527 0 0.039893997491232451 0.37997327356561028 0 0.019762897386486761 0.39139177921078527 0 0.026212574430515691 0.37343549717090768 0 0.0055407272730910043 0.37287867199166469 0 0.019762897386486761 0.39139177921078527 0 0.039893997491232451 0.37997327356561028 0 0.026212574430515691 0.37343549717090768 0 0.02999378073543562 0.40749629486845429 0 0.039893997491232451 0.37997327356561028 0 0.054079530448226179 0.39282093670298601 0 0.02999378073543562 0.40749629486845429 0 0.054079530448226179 0.39282093670298601 0 0.039893997491232451 0.37997327356561028 0 0.054079530448226179 0.39282093670298601 0 0.058944129698336047 0.37466693924928701 0 0.054079530448226179 0.39282093670298601 0 0.078165280161016731 0.37814557853751768 0 0.058944129698336047 0.37466693924928701 0 0.054079530448226179 0.39282093670298601 0 0.078165280161016731 0.37814557853751768 0 0.078165280161016731 0.37814557853751768 0 0.081503645520529855 0.40512782726196611 0 0.10219944948077681 0.39287873084911829 0 0.054079530448226179 0.39282093670298601 0 0.078165280161016731 0.37814557853751768 0 0.081503645520529855 0.40512782726196611 0 0.081503645520529855 0.40512782726196611 0 0.068520553990673222 0.42084852091511271 0 0.084050312602149679 0.43279899533277738 0 0.054079530448226179 0.39282093670298601 0 0.081503645520529855 0.40512782726196611 0 0.068520553990673222 0.42084852091511271 0 0.06333899203195105 0.44308191375127498 0 0.068520553990673222 0.42084852091511271 0 0.084050312602149679 0.43279899533277738 0 0.081503645520529855 0.40512782726196611 0 0.084050312602149679 0.43279899533277738 0 0.10573483365955701 0.42412254013190681 0 0.081503645520529855 0.40512782726196611 0 0.10573483365955701 0.42412254013190681 0 0.10219944948077681 0.39287873084911829 0 0.1030725489115699 0.44862884044212331 0 0.084050312602149679 0.43279899533277738 0 0.10573483365955701 0.42412254013190681 0 0.10573483365955701 0.42412254013190681 0 0.13077186071089311 0.42558510212662298 0 0.1251466826282692 0.44222114923196132 0 0.10573483365955701 0.42412254013190681 0 0.10219944948077681 0.39287873084911829 0 0.12620174775367279 0.40827305967484628 0 0.10573483365955701 0.42412254013190681 0 0.12620174775367279 0.40827305967484628 0 0.10573483365955701 0.42412254013190681 0 0.12620174775367279 0.40827305967484628 0 0.13077186071089311 0.42558510212662298 0 0.122598567988774 0.38248065130734932 0 0.10219944948077681 0.39287873084911829 0 0.12620174775367279 0.40827305967484628 0 0.122598567988774 0.38248065130734932 0 0.10219944948077681 0.39287873084911829 0 0.1022510298738072 0.36347022037204951 0 0.078165280161016731 0.37814557853751768 0 0.10219944948077681 0.39287873084911829 0 0.1022510298738072 0.36347022037204951 0 0.122598567988774 0.38248065130734932 0 0.1022510298738072 0.36347022037204951 0 0.1263367795865977 0.34879486220658129 0 0.1022510298738072 0.36347022037204951 0 0.1014297081112103 0.33736078277007059 0 0.079969155490580174 0.35047823988135018 0 0.1022510298738072 0.36347022037204951 0 0.1014297081112103 0.33736078277007059 0 0.1263367795865977 0.34879486220658129 0 0.1022510298738072 0.36347022037204951 0 0.1263367795865977 0.34879486220658129 0 0.11893512483417359 0.32470434351420202 0 0.1014297081112103 0.33736078277007059 0 0.1263367795865977 0.34879486220658129 0 0.11893512483417359 0.32470434351420202 0 0.095534371360994588 0.31191235834082731 0 0.1146865421868442 0.30305612095461337 0 0.11893512483417359 0.32470434351420202 0 0.1146865421868442 0.30305612095461337 0 0.12826165336661291 0.3119140699205119 0 0.1014297081112103 0.33736078277007059 0 0.084470135380254233 0.33402251521690429 0 0.095534371360994588 0.31191235834082731 0 0.11893512483417359 0.32470434351420202 0 0.1014297081112103 0.33736078277007059 0 0.095534371360994588 0.31191235834082731 0 0.1014297081112103 0.33736078277007059 0 0.084470135380254233 0.33402251521690429 0 0.079969155490580174 0.35047823988135018 0 0.084470135380254233 0.33402251521690429 0 0.072673613465190301 0.34085817805521301 0 0.079969155490580174 0.35047823988135018 0 0.084470135380254233 0.33402251521690429 0 0.07638220053514494 0.32076859572704119 0 0.095534371360994588 0.31191235834082731 0 0.07638220053514494 0.32076859572704119 0 0.095534371360994588 0.31191235834082731 0 0.07638220053514494 0.32076859572704119 0 0.057230029709296068 0.3296248331132568 0 0.059078240131685313 0.30180582910164888 0 0.07638220053514494 0.32076859572704119 0 0.057230029709296068 0.3296248331132568 0 0.07638220053514494 0.32076859572704119 0 0.07064759923768886 0.33234352085170532 0 0.057230029709296068 0.3296248331132568 0 0.084470135380254233 0.33402251521690429 0 0.072673613465190301 0.34085817805521301 0 0.07064759923768886 0.33234352085170532 0 0.084470135380254233 0.33402251521690429 0 0.07638220053514494 0.32076859572704119 0 0.07064759923768886 0.33234352085170532 0 0.07064759923768886 0.33234352085170532 0 0.063015702584345301 0.33696130846582789 0 0.057230029709296068 0.3296248331132568 0 0.072673613465190301 0.34085817805521301 0 0.07064759923768886 0.33234352085170532 0 0.063015702584345301 0.33696130846582789 0 0.072673613465190301 0.34085817805521301 0 0.063015702584345301 0.33696130846582789 0 0.065578316353394783 0.34655848623339691 0 0.065578316353394783 0.34655848623339691 0 0.065352704727633909 0.36032780975729067 0 0.057384586500704472 0.35095200269537402 0 0.065578316353394783 0.34655848623339691 0 0.079969155490580174 0.35047823988135018 0 0.065352704727633909 0.36032780975729067 0 0.072673613465190301 0.34085817805521301 0 0.065578316353394783 0.34655848623339691 0 0.079969155490580174 0.35047823988135018 0 0.078165280161016731 0.37814557853751768 0 0.1022510298738072 0.36347022037204951 0 0.078165280161016731 0.37814557853751768 0 0.1022510298738072 0.36347022037204951 0 0.079969155490580174 0.35047823988135018 0 0.078165280161016731 0.37814557853751768 0 0.065352704727633909 0.36032780975729067 0 0.058944129698336047 0.37466693924928701 0 0.078165280161016731 0.37814557853751768 0 0.079969155490580174 0.35047823988135018 0 0.065352704727633909 0.36032780975729067 0 0.039893997491232451 0.37997327356561028 0 0.058944129698336047 0.37466693924928701 0 0.051857981852297147 0.36093813621306081 0 0.065352704727633909 0.36032780975729067 0 0.058944129698336047 0.37466693924928701 0 0.051857981852297147 0.36093813621306081 0 0.051857981852297147 0.36093813621306081 0 0.057384586500704472 0.35095200269537402 0 0.04667637898488073 0.34483077994595579 0 0.065578316353394783 0.34655848623339691 0 0.057384586500704472 0.35095200269537402 0 0.057457550585315723 0.34210480132716597 0 0.065352704727633909 0.36032780975729067 0 0.051857981852297147 0.36093813621306081 0 0.057384586500704472 0.35095200269537402 0 0.057384586500704472 0.35095200269537402 0 0.04667637898488073 0.34483077994595579 0 0.057457550585315723 0.34210480132716597 0 0.035721510981692767 0.358498850808807 0 0.04667637898488073 0.34483077994595579 0 0.03000313457624142 0.34221493836975309 0 0.051857981852297147 0.36093813621306081 0 0.035721510981692767 0.358498850808807 0 0.04667637898488073 0.34483077994595579 0 0.039893997491232451 0.37997327356561028 0 0.035721510981692767 0.358498850808807 0 0.026212574430515691 0.37343549717090768 0 0.039893997491232451 0.37997327356561028 0 0.051857981852297147 0.36093813621306081 0 0.035721510981692767 0.358498850808807 0 0.026212574430515691 0.37343549717090768 0 0.012077545043624309 0.35488421479500581 0 0.035721510981692767 0.358498850808807 0 0.026212574430515691 0.37343549717090768 0 0.012077545043624309 0.35488421479500581 0 0.035721510981692767 0.358498850808807 0 0.012077545043624309 0.35488421479500581 0 0.03000313457624142 0.34221493836975309 0 0.012077545043624309 0.35488421479500581 0 0.01424048742223121 0.33858013541460208 0 0.03000313457624142 0.34221493836975309 0 -0.002057484343267062 0.33633293241910378 0 -0.0046155988463842347 0.35315587578669161 0 0.012077545043624309 0.35488421479500581 0 -0.002057484343267062 0.33633293241910378 0 0.012077545043624309 0.35488421479500581 0 0.026212574430515691 0.37343549717090768 0 0.012077545043624309 0.35488421479500581 0 0.0055407272730910043 0.37287867199166469 0 -0.0046155988463842347 0.35315587578669161 0 0.012077545043624309 0.35488421479500581 0 0.0055407272730910043 0.37287867199166469 0 -0.002057484343267062 0.33633293241910378 0 0.01556443550227087 0.32452311661259048 0 0.0052195423281692268 0.32077794563559481 0 0.01556443550227087 0.32452311661259048 0 0.01321702206129231 0.31318147664727308 0 0.0052195423281692268 0.32077794563559481 0 0.01321702206129231 0.31318147664727308 0 0.0052195423281692268 0.32077794563559481 0 0.0019219012671535731 0.31061956462466661 0 -0.003661392589800307 0.32117461813571219 0 0.0052195423281692268 0.32077794563559481 0 0.0019219012671535731 0.31061956462466661 0 -0.002057484343267062 0.33633293241910378 0 0.012077545043624309 0.35488421479500581 0 0.01424048742223121 0.33858013541460208 0 -0.002057484343267062 0.33633293241910378 0 0.01556443550227087 0.32452311661259048 0 0.01424048742223121 0.33858013541460208 0 0.01424048742223121 0.33858013541460208 0 0.03000313457624142 0.34221493836975309 0 0.026587187665516571 0.32842666149819372 0 0.01556443550227087 0.32452311661259048 0 0.01424048742223121 0.33858013541460208 0 0.026587187665516571 0.32842666149819372 0 0.026587187665516571 0.32842666149819372 0 0.024532202603963989 0.31565328494334061 0 0.037358885054985268 0.31943690658700219 0 0.01556443550227087 0.32452311661259048 0 0.026587187665516571 0.32842666149819372 0 0.024532202603963989 0.31565328494334061 0 0.01556443550227087 0.32452311661259048 0 0.01321702206129231 0.31318147664727308 0 0.024532202603963989 0.31565328494334061 0 0.024532202603963989 0.31565328494334061 0 0.037358885054985268 0.31943690658700219 0 0.038031755801524091 0.3040222193327225 0 0.044643924009700513 0.32420498603751519 0 0.037823980833406649 0.3301515870618737 0 0.057230029709296068 0.3296248331132568 0 0.026587187665516571 0.32842666149819372 0 0.037358885054985268 0.31943690658700219 0 0.037823980833406649 0.3301515870618737 0 0.037358885054985268 0.31943690658700219 0 0.044643924009700513 0.32420498603751519 0 0.037823980833406649 0.3301515870618737 0 0.037358885054985268 0.31943690658700219 0 0.047710752610255577 0.31568902132599053 0 0.038031755801524091 0.3040222193327225 0 0.037358885054985268 0.31943690658700219 0 0.044643924009700513 0.32420498603751519 0 0.047710752610255577 0.31568902132599053 0 0.04667637898488073 0.34483077994595579 0 0.03000313457624142 0.34221493836975309 0 0.057230029709296068 0.3296248331132568 0 0.03000313457624142 0.34221493836975309 0 0.037823980833406649 0.3301515870618737 0 0.057230029709296068 0.3296248331132568 0 0.03000313457624142 0.34221493836975309 0 0.057230029709296068 0.3296248331132568 0 0.03000313457624142 0.34221493836975309 0 0.026587187665516571 0.32842666149819372 0 0.037823980833406649 0.3301515870618737 0 0.04667637898488073 0.34483077994595579 0 0.057101567099416113 0.33155843429650272 0 0.057457550585315723 0.34210480132716597 0 0.04667637898488073 0.34483077994595579 0 0.057101567099416113 0.33155843429650272 0 0.057230029709296068 0.3296248331132568 0 0.057101567099416113 0.33155843429650272 0 0.057230029709296068 0.3296248331132568 0 0.063015702584345301 0.33696130846582789 0 0.057101567099416113 0.33155843429650272 0 0.057230029709296068 0.3296248331132568 0 0.063015702584345301 0.33696130846582789 0 0.057101567099416113 0.33155843429650272 0 0.057457550585315723 0.34210480132716597 0 0.063015702584345301 0.33696130846582789 0 0.065578316353394783 0.34655848623339691 0 0.057457550585315723 0.34210480132716597 0 0.057230029709296068 0.3296248331132568 0 0.059078240131685313 0.30180582910164888 0 0.057230029709296068 0.3296248331132568 0 0.047710752610255577 0.31568902132599053 0 0.059078240131685313 0.30180582910164888 0 0.044643924009700513 0.32420498603751519 0 0.057230029709296068 0.3296248331132568 0 0.047710752610255577 0.31568902132599053 0 0.059078240131685313 0.30180582910164888 0 0.047692111575179379 0.28686586006866888 0 0.038031755801524091 0.3040222193327225 0 0.047710752610255577 0.31568902132599053 0 0.059078240131685313 0.30180582910164888 0 0.038031755801524091 0.3040222193327225 0 0.059078240131685313 0.30180582910164888 0 0.047692111575179379 0.28686586006866888 0 0.060926450554073627 0.27398682509004102 0 0.059078240131685313 0.30180582910164888 0 0.060926450554073627 0.27398682509004102 0 0.047692111575179379 0.28686586006866888 0 0.038031755801524091 0.3040222193327225 0 0.02825525188652973 0.28975905402834079 0 0.047692111575179379 0.28686586006866888 0 0.02825525188652973 0.28975905402834079 0 0.034287695298966338 0.27571225150858819 0 0.024532202603963989 0.31565328494334061 0 0.038031755801524091 0.3040222193327225 0 0.020570747601682711 0.30227507936685388 0 0.038031755801524091 0.3040222193327225 0 0.020570747601682711 0.30227507936685388 0 0.02825525188652973 0.28975905402834079 0 0.01321702206129231 0.31318147664727308 0 0.024532202603963989 0.31565328494334061 0 0.020570747601682711 0.30227507936685388 0 0.020570747601682711 0.30227507936685388 0 0.02825525188652973 0.28975905402834079 0 0.01452209144696473 0.28517690414607999 0 0.02825525188652973 0.28975905402834079 0 0.01452209144696473 0.28517690414607999 0 0.021199539345583471 0.27294023214548052 0 -0.0035745871881237069 0.29016526308647278 0 0.01452209144696473 0.28517690414607999 0 0.0036149251413673039 0.27841645479767602 0 -0.0035745871881237069 0.29016526308647278 0 0.01452209144696473 0.28517690414607999 0 0.0075070620371276344 0.29823244588183651 0 0.020570747601682711 0.30227507936685388 0 0.01452209144696473 0.28517690414607999 0 0.0075070620371276344 0.29823244588183651 0 0.01321702206129231 0.31318147664727308 0 0.0075070620371276344 0.29823244588183651 0 0.0019219012671535731 0.31061956462466661 0 0.01321702206129231 0.31318147664727308 0 0.020570747601682711 0.30227507936685388 0 0.0075070620371276344 0.29823244588183651 0 0.01079067299845239 0.23874173694250969 0 0.0029103859176947779 0.26210914935366419 0 0.015786761060970898 0.25613223772400401 0 0.01079067299845239 0.23874173694250969 0 0.0029103859176947779 0.26210914935366419 0 0.0029103859176947779 0.26210914935366419 0 0.0088072866792743287 0.26655614834720681 0 0.015786761060970898 0.25613223772400401 0 0.0088072866792743287 0.26655614834720681 0 0.018190599969307018 0.2637270666798705 0 0.015786761060970898 0.25613223772400401 0 -0.0089844249806646306 0.27450082907846579 0 0.0036149251413673039 0.27841645479767602 0 0.0088072866792743287 0.26655614834720681 0 0.01452209144696473 0.28517690414607999 0 0.0036149251413673039 0.27841645479767602 0 0.0121271895061985 0.27533127617382191 0 0.0121271895061985 0.27533127617382191 0 0.0088072866792743287 0.26655614834720681 0 0.018190599969307018 0.2637270666798705 0 0.0036149251413673039 0.27841645479767602 0 0.0121271895061985 0.27533127617382191 0 0.0088072866792743287 0.26655614834720681 0 0.021199539345583471 0.27294023214548052 0 0.028258142437712928 0.25929503072214038 0 0.034287695298966338 0.27571225150858819 0 0.0121271895061985 0.27533127617382191 0 0.021199539345583471 0.27294023214548052 0 0.018190599969307018 0.2637270666798705 0 0.02825525188652973 0.28975905402834079 0 0.021199539345583471 0.27294023214548052 0 0.034287695298966338 0.27571225150858819 0 0.01452209144696473 0.28517690414607999 0 0.0121271895061985 0.27533127617382191 0 0.021199539345583471 0.27294023214548052 0 0.028258142437712928 0.25929503072214038 0 0.018190599969307018 0.2637270666798705 0 0.015786761060970898 0.25613223772400401 0 0.021199539345583471 0.27294023214548052 0 0.028258142437712928 0.25929503072214038 0 0.018190599969307018 0.2637270666798705 0 0.023327528447678238 0.24450794158057171 0 0.028258142437712928 0.25929503072214038 0 0.015786761060970898 0.25613223772400401 0 0.035695860329487808 0.24011695288850191 0 0.028258142437712928 0.25929503072214038 0 0.047241702017656297 0.25983213140772798 0 0.028258142437712928 0.25929503072214038 0 0.034287695298966338 0.27571225150858819 0 0.047241702017656297 0.25983213140772798 0 0.047692111575179379 0.28686586006866888 0 0.034287695298966338 0.27571225150858819 0 0.047241702017656297 0.25983213140772798 0 0.047692111575179379 0.28686586006866888 0 0.060926450554073627 0.27398682509004102 0 0.047241702017656297 0.25983213140772798 0 0.062774660976461949 0.2461678210784331 0 0.060926450554073627 0.27398682509004102 0 0.062774660976461949 0.2461678210784331 0 0.060926450554073627 0.27398682509004102 0 0.047241702017656297 0.25983213140772798 0 0.062774660976461949 0.2461678210784331 0 0.060926450554073627 0.27398682509004102 0 0.077283492163479711 0.26110264066524508 0 0.080874108567281694 0.24059258234390549 0 0.077283492163479711 0.26110264066524508 0 0.10466961038534719 0.25327457456062452 0 0.077283492163479711 0.26110264066524508 0 0.090519303519670941 0.27856132018201551 0 0.10466961038534719 0.25327457456062452 0 0.060926450554073627 0.27398682509004102 0 0.077283492163479711 0.26110264066524508 0 0.090519303519670941 0.27856132018201551 0 0.060926450554073627 0.27398682509004102 0 0.090519303519670941 0.27856132018201551 0 0.079952928506927284 0.29770053438529509 0 0.059078240131685313 0.30180582910164888 0 0.060926450554073627 0.27398682509004102 0 0.079952928506927284 0.29770053438529509 0 0.07638220053514494 0.32076859572704119 0 0.059078240131685313 0.30180582910164888 0 0.079952928506927284 0.29770053438529509 0 0.079952928506927284 0.29770053438529509 0 0.099583235010371168 0.29547960686593189 0 0.095534371360994588 0.31191235834082731 0 0.07638220053514494 0.32076859572704119 0 0.079952928506927284 0.29770053438529509 0 0.095534371360994588 0.31191235834082731 0 0.090519303519670941 0.27856132018201551 0 0.079952928506927284 0.29770053438529509 0 0.099583235010371168 0.29547960686593189 0 0.090519303519670941 0.27856132018201551 0 0.099583235010371168 0.29547960686593189 0 0.1156104380096649 0.28243236450178461 0 0.099583235010371168 0.29547960686593189 0 0.095534371360994588 0.31191235834082731 0 0.1146865421868442 0.30305612095461337 0 0.095534371360994588 0.31191235834082731 0 0.1146865421868442 0.30305612095461337 0 0.1146865421868442 0.30305612095461337 0 0.1156104380096649 0.28243236450178461 0 0.13553041622826739 0.29846620302711419 0 0.099583235010371168 0.29547960686593189 0 0.1146865421868442 0.30305612095461337 0 0.1156104380096649 0.28243236450178461 0 0.1156104380096649 0.28243236450178461 0 0.10466961038534719 0.25327457456062452 0 0.1284651122034127 0.26595656677734347 0 0.12305392426751099 0.23660690166125781 0 0.10466961038534719 0.25327457456062452 0 0.1284651122034127 0.26595656677734347 0 0.10466961038534719 0.25327457456062452 0 0.1284651122034127 0.26595656677734347 0 0.090519303519670941 0.27856132018201551 0 0.1156104380096649 0.28243236450178461 0 0.10466961038534719 0.25327457456062452 0 0.1522606140214782 0.27863855899406259 0 0.1442232280941956 0.25203027455097049 0 0.16214291210677051 0.26770531089994809 0 0.1442232280941956 0.25203027455097049 0 0.16214291210677051 0.26770531089994809 0 0.16162570963605849 0.25319555290004903 0 0.1522606140214782 0.27863855899406259 0 0.1442232280941956 0.25203027455097049 0 0.1284651122034127 0.26595656677734347 0 0.12305392426751099 0.23660690166125781 0 0.1442232280941956 0.25203027455097049 0 0.1284651122034127 0.26595656677734347 0 0.1156104380096649 0.28243236450178461 0 0.1284651122034127 0.26595656677734347 0 0.13548288997795871 0.28145396415211532 0 0.1522606140214782 0.27863855899406259 0 0.1284651122034127 0.26595656677734347 0 0.1522606140214782 0.27863855899406259 0 0.1284651122034127 0.26595656677734347 0 0.13548288997795871 0.28145396415211532 0 0.1156104380096649 0.28243236450178461 0 0.13548288997795871 0.28145396415211532 0 0.13553041622826739 0.29846620302711419 0 0.12826165336661291 0.3119140699205119 0 0.13553041622826739 0.29846620302711419 0 0.141889136600023 0.31884023323396621 0 0.1146865421868442 0.30305612095461337 0 0.12826165336661291 0.3119140699205119 0 0.13553041622826739 0.29846620302711419 0 0.13553041622826739 0.29846620302711419 0 0.150831201906589 0.30877020128397781 0 0.15677832929124499 0.29631372533412659 0 0.13553041622826739 0.29846620302711419 0 0.150831201906589 0.30877020128397781 0 0.141889136600023 0.31884023323396621 0 0.1522606140214782 0.27863855899406259 0 0.13553041622826739 0.29846620302711419 0 0.15677832929124499 0.29631372533412659 0 0.1522606140214782 0.27863855899406259 0 0.13548288997795871 0.28145396415211532 0 0.13553041622826739 0.29846620302711419 0 0.1522606140214782 0.27863855899406259 0 0.17605611583954389 0.29132055121078171 0 0.1522606140214782 0.27863855899406259 0 0.17705316172341881 0.28198204366057 0 0.17605611583954389 0.29132055121078171 0 0.1522606140214782 0.27863855899406259 0 0.15677832929124499 0.29631372533412659 0 0.17605611583954389 0.29132055121078171 0 0.150831201906589 0.30877020128397781 0 0.16707106529457971 0.30586706430929972 0 0.15819870780610171 0.31914218955480872 0 0.15677832929124499 0.29631372533412659 0 0.16707106529457971 0.30586706430929972 0 0.17605611583954389 0.29132055121078171 0 0.150831201906589 0.30877020128397781 0 0.15677832929124499 0.29631372533412659 0 0.16707106529457971 0.30586706430929972 0 0.18005961116235289 0.30463538659145112 0 0.17605611583954389 0.29132055121078171 0 0.19985161765760981 0.30400254342750033 0 0.18005961116235289 0.30463538659145112 0 0.19985161765760981 0.30400254342750033 0 0.17450827901218041 0.3194441458756474 0 0.19985161765760981 0.30400254342750033 0 0.17450827901218041 0.3194441458756474 0 0.16707106529457971 0.30586706430929972 0 0.18005961116235289 0.30463538659145112 0 0.17450827901218041 0.3194441458756474 0 0.16707106529457971 0.30586706430929972 0 0.18005961116235289 0.30463538659145112 0 0.17605611583954389 0.29132055121078171 0 0.17705316172341881 0.28198204366057 0 0.17605611583954389 0.29132055121078171 0 0.19448196303304649 0.2893184968201733 0 0.17705316172341881 0.28198204366057 0 0.19448196303304649 0.2893184968201733 0 0.17705316172341881 0.28198204366057 0 0.1857316944182841 0.2758092280684965 0 0.19448196303304649 0.2893184968201733 0 0.1857316944182841 0.2758092280684965 0 0.17555184705870169 0.27268012439408817 0 0.18247052713054901 0.25970166619063961 0 0.1857316944182841 0.2758092280684965 0 0.18247052713054901 0.25970166619063961 0 0.1935422347672911 0.26901186658796788 0 0.17705316172341881 0.28198204366057 0 0.1857316944182841 0.2758092280684965 0 0.17555184705870169 0.27268012439408817 0 0.1522606140214782 0.27863855899406259 0 0.17705316172341881 0.28198204366057 0 0.16214291210677051 0.26770531089994809 0 0.17705316172341881 0.28198204366057 0 0.17555184705870169 0.27268012439408817 0 0.16214291210677051 0.26770531089994809 0 0.17555184705870169 0.27268012439408817 0 0.16214291210677051 0.26770531089994809 0 0.16162570963605849 0.25319555290004903 0 0.17555184705870169 0.27268012439408817 0 0.16162570963605849 0.25319555290004903 0 0.1760730435728422 0.24227844884668209 0 0.16162570963605849 0.25319555290004903 0 0.18247052713054901 0.25970166619063961 0 0.17555184705870169 0.27268012439408817 0 0.16162570963605849 0.25319555290004903 0 0.18247052713054901 0.25970166619063961 0 0.18970113003952641 0.24678134065495691 0 0.18247052713054901 0.25970166619063961 0 0.19945826437863801 0.25572369430695241 0 0.18247052713054901 0.25970166619063961 0 0.19945826437863801 0.25572369430695241 0 0.1935422347672911 0.26901186658796788 0 0.19945826437863801 0.25572369430695241 0 0.1935422347672911 0.26901186658796788 0 0.2044464445375902 0.26974883555929918 0 0.1857316944182841 0.2758092280684965 0 0.1935422347672911 0.26901186658796788 0 0.19714525895512741 0.27720220822403391 0 0.1857316944182841 0.2758092280684965 0 0.19714525895512741 0.27720220822403391 0 0.19448196303304649 0.2893184968201733 0 0.1935422347672911 0.26901186658796788 0 0.19714525895512741 0.27720220822403391 0 0.2044464445375902 0.26974883555929918 0 0.19714525895512741 0.27720220822403391 0 0.2044464445375902 0.26974883555929918 0 0.20752395801942489 0.28212261408423239 0 0.2044464445375902 0.26974883555929918 0 0.21087863275498961 0.25953851684559448 0 0.2206980260506976 0.27242825039477458 0 0.2044464445375902 0.26974883555929918 0 0.2206980260506976 0.27242825039477458 0 0.20752395801942489 0.28212261408423239 0 0.21087863275498961 0.25953851684559448 0 0.2206980260506976 0.27242825039477458 0 0.2206980260506976 0.27242825039477458 0 0.21766254193980061 0.28413094960068402 0 0.20752395801942489 0.28212261408423239 0 0.21087863275498961 0.25953851684559448 0 0.22246275293005471 0.25330023484895758 0 0.2206980260506976 0.27242825039477458 0 0.21131874346998791 0.2493789922516613 0 0.19945826437863801 0.25572369430695241 0 0.21087863275498961 0.25953851684559448 0 0.19945826437863801 0.25572369430695241 0 0.2044464445375902 0.26974883555929918 0 0.21087863275498961 0.25953851684559448 0 0.21131874346998791 0.2493789922516613 0 0.21087863275498961 0.25953851684559448 0 0.22246275293005471 0.25330023484895758 0 0.22246275293005471 0.25330023484895758 0 0.2206980260506976 0.27242825039477458 0 0.23664732049891851 0.25763849948676387 0 0.234504398262533 0.24393984708139541 0 0.22246275293005471 0.25330023484895758 0 0.23664732049891851 0.25763849948676387 0 0.2206980260506976 0.27242825039477458 0 0.23564723318592321 0.27122502253686048 0 0.23664732049891851 0.25763849948676387 0 0.2206980260506976 0.27242825039477458 0 0.23051741934640529 0.28531798394395502 0 0.21766254193980061 0.28413094960068402 0 0.2206980260506976 0.27242825039477458 0 0.23051741934640529 0.28531798394395502 0 0.2206980260506976 0.27242825039477458 0 0.23564723318592321 0.27122502253686048 0 0.23051741934640529 0.28531798394395502 0 0.23564723318592321 0.27122502253686048 0 0.23664732049891851 0.25763849948676387 0 0.25535870013716438 0.27018228348869072 0 0.23051741934640529 0.28531798394395502 0 0.25535870013716438 0.27018228348869072 0 0.23564723318592321 0.27122502253686048 0 0.23051741934640529 0.28531798394395502 0 0.25535870013716438 0.27018228348869072 0 0.23664732049891851 0.25763849948676387 0 0.25535870013716438 0.27018228348869072 0 0.25441764297214658 0.24790970184029809 0 0.2406209106714563 0.29858064765183179 0 0.25721814138664417 0.29146331718599289 0 0.25072440199650708 0.31184331135970877 0 0.2406209106714563 0.29858064765183179 0 0.23083663282170711 0.30462157632054138 0 0.25072440199650708 0.31184331135970877 0 0.23083663282170711 0.30462157632054138 0 0.23935878379228681 0.32064479177741712 0 0.25072440199650708 0.31184331135970877 0 0.23083663282170711 0.30462157632054138 0 0.25072440199650708 0.31184331135970877 0 0.2406209106714563 0.29858064765183179 0 0.25072440199650708 0.31184331135970877 0 0.2406209106714563 0.29858064765183179 0 0.23051741934640529 0.28531798394395502 0 0.25535870013716438 0.27018228348869072 0 0.2406209106714563 0.29858064765183179 0 0.23051741934640529 0.28531798394395502 0 0.23051741934640529 0.28531798394395502 0 0.21766254193980061 0.28413094960068402 0 0.21191076434267489 0.29665494997977487 0 0.23051741934640529 0.28531798394395502 0 0.23083663282170711 0.30462157632054138 0 0.21191076434267489 0.29665494997977487 0 0.2406209106714563 0.29858064765183179 0 0.23051741934640529 0.28531798394395502 0 0.23083663282170711 0.30462157632054138 0 0.23051741934640529 0.28531798394395502 0 0.21191076434267489 0.29665494997977487 0 0.23083663282170711 0.30462157632054138 0 0.21191076434267489 0.29665494997977487 0 0.23083663282170711 0.30462157632054138 0 0.21140712089493341 0.30913430820227572 0 0.21774194886558459 0.32024457647683008 0 0.23083663282170711 0.30462157632054138 0 0.21140712089493341 0.30913430820227572 0 0.21191076434267489 0.29665494997977487 0 0.21140712089493341 0.30913430820227572 0 0.21191076434267489 0.29665494997977487 0 0.19985161765760981 0.30400254342750033 0 0.21191076434267489 0.29665494997977487 0 0.19985161765760981 0.30400254342750033 0 0.21191076434267489 0.29665494997977487 0 0.20752395801942489 0.28212261408423239 0 0.19448196303304649 0.2893184968201733 0 0.21191076434267489 0.29665494997977487 0 0.19448196303304649 0.2893184968201733 0 0.21766254193980061 0.28413094960068402 0 0.21191076434267489 0.29665494997977487 0 0.20752395801942489 0.28212261408423239 0 0.21191076434267489 0.29665494997977487 0 0.19448196303304649 0.2893184968201733 0 0.19985161765760981 0.30400254342750033 0 0.17605611583954389 0.29132055121078171 0 0.19448196303304649 0.2893184968201733 0 0.19985161765760981 0.30400254342750033 0 0.19714525895512741 0.27720220822403391 0 0.20752395801942489 0.28212261408423239 0 0.19448196303304649 0.2893184968201733 0 0.17605611583954389 0.29132055121078171 0 0.19985161765760981 0.30400254342750033 0 0.21140712089493341 0.30913430820227572 0 0.19985161765760981 0.30400254342750033 0 0.19612511393888249 0.3198443611762406 0 0.19985161765760981 0.30400254342750033 0 0.19612511393888249 0.3198443611762406 0 0.17450827901218041 0.3194441458756474 0 0.19050385133455441 0.33789194005018902 0 0.20148115639918809 0.33160739286921498 0 0.20806940413013539 0.34487513784660501 0 0.19612511393888249 0.3198443611762406 0 0.19050385133455441 0.33789194005018902 0 0.20148115639918809 0.33160739286921498 0 0.20148115639918809 0.33160739286921498 0 0.21302826400832989 0.32660239687201709 0 0.20806940413013539 0.34487513784660501 0 0.22853631822425291 0.32902565738954698 0 0.20806940413013539 0.34487513784660501 0 0.21302826400832989 0.32660239687201709 0 0.22853631822425291 0.32902565738954698 0 0.20806940413013539 0.34487513784660501 0 0.21140712089493341 0.30913430820227572 0 0.19612511393888249 0.3198443611762406 0 0.21774194886558459 0.32024457647683008 0 0.19612511393888249 0.3198443611762406 0 0.21302826400832989 0.32660239687201709 0 0.21774194886558459 0.32024457647683008 0 0.19612511393888249 0.3198443611762406 0 0.20148115639918809 0.33160739286921498 0 0.21302826400832989 0.32660239687201709 0 0.19612511393888249 0.3198443611762406 0 0.21774194886558459 0.32024457647683008 0 0.23083663282170711 0.30462157632054138 0 0.21774194886558459 0.32024457647683008 0 0.23935878379228681 0.32064479177741712 0 0.21774194886558459 0.32024457647683008 0 0.22853631822425291 0.32902565738954698 0 0.23935878379228681 0.32064479177741712 0 0.21774194886558459 0.32024457647683008 0 0.23935878379228681 0.32064479177741712 0 0.22853631822425291 0.32902565738954698 0 0.23935878379228681 0.32064479177741712 0 0.21302826400832989 0.32660239687201709 0 0.22853631822425291 0.32902565738954698 0 0.21302826400832989 0.32660239687201709 0 0.21774194886558459 0.32024457647683008 0 0.22853631822425291 0.32902565738954698 0 0.22853631822425291 0.32902565738954698 0 0.2241877158432114 0.3461360485186678 0 0.20806940413013539 0.34487513784660501 0 0.22853631822425291 0.32902565738954698 0 0.23633466154043509 0.34227437677552308 0 0.2241877158432114 0.3461360485186678 0 0.22853631822425291 0.32902565738954698 0 0.23633466154043509 0.34227437677552308 0 0.2485585008978031 0.33215428745958692 0 0.22853631822425291 0.32902565738954698 0 0.2485585008978031 0.33215428745958692 0 0.23633466154043509 0.34227437677552308 0 0.2485585008978031 0.33215428745958692 0 0.24752015907378869 0.34734707417429439 0 0.23935878379228681 0.32064479177741712 0 0.25768787943522559 0.32098413768754708 0 0.23935878379228681 0.32064479177741712 0 0.25201377865278862 0.31353585193156608 0 0.25768787943522559 0.32098413768754708 0 0.22853631822425291 0.32902565738954698 0 0.2485585008978031 0.33215428745958692 0 0.23935878379228681 0.32064479177741712 0 0.2485585008978031 0.33215428745958692 0 0.23935878379228681 0.32064479177741712 0 0.25768787943522559 0.32098413768754708 0 0.23935878379228681 0.32064479177741712 0 0.25072440199650708 0.31184331135970877 0 0.23935878379228681 0.32064479177741712 0 0.25201377865278862 0.31353585193156608 0 0.25072440199650708 0.31184331135970877 0 0.24065328994253529 0.37108880334043048 0 0.24644635877036691 0.35996924791483892 0 0.23287061366312151 0.35670881633552198 0 0.24065328994253529 0.37108880334043048 0 0.25312637300890212 0.38307244284541198 0 0.25465182101279582 0.36986406734905147 0 0.24065328994253529 0.37108880334043048 0 0.24644635877036691 0.35996924791483892 0 0.25465182101279582 0.36986406734905147 0 0.24644635877036691 0.35996924791483892 0 0.24752015907378869 0.34734707417429439 0 0.23287061366312151 0.35670881633552198 0 0.23633466154043509 0.34227437677552308 0 0.24752015907378869 0.34734707417429439 0 0.23287061366312151 0.35670881633552198 0 0.23287061366312151 0.35670881633552198 0 0.2241877158432114 0.3461360485186678 0 0.21442104721764721 0.35984139707640589 0 0.23633466154043509 0.34227437677552308 0 0.23287061366312151 0.35670881633552198 0 0.2241877158432114 0.3461360485186678 0 0.24065328994253529 0.37108880334043048 0 0.22484542165427901 0.37051244986762649 0 0.23412649591826559 0.38271345767112108 0 0.24065328994253529 0.37108880334043048 0 0.23287061366312151 0.35670881633552198 0 0.22484542165427901 0.37051244986762649 0 0.23287061366312151 0.35670881633552198 0 0.22484542165427901 0.37051244986762649 0 0.21442104721764721 0.35984139707640589 0 0.21442104721764721 0.35984139707640589 0 0.1876024900360197 0.36072461830366531 0 0.20919600000812441 0.37519989339624521 0 0.22484542165427901 0.37051244986762649 0 0.21442104721764721 0.35984139707640589 0 0.20919600000812441 0.37519989339624521 0 0.2241877158432114 0.3461360485186678 0 0.21442104721764721 0.35984139707640589 0 0.20806940413013539 0.34487513784660501 0 0.21442104721764721 0.35984139707640589 0 0.20806940413013539 0.34487513784660501 0 0.1876024900360197 0.36072461830366531 0 0.19050385133455441 0.33789194005018902 0 0.20806940413013539 0.34487513784660501 0 0.1876024900360197 0.36072461830366531 0 0.20806940413013539 0.34487513784660501 0 0.1876024900360197 0.36072461830366531 0 0.1876024900360197 0.36072461830366531 0 0.1973446428721442 0.3862744979943063 0 0.20919600000812441 0.37519989339624521 0 0.1876024900360197 0.36072461830366531 0 0.16713557594190409 0.37657409876072567 0 0.1876024900360197 0.36072461830366531 0 0.1703403757121818 0.35910769896067929 0 0.16713557594190409 0.37657409876072567 0 0.1876024900360197 0.36072461830366531 0 0.16713557594190409 0.37657409876072567 0 0.181930119016396 0.38720966044191563 0 0.1703403757121818 0.35910769896067929 0 0.15435465248326921 0.35626057751093171 0 0.16713557594190409 0.37657409876072567 0 0.17226878438753421 0.34287150126739457 0 0.15042252929938829 0.33411950404111301 0 0.15435465248326921 0.35626057751093171 0 0.1703403757121818 0.35910769896067929 0 0.17226878438753421 0.34287150126739457 0 0.15435465248326921 0.35626057751093171 0 0.19050385133455441 0.33789194005018902 0 0.1876024900360197 0.36072461830366531 0 0.17226878438753421 0.34287150126739457 0 0.1876024900360197 0.36072461830366531 0 0.1703403757121818 0.35910769896067929 0 0.17226878438753421 0.34287150126739457 0 0.19050385133455441 0.33789194005018902 0 0.17226878438753421 0.34287150126739457 0 0.17450827901218041 0.3194441458756474 0 0.19612511393888249 0.3198443611762406 0 0.19050385133455441 0.33789194005018902 0 0.17450827901218041 0.3194441458756474 0 0.19612511393888249 0.3198443611762406 0 0.17450827901218041 0.3194441458756474 0 0.16707106529457971 0.30586706430929972 0 0.17450827901218041 0.3194441458756474 0 0.15819870780610171 0.31914218955480872 0 0.17450827901218041 0.3194441458756474 0 0.15819870780610171 0.31914218955480872 0 0.15042252929938829 0.33411950404111301 0 0.17450827901218041 0.3194441458756474 0 0.15819870780610171 0.31914218955480872 0 0.17450827901218041 0.3194441458756474 0 0.15042252929938829 0.33411950404111301 0 0.17226878438753421 0.34287150126739457 0 0.17450827901218041 0.3194441458756474 0 0.15042252929938829 0.33411950404111301 0 0.15819870780610171 0.31914218955480872 0 0.15042252929938829 0.33411950404111301 0 0.141889136600023 0.31884023323396621 0 0.15819870780610171 0.31914218955480872 0 0.141889136600023 0.31884023323396621 0 0.15042252929938829 0.33411950404111301 0 0.141889136600023 0.31884023323396621 0 0.1334619099794303 0.32924198723258108 0 0.150831201906589 0.30877020128397781 0 0.15819870780610171 0.31914218955480872 0 0.141889136600023 0.31884023323396621 0 0.11893512483417359 0.32470434351420202 0 0.12826165336661291 0.3119140699205119 0 0.1334619099794303 0.32924198723258108 0 0.12826165336661291 0.3119140699205119 0 0.141889136600023 0.31884023323396621 0 0.1334619099794303 0.32924198723258108 0 0.15042252929938829 0.33411950404111301 0 0.1263367795865977 0.34879486220658129 0 0.11893512483417359 0.32470434351420202 0 0.1334619099794303 0.32924198723258108 0 0.1263367795865977 0.34879486220658129 0 0.15042252929938829 0.33411950404111301 0 0.1334619099794303 0.32924198723258108 0 0.1263367795865977 0.34879486220658129 0 0.122598567988774 0.38248065130734932 0 0.1263367795865977 0.34879486220658129 0 0.14205797104636331 0.37209238825690388 0 0.14205797104636331 0.37209238825690388 0 0.15435465248326921 0.35626057751093171 0 0.16713557594190409 0.37657409876072567 0 0.15042252929938829 0.33411950404111301 0 0.1263367795865977 0.34879486220658129 0 0.15435465248326921 0.35626057751093171 0 0.1263367795865977 0.34879486220658129 0 0.14205797104636331 0.37209238825690388 0 0.15435465248326921 0.35626057751093171 0 0.14666866184778851 0.39242357921778592 0 0.14675009754731899 0.41564822378250499 0 0.1628996980960298 0.40390785099687521 0 0.14205797104636331 0.37209238825690388 0 0.14666866184778851 0.39242357921778592 0 0.16713557594190409 0.37657409876072567 0 0.122598567988774 0.38248065130734932 0 0.14205797104636331 0.37209238825690388 0 0.14666866184778851 0.39242357921778592 0 0.122598567988774 0.38248065130734932 0 0.14666866184778851 0.39242357921778592 0 0.12620174775367279 0.40827305967484628 0 0.14666866184778851 0.39242357921778592 0 0.12620174775367279 0.40827305967484628 0 0.14675009754731899 0.41564822378250499 0 0.14666866184778851 0.39242357921778592 0 0.12620174775367279 0.40827305967484628 0 0.12620174775367279 0.40827305967484628 0 0.13077186071089311 0.42558510212662298 0 0.14675009754731899 0.41564822378250499 0 0.13077186071089311 0.42558510212662298 0 0.15002594196564739 0.4376605378118954 0 0.1251466826282692 0.44222114923196132 0 0.13077186071089311 0.42558510212662298 0 0.14675009754731899 0.41564822378250499 0 0.15002594196564739 0.4376605378118954 0 0.14675009754731899 0.41564822378250499 0 0.162473075680556 0.42470717710612499 0 0.15002594196564739 0.4376605378118954 0 0.14675009754731899 0.41564822378250499 0 0.162473075680556 0.42470717710612499 0 0.1628996980960298 0.40390785099687521 0 0.162473075680556 0.42470717710612499 0 0.17694892311125079 0.41374337516342619 0 0.1628996980960298 0.40390785099687521 0 0.162473075680556 0.42470717710612499 0 0.17115843142140291 0.43593413151198379 0 0.15002594196564739 0.4376605378118954 0 0.162473075680556 0.42470717710612499 0 0.17115843142140291 0.43593413151198379 0 0.17959318849520989 0.42767062097712061 0 0.162473075680556 0.42470717710612499 0 0.17959318849520989 0.42767062097712061 0 0.17694892311125079 0.41374337516342619 0 0.17115843142140291 0.43593413151198379 0 0.17959318849520989 0.42767062097712061 0 0.18079175477710249 0.4427413307505057 0 0.17959318849520989 0.42767062097712061 0 0.19076271347644291 0.42180689735212329 0 0.18833643469323469 0.43460822702355922 0 0.17959318849520989 0.42767062097712061 0 0.18833643469323469 0.43460822702355922 0 0.18079175477710249 0.4427413307505057 0 0.17694892311125079 0.41374337516342619 0 0.18935991758029011 0.40399711843477781 0 0.19076271347644291 0.42180689735212329 0 0.17959318849520989 0.42767062097712061 0 0.17694892311125079 0.41374337516342619 0 0.19076271347644291 0.42180689735212329 0 0.17565484674917409 0.39708642075954409 0 0.181930119016396 0.38720966044191563 0 0.18935991758029011 0.40399711843477781 0 0.17694892311125079 0.41374337516342619 0 0.17565484674917409 0.39708642075954409 0 0.18935991758029011 0.40399711843477781 0 0.17694892311125079 0.41374337516342619 0 0.17565484674917409 0.39708642075954409 0 0.1628996980960298 0.40390785099687521 0 0.14666866184778851 0.39242357921778592 0 0.1628996980960298 0.40390785099687521 0 0.16713557594190409 0.37657409876072567 0 0.17565484674917409 0.39708642075954409 0 0.1628996980960298 0.40390785099687521 0 0.16713557594190409 0.37657409876072567 0 0.14666866184778851 0.39242357921778592 0 0.16713557594190409 0.37657409876072567 0 0.17565484674917409 0.39708642075954409 0 0.16713557594190409 0.37657409876072567 0 0.181930119016396 0.38720966044191563 0 0.1876024900360197 0.36072461830366531 0 0.181930119016396 0.38720966044191563 0 0.1973446428721442 0.3862744979943063 0 0.181930119016396 0.38720966044191563 0 0.1973446428721442 0.3862744979943063 0 0.18935991758029011 0.40399711843477781 0 0.1973446428721442 0.3862744979943063 0 0.18935991758029011 0.40399711843477781 0 0.20308446499564711 0.40353793888909217 0 0.1973446428721442 0.3862744979943063 0 0.20308446499564711 0.40353793888909217 0 0.21141541843293379 0.39070646747965021 0 0.20308446499564711 0.40353793888909217 0 0.21408057786826129 0.40174298404828163 0 0.2122348554271353 0.41227740812784752 0 0.20308446499564711 0.40353793888909217 0 0.21141541843293379 0.39070646747965021 0 0.21408057786826129 0.40174298404828163 0 0.21141541843293379 0.39070646747965021 0 0.21408057786826129 0.40174298404828163 0 0.22468353321054299 0.39447986470628088 0 0.22484542165427901 0.37051244986762649 0 0.20919600000812441 0.37519989339624521 0 0.22032841166404771 0.38256223580511889 0 0.1973446428721442 0.3862744979943063 0 0.21141541843293379 0.39070646747965021 0 0.20919600000812441 0.37519989339624521 0 0.21141541843293379 0.39070646747965021 0 0.20919600000812441 0.37519989339624521 0 0.22032841166404771 0.38256223580511889 0 0.22484542165427901 0.37051244986762649 0 0.22032841166404771 0.38256223580511889 0 0.23412649591826559 0.38271345767112108 0 0.23412649591826559 0.38271345767112108 0 0.22468353321054299 0.39447986470628088 0 0.24176326319120489 0.39272765014488592 0 0.22032841166404771 0.38256223580511889 0 0.23412649591826559 0.38271345767112108 0 0.22468353321054299 0.39447986470628088 0 0.21141541843293379 0.39070646747965021 0 0.22032841166404771 0.38256223580511889 0 0.22468353321054299 0.39447986470628088 0 0.22468353321054299 0.39447986470628088 0 0.23135972281901199 0.40468392259757552 0 0.24176326319120489 0.39272765014488592 0 0.22468353321054299 0.39447986470628088 0 0.23135972281901199 0.40468392259757552 0 0.2217928623150062 0.41046766069104978 0 0.21408057786826129 0.40174298404828163 0 0.22468353321054299 0.39447986470628088 0 0.2217928623150062 0.41046766069104978 0 0.24176326319120489 0.39272765014488592 0 0.2424349945215501 0.4053751927089298 0 0.26400061085917281 0.4050786727634002 0 0.23135972281901199 0.40468392259757552 0 0.24176326319120489 0.39272765014488592 0 0.2424349945215501 0.4053751927089298 0 0.23412649591826559 0.38271345767112108 0 0.24176326319120489 0.39272765014488592 0 0.25312637300890212 0.38307244284541198 0 0.24065328994253529 0.37108880334043048 0 0.23412649591826559 0.38271345767112108 0 0.25312637300890212 0.38307244284541198 0 0.23640621976186549 0.43174640268619141 0 0.24556922618819721 0.41622577879948569 0 0.2540321257330711 0.43069866223175401 0 0.23640621976186549 0.43174640268619141 0 0.24556922618819721 0.41622577879948569 0 0.22713784151722249 0.42737288483557268 0 0.23640621976186549 0.43174640268619141 0 0.22713784151722249 0.42737288483557268 0 0.2450185513232449 0.44762199746914128 0 0.23640621976186549 0.43174640268619141 0 0.25001199774619992 0.44782390914491049 0 0.2540321257330711 0.43069866223175401 0 0.22713784151722249 0.42737288483557268 0 0.2450185513232449 0.44762199746914128 0 0.24556922618819721 0.41622577879948569 0 0.231469536185028 0.41393379695753418 0 0.22713784151722249 0.42737288483557268 0 0.24556922618819721 0.41622577879948569 0 0.22713784151722249 0.42737288483557268 0 0.2424349945215501 0.4053751927089298 0 0.24556922618819721 0.41622577879948569 0 0.231469536185028 0.41393379695753418 0 0.23135972281901199 0.40468392259757552 0 0.2424349945215501 0.4053751927089298 0 0.231469536185028 0.41393379695753418 0 0.23135972281901199 0.40468392259757552 0 0.231469536185028 0.41393379695753418 0 0.2217928623150062 0.41046766069104978 0 0.231469536185028 0.41393379695753418 0 0.22075048106051781 0.42013948175917759 0 0.22713784151722249 0.42737288483557268 0 0.231469536185028 0.41393379695753418 0 0.2217928623150062 0.41046766069104978 0 0.22075048106051781 0.42013948175917759 0 0.22075048106051781 0.42013948175917759 0 0.22713784151722249 0.42737288483557268 0 0.21673839325260091 0.42528132668010032 0 0.22075048106051781 0.42013948175917759 0 0.22713784151722249 0.42737288483557268 0 0.21673839325260091 0.42528132668010032 0 0.21043998198415009 0.42697408574822482 0 0.20595936157677719 0.44018140496542141 0 0.22713784151722249 0.42737288483557268 0 0.20595936157677719 0.44018140496542141 0 0.22713784151722249 0.42737288483557268 0 0.21673839325260091 0.42528132668010032 0 0.20595936157677719 0.44018140496542141 0 0.21673839325260091 0.42528132668010032 0 0.21043998198415009 0.42697408574822482 0 0.2131349543862785 0.41984527608192312 0 0.21043998198415009 0.42697408574822482 0 0.20413968409950689 0.43217101677895808 0 0.20117404964060351 0.42604208135918159 0 0.21043998198415009 0.42697408574822482 0 0.20207738679990939 0.41785897715450038 0 0.20117404964060351 0.42604208135918159 0 0.21043998198415009 0.42697408574822482 0 0.20413968409950689 0.43217101677895808 0 0.20595936157677719 0.44018140496542141 0 0.20413968409950689 0.43217101677895808 0 0.2027444638364545 0.43665898137643699 0 0.20595936157677719 0.44018140496542141 0 0.21408057786826129 0.40174298404828163 0 0.2217928623150062 0.41046766069104978 0 0.2122348554271353 0.41227740812784752 0 0.2217928623150062 0.41046766069104978 0 0.22075048106051781 0.42013948175917759 0 0.2122348554271353 0.41227740812784752 0 0.22075048106051781 0.42013948175917759 0 0.2122348554271353 0.41227740812784752 0 0.2131349543862785 0.41984527608192312 0 0.22075048106051781 0.42013948175917759 0 0.21673839325260091 0.42528132668010032 0 0.2131349543862785 0.41984527608192312 0 0.21043998198415009 0.42697408574822482 0 0.2131349543862785 0.41984527608192312 0 0.20207738679990939 0.41785897715450038 0 0.2122348554271353 0.41227740812784752 0 0.2131349543862785 0.41984527608192312 0 0.20207738679990939 0.41785897715450038 0 0.20308446499564711 0.40353793888909217 0 0.2122348554271353 0.41227740812784752 0 0.20207738679990939 0.41785897715450038 0 0.18935991758029011 0.40399711843477781 0 0.20207738679990939 0.41785897715450038 0 0.19076271347644291 0.42180689735212329 0 0.18935991758029011 0.40399711843477781 0 0.20308446499564711 0.40353793888909217 0 0.20207738679990939 0.41785897715450038 0 0.20413968409950689 0.43217101677895808 0 0.19674109286597549 0.43318856355355623 0 0.2027444638364545 0.43665898137643699 0 0.20413968409950689 0.43217101677895808 0 0.19674109286597549 0.43318856355355623 0 0.20117404964060351 0.42604208135918159 0 0.20207738679990939 0.41785897715450038 0 0.19076271347644291 0.42180689735212329 0 0.20117404964060351 0.42604208135918159 0 0.19076271347644291 0.42180689735212329 0 0.19674109286597549 0.43318856355355623 0 0.20117404964060351 0.42604208135918159 0 0.19076271347644291 0.42180689735212329 0 0.19674109286597549 0.43318856355355623 0 0.18833643469323469 0.43460822702355922 0 0.19674109286597549 0.43318856355355623 0 0.18833643469323469 0.43460822702355922 0 0.19328921144961081 0.44784417743107829 0 0.19328921144961081 0.44784417743107829 0 0.20666187981505399 0.45797394176264811 0 0.20595936157677719 0.44018140496542141 0 0.19328921144961081 0.44784417743107829 0 0.20595936157677719 0.44018140496542141 0 0.2027444638364545 0.43665898137643699 0 0.19328921144961081 0.44784417743107829 0 0.20595936157677719 0.44018140496542141 0 0.19674109286597549 0.43318856355355623 0 0.2027444638364545 0.43665898137643699 0 0.19328921144961081 0.44784417743107829 0 0.19328921144961081 0.44784417743107829 0 0.1946855054028567 0.46685496397949228 0 0.20666187981505399 0.45797394176264811 0 0.19328921144961081 0.44784417743107829 0 0.1946855054028567 0.46685496397949228 0 0.181600272342162 0.4583631605593525 0 0.1946855054028567 0.46685496397949228 0 0.20666187981505399 0.45797394176264811 0 0.21116633280908051 0.47932878857816053 0 0.20666187981505399 0.45797394176264811 0 0.22415806872142599 0.46012093664361498 0 0.21116633280908051 0.47932878857816053 0 0.20595936157677719 0.44018140496542141 0 0.22415806872142599 0.46012093664361498 0 0.20666187981505399 0.45797394176264811 0 0.20595936157677719 0.44018140496542141 0 0.22415806872142599 0.46012093664361498 0 0.2027444638364545 0.43665898137643699 0 0.20595936157677719 0.44018140496542141 0 0.22713784151722249 0.42737288483557268 0 0.20595936157677719 0.44018140496542141 0 0.2317796204752067 0.44708667687360121 0 0.20595936157677719 0.44018140496542141 0 0.2317796204752067 0.44708667687360121 0 0.22415806872142599 0.46012093664361498 0 0.2317796204752067 0.44708667687360121 0 0.22415806872142599 0.46012093664361498 0 0.24293996118119551 0.46096723610198881 0 0.22415806872142599 0.46012093664361498 0 0.24293996118119551 0.46096723610198881 0 0.2423567758660744 0.48006046832180871 0 0.24293996118119551 0.46096723610198881 0 0.2450185513232449 0.44762199746914128 0 0.25635434034826571 0.46045927693109712 0 0.22713784151722249 0.42737288483557268 0 0.2317796204752067 0.44708667687360121 0 0.2450185513232449 0.44762199746914128 0 0.23640621976186549 0.43174640268619141 0 0.25001199774619992 0.44782390914491049 0 0.23640621976186549 0.43174640268619141 0 0.2450185513232449 0.44762199746914128 0 0.25001199774619992 0.44782390914491049 0 0.2450185513232449 0.44762199746914128 0 0.25001199774619992 0.44782390914491049 0 0.2317796204752067 0.44708667687360121 0 0.2450185513232449 0.44762199746914128 0 0.2317796204752067 0.44708667687360121 0 0.24293996118119551 0.46096723610198881 0 0.2450185513232449 0.44762199746914128 0 0.23585335268145599 0.5 0 0.2423567758660744 0.48006046832180871 0 0.26055548301072368 0.50000000000000167 0 0.23585335268145599 0.5 0 0.2423567758660744 0.48006046832180871 0 0.22600332452379729 0.48520772539342433 0 0.24293996118119551 0.46096723610198881 0 0.2423567758660744 0.48006046832180871 0 0.25797241035295593 0.47045406037266868 0 0.22415806872142599 0.46012093664361498 0 0.2423567758660744 0.48006046832180871 0 0.22600332452379729 0.48520772539342433 0 0.22415806872142599 0.46012093664361498 0 0.2423567758660744 0.48006046832180871 0 0.22415806872142599 0.46012093664361498 0 0.22600332452379729 0.48520772539342433 0 0.21116633280908051 0.47932878857816053 0 0.23585335268145599 0.5 0 0.22600332452379729 0.48520772539342433 0 0.21115122235218811 0.50000000000000133 0 0.22600332452379729 0.48520772539342433 0 0.21115122235218811 0.50000000000000133 0 0.21116633280908051 0.47932878857816053 0 0.21115122235218811 0.50000000000000133 0 0.21116633280908051 0.47932878857816053 0 0.19325799499759941 0.48965306321622482 0 0.1946855054028567 0.46685496397949228 0 0.21116633280908051 0.47932878857816053 0 0.19361865021313701 0.47878573555158122 0 0.21116633280908051 0.47932878857816053 0 0.19361865021313701 0.47878573555158122 0 0.19325799499759941 0.48965306321622482 0 0.1946855054028567 0.46685496397949228 0 0.19361865021313701 0.47878573555158122 0 0.17536476764301129 0.4793061264324473 0 0.21115122235218811 0.50000000000000133 0 0.19325799499759941 0.48965306321622482 0 0.21115122235218811 0.50000000000000133 0 0.19325799499759941 0.48965306321622482 0 0.18359231913979049 0.5 0 0.19325799499759941 0.48965306321622482 0 0.17536476764301129 0.4793061264324473 0 0.19325799499759941 0.48965306321622482 0 0.18359231913979049 0.5 0 0.17536476764301129 0.4793061264324473 0 0.18359231913979049 0.5 0 0.17536476764301129 0.4793061264324473 0 0.1560334159273927 0.5 0 0.15747154028842311 0.46895918964866989 0 0.17536476764301129 0.4793061264324473 0 0.16837832228151331 0.46172071055299929 0 0.15747154028842311 0.46895918964866989 0 0.17536476764301129 0.4793061264324473 0 0.15747154028842311 0.46895918964866989 0 0.17536476764301129 0.4793061264324473 0 0.1560334159273927 0.5 0 0.19361865021313701 0.47878573555158122 0 0.19325799499759941 0.48965306321622482 0 0.17536476764301129 0.4793061264324473 0 0.1946855054028567 0.46685496397949228 0 0.17536476764301129 0.4793061264324473 0 0.181600272342162 0.4583631605593525 0 0.17536476764301129 0.4793061264324473 0 0.181600272342162 0.4583631605593525 0 0.16837832228151331 0.46172071055299929 0 0.181600272342162 0.4583631605593525 0 0.16800347212188649 0.44848464274232169 0 0.16837832228151331 0.46172071055299929 0 0.18833643469323469 0.43460822702355922 0 0.19328921144961081 0.44784417743107829 0 0.18079175477710249 0.4427413307505057 0 0.19328921144961081 0.44784417743107829 0 0.181600272342162 0.4583631605593525 0 0.18079175477710249 0.4427413307505057 0 0.181600272342162 0.4583631605593525 0 0.18079175477710249 0.4427413307505057 0 0.16800347212188649 0.44848464274232169 0 0.17115843142140291 0.43593413151198379 0 0.18079175477710249 0.4427413307505057 0 0.16800347212188649 0.44848464274232169 0 0.16800347212188649 0.44848464274232169 0 0.15529256912390779 0.45390183233333009 0 0.15002594196564739 0.4376605378118954 0 0.17115843142140291 0.43593413151198379 0 0.16800347212188649 0.44848464274232169 0 0.15002594196564739 0.4376605378118954 0 0.16800347212188649 0.44848464274232169 0 0.16837832228151331 0.46172071055299929 0 0.15529256912390779 0.45390183233333009 0 0.15747154028842311 0.46895918964866989 0 0.16837832228151331 0.46172071055299929 0 0.15529256912390779 0.45390183233333009 0 0.15747154028842311 0.46895918964866989 0 0.15529256912390779 0.45390183233333009 0 0.1402932185055551 0.45644965604884341 0 0.15747154028842311 0.46895918964866989 0 0.1402932185055551 0.45644965604884341 0 0.1364685501448912 0.47863143405747771 0 0.15529256912390779 0.45390183233333009 0 0.15002594196564739 0.4376605378118954 0 0.1402932185055551 0.45644965604884341 0 0.15002594196564739 0.4376605378118954 0 0.1251466826282692 0.44222114923196132 0 0.1402932185055551 0.45644965604884341 0 0.1195523704859263 0.4631571519766276 0 0.1251466826282692 0.44222114923196132 0 0.1402932185055551 0.45644965604884341 0 0.1195523704859263 0.4631571519766276 0 0.1402932185055551 0.45644965604884341 0 0.1364685501448912 0.47863143405747771 0 0.1364685501448912 0.47863143405747771 0 0.12847451271499499 0.5 0 0.1560334159273927 0.5 0 0.11662774865761159 0.4833383640317383 0 0.1364685501448912 0.47863143405747771 0 0.12847451271499499 0.5 0 0.15747154028842311 0.46895918964866989 0 0.1364685501448912 0.47863143405747771 0 0.1560334159273927 0.5 0 0.34747575429868782 0.47817375834443909 0 0.35863575163506373 0.47349978607073179 0 0.35096696085526868 0.46236327764652352 0 0.34747575429868782 0.47817375834443909 0 0.35863575163506373 0.47349978607073179 0 0.36355537831618789 0.48448736943065501 0 0.34747575429868782 0.47817375834443909 0 0.354565843562266 0.49999999999999911 0 0.36355537831618789 0.48448736943065501 0 0.34747575429868782 0.47817375834443909 0 0.354565843562266 0.49999999999999911 0 0.33751024730937651 0.48774002902971741 0 0.354565843562266 0.49999999999999911 0 0.36355537831618789 0.48448736943065501 0 0.354565843562266 0.49999999999999911 0 0.36355537831618789 0.48448736943065501 0 0.38437504524334037 0.5 0 0.36355537831618789 0.48448736943065501 0 0.37254491307010978 0.46897473886131102 0 0.36355537831618789 0.48448736943065501 0 0.37254491307010978 0.46897473886131102 0 0.38025414286316978 0.48380324323771912 0 0.35863575163506373 0.47349978607073179 0 0.36355537831618789 0.48448736943065501 0 0.37254491307010978 0.46897473886131102 0 0.35863575163506373 0.47349978607073179 0 0.37254491307010978 0.46897473886131102 0 0.35096696085526868 0.46236327764652352 0 0.37254491307010978 0.46897473886131102 0 0.35096696085526868 0.46236327764652352 0 0.37254491307010978 0.46897473886131102 0 0.36360605814830688 0.45789905739501818 0 0.38185440533348941 0.45290997931333171 0 0.37254491307010978 0.46897473886131102 0 0.36360605814830688 0.45789905739501818 0 0.35096696085526868 0.46236327764652352 0 0.36360605814830688 0.45789905739501818 0 0.36699773526399759 0.44541466000763341 0 0.38185440533348941 0.45290997931333171 0 0.36360605814830688 0.45789905739501818 0 0.36699773526399759 0.44541466000763341 0 0.34283157293112698 0.4539841002499152 0 0.36699773526399759 0.44541466000763341 0 0.34283157293112698 0.4539841002499152 0 0.36699773526399759 0.44541466000763341 0 0.34283157293112698 0.4539841002499152 0 0.34953582584774379 0.43511812981778319 0 0.34747575429868782 0.47817375834443909 0 0.35096696085526868 0.46236327764652352 0 0.33910987584353119 0.46533349111912869 0 0.36360605814830688 0.45789905739501818 0 0.35096696085526868 0.46236327764652352 0 0.34283157293112698 0.4539841002499152 0 0.35096696085526868 0.46236327764652352 0 0.33910987584353119 0.46533349111912869 0 0.34283157293112698 0.4539841002499152 0 0.33910987584353119 0.46533349111912869 0 0.34283157293112698 0.4539841002499152 0 0.3270862320060185 0.45681534289146059 0 0.33910987584353119 0.46533349111912869 0 0.3270862320060185 0.45681534289146059 0 0.32927586724660551 0.47528434144797937 0 0.34283157293112698 0.4539841002499152 0 0.33209079733553831 0.43934441682938441 0 0.34953582584774379 0.43511812981778319 0 0.34283157293112698 0.4539841002499152 0 0.33209079733553831 0.43934441682938441 0 0.3270862320060185 0.45681534289146059 0 0.33209079733553831 0.43934441682938441 0 0.3089216260367702 0.45020593966243949 0 0.31848950552850031 0.42359747280189641 0 0.33209079733553831 0.43934441682938441 0 0.3270862320060185 0.45681534289146059 0 0.3089216260367702 0.45020593966243949 0 0.3270862320060185 0.45681534289146059 0 0.31508258276623141 0.46817165248812698 0 0.32927586724660551 0.47528434144797937 0 0.3270862320060185 0.45681534289146059 0 0.31508258276623141 0.46817165248812698 0 0.3089216260367702 0.45020593966243949 0 0.31508258276623141 0.46817165248812698 0 0.32927586724660551 0.47528434144797937 0 0.32180100066045753 0.48524204535616822 0 0.31508258276623141 0.46817165248812698 0 0.32180100066045753 0.48524204535616822 0 0.30216109155800958 0.4811260417953015 0 0.34747575429868782 0.47817375834443909 0 0.32927586724660551 0.47528434144797937 0 0.33751024730937651 0.48774002902971741 0 0.32927586724660551 0.47528434144797937 0 0.33751024730937651 0.48774002902971741 0 0.32180100066045753 0.48524204535616822 0 0.34747575429868782 0.47817375834443909 0 0.33910987584353119 0.46533349111912869 0 0.32927586724660551 0.47528434144797937 0 0.354565843562266 0.49999999999999911 0 0.33751024730937651 0.48774002902971741 0 0.3344327707788658 0.5 0 0.33751024730937651 0.48774002902971741 0 0.3344327707788658 0.5 0 0.32180100066045753 0.48524204535616822 0 0.3344327707788658 0.5 0 0.31429969799546548 0.5 0 0.32180100066045753 0.48524204535616822 0 0.31429969799546548 0.5 0 0.32180100066045753 0.48524204535616822 0 0.30216109155800958 0.4811260417953015 0 0.31429969799546548 0.5 0 0.30216109155800958 0.4811260417953015 0 0.29416662521206538 0.50000000000000089 0 0.31508258276623141 0.46817165248812698 0 0.30216109155800958 0.4811260417953015 0 0.29997314460449942 0.46355223963383968 0 0.30216109155800958 0.4811260417953015 0 0.28740437363339988 0.46985478678467318 0 0.29997314460449942 0.46355223963383968 0 0.30216109155800958 0.4811260417953015 0 0.28740437363339988 0.46985478678467318 0 0.28171099431901953 0.48528158504710839 0 0.30216109155800958 0.4811260417953015 0 0.29416662521206538 0.50000000000000089 0 0.28171099431901953 0.48528158504710839 0 0.2912702503690936 0.49999999999999911 0 0.28171099431901953 0.48528158504710839 0 0.27948018987119039 0.48664827819652551 0 0.2912702503690936 0.49999999999999911 0 0.29416662521206538 0.50000000000000089 0 0.28171099431901953 0.48528158504710839 0 0.2912702503690936 0.49999999999999911 0 0.27948018987119039 0.48664827819652551 0 0.29416662521206538 0.50000000000000089 0 0.28171099431901953 0.48528158504710839 0 0.2912702503690936 0.49999999999999911 0 0.27591286668990872 0.5 0 0.27948018987119039 0.48664827819652551 0 0.27591286668990872 0.5 0 0.26858863842848202 0.48967385758039922 0 0.26055548301072368 0.50000000000000167 0 0.26858863842848202 0.48967385758039922 0 0.27948018987119039 0.48664827819652551 0 0.2653423267831394 0.47739655116460461 0 0.27591286668990872 0.5 0 0.26858863842848202 0.48967385758039922 0 0.27948018987119039 0.48664827819652551 0 0.27948018987119039 0.48664827819652551 0 0.26769012937328651 0.47329655639305268 0 0.28171099431901953 0.48528158504710839 0 0.26925536342597389 0.47056317009421578 0 0.28171099431901953 0.48528158504710839 0 0.27948018987119039 0.48664827819652551 0 0.26769012937328651 0.47329655639305268 0 0.28740437363339988 0.46985478678467318 0 0.28171099431901953 0.48528158504710839 0 0.26925536342597389 0.47056317009421578 0 0.28171099431901953 0.48528158504710839 0 0.26769012937328651 0.47329655639305268 0 0.26925536342597389 0.47056317009421578 0 0.26769012937328651 0.47329655639305268 0 0.2653423267831394 0.47739655116460461 0 0.26769012937328651 0.47329655639305268 0 0.26925536342597389 0.47056317009421578 0 0.27948018987119039 0.48664827819652551 0 0.26769012937328651 0.47329655639305268 0 0.2653423267831394 0.47739655116460461 0 0.2653423267831394 0.47739655116460461 0 0.25420923120429723 0.48183199971702728 0 0.26217391985666061 0.48722560211550792 0 0.26769012937328651 0.47329655639305268 0 0.2653423267831394 0.47739655116460461 0 0.25797241035295593 0.47045406037266868 0 0.2653423267831394 0.47739655116460461 0 0.25797241035295593 0.47045406037266868 0 0.25420923120429723 0.48183199971702728 0 0.2423567758660744 0.48006046832180871 0 0.25797241035295593 0.47045406037266868 0 0.25420923120429723 0.48183199971702728 0 0.25420923120429723 0.48183199971702728 0 0.26055548301072368 0.50000000000000167 0 0.26217391985666061 0.48722560211550792 0 0.2423567758660744 0.48006046832180871 0 0.26055548301072368 0.50000000000000167 0 0.2423567758660744 0.48006046832180871 0 0.25420923120429723 0.48183199971702728 0 0.26055548301072368 0.50000000000000167 0 0.26858863842848202 0.48967385758039922 0 0.26055548301072368 0.50000000000000167 0 0.26217391985666061 0.48722560211550792 0 0.26858863842848202 0.48967385758039922 0 0.2653423267831394 0.47739655116460461 0 0.26217391985666061 0.48722560211550792 0 0.25956746829647093 0.4400652518351838 0 0.26577924861855401 0.44846146320602609 0 0.27064848823917181 0.43204990285062761 0 0.25001199774619992 0.44782390914491049 0 0.26577924861855401 0.44846146320602609 0 0.25956746829647093 0.4400652518351838 0 0.25001199774619992 0.44782390914491049 0 0.2540321257330711 0.43069866223175401 0 0.25956746829647093 0.4400652518351838 0 0.25001199774619992 0.44782390914491049 0 0.26577924861855401 0.44846146320602609 0 0.2450185513232449 0.44762199746914128 0 0.25001199774619992 0.44782390914491049 0 0.25635434034826571 0.46045927693109712 0 0.26925536342597389 0.47056317009421578 0 0.25001199774619992 0.44782390914491049 0 0.26925536342597389 0.47056317009421578 0 0.25001199774619992 0.44782390914491049 0 0.25635434034826571 0.46045927693109712 0 0.26925536342597389 0.47056317009421578 0 0.25001199774619992 0.44782390914491049 0 0.26577924861855401 0.44846146320602609 0 0.2450185513232449 0.44762199746914128 0 0.25635434034826571 0.46045927693109712 0 0.24293996118119551 0.46096723610198881 0 0.25797241035295593 0.47045406037266868 0 0.25635434034826571 0.46045927693109712 0 0.26769012937328651 0.47329655639305268 0 0.26925536342597389 0.47056317009421578 0 0.25635434034826571 0.46045927693109712 0 0.26769012937328651 0.47329655639305268 0 0.25797241035295593 0.47045406037266868 0 0.25635434034826571 0.46045927693109712 0 0.26769012937328651 0.47329655639305268 0 0.25635434034826571 0.46045927693109712 0 0.28740437363339988 0.46985478678467318 0 0.26925536342597389 0.47056317009421578 0 0.28154649949090788 0.44909901726714402 0 0.26925536342597389 0.47056317009421578 0 0.26577924861855401 0.44846146320602609 0 0.28154649949090788 0.44909901726714402 0 0.26925536342597389 0.47056317009421578 0 0.28154649949090788 0.44909901726714402 0 0.26577924861855401 0.44846146320602609 0 0.28154649949090788 0.44909901726714402 0 0.26577924861855401 0.44846146320602609 0 0.28154649949090788 0.44909901726714402 0 0.27064848823917181 0.43204990285062761 0 0.28154649949090788 0.44909901726714402 0 0.3089216260367702 0.45020593966243949 0 0.28154649949090788 0.44909901726714402 0 0.3089216260367702 0.45020593966243949 0 0.29579488201552517 0.42421690234862092 0 0.28154649949090788 0.44909901726714402 0 0.29997314460449942 0.46355223963383968 0 0.3089216260367702 0.45020593966243949 0 0.28740437363339988 0.46985478678467318 0 0.28154649949090788 0.44909901726714402 0 0.29997314460449942 0.46355223963383968 0 0.31508258276623141 0.46817165248812698 0 0.29997314460449942 0.46355223963383968 0 0.3089216260367702 0.45020593966243949 0 0.3089216260367702 0.45020593966243949 0 0.29579488201552517 0.42421690234862092 0 0.31848950552850031 0.42359747280189641 0 0.29579488201552517 0.42421690234862092 0 0.31004326454014158 0.39933478743009743 0 0.31848950552850031 0.42359747280189641 0 0.29579488201552517 0.42421690234862092 0 0.31004326454014158 0.39933478743009743 0 0.29579488201552517 0.42421690234862092 0 0.28631327466782569 0.39652612808996018 0 0.31004326454014158 0.39933478743009743 0 0.29579488201552517 0.42421690234862092 0 0.27740772494646843 0.41392190279468749 0 0.28631327466782569 0.39652612808996018 0 0.28154649949090788 0.44909901726714402 0 0.29579488201552517 0.42421690234862092 0 0.27064848823917181 0.43204990285062761 0 0.28154649949090788 0.44909901726714402 0 0.29579488201552517 0.42421690234862092 0 0.29579488201552517 0.42421690234862092 0 0.27064848823917181 0.43204990285062761 0 0.27740772494646843 0.41392190279468749 0 0.27064848823917181 0.43204990285062761 0 0.27740772494646843 0.41392190279468749 0 0.26233163519321628 0.41959498388799088 0 0.27740772494646843 0.41392190279468749 0 0.26233163519321628 0.41959498388799088 0 0.26400061085917281 0.4050786727634002 0 0.24556922618819721 0.41622577879948569 0 0.26233163519321628 0.41959498388799088 0 0.26400061085917281 0.4050786727634002 0 0.2424349945215501 0.4053751927089298 0 0.24556922618819721 0.41622577879948569 0 0.26400061085917281 0.4050786727634002 0 0.24556922618819721 0.41622577879948569 0 0.26400061085917281 0.4050786727634002 0 0.24556922618819721 0.41622577879948569 0 0.26233163519321628 0.41959498388799088 0 0.2540321257330711 0.43069866223175401 0 0.25956746829647093 0.4400652518351838 0 0.27064848823917181 0.43204990285062761 0 0.2540321257330711 0.43069866223175401 0 0.27064848823917181 0.43204990285062761 0 0.26233163519321628 0.41959498388799088 0 0.2540321257330711 0.43069866223175401 0 0.25312637300890212 0.38307244284541198 0 0.27007267758946002 0.38694245807933608 0 0.26661645254888022 0.37309199056965953 0 0.25312637300890212 0.38307244284541198 0 0.26661645254888022 0.37309199056965953 0 0.25465182101279582 0.36986406734905147 0 0.25312637300890212 0.38307244284541198 0 0.26400061085917281 0.4050786727634002 0 0.27007267758946002 0.38694245807933608 0 0.24176326319120489 0.39272765014488592 0 0.25312637300890212 0.38307244284541198 0 0.26400061085917281 0.4050786727634002 0 0.26400061085917281 0.4050786727634002 0 0.27007267758946002 0.38694245807933608 0 0.28631327466782569 0.39652612808996018 0 0.27740772494646843 0.41392190279468749 0 0.26400061085917281 0.4050786727634002 0 0.28631327466782569 0.39652612808996018 0 0.27007267758946002 0.38694245807933608 0 0.28631327466782569 0.39652612808996018 0 0.28070685024690761 0.37462411456939138 0 0.27007267758946002 0.38694245807933608 0 0.28070685024690761 0.37462411456939138 0 0.26661645254888022 0.37309199056965953 0 0.29473646890089139 0.38146564608058281 0 0.28631327466782569 0.39652612808996018 0 0.28070685024690761 0.37462411456939138 0 0.29473646890089139 0.38146564608058281 0 0.28631327466782569 0.39652612808996018 0 0.31004326454014158 0.39933478743009743 0 0.29473646890089139 0.38146564608058281 0 0.31179348762813192 0.3847426849195994 0 0.30130880637493179 0.36712073654102989 0 0.29473646890089139 0.38146564608058281 0 0.31004326454014158 0.39933478743009743 0 0.31179348762813192 0.3847426849195994 0 0.31179348762813192 0.3847426849195994 0 0.32546285759965532 0.37475067128516082 0 0.30130880637493179 0.36712073654102989 0 0.31179348762813192 0.3847426849195994 0 0.32741604072503949 0.4010415832611261 0 0.32546285759965532 0.37475067128516082 0 0.34216107261104672 0.39054837128469733 0 0.32741604072503949 0.4010415832611261 0 0.32546285759965532 0.37475067128516082 0 0.34216107261104672 0.39054837128469733 0 0.34603044829449631 0.36670288745287882 0 0.32546285759965532 0.37475067128516082 0 0.34216107261104672 0.39054837128469733 0 0.32741604072503949 0.4010415832611261 0 0.3493587663816789 0.41292863818776587 0 0.31004326454014158 0.39933478743009743 0 0.31179348762813192 0.3847426849195994 0 0.32741604072503949 0.4010415832611261 0 0.32741604072503949 0.4010415832611261 0 0.31848950552850031 0.42359747280189641 0 0.33559210809973927 0.42479682806072611 0 0.31004326454014158 0.39933478743009743 0 0.32741604072503949 0.4010415832611261 0 0.31848950552850031 0.42359747280189641 0 0.33209079733553831 0.43934441682938441 0 0.31848950552850031 0.42359747280189641 0 0.33559210809973927 0.42479682806072611 0 0.33209079733553831 0.43934441682938441 0 0.33559210809973927 0.42479682806072611 0 0.34953582584774379 0.43511812981778319 0 0.32741604072503949 0.4010415832611261 0 0.33559210809973927 0.42479682806072611 0 0.3493587663816789 0.41292863818776587 0 0.3493587663816789 0.41292863818776587 0 0.36674276461026611 0.41054020209712722 0 0.35734042120990978 0.39792189231887481 0 0.3493587663816789 0.41292863818776587 0 0.34953582584774379 0.43511812981778319 0 0.3661515800519104 0.42819524266190429 0 0.33559210809973927 0.42479682806072611 0 0.3493587663816789 0.41292863818776587 0 0.34953582584774379 0.43511812981778319 0 0.36699773526399759 0.44541466000763341 0 0.3661515800519104 0.42819524266190429 0 0.3911638975968682 0.43684521976535201 0 0.36699773526399759 0.44541466000763341 0 0.34953582584774379 0.43511812981778319 0 0.3661515800519104 0.42819524266190429 0 0.3493587663816789 0.41292863818776587 0 0.3661515800519104 0.42819524266190429 0 0.36674276461026611 0.41054020209712722 0 0.3661515800519104 0.42819524266190429 0 0.36674276461026611 0.41054020209712722 0 0.38133171018451822 0.42148466406500928 0 0.36674276461026611 0.41054020209712722 0 0.37261789306882032 0.39360446226769102 0 0.38011081928198043 0.40796823517829711 0 0.37261789306882032 0.39360446226769102 0 0.35637222501027588 0.38189850938500819 0 0.35734042120990978 0.39792189231887481 0 0.36674276461026611 0.41054020209712722 0 0.37261789306882032 0.39360446226769102 0 0.35734042120990978 0.39792189231887481 0 0.37261789306882032 0.39360446226769102 0 0.36917966164340837 0.37651627532734661 0 0.35637222501027588 0.38189850938500819 0 0.36917966164340837 0.37651627532734661 0 0.35637222501027588 0.38189850938500819 0 0.36129300679161891 0.3677973388650233 0 0.34216107261104672 0.39054837128469733 0 0.35637222501027588 0.38189850938500819 0 0.35734042120990978 0.39792189231887481 0 0.34216107261104672 0.39054837128469733 0 0.35637222501027588 0.38189850938500819 0 0.34603044829449631 0.36670288745287882 0 0.34216107261104672 0.39054837128469733 0 0.3493587663816789 0.41292863818776587 0 0.35734042120990978 0.39792189231887481 0 0.34446642500814489 0.34480031324686911 0 0.34603044829449631 0.36670288745287882 0 0.35941647926436732 0.3506635562807256 0 0.34603044829449631 0.36670288745287882 0 0.36129300679161891 0.3677973388650233 0 0.35941647926436732 0.3506635562807256 0 0.35637222501027588 0.38189850938500819 0 0.34603044829449631 0.36670288745287882 0 0.36129300679161891 0.3677973388650233 0 0.36129300679161891 0.3677973388650233 0 0.35941647926436732 0.3506635562807256 0 0.37546621974554639 0.36320546587915709 0 0.36917966164340837 0.37651627532734661 0 0.36129300679161891 0.3677973388650233 0 0.37546621974554639 0.36320546587915709 0 0.35941647926436732 0.3506635562807256 0 0.37261174658162921 0.34530034145793381 0 0.37546621974554639 0.36320546587915709 0 0.35941647926436732 0.3506635562807256 0 0.37261174658162921 0.34530034145793381 0 0.35758446973793051 0.33538342503140139 0 0.3636271303728118 0.32122980632969961 0 0.35758446973793051 0.33538342503140139 0 0.37969899457539291 0.3312931957097921 0 0.37261174658162921 0.34530034145793381 0 0.35758446973793051 0.33538342503140139 0 0.37969899457539291 0.3312931957097921 0 0.3636271303728118 0.32122980632969961 0 0.37951436246422571 0.3045069991166518 0 0.37969899457539291 0.3312931957097921 0 0.3636271303728118 0.32122980632969961 0 0.35758446973793051 0.33538342503140139 0 0.34036182156013328 0.32617304392539531 0 0.3636271303728118 0.32122980632969961 0 0.34425070692758808 0.30396220663032208 0 0.3636271303728118 0.32122980632969961 0 0.34036182156013328 0.32617304392539531 0 0.34425070692758808 0.30396220663032208 0 0.34446642500814489 0.34480031324686911 0 0.35758446973793051 0.33538342503140139 0 0.34036182156013328 0.32617304392539531 0 0.34446642500814489 0.34480031324686911 0 0.35941647926436732 0.3506635562807256 0 0.35758446973793051 0.33538342503140139 0 0.32818383143554769 0.33797372095139139 0 0.34036182156013328 0.32617304392539531 0 0.31818031385934531 0.32433192845403619 0 0.34446642500814489 0.34480031324686911 0 0.32818383143554769 0.33797372095139139 0 0.34036182156013328 0.32617304392539531 0 0.34036182156013328 0.32617304392539531 0 0.32516098887716821 0.30773020685670982 0 0.34425070692758808 0.30396220663032208 0 0.34036182156013328 0.32617304392539531 0 0.31818031385934531 0.32433192845403619 0 0.32516098887716821 0.30773020685670982 0 0.31818031385934531 0.32433192845403619 0 0.30419687466914391 0.31217108422386919 0 0.32516098887716821 0.30773020685670982 0 0.32818383143554769 0.33797372095139139 0 0.31818031385934531 0.32433192845403619 0 0.31371992066842808 0.3430463572309308 0 0.32818383143554769 0.33797372095139139 0 0.31371992066842808 0.3430463572309308 0 0.33092799256600958 0.35343186987034969 0 0.31371992066842808 0.3430463572309308 0 0.31727743005456832 0.35836018235838468 0 0.33092799256600958 0.35343186987034969 0 0.34446642500814489 0.34480031324686911 0 0.34603044829449631 0.36670288745287882 0 0.33092799256600958 0.35343186987034969 0 0.34446642500814489 0.34480031324686911 0 0.32818383143554769 0.33797372095139139 0 0.33092799256600958 0.35343186987034969 0 0.34603044829449631 0.36670288745287882 0 0.33092799256600958 0.35343186987034969 0 0.32546285759965532 0.37475067128516082 0 0.31727743005456832 0.35836018235838468 0 0.32546285759965532 0.37475067128516082 0 0.30130880637493179 0.36712073654102989 0 0.31727743005456832 0.35836018235838468 0 0.33092799256600958 0.35343186987034969 0 0.32546285759965532 0.37475067128516082 0 0.31727743005456832 0.35836018235838468 0 0.30130880637493179 0.36712073654102989 0 0.30561927429166069 0.35318454174722419 0 0.31371992066842808 0.3430463572309308 0 0.30561927429166069 0.35318454174722419 0 0.30043110350576258 0.34409140370540853 0 0.31371992066842808 0.3430463572309308 0 0.31727743005456832 0.35836018235838468 0 0.30561927429166069 0.35318454174722419 0 0.30130880637493179 0.36712073654102989 0 0.30561927429166069 0.35318454174722419 0 0.29315586568633473 0.35191896513304549 0 0.30561927429166069 0.35318454174722419 0 0.30043110350576258 0.34409140370540853 0 0.29315586568633473 0.35191896513304549 0 0.30043110350576258 0.34409140370540853 0 0.29315586568633473 0.35191896513304549 0 0.28982283942977088 0.33860217840415308 0 0.29315586568633473 0.35191896513304549 0 0.28467154052403348 0.36052651747051362 0 0.27842924367440453 0.34821093780017409 0 0.29315586568633473 0.35191896513304549 0 0.27842924367440453 0.34821093780017409 0 0.28982283942977088 0.33860217840415308 0 0.29473646890089139 0.38146564608058281 0 0.30130880637493179 0.36712073654102989 0 0.28070685024690761 0.37462411456939138 0 0.30130880637493179 0.36712073654102989 0 0.29315586568633473 0.35191896513304549 0 0.28467154052403348 0.36052651747051362 0 0.30130880637493179 0.36712073654102989 0 0.28467154052403348 0.36052651747051362 0 0.28070685024690761 0.37462411456939138 0 0.28070685024690761 0.37462411456939138 0 0.26661645254888022 0.37309199056965953 0 0.2697569366375891 0.36075783330892719 0 0.28467154052403348 0.36052651747051362 0 0.28070685024690761 0.37462411456939138 0 0.2697569366375891 0.36075783330892719 0 0.28467154052403348 0.36052651747051362 0 0.2697569366375891 0.36075783330892719 0 0.27842924367440453 0.34821093780017409 0 0.2697569366375891 0.36075783330892719 0 0.27842924367440453 0.34821093780017409 0 0.26679648578023157 0.34770491811154342 0 0.2697569366375891 0.36075783330892719 0 0.26679648578023157 0.34770491811154342 0 0.25753695596088921 0.35422644187686092 0 0.26679648578023157 0.34770491811154342 0 0.25753695596088921 0.35422644187686092 0 0.25796947087500482 0.34304343075872279 0 0.24752015907378869 0.34734707417429439 0 0.25753695596088921 0.35422644187686092 0 0.25796947087500482 0.34304343075872279 0 0.24644635877036691 0.35996924791483892 0 0.24752015907378869 0.34734707417429439 0 0.25753695596088921 0.35422644187686092 0 0.2697569366375891 0.36075783330892719 0 0.25753695596088921 0.35422644187686092 0 0.25465182101279582 0.36986406734905147 0 0.24644635877036691 0.35996924791483892 0 0.25753695596088921 0.35422644187686092 0 0.25465182101279582 0.36986406734905147 0 0.26661645254888022 0.37309199056965953 0 0.2697569366375891 0.36075783330892719 0 0.25465182101279582 0.36986406734905147 0 0.25201377865278862 0.31353585193156608 0 0.27026126730843208 0.32121692209951802 0 0.2671772556454316 0.31102965803997712 0 0.25201377865278862 0.31353585193156608 0 0.27026126730843208 0.32121692209951802 0 0.25201377865278862 0.31353585193156608 0 0.25768787943522559 0.32098413768754708 0 0.27026126730843208 0.32121692209951802 0 0.25768787943522559 0.32098413768754708 0 0.27026126730843208 0.32121692209951802 0 0.25768787943522559 0.32098413768754708 0 0.2685806835713539 0.33528291752962353 0 0.27026126730843208 0.32121692209951802 0 0.25201377865278862 0.31353585193156608 0 0.25768787943522559 0.32098413768754708 0 0.25201377865278862 0.31353585193156608 0 0.25072440199650708 0.31184331135970877 0 0.2485585008978031 0.33215428745958692 0 0.25768787943522559 0.32098413768754708 0 0.2685806835713539 0.33528291752962353 0 0.2485585008978031 0.33215428745958692 0 0.2685806835713539 0.33528291752962353 0 0.2485585008978031 0.33215428745958692 0 0.25796947087500482 0.34304343075872279 0 0.2685806835713539 0.33528291752962353 0 0.2485585008978031 0.33215428745958692 0 0.24752015907378869 0.34734707417429439 0 0.25796947087500482 0.34304343075872279 0 0.26679648578023157 0.34770491811154342 0 0.25796947087500482 0.34304343075872279 0 0.2685806835713539 0.33528291752962353 0 0.25768787943522559 0.32098413768754708 0 0.2685806835713539 0.33528291752962353 0 0.2685806835713539 0.33528291752962353 0 0.2778602391981117 0.33022786798048748 0 0.28982283942977088 0.33860217840415308 0 0.2685806835713539 0.33528291752962353 0 0.2778602391981117 0.33022786798048748 0 0.27026126730843208 0.32121692209951802 0 0.2685806835713539 0.33528291752962353 0 0.28982283942977088 0.33860217840415308 0 0.27842924367440453 0.34821093780017409 0 0.2685806835713539 0.33528291752962353 0 0.28982283942977088 0.33860217840415308 0 0.27842924367440453 0.34821093780017409 0 0.26679648578023157 0.34770491811154342 0 0.2685806835713539 0.33528291752962353 0 0.27842924367440453 0.34821093780017409 0 0.2685806835713539 0.33528291752962353 0 0.27026126730843208 0.32121692209951802 0 0.28568185730935691 0.32770804184007768 0 0.27941030474969208 0.32059877220268418 0 0.27233777136658088 0.32125536661272452 0 0.28568185730935691 0.32770804184007768 0 0.2778602391981117 0.33022786798048748 0 0.27026126730843208 0.32121692209951802 0 0.28568185730935691 0.32770804184007768 0 0.27233777136658088 0.32125536661272452 0 0.27026126730843208 0.32121692209951802 0 0.28568185730935691 0.32770804184007768 0 0.27233777136658088 0.32125536661272452 0 0.27026126730843208 0.32121692209951802 0 0.27026126730843208 0.32121692209951802 0 0.27590649589877131 0.31554367913949488 0 0.2671772556454316 0.31102965803997712 0 0.27233777136658088 0.32125536661272452 0 0.27026126730843208 0.32121692209951802 0 0.27590649589877131 0.31554367913949488 0 0.27941030474969208 0.32059877220268418 0 0.27233777136658088 0.32125536661272452 0 0.27590649589877131 0.31554367913949488 0 0.27941030474969208 0.32059877220268418 0 0.27590649589877131 0.31554367913949488 0 0.28371509442405951 0.31788800121843952 0 0.29281341468371552 0.31962953272872979 0 0.30419687466914391 0.31217108422386919 0 0.28529759284019118 0.3068360771327458 0 0.27590649589877131 0.31554367913949488 0 0.28371509442405951 0.31788800121843952 0 0.28529759284019118 0.3068360771327458 0 0.28371509442405951 0.31788800121843952 0 0.29281341468371552 0.31962953272872979 0 0.28529759284019118 0.3068360771327458 0 0.28371509442405951 0.31788800121843952 0 0.28568185730935691 0.32770804184007768 0 0.29281341468371552 0.31962953272872979 0 0.27941030474969208 0.32059877220268418 0 0.28371509442405951 0.31788800121843952 0 0.28568185730935691 0.32770804184007768 0 0.28568185730935691 0.32770804184007768 0 0.29281341468371552 0.31962953272872979 0 0.30105858954392362 0.33046550425994797 0 0.2778602391981117 0.33022786798048748 0 0.28568185730935691 0.32770804184007768 0 0.28982283942977088 0.33860217840415308 0 0.28568185730935691 0.32770804184007768 0 0.28982283942977088 0.33860217840415308 0 0.30105858954392362 0.33046550425994797 0 0.31818031385934531 0.32433192845403619 0 0.31371992066842808 0.3430463572309308 0 0.30105858954392362 0.33046550425994797 0 0.30043110350576258 0.34409140370540853 0 0.28982283942977088 0.33860217840415308 0 0.30105858954392362 0.33046550425994797 0 0.31371992066842808 0.3430463572309308 0 0.30043110350576258 0.34409140370540853 0 0.30105858954392362 0.33046550425994797 0 0.31818031385934531 0.32433192845403619 0 0.30105858954392362 0.33046550425994797 0 0.30419687466914391 0.31217108422386919 0 0.29281341468371552 0.31962953272872979 0 0.30105858954392362 0.33046550425994797 0 0.30419687466914391 0.31217108422386919 0 0.31066574484676718 0.29919968849993839 0 0.29833668188063628 0.29766418939405498 0 0.30419687466914391 0.31217108422386919 0 0.31066574484676718 0.29919968849993839 0 0.29833668188063628 0.29766418939405498 0 0.30428315635681691 0.28654832183944151 0 0.29833668188063628 0.29766418939405498 0 0.30428315635681691 0.28654832183944151 0 0.28724004069026232 0.28356577527428017 0 0.29833668188063628 0.29766418939405498 0 0.28724004069026232 0.28356577527428017 0 0.28529759284019118 0.3068360771327458 0 0.29833668188063628 0.29766418939405498 0 0.30419687466914391 0.31217108422386919 0 0.28529759284019118 0.3068360771327458 0 0.27590649589877131 0.31554367913949488 0 0.28529759284019118 0.3068360771327458 0 0.2671772556454316 0.31102965803997712 0 0.28529759284019118 0.3068360771327458 0 0.26898222134338512 0.29770454331699492 0 0.2671772556454316 0.31102965803997712 0 0.28724004069026232 0.28356577527428017 0 0.26898222134338512 0.29770454331699492 0 0.28724004069026232 0.28356577527428017 0 0.28529759284019118 0.3068360771327458 0 0.26898222134338512 0.29770454331699492 0 0.28724004069026232 0.28356577527428017 0 0.26898222134338512 0.29770454331699492 0 0.27217262433302503 0.27827916254781399 0 0.26898222134338512 0.29770454331699492 0 0.25721814138664417 0.29146331718599289 0 0.27217262433302503 0.27827916254781399 0 0.2406209106714563 0.29858064765183179 0 0.25721814138664417 0.29146331718599289 0 0.25535870013716438 0.27018228348869072 0 0.25201377865278862 0.31353585193156608 0 0.2671772556454316 0.31102965803997712 0 0.25072440199650708 0.31184331135970877 0 0.26898222134338512 0.29770454331699492 0 0.2671772556454316 0.31102965803997712 0 0.25072440199650708 0.31184331135970877 0 0.26898222134338512 0.29770454331699492 0 0.25721814138664417 0.29146331718599289 0 0.25072440199650708 0.31184331135970877 0 0.26898222134338512 0.29770454331699492 0 0.25072440199650708 0.31184331135970877 0 0.25535870013716438 0.27018228348869072 0 0.28019998092792198 0.25504658303342348 0 0.25441764297214658 0.24790970184029809 0 0.25721814138664417 0.29146331718599289 0 0.25535870013716438 0.27018228348869072 0 0.27217262433302503 0.27827916254781399 0 0.25535870013716438 0.27018228348869072 0 0.27217262433302503 0.27827916254781399 0 0.28019998092792198 0.25504658303342348 0 0.27217262433302503 0.27827916254781399 0 0.28019998092792198 0.25504658303342348 0 0.28828022522873359 0.26996854283168381 0 0.25535870013716438 0.27018228348869072 0 0.28019998092792198 0.25504658303342348 0 0.28019998092792198 0.25504658303342348 0 0.28828022522873359 0.26996854283168381 0 0.29805877170363471 0.26279754850640968 0 0.28019998092792198 0.25504658303342348 0 0.29805877170363471 0.26279754850640968 0 0.30504126171867962 0.2399108825781564 0 0.28724004069026232 0.28356577527428017 0 0.30549786003714091 0.26942700723156709 0 0.28724004069026232 0.28356577527428017 0 0.27217262433302503 0.27827916254781399 0 0.28828022522873359 0.26996854283168381 0 0.28724004069026232 0.28356577527428017 0 0.28828022522873359 0.26996854283168381 0 0.30549786003714091 0.26942700723156709 0 0.28828022522873359 0.26996854283168381 0 0.30549786003714091 0.26942700723156709 0 0.29805877170363471 0.26279754850640968 0 0.30428315635681691 0.28654832183944151 0 0.28724004069026232 0.28356577527428017 0 0.30549786003714091 0.26942700723156709 0 0.30428315635681691 0.28654832183944151 0 0.30549786003714091 0.26942700723156709 0 0.32487428348236441 0.28669460693094467 0 0.30549786003714091 0.26942700723156709 0 0.29805877170363471 0.26279754850640968 0 0.29805877170363471 0.26279754850640968 0 0.31030905194230918 0.253893458953657 0 0.30504126171867962 0.2399108825781564 0 0.30549786003714091 0.26942700723156709 0 0.29805877170363471 0.26279754850640968 0 0.31030905194230918 0.253893458953657 0 0.31030905194230918 0.253893458953657 0 0.32217013193595118 0.25651607955483369 0 0.32177970408841972 0.24255703853835939 0 0.30549786003714091 0.26942700723156709 0 0.32217013193595118 0.25651607955483369 0 0.32157866152280878 0.27021685718024552 0 0.30549786003714091 0.26942700723156709 0 0.32217013193595118 0.25651607955483369 0 0.30549786003714091 0.26942700723156709 0 0.31030905194230918 0.253893458953657 0 0.32217013193595118 0.25651607955483369 0 0.32217013193595118 0.25651607955483369 0 0.33459542935607478 0.26572131381407532 0 0.32157866152280878 0.27021685718024552 0 0.33459542935607478 0.26572131381407532 0 0.35085358873642242 0.25874204101991849 0 0.33616954841461932 0.24922156245953919 0 0.32217013193595118 0.25651607955483369 0 0.33459542935607478 0.26572131381407532 0 0.33616954841461932 0.24922156245953919 0 0.33459542935607478 0.26572131381407532 0 0.32487428348236441 0.28669460693094467 0 0.34870561522968591 0.27360289703941743 0 0.30549786003714091 0.26942700723156709 0 0.32487428348236441 0.28669460693094467 0 0.33459542935607478 0.26572131381407532 0 0.32157866152280878 0.27021685718024552 0 0.32487428348236441 0.28669460693094467 0 0.30549786003714091 0.26942700723156709 0 0.32157866152280878 0.27021685718024552 0 0.32487428348236441 0.28669460693094467 0 0.32487428348236441 0.28669460693094467 0 0.35692533864112669 0.29031556489359128 0 0.34870561522968591 0.27360289703941743 0 0.32487428348236441 0.28669460693094467 0 0.35692533864112669 0.29031556489359128 0 0.34425070692758808 0.30396220663032208 0 0.31066574484676718 0.29919968849993839 0 0.30428315635681691 0.28654832183944151 0 0.32487428348236441 0.28669460693094467 0 0.31066574484676718 0.29919968849993839 0 0.30419687466914391 0.31217108422386919 0 0.32516098887716821 0.30773020685670982 0 0.31066574484676718 0.29919968849993839 0 0.32487428348236441 0.28669460693094467 0 0.32516098887716821 0.30773020685670982 0 0.32487428348236441 0.28669460693094467 0 0.32516098887716821 0.30773020685670982 0 0.34425070692758808 0.30396220663032208 0 0.32487428348236441 0.28669460693094467 0 0.34425070692758808 0.30396220663032208 0 0.3636271303728118 0.32122980632969961 0 0.35692533864112669 0.29031556489359128 0 0.34425070692758808 0.30396220663032208 0 0.3636271303728118 0.32122980632969961 0 0.35692533864112669 0.29031556489359128 0 0.37951436246422571 0.3045069991166518 0 0.35692533864112669 0.29031556489359128 0 0.37414184449162963 0.28321140793698307 0 0.37951436246422571 0.3045069991166518 0 0.35692533864112669 0.29031556489359128 0 0.37414184449162963 0.28321140793698307 0 0.3682402579111243 0.26598440961612962 0 0.37414184449162963 0.28321140793698307 0 0.3682402579111243 0.26598440961612962 0 0.37976418522353222 0.2713871939769989 0 0.3682402579111243 0.26598440961612962 0 0.37501760654880112 0.25148110705551341 0 0.36092052543541309 0.24931048650853721 0 0.3682402579111243 0.26598440961612962 0 0.35085358873642242 0.25874204101991849 0 0.36092052543541309 0.24931048650853721 0 0.33459542935607478 0.26572131381407532 0 0.35085358873642242 0.25874204101991849 0 0.34870561522968591 0.27360289703941743 0 0.35692533864112669 0.29031556489359128 0 0.3682402579111243 0.26598440961612962 0 0.34870561522968591 0.27360289703941743 0 0.3682402579111243 0.26598440961612962 0 0.35085358873642242 0.25874204101991849 0 0.34870561522968591 0.27360289703941743 0 0.40130190072954358 0.26684391201358632 0 0.39148563500320183 0.27659332591145042 0 0.38518900348817259 0.25975963244343259 0 0.40130190072954358 0.26684391201358632 0 0.39148563500320183 0.27659332591145042 0 0.4086002194338294 0.27991451771518111 0 0.40130190072954358 0.26684391201358632 0 0.38518900348817259 0.25975963244343259 0 0.39697199434658081 0.2483839640336489 0 0.40130190072954358 0.26684391201358632 0 0.40862178551771849 0.25531915528296012 0 0.39697199434658081 0.2483839640336489 0 0.3682402579111243 0.26598440961612962 0 0.38518900348817259 0.25975963244343259 0 0.37501760654880112 0.25148110705551341 0 0.38518900348817259 0.25975963244343259 0 0.39697199434658081 0.2483839640336489 0 0.38547897333253711 0.24444688168230899 0 0.38518900348817259 0.25975963244343259 0 0.37501760654880112 0.25148110705551341 0 0.38547897333253711 0.24444688168230899 0 0.39148563500320183 0.27659332591145042 0 0.38518900348817259 0.25975963244343259 0 0.37976418522353222 0.2713871939769989 0 0.37414184449162963 0.28321140793698307 0 0.39148563500320183 0.27659332591145042 0 0.37976418522353222 0.2713871939769989 0 0.3682402579111243 0.26598440961612962 0 0.38518900348817259 0.25975963244343259 0 0.37976418522353222 0.2713871939769989 0 0.37414184449162963 0.28321140793698307 0 0.38633730090387419 0.29028112992694249 0 0.37951436246422571 0.3045069991166518 0 0.37414184449162963 0.28321140793698307 0 0.39148563500320183 0.27659332591145042 0 0.38633730090387419 0.29028112992694249 0 0.38633730090387419 0.29028112992694249 0 0.37951436246422571 0.3045069991166518 0 0.39883951129411271 0.29762368443257481 0 0.39883951129411271 0.29762368443257481 0 0.40874982968466939 0.30767555074613251 0 0.39672783518658822 0.31701169465973478 0 0.37951436246422571 0.3045069991166518 0 0.39883951129411271 0.29762368443257481 0 0.39672783518658822 0.31701169465973478 0 0.39148563500320183 0.27659332591145042 0 0.38633730090387419 0.29028112992694249 0 0.39883951129411271 0.29762368443257481 0 0.39148563500320183 0.27659332591145042 0 0.39883951129411271 0.29762368443257481 0 0.4086002194338294 0.27991451771518111 0 0.41199806820325557 0.29344711046625738 0 0.42093595945737888 0.3029137147339801 0 0.42415796940063211 0.28640148461108389 0 0.39883951129411271 0.29762368443257481 0 0.41199806820325557 0.29344711046625738 0 0.4086002194338294 0.27991451771518111 0 0.41199806820325557 0.29344711046625738 0 0.42415796940063211 0.28640148461108389 0 0.4086002194338294 0.27991451771518111 0 0.41199806820325557 0.29344711046625738 0 0.40874982968466939 0.30767555074613251 0 0.42093595945737888 0.3029137147339801 0 0.39883951129411271 0.29762368443257481 0 0.41199806820325557 0.29344711046625738 0 0.40874982968466939 0.30767555074613251 0 0.40874982968466939 0.30767555074613251 0 0.42093595945737888 0.3029137147339801 0 0.41768789594047218 0.31348329108641698 0 0.42093595945737888 0.3029137147339801 0 0.43262273513227301 0.29933292703389769 0 0.42764055276505403 0.31390449911837032 0 0.42093595945737888 0.3029137147339801 0 0.42764055276505403 0.31390449911837032 0 0.41768789594047218 0.31348329108641698 0 0.43262273513227301 0.29933292703389769 0 0.44121474905191033 0.31079266204295641 0 0.42764055276505403 0.31390449911837032 0 0.42093595945737888 0.3029137147339801 0 0.43262273513227301 0.29933292703389769 0 0.42415796940063211 0.28640148461108389 0 0.43262273513227301 0.29933292703389769 0 0.42415796940063211 0.28640148461108389 0 0.43696039647074181 0.2859368230852255 0 0.42415796940063211 0.28640148461108389 0 0.43696039647074181 0.2859368230852255 0 0.43499901330347651 0.27160977766748262 0 0.42415796940063211 0.28640148461108389 0 0.43499901330347651 0.27160977766748262 0 0.42067848383691198 0.26451917796045188 0 0.40130190072954358 0.26684391201358632 0 0.4086002194338294 0.27991451771518111 0 0.42067848383691198 0.26451917796045188 0 0.42415796940063211 0.28640148461108389 0 0.4086002194338294 0.27991451771518111 0 0.42067848383691198 0.26451917796045188 0 0.40130190072954358 0.26684391201358632 0 0.40862178551771849 0.25531915528296012 0 0.42067848383691198 0.26451917796045188 0 0.40862178551771849 0.25531915528296012 0 0.42067848383691198 0.26451917796045188 0 0.41857974247636981 0.24990007968898001 0 0.42067848383691198 0.26451917796045188 0 0.43220972261360963 0.24908719324126749 0 0.41857974247636981 0.24990007968898001 0 0.43499901330347651 0.27160977766748262 0 0.42067848383691198 0.26451917796045188 0 0.43220972261360963 0.24908719324126749 0 0.43499901330347651 0.27160977766748262 0 0.44921340719140429 0.2630127316235823 0 0.43220972261360963 0.24908719324126749 0 0.44921340719140429 0.2630127316235823 0 0.43220972261360963 0.24908719324126749 0 0.44986070813789347 0.24303391977139671 0 0.43499901330347651 0.27160977766748262 0 0.44921340719140429 0.2630127316235823 0 0.44821662695091918 0.28165991768513349 0 0.43696039647074181 0.2859368230852255 0 0.43499901330347651 0.27160977766748262 0 0.44821662695091918 0.28165991768513349 0 0.44921340719140429 0.2630127316235823 0 0.46568371136937031 0.28099831603163211 0 0.44821662695091918 0.28165991768513349 0 0.46568371136937031 0.28099831603163211 0 0.46603432271194711 0.25448828477433061 0 0.44921340719140429 0.2630127316235823 0 0.46568371136937031 0.28099831603163211 0 0.46603432271194711 0.25448828477433061 0 0.44921340719140429 0.2630127316235823 0 0.46603432271194711 0.25448828477433061 0 0.44986070813789347 0.24303391977139671 0 0.46603432271194711 0.25448828477433061 0 0.48067618134870488 0.27123692654150222 0 0.4848923468319864 0.25637797310919719 0 0.46568371136937031 0.28099831603163211 0 0.46603432271194711 0.25448828477433061 0 0.48067618134870488 0.27123692654150222 0 0.48067618134870488 0.27123692654150222 0 0.5 0.27261023611714541 0 0.48751478034415568 0.29162226899577298 0 0.48067618134870488 0.27123692654150222 0 0.5 0.27261023611714541 0 0.4848923468319864 0.25637797310919719 0 0.5 0.27261023611714541 0 0.4848923468319864 0.25637797310919719 0 0.5 0.24748025227033421 0 0.50000000000000022 0.29774021996395661 0 0.49016074090810757 0.31133773733544629 0 0.5 0.3200968846959793 0 0.50000000000000022 0.29774021996395661 0 0.49016074090810757 0.31133773733544629 0 0.47723132868424961 0.30783224761035632 0 0.50000000000000022 0.29774021996395661 0 0.48751478034415568 0.29162226899577298 0 0.47723132868424961 0.30783224761035632 0 0.50000000000000022 0.29774021996395661 0 0.47723132868424961 0.30783224761035632 0 0.5 0.27261023611714541 0 0.50000000000000022 0.29774021996395661 0 0.48751478034415568 0.29162226899577298 0 0.46568371136937031 0.28099831603163211 0 0.48751478034415568 0.29162226899577298 0 0.47098871885632781 0.3047732721262652 0 0.46568371136937031 0.28099831603163211 0 0.48067618134870488 0.27123692654150222 0 0.48751478034415568 0.29162226899577298 0 0.48751478034415568 0.29162226899577298 0 0.47723132868424961 0.30783224761035632 0 0.47098871885632781 0.3047732721262652 0 0.48751478034415568 0.29162226899577298 0 0.47098871885632781 0.3047732721262652 0 0.47723132868424961 0.30783224761035632 0 0.47098871885632781 0.3047732721262652 0 0.45446265736849922 0.31792427525675671 0 0.47098871885632781 0.3047732721262652 0 0.45446265736849922 0.31792427525675671 0 0.46568371136937031 0.28099831603163211 0 0.47098871885632781 0.3047732721262652 0 0.4653331000267934 0.30750834728893361 0 0.47098871885632781 0.3047732721262652 0 0.4653331000267934 0.30750834728893361 0 0.45446265736849922 0.31792427525675671 0 0.4653331000267934 0.30750834728893361 0 0.4553501939917099 0.2942280776151549 0 0.45269074796354508 0.30492542845830523 0 0.4653331000267934 0.30750834728893361 0 0.45269074796354508 0.30492542845830523 0 0.45446265736849922 0.31792427525675671 0 0.46568371136937031 0.28099831603163211 0 0.4653331000267934 0.30750834728893361 0 0.4553501939917099 0.2942280776151549 0 0.46568371136937031 0.28099831603163211 0 0.4553501939917099 0.2942280776151549 0 0.44821662695091918 0.28165991768513349 0 0.46568371136937031 0.28099831603163211 0 0.4653331000267934 0.30750834728893361 0 0.4553501939917099 0.2942280776151549 0 0.44821662695091918 0.28165991768513349 0 0.44482678364792111 0.29604837861177008 0 0.43262273513227301 0.29933292703389769 0 0.43696039647074181 0.2859368230852255 0 0.44482678364792111 0.29604837861177008 0 0.43696039647074181 0.2859368230852255 0 0.44821662695091918 0.28165991768513349 0 0.44482678364792111 0.29604837861177008 0 0.45269074796354508 0.30492542845830523 0 0.44121474905191033 0.31079266204295641 0 0.45446265736849922 0.31792427525675671 0 0.4553501939917099 0.2942280776151549 0 0.44482678364792111 0.29604837861177008 0 0.45269074796354508 0.30492542845830523 0 0.44482678364792111 0.29604837861177008 0 0.45269074796354508 0.30492542845830523 0 0.44121474905191033 0.31079266204295641 0 0.43262273513227301 0.29933292703389769 0 0.44482678364792111 0.29604837861177008 0 0.44121474905191033 0.31079266204295641 0 0.43975518087154952 0.32444324412224729 0 0.45446265736849922 0.31792427525675671 0 0.43590417258632042 0.33269262715036457 0 0.45446265736849922 0.31792427525675671 0 0.43590417258632042 0.33269262715036457 0 0.44121474905191033 0.31079266204295641 0 0.43975518087154952 0.32444324412224729 0 0.45446265736849922 0.31792427525675671 0 0.44121474905191033 0.31079266204295641 0 0.43975518087154952 0.32444324412224729 0 0.43341454676577851 0.32002565456782822 0 0.43975518087154952 0.32444324412224729 0 0.45446265736849922 0.31792427525675671 0 0.45506762732830691 0.33390823209200021 0 0.45446265736849922 0.31792427525675671 0 0.43590417258632042 0.33269262715036457 0 0.45506762732830691 0.33390823209200021 0 0.44470583174947148 0.34847713375656508 0 0.43590417258632042 0.33269262715036457 0 0.44470583174947148 0.34847713375656508 0 0.43203193826969422 0.34773170073093229 0 0.43590417258632042 0.33269262715036457 0 0.45506762732830691 0.33390823209200021 0 0.46791255906250739 0.32498178270403089 0 0.47235291587473588 0.34546534159228348 0 0.45506762732830691 0.33390823209200021 0 0.47235291587473588 0.34546534159228348 0 0.44470583174947148 0.34847713375656508 0 0.47723132868424961 0.30783224761035632 0 0.45446265736849922 0.31792427525675671 0 0.45506762732830691 0.33390823209200021 0 0.46791255906250739 0.32498178270403089 0 0.45446265736849922 0.31792427525675671 0 0.47723132868424961 0.30783224761035632 0 0.46791255906250739 0.32498178270403089 0 0.45446265736849922 0.31792427525675671 0 0.49016074090810757 0.31133773733544629 0 0.47723132868424961 0.30783224761035632 0 0.48460959075493337 0.325361257227683 0 0.47723132868424961 0.30783224761035632 0 0.46791255906250739 0.32498178270403089 0 0.48460959075493337 0.325361257227683 0 0.46791255906250739 0.32498178270403089 0 0.48460959075493337 0.325361257227683 0 0.47235291587473588 0.34546534159228348 0 0.50000000000000044 0.34245354942800188 0 0.48460959075493337 0.325361257227683 0 0.47235291587473588 0.34546534159228348 0 0.50000000000000044 0.34245354942800188 0 0.5 0.3200968846959793 0 0.48460959075493337 0.325361257227683 0 0.49016074090810757 0.31133773733544629 0 0.5 0.3200968846959793 0 0.48460959075493337 0.325361257227683 0 0.50000000000000044 0.34245354942800188 0 0.47235291587473588 0.34546534159228348 0 0.47034764441216642 0.38478880009170241 0 0.50000000000000044 0.34245354942800188 0 0.47235291587473588 0.34546534159228348 0 0.47235291587473588 0.34546534159228348 0 0.44890906786984519 0.36996003510375908 0 0.47034764441216642 0.38478880009170241 0 0.47235291587473588 0.34546534159228348 0 0.44470583174947148 0.34847713375656508 0 0.44890906786984519 0.36996003510375908 0 0.47235291587473588 0.34546534159228348 0 0.44470583174947148 0.34847713375656508 0 0.44470583174947148 0.34847713375656508 0 0.44890906786984519 0.36996003510375908 0 0.43017206093884369 0.36229606297282768 0 0.44890906786984519 0.36996003510375908 0 0.43017206093884369 0.36229606297282768 0 0.43132770625721278 0.38312183983705772 0 0.43017206093884369 0.36229606297282768 0 0.41983185054753908 0.37481987107459952 0 0.43132770625721278 0.38312183983705772 0 0.43017206093884369 0.36229606297282768 0 0.41983185054753908 0.37481987107459952 0 0.41214503901019101 0.3647784020032302 0 0.41983185054753908 0.37481987107459952 0 0.41214503901019101 0.3647784020032302 0 0.40931434478294659 0.37805796333249669 0 0.41214503901019101 0.3647784020032302 0 0.41734568780414111 0.34746097904397177 0 0.40264037679670978 0.3542643457626059 0 0.41734568780414111 0.34746097904397177 0 0.40106292913332231 0.33622465092350651 0 0.40264037679670978 0.3542643457626059 0 0.43017206093884369 0.36229606297282768 0 0.41214503901019101 0.3647784020032302 0 0.41734568780414111 0.34746097904397177 0 0.43017206093884369 0.36229606297282768 0 0.41734568780414111 0.34746097904397177 0 0.43203193826969422 0.34773170073093229 0 0.44470583174947148 0.34847713375656508 0 0.43017206093884369 0.36229606297282768 0 0.43203193826969422 0.34773170073093229 0 0.41734568780414111 0.34746097904397177 0 0.43590417258632042 0.33269262715036457 0 0.41734568780414111 0.34746097904397177 0 0.43203193826969422 0.34773170073093229 0 0.43590417258632042 0.33269262715036457 0 0.41734568780414111 0.34746097904397177 0 0.43590417258632042 0.33269262715036457 0 0.42504770437459999 0.3309622129877387 0 0.43975518087154952 0.32444324412224729 0 0.43590417258632042 0.33269262715036457 0 0.42504770437459999 0.3309622129877387 0 0.42504770437459999 0.3309622129877387 0 0.42764055276505403 0.31390449911837032 0 0.41888012219086851 0.32254668778054352 0 0.42504770437459999 0.3309622129877387 0 0.43341454676577851 0.32002565456782822 0 0.42764055276505403 0.31390449911837032 0 0.44121474905191033 0.31079266204295641 0 0.43341454676577851 0.32002565456782822 0 0.42764055276505403 0.31390449911837032 0 0.43975518087154952 0.32444324412224729 0 0.42504770437459999 0.3309622129877387 0 0.43341454676577851 0.32002565456782822 0 0.43975518087154952 0.32444324412224729 0 0.42504770437459999 0.3309622129877387 0 0.42764055276505403 0.31390449911837032 0 0.41768789594047218 0.31348329108641698 0 0.41888012219086851 0.32254668778054352 0 0.41768789594047218 0.31348329108641698 0 0.41888012219086851 0.32254668778054352 0 0.4104525556251209 0.32158537387781733 0 0.41888012219086851 0.32254668778054352 0 0.4104525556251209 0.32158537387781733 0 0.41357190224909568 0.3327980618323742 0 0.40874982968466939 0.30767555074613251 0 0.41768789594047218 0.31348329108641698 0 0.4104525556251209 0.32158537387781733 0 0.41734568780414111 0.34746097904397177 0 0.41357190224909568 0.3327980618323742 0 0.40106292913332231 0.33622465092350651 0 0.41734568780414111 0.34746097904397177 0 0.42504770437459999 0.3309622129877387 0 0.41357190224909568 0.3327980618323742 0 0.42504770437459999 0.3309622129877387 0 0.41888012219086851 0.32254668778054352 0 0.41357190224909568 0.3327980618323742 0 0.4104525556251209 0.32158537387781733 0 0.41357190224909568 0.3327980618323742 0 0.40106292913332231 0.33622465092350651 0 0.40106292913332231 0.33622465092350651 0 0.39672783518658822 0.31701169465973478 0 0.37969899457539291 0.3312931957097921 0 0.4104525556251209 0.32158537387781733 0 0.40106292913332231 0.33622465092350651 0 0.39672783518658822 0.31701169465973478 0 0.40874982968466939 0.30767555074613251 0 0.4104525556251209 0.32158537387781733 0 0.39672783518658822 0.31701169465973478 0 0.37951436246422571 0.3045069991166518 0 0.39672783518658822 0.31701169465973478 0 0.37969899457539291 0.3312931957097921 0 0.40106292913332231 0.33622465092350651 0 0.37969899457539291 0.3312931957097921 0 0.38715621930432731 0.34999012087743842 0 0.37261174658162921 0.34530034145793381 0 0.37969899457539291 0.3312931957097921 0 0.38715621930432731 0.34999012087743842 0 0.37261174658162921 0.34530034145793381 0 0.38715621930432731 0.34999012087743842 0 0.37546621974554639 0.36320546587915709 0 0.36917966164340837 0.37651627532734661 0 0.37546621974554639 0.36320546587915709 0 0.38385281806681548 0.38280931264530471 0 0.38715621930432731 0.34999012087743842 0 0.37546621974554639 0.36320546587915709 0 0.39549200873156759 0.37286757596488251 0 0.37546621974554639 0.36320546587915709 0 0.39549200873156759 0.37286757596488251 0 0.38385281806681548 0.38280931264530471 0 0.41214503901019101 0.3647784020032302 0 0.39549200873156759 0.37286757596488251 0 0.40931434478294659 0.37805796333249669 0 0.41214503901019101 0.3647784020032302 0 0.39549200873156759 0.37286757596488251 0 0.40264037679670978 0.3542643457626059 0 0.38715621930432731 0.34999012087743842 0 0.39549200873156759 0.37286757596488251 0 0.40264037679670978 0.3542643457626059 0 0.40106292913332231 0.33622465092350651 0 0.38715621930432731 0.34999012087743842 0 0.40264037679670978 0.3542643457626059 0 0.40345985060660827 0.39119488205693098 0 0.38385281806681548 0.38280931264530471 0 0.38908357924079701 0.39918267314782813 0 0.40345985060660827 0.39119488205693098 0 0.38908357924079701 0.39918267314782813 0 0.39966571089293967 0.40782363415201678 0 0.40345985060660827 0.39119488205693098 0 0.39966571089293967 0.40782363415201678 0 0.41329988853087779 0.40570688905836849 0 0.39549200873156759 0.37286757596488251 0 0.40345985060660827 0.39119488205693098 0 0.38385281806681548 0.38280931264530471 0 0.39549200873156759 0.37286757596488251 0 0.40345985060660827 0.39119488205693098 0 0.40931434478294659 0.37805796333249669 0 0.37261789306882032 0.39360446226769102 0 0.36917966164340837 0.37651627532734661 0 0.38385281806681548 0.38280931264530471 0 0.37261789306882032 0.39360446226769102 0 0.38385281806681548 0.38280931264530471 0 0.38908357924079701 0.39918267314782813 0 0.37261789306882032 0.39360446226769102 0 0.38908357924079701 0.39918267314782813 0 0.38011081928198043 0.40796823517829711 0 0.38133171018451822 0.42148466406500928 0 0.39018511044471049 0.41269935620493681 0 0.3995476549017371 0.42237793826374631 0 0.36674276461026611 0.41054020209712722 0 0.38011081928198043 0.40796823517829711 0 0.38133171018451822 0.42148466406500928 0 0.38908357924079701 0.39918267314782813 0 0.38011081928198043 0.40796823517829711 0 0.39018511044471049 0.41269935620493681 0 0.38011081928198043 0.40796823517829711 0 0.38133171018451822 0.42148466406500928 0 0.39018511044471049 0.41269935620493681 0 0.3661515800519104 0.42819524266190429 0 0.38133171018451822 0.42148466406500928 0 0.3911638975968682 0.43684521976535201 0 0.3911638975968682 0.43684521976535201 0 0.40894246668886558 0.43054085156122329 0 0.40440044634326211 0.44161369971442599 0 0.38133171018451822 0.42148466406500928 0 0.3911638975968682 0.43684521976535201 0 0.3995476549017371 0.42237793826374631 0 0.3911638975968682 0.43684521976535201 0 0.3995476549017371 0.42237793826374631 0 0.40894246668886558 0.43054085156122329 0 0.3911638975968682 0.43684521976535201 0 0.40894246668886558 0.43054085156122329 0 0.3911638975968682 0.43684521976535201 0 0.3995476549017371 0.42237793826374631 0 0.38908357924079701 0.39918267314782813 0 0.39018511044471049 0.41269935620493681 0 0.39966571089293967 0.40782363415201678 0 0.39018511044471049 0.41269935620493681 0 0.3995476549017371 0.42237793826374631 0 0.39966571089293967 0.40782363415201678 0 0.3995476549017371 0.42237793826374631 0 0.39966571089293967 0.40782363415201678 0 0.41136850297915811 0.41829657035587697 0 0.41136850297915811 0.41829657035587697 0 0.42872845741140359 0.40969509090507489 0 0.41329988853087779 0.40570688905836849 0 0.39966571089293967 0.40782363415201678 0 0.41136850297915811 0.41829657035587697 0 0.41329988853087779 0.40570688905836849 0 0.40894246668886558 0.43054085156122329 0 0.42672103578086318 0.42423648335709507 0 0.41913327458708188 0.43964232168390449 0 0.40894246668886558 0.43054085156122329 0 0.42672103578086318 0.42423648335709507 0 0.41136850297915811 0.41829657035587697 0 0.40894246668886558 0.43054085156122329 0 0.42672103578086318 0.42423648335709507 0 0.40894246668886558 0.43054085156122329 0 0.41913327458708188 0.43964232168390449 0 0.40440044634326211 0.44161369971442599 0 0.3995476549017371 0.42237793826374631 0 0.41136850297915811 0.41829657035587697 0 0.40894246668886558 0.43054085156122329 0 0.42672103578086318 0.42423648335709507 0 0.43847894545700061 0.43689546623296299 0 0.41913327458708188 0.43964232168390449 0 0.42672103578086318 0.42423648335709507 0 0.42872845741140359 0.40969509090507489 0 0.45406329561965492 0.42361441382709392 0 0.41136850297915811 0.41829657035587697 0 0.42672103578086318 0.42423648335709507 0 0.42872845741140359 0.40969509090507489 0 0.42872845741140359 0.40969509090507489 0 0.4230481792343293 0.39699015162431572 0 0.44420236151264592 0.3948775883688152 0 0.4230481792343293 0.39699015162431572 0 0.43132770625721278 0.38312183983705772 0 0.44420236151264592 0.3948775883688152 0 0.42872845741140359 0.40969509090507489 0 0.4230481792343293 0.39699015162431572 0 0.41329988853087779 0.40570688905836849 0 0.40345985060660827 0.39119488205693098 0 0.4230481792343293 0.39699015162431572 0 0.41329988853087779 0.40570688905836849 0 0.40345985060660827 0.39119488205693098 0 0.4230481792343293 0.39699015162431572 0 0.41564297501882708 0.38662908556284009 0 0.40345985060660827 0.39119488205693098 0 0.40931434478294659 0.37805796333249669 0 0.41564297501882708 0.38662908556284009 0 0.41983185054753908 0.37481987107459952 0 0.40931434478294659 0.37805796333249669 0 0.41564297501882708 0.38662908556284009 0 0.4230481792343293 0.39699015162431572 0 0.41564297501882708 0.38662908556284009 0 0.43132770625721278 0.38312183983705772 0 0.41983185054753908 0.37481987107459952 0 0.41564297501882708 0.38662908556284009 0 0.43132770625721278 0.38312183983705772 0 0.50000000000000044 0.34245354942800188 0 0.47034764441216642 0.38478880009170241 0 0.5 0.42884325453528171 0 0.44420236151264592 0.3948775883688152 0 0.47034764441216642 0.38478880009170241 0 0.45406329561965492 0.42361441382709392 0 0.44890906786984519 0.36996003510375908 0 0.43132770625721278 0.38312183983705772 0 0.44420236151264592 0.3948775883688152 0 0.44890906786984519 0.36996003510375908 0 0.44420236151264592 0.3948775883688152 0 0.47034764441216642 0.38478880009170241 0 0.47034764441216642 0.38478880009170241 0 0.5 0.42884325453528171 0 0.45406329561965492 0.42361441382709392 0 0.5 0.42884325453528171 0 0.45406329561965492 0.42361441382709392 0 0.4722599324941979 0.45984723856222331 0 0.42872845741140359 0.40969509090507489 0 0.44420236151264592 0.3948775883688152 0 0.45406329561965492 0.42361441382709392 0 0.42672103578086318 0.42423648335709507 0 0.45406329561965492 0.42361441382709392 0 0.43847894545700061 0.43689546623296299 0 0.45406329561965492 0.42361441382709392 0 0.43847894545700061 0.43689546623296299 0 0.449220287491781 0.44955366629440902 0 0.45406329561965492 0.42361441382709392 0 0.449220287491781 0.44955366629440902 0 0.4722599324941979 0.45984723856222331 0 0.449220287491781 0.44955366629440902 0 0.43956104257836659 0.46814719789878639 0 0.4722599324941979 0.45984723856222331 0 0.43847894545700061 0.43689546623296299 0 0.449220287491781 0.44955366629440902 0 0.42787829367872943 0.45409373802426423 0 0.5 0.42884325453528171 0 0.4722599324941979 0.45984723856222331 0 0.5 0.5 0 0.449220287491781 0.44955366629440902 0 0.43956104257836659 0.46814719789878639 0 0.42787829367872943 0.45409373802426423 0 0.4722599324941979 0.45984723856222331 0 0.5 0.5 0 0.47380265028656388 0.49999999999999939 0 0.47380265028656388 0.49999999999999939 0 0.44848821598245059 0.49224368471532659 0 0.44399344860548928 0.5 0 0.4722599324941979 0.45984723856222331 0 0.47380265028656388 0.49999999999999939 0 0.44848821598245059 0.49224368471532659 0 0.47380265028656388 0.49999999999999939 0 0.44848821598245059 0.49224368471532659 0 0.43956104257836659 0.46814719789878639 0 0.4722599324941979 0.45984723856222331 0 0.44848821598245059 0.49224368471532659 0 0.44848821598245059 0.49224368471532659 0 0.44399344860548928 0.5 0 0.42317378167833708 0.4844873694306544 0 0.44399344860548928 0.5 0 0.42317378167833708 0.4844873694306544 0 0.41418424692441469 0.5 0 0.44848821598245059 0.49224368471532659 0 0.42317378167833708 0.4844873694306544 0 0.42317378167833708 0.4844873694306544 0 0.41418424692441469 0.5 0 0.39785934737422368 0.4767310541459821 0 0.42317378167833708 0.4844873694306544 0 0.41501310803431662 0.46753852178215571 0 0.39785934737422368 0.4767310541459821 0 0.42317378167833708 0.4844873694306544 0 0.39785934737422368 0.4767310541459821 0 0.43956104257836659 0.46814719789878639 0 0.44848821598245059 0.49224368471532659 0 0.42317378167833708 0.4844873694306544 0 0.43956104257836659 0.46814719789878639 0 0.42317378167833708 0.4844873694306544 0 0.41501310803431662 0.46753852178215571 0 0.43956104257836659 0.46814719789878639 0 0.42787829367872943 0.45409373802426423 0 0.41501310803431662 0.46753852178215571 0 0.43847894545700061 0.43689546623296299 0 0.42787829367872943 0.45409373802426423 0 0.41913327458708188 0.43964232168390449 0 0.42787829367872943 0.45409373802426423 0 0.41913327458708188 0.43964232168390449 0 0.40924553597991348 0.45210144050221363 0 0.41913327458708188 0.43964232168390449 0 0.40924553597991348 0.45210144050221363 0 0.40440044634326211 0.44161369971442599 0 0.40924553597991348 0.45210144050221363 0 0.41501310803431662 0.46753852178215571 0 0.39500572777593912 0.46119906661073817 0 0.42787829367872943 0.45409373802426423 0 0.40924553597991348 0.45210144050221363 0 0.41501310803431662 0.46753852178215571 0 0.41501310803431662 0.46753852178215571 0 0.39500572777593912 0.46119906661073817 0 0.39785934737422368 0.4767310541459821 0 0.40924553597991348 0.45210144050221363 0 0.39500572777593912 0.46119906661073817 0 0.39633400260589452 0.44893388118121219 0 0.39500572777593912 0.46119906661073817 0 0.39633400260589452 0.44893388118121219 0 0.38185440533348941 0.45290997931333171 0 0.40924553597991348 0.45210144050221363 0 0.40440044634326211 0.44161369971442599 0 0.39633400260589452 0.44893388118121219 0 0.3911638975968682 0.43684521976535201 0 0.40440044634326211 0.44161369971442599 0 0.39633400260589452 0.44893388118121219 0 0.36699773526399759 0.44541466000763341 0 0.3911638975968682 0.43684521976535201 0 0.38185440533348941 0.45290997931333171 0 0.36699773526399759 0.44541466000763341 0 0.3911638975968682 0.43684521976535201 0 0.3911638975968682 0.43684521976535201 0 0.38185440533348941 0.45290997931333171 0 0.3911638975968682 0.43684521976535201 0 0.39633400260589452 0.44893388118121219 0 0.38185440533348941 0.45290997931333171 0 0.37254491307010978 0.46897473886131102 0 0.38185440533348941 0.45290997931333171 0 0.37254491307010978 0.46897473886131102 0 0.39500572777593912 0.46119906661073817 0 0.38185440533348941 0.45290997931333171 0 0.37254491307010978 0.46897473886131102 0 0.39785934737422368 0.4767310541459821 0 0.37254491307010978 0.46897473886131102 0 0.39500572777593912 0.46119906661073817 0 0.39785934737422368 0.4767310541459821 0 0.37254491307010978 0.46897473886131102 0 0.38025414286316978 0.48380324323771912 0 0.39785934737422368 0.4767310541459821 0 0.36355537831618789 0.48448736943065501 0 0.38025414286316978 0.48380324323771912 0 0.38437504524334037 0.5 0 0.38025414286316978 0.48380324323771912 0 0.38437504524334037 0.5 0 0.39785934737422368 0.4767310541459821 0 0.41418424692441469 0.5 0 0.38437504524334037 0.5 0 0.39785934737422368 0.4767310541459821 0 0.34051406986979382 0.075381349250661589 0 0.31666584762752059 0.080880730625387448 0 0.32954281803699959 0.08226314108279105 0 0.34051406986979382 0.075381349250661589 0 0.31666584762752059 0.080880730625387448 0 0.32954281803699959 0.08226314108279105 0 0.3360036842942512 0.080964200729648203 0 0.34051406986979382 0.075381349250661589 0 0.33370839268194957 0.085260741928905981 0 0.32954281803699959 0.08226314108279105 0 0.3360036842942512 0.080964200729648203 0 0.33370839268194957 0.085260741928905981 0 0.32954281803699959 0.08226314108279105 0 0.33097862080217177 0.090304384732872583 0 0.33370839268194957 0.085260741928905981 0 0.33097862080217177 0.090304384732872583 0 0.33830844759437573 0.087511241170312129 0 0.33830844759437573 0.087511241170312129 0 0.34099345711558932 0.096829627900084647 0 0.34739122444590809 0.088933637509917632 0 0.33097862080217177 0.090304384732872583 0 0.33830844759437573 0.087511241170312129 0 0.34099345711558932 0.096829627900084647 0 0.33830844759437573 0.087511241170312129 0 0.34116919563414372 0.081489353069907913 0 0.34739122444590809 0.088933637509917632 0 0.33370839268194957 0.085260741928905981 0 0.33830844759437573 0.087511241170312129 0 0.3360036842942512 0.080964200729648203 0 0.33830844759437573 0.087511241170312129 0 0.3360036842942512 0.080964200729648203 0 0.34116919563414372 0.081489353069907913 0 0.3360036842942512 0.080964200729648203 0 0.33946673858367321 0.079246854865075891 0 0.34116919563414372 0.081489353069907913 0 0.3360036842942512 0.080964200729648203 0 0.33946673858367321 0.079246854865075891 0 0.34051406986979382 0.075381349250661589 0 0.33946673858367321 0.079246854865075891 0 0.34116919563414372 0.081489353069907913 0 0.34154468191306758 0.07739665476310667 0 0.34154468191306758 0.07739665476310667 0 0.34051406986979382 0.075381349250661589 0 0.34465578170706712 0.074426273744151714 0 0.33664347895195679 0.067812620295795767 0 0.34465578170706712 0.074426273744151714 0 0.34051406986979382 0.075381349250661589 0 0.33664347895195679 0.067812620295795767 0 0.34465578170706712 0.074426273744151714 0 0.34116919563414372 0.081489353069907913 0 0.34154468191306758 0.07739665476310667 0 0.34465578170706712 0.074426273744151714 0 0.34051406986979382 0.075381349250661589 0 0.34465578170706712 0.074426273744151714 0 0.34154468191306758 0.07739665476310667 0 0.34051406986979382 0.075381349250661589 0 0.33946673858367321 0.079246854865075891 0 0.34154468191306758 0.07739665476310667 0 0.34051406986979382 0.075381349250661589 0 0.34051406986979382 0.075381349250661589 0 0.33664347895195679 0.067812620295795767 0 0.33664347895195679 0.067812620295795767 0 0.34796707452377618 0.064695534209222902 0 0.34465578170706712 0.074426273744151714 0 0.33664347895195679 0.067812620295795767 0 0.34796707452377618 0.064695534209222902 0 0.34115681697934719 0.05615618383681209 0 0.33664347895195679 0.067812620295795767 0 0.32626155033223481 0.069660638718702775 0 0.32308654802495762 0.056622224012128047 0 0.34051406986979382 0.075381349250661589 0 0.33664347895195679 0.067812620295795767 0 0.32626155033223481 0.069660638718702775 0 0.34051406986979382 0.075381349250661589 0 0.32626155033223481 0.069660638718702775 0 0.31666584762752059 0.080880730625387448 0 0.32626155033223481 0.069660638718702775 0 0.31662012703054099 0.068593339215772459 0 0.32308654802495762 0.056622224012128047 0 0.32626155033223481 0.069660638718702775 0 0.31662012703054099 0.068593339215772459 0 0.31666584762752059 0.080880730625387448 0 0.31662012703054099 0.068593339215772459 0 0.31666584762752059 0.080880730625387448 0 0.30721235228042593 0.073812892952631437 0 0.31666584762752059 0.080880730625387448 0 0.31321054325965803 0.086745800985984917 0 0.30812206847226348 0.083080099930401177 0 0.31666584762752059 0.080880730625387448 0 0.31748243475385279 0.089141689352307457 0 0.31321054325965803 0.086745800985984917 0 0.32954281803699959 0.08226314108279105 0 0.31666584762752059 0.080880730625387448 0 0.32376275729341408 0.088071462782684101 0 0.32954281803699959 0.08226314108279105 0 0.33097862080217177 0.090304384732872583 0 0.32376275729341408 0.088071462782684101 0 0.33097862080217177 0.090304384732872583 0 0.32376275729341408 0.088071462782684101 0 0.32392973526689289 0.095304707485071111 0 0.32376275729341408 0.088071462782684101 0 0.31748243475385279 0.089141689352307457 0 0.32392973526689289 0.095304707485071111 0 0.31666584762752059 0.080880730625387448 0 0.32376275729341408 0.088071462782684101 0 0.31748243475385279 0.089141689352307457 0 0.31748243475385279 0.089141689352307457 0 0.32392973526689289 0.095304707485071111 0 0.31057182218499502 0.09388068403584364 0 0.31748243475385279 0.089141689352307457 0 0.31321054325965803 0.086745800985984917 0 0.31057182218499502 0.09388068403584364 0 0.32746533549805468 0.1085060378660954 0 0.32392973526689289 0.095304707485071111 0 0.31057182218499502 0.09388068403584364 0 0.32746533549805468 0.1085060378660954 0 0.31819916672162257 0.11575691153175401 0 0.31057182218499502 0.09388068403584364 0 0.32746533549805468 0.1085060378660954 0 0.31057182218499502 0.09388068403584364 0 0.32746533549805468 0.1085060378660954 0 0.32392973526689289 0.095304707485071111 0 0.3327855920701534 0.099685686013593164 0 0.31819916672162257 0.11575691153175401 0 0.33309509691132733 0.1333489242583431 0 0.31819916672162257 0.11575691153175401 0 0.33193178740451018 0.1213146111185666 0 0.33309509691132733 0.1333489242583431 0 0.31819916672162257 0.11575691153175401 0 0.32242642959736112 0.13012063320661549 0 0.31334957626974619 0.12827658790294361 0 0.31819916672162257 0.11575691153175401 0 0.30653733936798933 0.12164370725330691 0 0.31334957626974619 0.12827658790294361 0 0.32746533549805468 0.1085060378660954 0 0.31819916672162257 0.11575691153175401 0 0.33193178740451018 0.1213146111185666 0 0.32746533549805468 0.1085060378660954 0 0.34435884881111439 0.12313139169634731 0 0.32746533549805468 0.1085060378660954 0 0.33193178740451018 0.1213146111185666 0 0.34435884881111439 0.12313139169634731 0 0.32746533549805468 0.1085060378660954 0 0.3401935535990831 0.10662966478653089 0 0.34435884881111439 0.12313139169634731 0 0.33193178740451018 0.1213146111185666 0 0.34435884881111439 0.12313139169634731 0 0.33723191070305031 0.12703277337331401 0 0.33097862080217177 0.090304384732872583 0 0.3327855920701534 0.099685686013593164 0 0.34099345711558932 0.096829627900084647 0 0.33097862080217177 0.090304384732872583 0 0.32392973526689289 0.095304707485071111 0 0.3327855920701534 0.099685686013593164 0 0.32746533549805468 0.1085060378660954 0 0.3327855920701534 0.099685686013593164 0 0.3401935535990831 0.10662966478653089 0 0.3327855920701534 0.099685686013593164 0 0.3401935535990831 0.10662966478653089 0 0.34099345711558932 0.096829627900084647 0 0.35269536121845407 0.10422937502410271 0 0.36477361762569699 0.091032285644007283 0 0.34739122444590809 0.088933637509917632 0 0.34099345711558932 0.096829627900084647 0 0.35269536121845407 0.10422937502410271 0 0.34739122444590809 0.088933637509917632 0 0.3401935535990831 0.10662966478653089 0 0.34099345711558932 0.096829627900084647 0 0.35269536121845407 0.10422937502410271 0 0.35269536121845407 0.10422937502410271 0 0.34435884881111439 0.12313139169634731 0 0.36414473084737542 0.1168658403331789 0 0.3401935535990831 0.10662966478653089 0 0.35269536121845407 0.10422937502410271 0 0.34435884881111439 0.12313139169634731 0 0.36414473084737542 0.1168658403331789 0 0.3711864651384027 0.1064793913261918 0 0.37742636654954181 0.1157384840216702 0 0.36414473084737542 0.1168658403331789 0 0.37190322655842561 0.1260019030421215 0 0.37742636654954181 0.1157384840216702 0 0.35269536121845407 0.10422937502410271 0 0.36414473084737542 0.1168658403331789 0 0.36477361762569699 0.091032285644007283 0 0.36414473084737542 0.1168658403331789 0 0.3711864651384027 0.1064793913261918 0 0.36477361762569699 0.091032285644007283 0 0.36414473084737542 0.1168658403331789 0 0.36477361762569699 0.091032285644007283 0 0.36477361762569699 0.091032285644007283 0 0.37840114553099707 0.10228095530591109 0 0.3711864651384027 0.1064793913261918 0 0.36477361762569699 0.091032285644007283 0 0.37840114553099707 0.10228095530591109 0 0.36477361762569699 0.091032285644007283 0 0.36529372539101401 0.069667180091170289 0 0.36477361762569699 0.091032285644007283 0 0.37971370578106539 0.084160111922415362 0 0.37840114553099707 0.10228095530591109 0 0.36477361762569699 0.091032285644007283 0 0.36529372539101401 0.069667180091170289 0 0.37971370578106539 0.084160111922415362 0 0.36477361762569699 0.091032285644007283 0 0.34739122444590809 0.088933637509917632 0 0.34465578170706712 0.074426273744151714 0 0.36477361762569699 0.091032285644007283 0 0.34465578170706712 0.074426273744151714 0 0.36477361762569699 0.091032285644007283 0 0.34465578170706712 0.074426273744151714 0 0.36529372539101401 0.069667180091170289 0 0.34116919563414372 0.081489353069907913 0 0.34739122444590809 0.088933637509917632 0 0.34465578170706712 0.074426273744151714 0 0.34465578170706712 0.074426273744151714 0 0.36529372539101401 0.069667180091170289 0 0.34796707452377618 0.064695534209222902 0 0.36529372539101401 0.069667180091170289 0 0.35208556958949472 0.055415413078183692 0 0.34796707452377618 0.064695534209222902 0 0.34465578170706712 0.074426273744151714 0 0.36529372539101401 0.069667180091170289 0 0.36529372539101401 0.069667180091170289 0 0.37498122272032741 0.053769228295686818 0 0.38102626603113399 0.066039268538919602 0 0.36529372539101401 0.069667180091170289 0 0.38102626603113399 0.066039268538919602 0 0.36529372539101401 0.069667180091170289 0 0.36593040423754741 0.043513541044612691 0 0.35208556958949472 0.055415413078183692 0 0.36529372539101401 0.069667180091170289 0 0.36593040423754741 0.043513541044612691 0 0.36529372539101401 0.069667180091170289 0 0.37498122272032741 0.053769228295686818 0 0.36593040423754741 0.043513541044612691 0 0.36593040423754741 0.043513541044612691 0 0.3749163679563009 0.030582365027654119 0 0.38273141684490392 0.042498428535622787 0 0.37498122272032741 0.053769228295686818 0 0.36593040423754741 0.043513541044612691 0 0.38273141684490392 0.042498428535622787 0 0.36593040423754741 0.043513541044612691 0 0.34440698484893922 0.043599568988180272 0 0.3528769366249207 0.030387840863828751 0 0.34440698484893922 0.043599568988180272 0 0.3528769366249207 0.030387840863828751 0 0.33785749080810268 0.030244646143047609 0 0.34440698484893922 0.043599568988180272 0 0.35208556958949472 0.055415413078183692 0 0.34115681697934719 0.05615618383681209 0 0.36593040423754741 0.043513541044612691 0 0.34440698484893922 0.043599568988180272 0 0.35208556958949472 0.055415413078183692 0 0.34796707452377618 0.064695534209222902 0 0.35208556958949472 0.055415413078183692 0 0.34115681697934719 0.05615618383681209 0 0.36656708308408281 0.01735990199805507 0 0.3672906111820452 -0.01236135043124763 0 0.36656708308408281 0.01735990199805507 0 0.38567554032555151 0.001852674947024423 0 0.3672906111820452 -0.01236135043124763 0 0.36656708308408281 0.01735990199805507 0 0.35321055371749438 0.0086347728343585499 0 0.3672906111820452 -0.01236135043124763 0 0.36593040423754741 0.043513541044612691 0 0.36656708308408281 0.01735990199805507 0 0.36593040423754741 0.043513541044612691 0 0.3749163679563009 0.030582365027654119 0 0.36656708308408281 0.01735990199805507 0 0.36593040423754741 0.043513541044612691 0 0.36656708308408281 0.01735990199805507 0 0.3528769366249207 0.030387840863828751 0 0.36656708308408281 0.01735990199805507 0 0.3528769366249207 0.030387840863828751 0 0.34514909379635528 0.015551528964335761 0 0.36656708308408281 0.01735990199805507 0 0.34514909379635528 0.015551528964335761 0 0.3528769366249207 0.030387840863828751 0 0.34514909379635528 0.015551528964335761 0 0.33785749080810268 0.030244646143047609 0 0.36656708308408281 0.01735990199805507 0 0.35321055371749438 0.0086347728343585499 0 0.34514909379635528 0.015551528964335761 0 0.34514909379635528 0.015551528964335761 0 0.34452910215819282 0.002646692393150967 0 0.35321055371749438 0.0086347728343585499 0 0.34514909379635528 0.015551528964335761 0 0.34452910215819282 0.002646692393150967 0 0.35321055371749438 0.0086347728343585499 0 0.34452910215819282 0.002646692393150967 0 0.34939658156656728 -0.001197740830967714 0 0.34452910215819282 0.002646692393150967 0 0.34939658156656728 -0.001197740830967714 0 0.33003591941656302 0.014093699885217231 0 0.32555861901477751 0.013693390490058721 0 0.33446223024334432 -0.0039363226785728766 0 0.32555861901477751 0.013693390490058721 0 0.33446223024334432 -0.0039363226785728766 0 0.34452910215819282 0.002646692393150967 0 0.33003591941656302 0.014093699885217231 0 0.33446223024334432 -0.0039363226785728766 0 0.34452910215819282 0.002646692393150967 0 0.33003591941656302 0.014093699885217231 0 0.34514909379635528 0.015551528964335761 0 0.34452910215819282 0.002646692393150967 0 0.33003591941656302 0.014093699885217231 0 0.34514909379635528 0.015551528964335761 0 0.33003591941656302 0.014093699885217231 0 0.34514909379635528 0.015551528964335761 0 0.33003591941656302 0.014093699885217231 0 0.33785749080810268 0.030244646143047609 0 0.33003591941656302 0.014093699885217231 0 0.33785749080810268 0.030244646143047609 0 0.32688773762563778 0.028702336274629481 0 0.3151746247835836 0.025831449559546259 0 0.31677152872068881 0.012907748588656049 0 0.30626689523571821 0.0084128713676943495 0 0.32688773762563778 0.028702336274629481 0 0.31731485797384729 0.03001655856774588 0 0.32225125146677353 0.02024218734536434 0 0.31731485797384729 0.03001655856774588 0 0.32225125146677353 0.02024218734536434 0 0.31731485797384729 0.03001655856774588 0 0.3151746247835836 0.025831449559546259 0 0.32225125146677353 0.02024218734536434 0 0.31731485797384729 0.03001655856774588 0 0.3151746247835836 0.025831449559546259 0 0.31008298861004108 0.035258707038349928 0 0.31731485797384729 0.03001655856774588 0 0.3151746247835836 0.025831449559546259 0 0.3151746247835836 0.025831449559546259 0 0.32225125146677353 0.02024218734536434 0 0.3151746247835836 0.025831449559546259 0 0.32225125146677353 0.02024218734536434 0 0.31677152872068881 0.012907748588656049 0 0.33003591941656302 0.014093699885217231 0 0.32688773762563778 0.028702336274629481 0 0.32225125146677353 0.02024218734536434 0 0.32225125146677353 0.02024218734536434 0 0.32555861901477751 0.013693390490058721 0 0.33003591941656302 0.014093699885217231 0 0.32225125146677353 0.02024218734536434 0 0.32555861901477751 0.013693390490058721 0 0.33003591941656302 0.014093699885217231 0 0.32225125146677353 0.02024218734536434 0 0.32555861901477751 0.013693390490058721 0 0.32160269560844379 0.0042964609114135733 0 0.33446223024334432 -0.0039363226785728766 0 0.32225125146677353 0.02024218734536434 0 0.32555861901477751 0.013693390490058721 0 0.31677152872068881 0.012907748588656049 0 0.32555861901477751 0.013693390490058721 0 0.31677152872068881 0.012907748588656049 0 0.32160269560844379 0.0042964609114135733 0 0.32555861901477751 0.013693390490058721 0 0.31677152872068881 0.012907748588656049 0 0.33003591941656302 0.014093699885217231 0 0.32555861901477751 0.013693390490058721 0 0.31677152872068881 0.012907748588656049 0 0.32160269560844379 0.0042964609114135733 0 0.31188418584687871 0.002019974638982556 0 0.33664347895195679 0.067812620295795767 0 0.32697916846290193 0.048914589431770891 0 0.33664347895195679 0.067812620295795767 0 0.34115681697934719 0.05615618383681209 0 0.32697916846290193 0.048914589431770891 0 0.34440698484893922 0.043599568988180272 0 0.34115681697934719 0.05615618383681209 0 0.32697916846290193 0.048914589431770891 0 0.33664347895195679 0.067812620295795767 0 0.32697916846290193 0.048914589431770891 0 0.32308654802495762 0.056622224012128047 0 0.33664347895195679 0.067812620295795767 0 0.32308654802495762 0.056622224012128047 0 0.33785749080810268 0.030244646143047609 0 0.32688773762563778 0.028702336274629481 0 0.32697916846290193 0.048914589431770891 0 0.34440698484893922 0.043599568988180272 0 0.33785749080810268 0.030244646143047609 0 0.32697916846290193 0.048914589431770891 0 0.31731485797384729 0.03001655856774588 0 0.32697916846290193 0.048914589431770891 0 0.30952961709795418 0.045431827728465553 0 0.31731485797384729 0.03001655856774588 0 0.32697916846290193 0.048914589431770891 0 0.32688773762563778 0.028702336274629481 0 0.31731485797384729 0.03001655856774588 0 0.32697916846290193 0.048914589431770891 0 0.31731485797384729 0.03001655856774588 0 0.30952961709795418 0.045431827728465553 0 0.32697916846290193 0.048914589431770891 0 0.32308654802495762 0.056622224012128047 0 0.30952961709795418 0.045431827728465553 0 0.32308654802495762 0.056622224012128047 0 0.30987433688756583 0.061990209770012572 0 0.30952961709795418 0.045431827728465553 0 0.32308654802495762 0.056622224012128047 0 0.30952961709795418 0.045431827728465553 0 0.31662012703054099 0.068593339215772459 0 0.32308654802495762 0.056622224012128047 0 0.30987433688756583 0.061990209770012572 0 0.30952961709795418 0.045431827728465553 0 0.29657403944049832 0.071084690614258456 0 0.29704656195905549 0.052098185193714293 0 0.30952961709795418 0.045431827728465553 0 0.29657403944049832 0.071084690614258456 0 0.30987433688756583 0.061990209770012572 0 0.30952961709795418 0.045431827728465553 0 0.29657403944049832 0.071084690614258456 0 0.30952961709795418 0.045431827728465553 0 0.30015536053026798 0.03769396682010491 0 0.30952961709795418 0.045431827728465553 0 0.31008298861004108 0.035258707038349928 0 0.30015536053026798 0.03769396682010491 0 0.3151746247835836 0.025831449559546259 0 0.31008298861004108 0.035258707038349928 0 0.30015536053026798 0.03769396682010491 0 0.31731485797384729 0.03001655856774588 0 0.30952961709795418 0.045431827728465553 0 0.31008298861004108 0.035258707038349928 0 0.3151746247835836 0.025831449559546259 0 0.30015536053026798 0.03769396682010491 0 0.29704656195905549 0.052098185193714293 0 0.30952961709795418 0.045431827728465553 0 0.30015536053026798 0.03769396682010491 0 0.29704656195905549 0.052098185193714293 0 0.30015536053026798 0.03769396682010491 0 0.28794778898714629 0.047335752575876772 0 0.28935059238020111 0.036621548184380397 0 0.28629840854145638 0.02625592196514789 0 0.28092484443715388 0.043386812754414111 0 0.28629840854145638 0.02625592196514789 0 0.2807762270121828 0.030702644443323671 0 0.28092484443715388 0.043386812754414111 0 0.30015536053026798 0.03769396682010491 0 0.28935059238020111 0.036621548184380397 0 0.28794778898714629 0.047335752575876772 0 0.28629840854145638 0.02625592196514789 0 0.28092484443715388 0.043386812754414111 0 0.30015536053026798 0.03769396682010491 0 0.28794778898714629 0.047335752575876772 0 0.30015536053026798 0.03769396682010491 0 0.28935059238020111 0.036621548184380397 0 0.28629840854145638 0.02625592196514789 0 0.30015536053026798 0.03769396682010491 0 0.28629840854145638 0.02625592196514789 0 0.28935059238020111 0.036621548184380397 0 0.28794778898714629 0.047335752575876772 0 0.28092484443715388 0.043386812754414111 0 0.28794778898714629 0.047335752575876772 0 0.28263437009394732 0.054278088276145608 0 0.28092484443715388 0.043386812754414111 0 0.29704656195905549 0.052098185193714293 0 0.29066668487738417 0.059789288394348099 0 0.29657403944049832 0.071084690614258456 0 0.28794778898714629 0.047335752575876772 0 0.28263437009394732 0.054278088276145608 0 0.29034739996731068 0.053243297517452423 0 0.28263437009394732 0.054278088276145608 0 0.29066668487738417 0.059789288394348099 0 0.29034739996731068 0.053243297517452423 0 0.28263437009394732 0.054278088276145608 0 0.29066668487738417 0.059789288394348099 0 0.28220117457857319 0.06931914068200852 0 0.29704656195905549 0.052098185193714293 0 0.29066668487738417 0.059789288394348099 0 0.29034739996731068 0.053243297517452423 0 0.29704656195905549 0.052098185193714293 0 0.28794778898714629 0.047335752575876772 0 0.29034739996731068 0.053243297517452423 0 0.31188418584687871 0.002019974638982556 0 0.30626689523571821 0.0084128713676943495 0 0.29735916568785198 -0.0090057068241571024 0 0.30626689523571821 0.0084128713676943495 0 0.29182878711465432 0.0086251075704954182 0 0.29735916568785198 -0.0090057068241571024 0 0.31677152872068881 0.012907748588656049 0 0.31188418584687871 0.002019974638982556 0 0.30626689523571821 0.0084128713676943495 0 0.30626689523571821 0.0084128713676943495 0 0.2999448152411362 0.021363863456597701 0 0.29182878711465432 0.0086251075704954182 0 0.3151746247835836 0.025831449559546259 0 0.30015536053026798 0.03769396682010491 0 0.2999448152411362 0.021363863456597701 0 0.3151746247835836 0.025831449559546259 0 0.30626689523571821 0.0084128713676943495 0 0.2999448152411362 0.021363863456597701 0 0.3151746247835836 0.025831449559546259 0 0.30626689523571821 0.0084128713676943495 0 0.28329756203417689 0.023778911365646551 0 0.28629840854145638 0.02625592196514789 0 0.29182878711465432 0.0086251075704954182 0 0.28629840854145638 0.02625592196514789 0 0.29182878711465432 0.0086251075704954182 0 0.30015536053026798 0.03769396682010491 0 0.2999448152411362 0.021363863456597701 0 0.28629840854145638 0.02625592196514789 0 0.2999448152411362 0.021363863456597701 0 0.28629840854145638 0.02625592196514789 0 0.29182878711465432 0.0086251075704954182 0 0.28329756203417689 0.023778911365646551 0 0.28629840854145638 0.02625592196514789 0 0.2807762270121828 0.030702644443323671 0 0.28329756203417689 0.023778911365646551 0 0.28629840854145638 0.02625592196514789 0 0.28329756203417689 0.023778911365646551 0 0.29182878711465432 0.0086251075704954182 0 0.27761620600806591 0.01850153647538267 0 0.29182878711465432 0.0086251075704954182 0 0.27346013577016193 0.0091352834020934446 0 0.27761620600806591 0.01850153647538267 0 0.29182878711465432 0.0086251075704954182 0 0.27346013577016193 0.0091352834020934446 0 0.27624649625513609 -0.0076604213645516629 0 0.27346013577016193 0.0091352834020934446 0 0.26104006763393839 0.0012701416544474229 0 0.27624649625513609 -0.0076604213645516629 0 0.27346013577016193 0.0091352834020934446 0 0.26242733892877479 0.014375364226889471 0 0.26104006763393839 0.0012701416544474229 0 0.27346013577016193 0.0091352834020934446 0 0.27059713349709252 0.021483758687719779 0 0.26242733892877479 0.014375364226889471 0 0.27346013577016193 0.0091352834020934446 0 0.27059713349709252 0.021483758687719779 0 0.27761620600806591 0.01850153647538267 0 0.28329756203417689 0.023778911365646551 0 0.27761620600806591 0.01850153647538267 0 0.27658419489404001 0.026272657183045209 0 0.27059713349709252 0.021483758687719779 0 0.27761620600806591 0.01850153647538267 0 0.27658419489404001 0.026272657183045209 0 0.28329756203417689 0.023778911365646551 0 0.27658419489404001 0.026272657183045209 0 0.2807762270121828 0.030702644443323671 0 0.27658419489404001 0.026272657183045209 0 0.2807762270121828 0.030702644443323671 0 0.27677612515408612 0.033818918948364321 0 0.27658419489404001 0.026272657183045209 0 0.27677612515408612 0.033818918948364321 0 0.2709394336828499 0.031644290063384213 0 0.27059713349709252 0.021483758687719779 0 0.27658419489404001 0.026272657183045209 0 0.2709394336828499 0.031644290063384213 0 0.27059713349709252 0.021483758687719779 0 0.25969862747131411 0.0284718245395249 0 0.2709394336828499 0.031644290063384213 0 0.24279129669631569 0.032872396146936912 0 0.24998674372915189 0.01458089409504751 0 0.25969862747131411 0.0284718245395249 0 0.24998674372915189 0.01458089409504751 0 0.25969862747131411 0.0284718245395249 0 0.26242733892877479 0.014375364226889471 0 0.27059713349709252 0.021483758687719779 0 0.25969862747131411 0.0284718245395249 0 0.26242733892877479 0.014375364226889471 0 0.24998674372915189 0.01458089409504751 0 0.26104006763393839 0.0012701416544474229 0 0.24263170208881479 -0.00092825196113245905 0 0.24998674372915189 0.01458089409504751 0 0.26242733892877479 0.014375364226889471 0 0.26104006763393839 0.0012701416544474229 0 0.27334773654322342 0.047960204370961823 0 0.27072404028521091 0.059382951158425158 0 0.26298972393411879 0.051232597308844857 0 0.28263437009394732 0.054278088276145608 0 0.27072404028521091 0.059382951158425158 0 0.28220117457857319 0.06931914068200852 0 0.28263437009394732 0.054278088276145608 0 0.27334773654322342 0.047960204370961823 0 0.27072404028521091 0.059382951158425158 0 0.28263437009394732 0.054278088276145608 0 0.27334773654322342 0.047960204370961823 0 0.28092484443715388 0.043386812754414111 0 0.27334773654322342 0.047960204370961823 0 0.28092484443715388 0.043386812754414111 0 0.27378041331694619 0.03943436350008097 0 0.28092484443715388 0.043386812754414111 0 0.27378041331694619 0.03943436350008097 0 0.27677612515408612 0.033818918948364321 0 0.2807762270121828 0.030702644443323671 0 0.28092484443715388 0.043386812754414111 0 0.27677612515408612 0.033818918948364321 0 0.27378041331694619 0.03943436350008097 0 0.27677612515408612 0.033818918948364321 0 0.2709394336828499 0.031644290063384213 0 0.25969862747131411 0.0284718245395249 0 0.2709394336828499 0.031644290063384213 0 0.26691392676741771 0.040361591363280373 0 0.27378041331694619 0.03943436350008097 0 0.2709394336828499 0.031644290063384213 0 0.26691392676741771 0.040361591363280373 0 0.27334773654322342 0.047960204370961823 0 0.27378041331694619 0.03943436350008097 0 0.26691392676741771 0.040361591363280373 0 0.27334773654322342 0.047960204370961823 0 0.26691392676741771 0.040361591363280373 0 0.26298972393411879 0.051232597308844857 0 0.24279129669631569 0.032872396146936912 0 0.25969862747131411 0.0284718245395249 0 0.25649826695208849 0.041047730419899557 0 0.26691392676741771 0.040361591363280373 0 0.25649826695208849 0.041047730419899557 0 0.26298972393411879 0.051232597308844857 0 0.25969862747131411 0.0284718245395249 0 0.26691392676741771 0.040361591363280373 0 0.25649826695208849 0.041047730419899557 0 0.24132666046800741 0.066180119348205529 0 0.25009775989127631 0.05230024274091076 0 0.25901388465049319 0.062760681178351291 0 0.25649826695208849 0.041047730419899557 0 0.25009775989127631 0.05230024274091076 0 0.26298972393411879 0.051232597308844857 0 0.27072404028521091 0.059382951158425158 0 0.26298972393411879 0.051232597308844857 0 0.25901388465049319 0.062760681178351291 0 0.25009775989127631 0.05230024274091076 0 0.26298972393411879 0.051232597308844857 0 0.25901388465049319 0.062760681178351291 0 0.24132666046800741 0.066180119348205529 0 0.25705271012520919 0.077488554394347819 0 0.25901388465049319 0.062760681178351291 0 0.25705271012520919 0.077488554394347819 0 0.25901388465049319 0.062760681178351291 0 0.26934784516332883 0.072569194520124031 0 0.25705271012520919 0.077488554394347819 0 0.27415321587302288 0.087106944855962945 0 0.2546281228741103 0.094958559506332127 0 0.2436972866939166 0.081507711599609969 0 0.25705271012520919 0.077488554394347819 0 0.2546281228741103 0.094958559506332127 0 0.27415321587302288 0.087106944855962945 0 0.2546281228741103 0.094958559506332127 0 0.25705271012520919 0.077488554394347819 0 0.27415321587302288 0.087106944855962945 0 0.26934784516332883 0.072569194520124031 0 0.27415321587302288 0.087106944855962945 0 0.26934784516332883 0.072569194520124031 0 0.28220117457857319 0.06931914068200852 0 0.27072404028521091 0.059382951158425158 0 0.25901388465049319 0.062760681178351291 0 0.26934784516332883 0.072569194520124031 0 0.27072404028521091 0.059382951158425158 0 0.26934784516332883 0.072569194520124031 0 0.28220117457857319 0.06931914068200852 0 0.27072404028521091 0.059382951158425158 0 0.28220117457857319 0.06931914068200852 0 0.29066668487738417 0.059789288394348099 0 0.28220117457857319 0.06931914068200852 0 0.29010791519613299 0.068345266026341389 0 0.29066668487738417 0.059789288394348099 0 0.29010791519613299 0.068345266026341389 0 0.29657403944049832 0.071084690614258456 0 0.29010791519613299 0.068345266026341389 0 0.29657403944049832 0.071084690614258456 0 0.29367830887193491 0.079255330205592389 0 0.28220117457857319 0.06931914068200852 0 0.29367830887193491 0.079255330205592389 0 0.28220117457857319 0.06931914068200852 0 0.29010791519613299 0.068345266026341389 0 0.29367830887193491 0.079255330205592389 0 0.27415321587302288 0.087106944855962945 0 0.29367830887193491 0.079255330205592389 0 0.27415321587302288 0.087106944855962945 0 0.29103862923278251 0.092876089177839682 0 0.29367830887193491 0.079255330205592389 0 0.29103862923278251 0.092876089177839682 0 0.29367830887193491 0.079255330205592389 0 0.30330323653191782 0.098164898805165074 0 0.27415321587302288 0.087106944855962945 0 0.28220117457857319 0.06931914068200852 0 0.29367830887193491 0.079255330205592389 0 0.29367830887193491 0.079255330205592389 0 0.31057182218499502 0.09388068403584364 0 0.29367830887193491 0.079255330205592389 0 0.30812206847226348 0.083080099930401177 0 0.30721235228042593 0.073812892952631437 0 0.29367830887193491 0.079255330205592389 0 0.30812206847226348 0.083080099930401177 0 0.31057182218499502 0.09388068403584364 0 0.29367830887193491 0.079255330205592389 0 0.31057182218499502 0.09388068403584364 0 0.30330323653191782 0.098164898805165074 0 0.31321054325965803 0.086745800985984917 0 0.30812206847226348 0.083080099930401177 0 0.31057182218499502 0.09388068403584364 0 0.31666584762752059 0.080880730625387448 0 0.30812206847226348 0.083080099930401177 0 0.30721235228042593 0.073812892952631437 0 0.31662012703054099 0.068593339215772459 0 0.30987433688756583 0.061990209770012572 0 0.30721235228042593 0.073812892952631437 0 0.30987433688756583 0.061990209770012572 0 0.29657403944049832 0.071084690614258456 0 0.30721235228042593 0.073812892952631437 0 0.29657403944049832 0.071084690614258456 0 0.29367830887193491 0.079255330205592389 0 0.30721235228042593 0.073812892952631437 0 0.29367830887193491 0.079255330205592389 0 0.30721235228042593 0.073812892952631437 0 0.30379882127112329 0.1123503797628792 0 0.29363155657006929 0.1067690392418874 0 0.29501946977028543 0.1207386652874876 0 0.30379882127112329 0.1123503797628792 0 0.30653733936798933 0.12164370725330691 0 0.29501946977028543 0.1207386652874876 0 0.30653733936798933 0.12164370725330691 0 0.29501946977028543 0.1207386652874876 0 0.30231966280716921 0.13109599178146991 0 0.31819916672162257 0.11575691153175401 0 0.30379882127112329 0.1123503797628792 0 0.30653733936798933 0.12164370725330691 0 0.31819916672162257 0.11575691153175401 0 0.30379882127112329 0.1123503797628792 0 0.30330323653191782 0.098164898805165074 0 0.31819916672162257 0.11575691153175401 0 0.30330323653191782 0.098164898805165074 0 0.31819916672162257 0.11575691153175401 0 0.31057182218499502 0.09388068403584364 0 0.30330323653191782 0.098164898805165074 0 0.30379882127112329 0.1123503797628792 0 0.30330323653191782 0.098164898805165074 0 0.29363155657006929 0.1067690392418874 0 0.27415321587302288 0.087106944855962945 0 0.29103862923278251 0.092876089177839682 0 0.28355831940744258 0.101378457712234 0 0.29103862923278251 0.092876089177839682 0 0.29363155657006929 0.1067690392418874 0 0.28355831940744258 0.101378457712234 0 0.29103862923278251 0.092876089177839682 0 0.30330323653191782 0.098164898805165074 0 0.29363155657006929 0.1067690392418874 0 0.29363155657006929 0.1067690392418874 0 0.28355831940744258 0.101378457712234 0 0.28129645649135271 0.11326015561616019 0 0.29363155657006929 0.1067690392418874 0 0.28129645649135271 0.11326015561616019 0 0.29501946977028543 0.1207386652874876 0 0.28129645649135271 0.11326015561616019 0 0.29501946977028543 0.1207386652874876 0 0.27993426551701178 0.12723731652063211 0 0.28129645649135271 0.11326015561616019 0 0.26651952225418862 0.1194708151543686 0 0.27993426551701178 0.12723731652063211 0 0.28129645649135271 0.11326015561616019 0 0.26651952225418862 0.1194708151543686 0 0.26911560542911839 0.1039666397803516 0 0.27415321587302288 0.087106944855962945 0 0.28355831940744258 0.101378457712234 0 0.26911560542911839 0.1039666397803516 0 0.27415321587302288 0.087106944855962945 0 0.26911560542911839 0.1039666397803516 0 0.2546281228741103 0.094958559506332127 0 0.28355831940744258 0.101378457712234 0 0.28129645649135271 0.11326015561616019 0 0.26911560542911839 0.1039666397803516 0 0.24932500594124729 0.1118728355212248 0 0.26911560542911839 0.1039666397803516 0 0.2546281228741103 0.094958559506332127 0 0.24932500594124729 0.1118728355212248 0 0.26651952225418862 0.1194708151543686 0 0.26911560542911839 0.1039666397803516 0 0.24932500594124729 0.1118728355212248 0 0.26651952225418862 0.1194708151543686 0 0.25199165290369641 0.1345468461551938 0 0.26651952225418862 0.1194708151543686 0 0.25199165290369641 0.1345468461551938 0 0.26778328584403083 0.1384415694004526 0 0.26778328584403083 0.1384415694004526 0 0.27993426551701178 0.12723731652063211 0 0.27881040038291671 0.14501082674984231 0 0.26651952225418862 0.1194708151543686 0 0.26778328584403083 0.1384415694004526 0 0.27993426551701178 0.12723731652063211 0 0.27881040038291671 0.14501082674984231 0 0.26231205662193069 0.1601893635063889 0 0.2884778812108853 0.1558843553464955 0 0.26778328584403083 0.1384415694004526 0 0.27881040038291671 0.14501082674984231 0 0.26231205662193069 0.1601893635063889 0 0.26778328584403083 0.1384415694004526 0 0.26231205662193069 0.1601893635063889 0 0.25199165290369641 0.1345468461551938 0 0.26778328584403083 0.1384415694004526 0 0.26231205662193069 0.1601893635063889 0 0.24254506237559051 0.1497550156088826 0 0.25199165290369641 0.1345468461551938 0 0.26231205662193069 0.1601893635063889 0 0.24780302750714781 0.17412976653985421 0 0.24066336315928 0.16482958354630589 0 0.26231205662193069 0.1601893635063889 0 0.26231205662193069 0.1601893635063889 0 0.2568408273998305 0.18193715761232529 0 0.24780302750714781 0.17412976653985421 0 0.26231205662193069 0.1601893635063889 0 0.2568408273998305 0.18193715761232529 0 0.2568408273998305 0.18193715761232529 0 0.27870160075539618 0.17624811981288321 0 0.26858393796537677 0.19373591005302609 0 0.26231205662193069 0.1601893635063889 0 0.2568408273998305 0.18193715761232529 0 0.27870160075539618 0.17624811981288321 0 0.26231205662193069 0.1601893635063889 0 0.27870160075539618 0.17624811981288321 0 0.2884778812108853 0.1558843553464955 0 0.29463702812692921 0.16852013670353269 0 0.3048767018606498 0.15479463719336159 0 0.2884778812108853 0.1558843553464955 0 0.27870160075539618 0.17624811981288321 0 0.29463702812692921 0.16852013670353269 0 0.2884778812108853 0.1558843553464955 0 0.27870160075539618 0.17624811981288321 0 0.29425702627770528 0.18208040672423009 0 0.28494192500882071 0.19795795435852201 0 0.27870160075539618 0.17624811981288321 0 0.29463702812692921 0.16852013670353269 0 0.29425702627770528 0.18208040672423009 0 0.29425702627770528 0.18208040672423009 0 0.30687193053000938 0.17359316444069331 0 0.30944939109353259 0.19218689956341711 0 0.29463702812692921 0.16852013670353269 0 0.29425702627770528 0.18208040672423009 0 0.30687193053000938 0.17359316444069331 0 0.29463702812692921 0.16852013670353269 0 0.30687193053000938 0.17359316444069331 0 0.3048767018606498 0.15479463719336159 0 0.30687193053000938 0.17359316444069331 0 0.3048767018606498 0.15479463719336159 0 0.31563418825381112 0.1630334380121207 0 0.3048767018606498 0.15479463719336159 0 0.29917094556657831 0.1449376614821147 0 0.30878473421698949 0.1388310508964726 0 0.3048767018606498 0.15479463719336159 0 0.29917094556657831 0.1449376614821147 0 0.2884778812108853 0.1558843553464955 0 0.3048767018606498 0.15479463719336159 0 0.30878473421698949 0.1388310508964726 0 0.31579462275651171 0.14520782865487661 0 0.30878473421698949 0.1388310508964726 0 0.30231966280716921 0.13109599178146991 0 0.31334957626974619 0.12827658790294361 0 0.30653733936798933 0.12164370725330691 0 0.30231966280716921 0.13109599178146991 0 0.31334957626974619 0.12827658790294361 0 0.29917094556657831 0.1449376614821147 0 0.30878473421698949 0.1388310508964726 0 0.30231966280716921 0.13109599178146991 0 0.29917094556657831 0.1449376614821147 0 0.30231966280716921 0.13109599178146991 0 0.29044865817907112 0.13761391054498029 0 0.29501946977028543 0.1207386652874876 0 0.27993426551701178 0.12723731652063211 0 0.29044865817907112 0.13761391054498029 0 0.27993426551701178 0.12723731652063211 0 0.27881040038291671 0.14501082674984231 0 0.29044865817907112 0.13761391054498029 0 0.29501946977028543 0.1207386652874876 0 0.30231966280716921 0.13109599178146991 0 0.29044865817907112 0.13761391054498029 0 0.27881040038291671 0.14501082674984231 0 0.29044865817907112 0.13761391054498029 0 0.2884778812108853 0.1558843553464955 0 0.29917094556657831 0.1449376614821147 0 0.29044865817907112 0.13761391054498029 0 0.2884778812108853 0.1558843553464955 0 0.28019998092792198 0.25504658303342348 0 0.27333626844694231 0.2385375469984421 0 0.25441764297214658 0.24790970184029809 0 0.28019998092792198 0.25504658303342348 0 0.27333626844694231 0.2385375469984421 0 0.28713905117366573 0.23272467149393719 0 0.27333626844694231 0.2385375469984421 0 0.25441764297214658 0.24790970184029809 0 0.25722121739327919 0.23385241047001359 0 0.24347040949526061 0.2350837328872859 0 0.25441764297214658 0.24790970184029809 0 0.25722121739327919 0.23385241047001359 0 0.27333626844694231 0.2385375469984421 0 0.25722121739327919 0.23385241047001359 0 0.26235293331233739 0.2211112493583518 0 0.24742000383649551 0.21938434230277379 0 0.25722121739327919 0.23385241047001359 0 0.26235293331233739 0.2211112493583518 0 0.27333626844694231 0.2385375469984421 0 0.26235293331233739 0.2211112493583518 0 0.27551876769944839 0.2231925616750263 0 0.27333626844694231 0.2385375469984421 0 0.26235293331233739 0.2211112493583518 0 0.27333626844694231 0.2385375469984421 0 0.27551876769944839 0.2231925616750263 0 0.28713905117366573 0.23272467149393719 0 0.27106573848510512 0.20885136676313781 0 0.28494192500882071 0.19795795435852201 0 0.28369984707919133 0.2147379737612628 0 0.27551876769944839 0.2231925616750263 0 0.27106573848510512 0.20885136676313781 0 0.28369984707919133 0.2147379737612628 0 0.26235293331233739 0.2211112493583518 0 0.27551876769944839 0.2231925616750263 0 0.27106573848510512 0.20885136676313781 0 0.26235293331233739 0.2211112493583518 0 0.25136959817773169 0.20368495171826209 0 0.26235293331233739 0.2211112493583518 0 0.27106573848510512 0.20885136676313781 0 0.25136959817773169 0.20368495171826209 0 0.24742000383649551 0.21938434230277379 0 0.26235293331233739 0.2211112493583518 0 0.25136959817773169 0.20368495171826209 0 0.2568408273998305 0.18193715761232529 0 0.25136959817773169 0.20368495171826209 0 0.26858393796537677 0.19373591005302609 0 0.27106573848510512 0.20885136676313781 0 0.25136959817773169 0.20368495171826209 0 0.26858393796537677 0.19373591005302609 0 0.2568408273998305 0.18193715761232529 0 0.25136959817773169 0.20368495171826209 0 0.27870160075539618 0.17624811981288321 0 0.26858393796537677 0.19373591005302609 0 0.28494192500882071 0.19795795435852201 0 0.27106573848510512 0.20885136676313781 0 0.26858393796537677 0.19373591005302609 0 0.28494192500882071 0.19795795435852201 0 0.29425702627770528 0.18208040672423009 0 0.28494192500882071 0.19795795435852201 0 0.30944939109353259 0.19218689956341711 0 0.28494192500882071 0.19795795435852201 0 0.30944939109353259 0.19218689956341711 0 0.30163606605255661 0.2161388052715072 0 0.30944939109353259 0.19218689956341711 0 0.30163606605255661 0.2161388052715072 0 0.32206707902021392 0.20715140079682401 0 0.28494192500882071 0.19795795435852201 0 0.30163606605255661 0.2161388052715072 0 0.28369984707919133 0.2147379737612628 0 0.30163606605255661 0.2161388052715072 0 0.28369984707919133 0.2147379737612628 0 0.28713905117366573 0.23272467149393719 0 0.27551876769944839 0.2231925616750263 0 0.28369984707919133 0.2147379737612628 0 0.28713905117366573 0.23272467149393719 0 0.30163606605255661 0.2161388052715072 0 0.30504126171867962 0.2399108825781564 0 0.31966759671517381 0.22482317371231739 0 0.30163606605255661 0.2161388052715072 0 0.28713905117366573 0.23272467149393719 0 0.30504126171867962 0.2399108825781564 0 0.31030905194230918 0.253893458953657 0 0.30504126171867962 0.2399108825781564 0 0.32177970408841972 0.24255703853835939 0 0.28019998092792198 0.25504658303342348 0 0.28713905117366573 0.23272467149393719 0 0.30504126171867962 0.2399108825781564 0 0.28019998092792198 0.25504658303342348 0 0.30504126171867962 0.2399108825781564 0 0.33616954841461932 0.24922156245953919 0 0.32177970408841972 0.24255703853835939 0 0.33732063380378552 0.2309770739716531 0 0.33616954841461932 0.24922156245953919 0 0.33732063380378552 0.2309770739716531 0 0.34965080319779213 0.24140079141425189 0 0.30504126171867962 0.2399108825781564 0 0.32177970408841972 0.24255703853835939 0 0.31966759671517381 0.22482317371231739 0 0.32217013193595118 0.25651607955483369 0 0.33616954841461932 0.24922156245953919 0 0.32177970408841972 0.24255703853835939 0 0.32177970408841972 0.24255703853835939 0 0.31966759671517381 0.22482317371231739 0 0.33732063380378552 0.2309770739716531 0 0.33732063380378552 0.2309770739716531 0 0.33791377220748048 0.21292887000967889 0 0.34569607801101532 0.21967119637553931 0 0.31966759671517381 0.22482317371231739 0 0.33732063380378552 0.2309770739716531 0 0.33791377220748048 0.21292887000967889 0 0.33791377220748048 0.21292887000967889 0 0.32206707902021392 0.20715140079682401 0 0.35028137884550969 0.19760707769461111 0 0.33791377220748048 0.21292887000967889 0 0.34736870213275572 0.21164905694246189 0 0.34569607801101532 0.21967119637553931 0 0.31966759671517381 0.22482317371231739 0 0.33791377220748048 0.21292887000967889 0 0.32206707902021392 0.20715140079682401 0 0.30163606605255661 0.2161388052715072 0 0.31966759671517381 0.22482317371231739 0 0.32206707902021392 0.20715140079682401 0 0.30944939109353259 0.19218689956341711 0 0.32206707902021392 0.20715140079682401 0 0.33042823136711508 0.18934015805775359 0 0.32206707902021392 0.20715140079682401 0 0.35028137884550969 0.19760707769461111 0 0.33042823136711508 0.18934015805775359 0 0.35028137884550969 0.19760707769461111 0 0.34475608173098421 0.17803479611958181 0 0.32206707902021392 0.20715140079682401 0 0.33042823136711508 0.18934015805775359 0 0.35028137884550969 0.19760707769461111 0 0.35028137884550969 0.19760707769461111 0 0.34475608173098421 0.17803479611958181 0 0.35028137884550969 0.19760707769461111 0 0.36227797474992479 0.19354887358720921 0 0.34475608173098421 0.17803479611958181 0 0.35028137884550969 0.19760707769461111 0 0.36227797474992479 0.19354887358720921 0 0.35558357946701757 0.2163890836900183 0 0.35028137884550969 0.19760707769461111 0 0.36227797474992479 0.19354887358720921 0 0.36227797474992479 0.19354887358720921 0 0.37420122333301598 0.1976791348107122 0 0.37921706893621487 0.1878187229553038 0 0.36227797474992479 0.19354887358720921 0 0.37921706893621487 0.1878187229553038 0 0.36227797474992479 0.19354887358720921 0 0.37420122333301598 0.1976791348107122 0 0.37149479462856422 0.20772191056514891 0 0.36227797474992479 0.19354887358720921 0 0.37149479462856422 0.20772191056514891 0 0.36159925009266602 0.22142968004787311 0 0.36227797474992479 0.19354887358720921 0 0.36159925009266602 0.22142968004787311 0 0.36227797474992479 0.19354887358720921 0 0.35558357946701757 0.2163890836900183 0 0.36159925009266602 0.22142968004787311 0 0.37149479462856422 0.20772191056514891 0 0.37436504600810838 0.21856601972288289 0 0.36159925009266602 0.22142968004787311 0 0.35028137884550969 0.19760707769461111 0 0.35558357946701757 0.2163890836900183 0 0.35028137884550969 0.19760707769461111 0 0.35558357946701757 0.2163890836900183 0 0.34736870213275572 0.21164905694246189 0 0.33791377220748048 0.21292887000967889 0 0.35028137884550969 0.19760707769461111 0 0.34736870213275572 0.21164905694246189 0 0.35558357946701757 0.2163890836900183 0 0.34736870213275572 0.21164905694246189 0 0.34569607801101532 0.21967119637553931 0 0.35558357946701757 0.2163890836900183 0 0.34895384352248859 0.22859224930194871 0 0.36126450758177869 0.23518030935015849 0 0.35558357946701757 0.2163890836900183 0 0.36126450758177869 0.23518030935015849 0 0.35558357946701757 0.2163890836900183 0 0.34569607801101532 0.21967119637553931 0 0.34895384352248859 0.22859224930194871 0 0.33732063380378552 0.2309770739716531 0 0.34569607801101532 0.21967119637553931 0 0.34895384352248859 0.22859224930194871 0 0.33732063380378552 0.2309770739716531 0 0.34895384352248859 0.22859224930194871 0 0.34965080319779213 0.24140079141425189 0 0.35558357946701757 0.2163890836900183 0 0.36159925009266602 0.22142968004787311 0 0.36126450758177869 0.23518030935015849 0 0.37436504600810838 0.21856601972288289 0 0.36988776779074739 0.2306136441187466 0 0.37759914970423503 0.22684531041141229 0 0.37436504600810838 0.21856601972288289 0 0.36159925009266602 0.22142968004787311 0 0.36988776779074739 0.2306136441187466 0 0.36988776779074739 0.2306136441187466 0 0.37525927257675867 0.23790412502715871 0 0.37759914970423503 0.22684531041141229 0 0.36159925009266602 0.22142968004787311 0 0.36988776779074739 0.2306136441187466 0 0.36126450758177869 0.23518030935015849 0 0.36159925009266602 0.22142968004787311 0 0.36126450758177869 0.23518030935015849 0 0.36988776779074739 0.2306136441187466 0 0.36092052543541309 0.24931048650853721 0 0.37525927257675867 0.23790412502715871 0 0.36988776779074739 0.2306136441187466 0 0.36126450758177869 0.23518030935015849 0 0.36092052543541309 0.24931048650853721 0 0.37501760654880112 0.25148110705551341 0 0.36092052543541309 0.24931048650853721 0 0.37525927257675867 0.23790412502715871 0 0.36126450758177869 0.23518030935015849 0 0.36092052543541309 0.24931048650853721 0 0.35085358873642242 0.25874204101991849 0 0.36092052543541309 0.24931048650853721 0 0.34965080319779213 0.24140079141425189 0 0.35085358873642242 0.25874204101991849 0 0.33616954841461932 0.24922156245953919 0 0.34965080319779213 0.24140079141425189 0 0.34895384352248859 0.22859224930194871 0 0.36126450758177869 0.23518030935015849 0 0.34965080319779213 0.24140079141425189 0 0.36126450758177869 0.23518030935015849 0 0.36092052543541309 0.24931048650853721 0 0.34965080319779213 0.24140079141425189 0 0.32999575115861007 0.15073517059966041 0 0.33370548750193202 0.1388902329695238 0 0.33923078461645811 0.15846251454455279 0 0.33309509691132733 0.1333489242583431 0 0.34799102710103208 0.15094093698493211 0 0.33370548750193202 0.1388902329695238 0 0.33309509691132733 0.1333489242583431 0 0.34799102710103208 0.15094093698493211 0 0.33370548750193202 0.1388902329695238 0 0.33923078461645811 0.15846251454455279 0 0.34799102710103208 0.15094093698493211 0 0.33370548750193202 0.1388902329695238 0 0.33923078461645811 0.15846251454455279 0 0.32999575115861007 0.15073517059966041 0 0.33370548750193202 0.1388902329695238 0 0.32537268575202372 0.1435675333097369 0 0.32999575115861007 0.15073517059966041 0 0.32686490796376311 0.15952314910604379 0 0.33923078461645811 0.15846251454455279 0 0.34033389461446911 0.1301218106428754 0 0.33309509691132733 0.1333489242583431 0 0.34664972203238398 0.1369741532434974 0 0.33309509691132733 0.1333489242583431 0 0.34799102710103208 0.15094093698493211 0 0.34664972203238398 0.1369741532434974 0 0.34435884881111439 0.12313139169634731 0 0.34033389461446911 0.1301218106428754 0 0.33723191070305031 0.12703277337331401 0 0.34033389461446911 0.1301218106428754 0 0.33723191070305031 0.12703277337331401 0 0.33309509691132733 0.1333489242583431 0 0.33193178740451018 0.1213146111185666 0 0.33723191070305031 0.12703277337331401 0 0.33309509691132733 0.1333489242583431 0 0.33370548750193202 0.1388902329695238 0 0.32718524836971768 0.13618431332976841 0 0.32537268575202372 0.1435675333097369 0 0.33370548750193202 0.1388902329695238 0 0.33309509691132733 0.1333489242583431 0 0.32718524836971768 0.13618431332976841 0 0.31819916672162257 0.11575691153175401 0 0.33309509691132733 0.1333489242583431 0 0.32242642959736112 0.13012063320661549 0 0.32718524836971768 0.13618431332976841 0 0.32030305971439171 0.1370364290102685 0 0.32537268575202372 0.1435675333097369 0 0.33309509691132733 0.1333489242583431 0 0.32718524836971768 0.13618431332976841 0 0.32242642959736112 0.13012063320661549 0 0.32718524836971768 0.13618431332976841 0 0.32242642959736112 0.13012063320661549 0 0.32030305971439171 0.1370364290102685 0 0.32242642959736112 0.13012063320661549 0 0.31334957626974619 0.12827658790294361 0 0.32030305971439171 0.1370364290102685 0 0.30878473421698949 0.1388310508964726 0 0.32030305971439171 0.1370364290102685 0 0.31579462275651171 0.14520782865487661 0 0.30878473421698949 0.1388310508964726 0 0.31334957626974619 0.12827658790294361 0 0.32030305971439171 0.1370364290102685 0 0.3048767018606498 0.15479463719336159 0 0.31579462275651171 0.14520782865487661 0 0.32121157213716423 0.15298333451134941 0 0.32030305971439171 0.1370364290102685 0 0.31579462275651171 0.14520782865487661 0 0.32537268575202372 0.1435675333097369 0 0.31579462275651171 0.14520782865487661 0 0.32537268575202372 0.1435675333097369 0 0.32121157213716423 0.15298333451134941 0 0.32999575115861007 0.15073517059966041 0 0.32537268575202372 0.1435675333097369 0 0.32121157213716423 0.15298333451134941 0 0.32999575115861007 0.15073517059966041 0 0.32121157213716423 0.15298333451134941 0 0.32686490796376311 0.15952314910604379 0 0.3048767018606498 0.15479463719336159 0 0.32121157213716423 0.15298333451134941 0 0.31563418825381112 0.1630334380121207 0 0.30687193053000938 0.17359316444069331 0 0.31563418825381112 0.1630334380121207 0 0.32555544052319257 0.1710669944887043 0 0.31563418825381112 0.1630334380121207 0 0.32555544052319257 0.1710669944887043 0 0.32686490796376311 0.15952314910604379 0 0.32121157213716423 0.15298333451134941 0 0.31563418825381112 0.1630334380121207 0 0.32686490796376311 0.15952314910604379 0 0.30687193053000938 0.17359316444069331 0 0.30944939109353259 0.19218689956341711 0 0.32555544052319257 0.1710669944887043 0 0.30944939109353259 0.19218689956341711 0 0.33042823136711508 0.18934015805775359 0 0.32555544052319257 0.1710669944887043 0 0.33042823136711508 0.18934015805775359 0 0.32555544052319257 0.1710669944887043 0 0.34475608173098421 0.17803479611958181 0 0.33923078461645811 0.15846251454455279 0 0.34475608173098421 0.17803479611958181 0 0.32555544052319257 0.1710669944887043 0 0.33923078461645811 0.15846251454455279 0 0.34475608173098421 0.17803479611958181 0 0.32555544052319257 0.1710669944887043 0 0.32686490796376311 0.15952314910604379 0 0.33923078461645811 0.15846251454455279 0 0.33923078461645811 0.15846251454455279 0 0.34934422712537327 0.16497044873175609 0 0.34799102710103208 0.15094093698493211 0 0.34934422712537327 0.16497044873175609 0 0.36288695729073578 0.16853294971152211 0 0.34799102710103208 0.15094093698493211 0 0.36288695729073578 0.16853294971152211 0 0.34799102710103208 0.15094093698493211 0 0.34934422712537327 0.16497044873175609 0 0.34475608173098421 0.17803479611958181 0 0.36288695729073578 0.16853294971152211 0 0.33923078461645811 0.15846251454455279 0 0.34934422712537327 0.16497044873175609 0 0.34475608173098421 0.17803479611958181 0 0.36227797474992479 0.19354887358720921 0 0.34475608173098421 0.17803479611958181 0 0.36288695729073578 0.16853294971152211 0 0.36288695729073578 0.16853294971152211 0 0.37921706893621487 0.1878187229553038 0 0.36227797474992479 0.19354887358720921 0 0.36288695729073578 0.16853294971152211 0 0.36227797474992479 0.19354887358720921 0 0.36288695729073578 0.16853294971152211 0 0.37921706893621487 0.1878187229553038 0 0.36288695729073578 0.16853294971152211 0 0.36351584406905468 0.14269939502235049 0 0.38652511481484819 0.16341194073280629 0 0.36288695729073578 0.16853294971152211 0 0.36351584406905468 0.14269939502235049 0 0.36288695729073578 0.16853294971152211 0 0.36351584406905468 0.14269939502235049 0 0.34799102710103208 0.15094093698493211 0 0.36351584406905468 0.14269939502235049 0 0.34799102710103208 0.15094093698493211 0 0.34664972203238398 0.1369741532434974 0 0.36414473084737542 0.1168658403331789 0 0.36351584406905468 0.14269939502235049 0 0.34664972203238398 0.1369741532434974 0 0.34435884881111439 0.12313139169634731 0 0.36414473084737542 0.1168658403331789 0 0.34664972203238398 0.1369741532434974 0 0.34435884881111439 0.12313139169634731 0 0.34033389461446911 0.1301218106428754 0 0.34664972203238398 0.1369741532434974 0 0.36414473084737542 0.1168658403331789 0 0.36351584406905468 0.14269939502235049 0 0.37190322655842561 0.1260019030421215 0 0.36414473084737542 0.1168658403331789 0 0.36351584406905468 0.14269939502235049 0 0.36351584406905468 0.14269939502235049 0 0.37190322655842561 0.1260019030421215 0 0.38252596476773049 0.1287038927912863 0 0.36351584406905468 0.14269939502235049 0 0.38252596476773049 0.1287038927912863 0 0.38607530171826138 0.14306865586897449 0 0.38252596476773049 0.1287038927912863 0 0.39466943291286621 0.1327289234321582 0 0.38607530171826138 0.14306865586897449 0 0.38252596476773049 0.1287038927912863 0 0.39466943291286621 0.1327289234321582 0 0.3946724226802108 0.12106562127654261 0 0.39466943291286621 0.1327289234321582 0 0.4050049235812816 0.14591878066573591 0 0.38607530171826138 0.14306865586897449 0 0.39466943291286621 0.1327289234321582 0 0.3946724226802108 0.12106562127654261 0 0.40344251751888732 0.12344864543600161 0 0.39466943291286621 0.1327289234321582 0 0.40610965617856198 0.13215302952800559 0 0.4050049235812816 0.14591878066573591 0 0.39466943291286621 0.1327289234321582 0 0.40610965617856198 0.13215302952800559 0 0.40344251751888732 0.12344864543600161 0 0.4050049235812816 0.14591878066573591 0 0.38607530171826138 0.14306865586897449 0 0.38652511481484819 0.16341194073280629 0 0.36351584406905468 0.14269939502235049 0 0.38607530171826138 0.14306865586897449 0 0.38652511481484819 0.16341194073280629 0 0.38652511481484819 0.16341194073280629 0 0.40337365514897222 0.17964704174086049 0 0.37921706893621487 0.1878187229553038 0 0.36288695729073578 0.16853294971152211 0 0.38652511481484819 0.16341194073280629 0 0.37921706893621487 0.1878187229553038 0 0.40337365514897222 0.17964704174086049 0 0.37921706893621487 0.1878187229553038 0 0.4050049235812816 0.14591878066573591 0 0.38652511481484819 0.16341194073280629 0 0.41099511001804029 0.1635445246220891 0 0.38652511481484819 0.16341194073280629 0 0.40337365514897222 0.17964704174086049 0 0.41099511001804029 0.1635445246220891 0 0.40337365514897222 0.17964704174086049 0 0.41099511001804029 0.1635445246220891 0 0.42753024136172968 0.1714753605264179 0 0.40337365514897222 0.17964704174086049 0 0.42753024136172968 0.1714753605264179 0 0.40337365514897222 0.17964704174086049 0 0.42753024136172968 0.1714753605264179 0 0.43144613261967968 0.19230797133358921 0 0.42753024136172968 0.1714753605264179 0 0.43144613261967968 0.19230797133358921 0 0.44736101364738162 0.18248525599916679 0 0.41099511001804029 0.1635445246220891 0 0.42753024136172968 0.1714753605264179 0 0.42853113058491599 0.15097397860178399 0 0.42753024136172968 0.1714753605264179 0 0.42853113058491599 0.15097397860178399 0 0.45168682757448719 0.16330367931197531 0 0.42853113058491599 0.15097397860178399 0 0.43695859571382489 0.1316357255350829 0 0.44531420099236391 0.14548852156118811 0 0.42853113058491599 0.15097397860178399 0 0.43695859571382489 0.1316357255350829 0 0.42188838500523917 0.13260723439252201 0 0.43695859571382489 0.1316357255350829 0 0.42188838500523917 0.13260723439252201 0 0.43033261198105022 0.1176831939091275 0 0.40610965617856198 0.13215302952800559 0 0.4050049235812816 0.14591878066573591 0 0.42188838500523917 0.13260723439252201 0 0.40610965617856198 0.13215302952800559 0 0.42188838500523917 0.13260723439252201 0 0.41267302124735589 0.1205040242533978 0 0.42188838500523917 0.13260723439252201 0 0.42154612964151322 0.1219661314369786 0 0.41267302124735589 0.1205040242533978 0 0.40610965617856198 0.13215302952800559 0 0.41267302124735589 0.1205040242533978 0 0.40344251751888732 0.12344864543600161 0 0.4050049235812816 0.14591878066573591 0 0.41099511001804029 0.1635445246220891 0 0.42853113058491599 0.15097397860178399 0 0.4050049235812816 0.14591878066573591 0 0.42853113058491599 0.15097397860178399 0 0.42188838500523917 0.13260723439252201 0 0.39729301503430731 0.2360672029138691 0 0.40781895334914742 0.22532839238032601 0 0.40961127844833339 0.24219072058756991 0 0.40862178551771849 0.25531915528296012 0 0.39697199434658081 0.2483839640336489 0 0.40961127844833339 0.24219072058756991 0 0.39729301503430731 0.2360672029138691 0 0.39697199434658081 0.2483839640336489 0 0.40961127844833339 0.24219072058756991 0 0.39729301503430731 0.2360672029138691 0 0.39697199434658081 0.2483839640336489 0 0.38547897333253711 0.24444688168230899 0 0.37501760654880112 0.25148110705551341 0 0.38547897333253711 0.24444688168230899 0 0.37525927257675867 0.23790412502715871 0 0.38547897333253711 0.24444688168230899 0 0.37525927257675867 0.23790412502715871 0 0.38578212740894519 0.23144576395001129 0 0.39729301503430731 0.2360672029138691 0 0.38547897333253711 0.24444688168230899 0 0.38578212740894519 0.23144576395001129 0 0.37525927257675867 0.23790412502715871 0 0.38578212740894519 0.23144576395001129 0 0.37759914970423503 0.22684531041141229 0 0.38578212740894519 0.23144576395001129 0 0.37759914970423503 0.22684531041141229 0 0.38416267808114618 0.22043652463409191 0 0.37436504600810838 0.21856601972288289 0 0.37759914970423503 0.22684531041141229 0 0.38416267808114618 0.22043652463409191 0 0.38578212740894519 0.23144576395001129 0 0.38416267808114618 0.22043652463409191 0 0.394866486272685 0.22316498179318381 0 0.39729301503430731 0.2360672029138691 0 0.38578212740894519 0.23144576395001129 0 0.394866486272685 0.22316498179318381 0 0.39729301503430731 0.2360672029138691 0 0.394866486272685 0.22316498179318381 0 0.40781895334914742 0.22532839238032601 0 0.394866486272685 0.22316498179318381 0 0.40144789252003121 0.21147403788995681 0 0.40781895334914742 0.22532839238032601 0 0.40144789252003121 0.21147403788995681 0 0.39012376836120871 0.2124395828810296 0 0.38818290623416379 0.1984073281542636 0 0.394866486272685 0.22316498179318381 0 0.40144789252003121 0.21147403788995681 0 0.39012376836120871 0.2124395828810296 0 0.38416267808114618 0.22043652463409191 0 0.394866486272685 0.22316498179318381 0 0.39012376836120871 0.2124395828810296 0 0.38416267808114618 0.22043652463409191 0 0.39012376836120871 0.2124395828810296 0 0.38195887869801698 0.2087150419336519 0 0.37149479462856422 0.20772191056514891 0 0.37436504600810838 0.21856601972288289 0 0.38195887869801698 0.2087150419336519 0 0.37436504600810838 0.21856601972288289 0 0.38416267808114618 0.22043652463409191 0 0.38195887869801698 0.2087150419336519 0 0.37420122333301598 0.1976791348107122 0 0.37149479462856422 0.20772191056514891 0 0.38195887869801698 0.2087150419336519 0 0.39012376836120871 0.2124395828810296 0 0.38195887869801698 0.2087150419336519 0 0.38818290623416379 0.1984073281542636 0 0.40337365514897222 0.17964704174086049 0 0.38818290623416379 0.1984073281542636 0 0.37921706893621487 0.1878187229553038 0 0.37420122333301598 0.1976791348107122 0 0.38195887869801698 0.2087150419336519 0 0.38818290623416379 0.1984073281542636 0 0.37420122333301598 0.1976791348107122 0 0.38818290623416379 0.1984073281542636 0 0.37921706893621487 0.1878187229553038 0 0.38818290623416379 0.1984073281542636 0 0.37921706893621487 0.1878187229553038 0 0.40144789252003121 0.21147403788995681 0 0.38818290623416379 0.1984073281542636 0 0.40927194861762589 0.19880546940702051 0 0.40337365514897222 0.17964704174086049 0 0.38818290623416379 0.1984073281542636 0 0.40927194861762589 0.19880546940702051 0 0.40337365514897222 0.17964704174086049 0 0.40927194861762589 0.19880546940702051 0 0.43144613261967968 0.19230797133358921 0 0.40927194861762589 0.19880546940702051 0 0.43144613261967968 0.19230797133358921 0 0.4208799746128804 0.21255583567518979 0 0.4208799746128804 0.21255583567518979 0 0.44107664724435569 0.2245560732858489 0 0.43760887495799572 0.20787208350002709 0 0.43144613261967968 0.19230797133358921 0 0.4208799746128804 0.21255583567518979 0 0.43760887495799572 0.20787208350002709 0 0.40144789252003121 0.21147403788995681 0 0.40927194861762589 0.19880546940702051 0 0.4208799746128804 0.21255583567518979 0 0.40144789252003121 0.21147403788995681 0 0.4208799746128804 0.21255583567518979 0 0.40781895334914742 0.22532839238032601 0 0.4208799746128804 0.21255583567518979 0 0.40781895334914742 0.22532839238032601 0 0.421970576772144 0.23404772778393421 0 0.40781895334914742 0.22532839238032601 0 0.421970576772144 0.23404772778393421 0 0.40961127844833339 0.24219072058756991 0 0.4208799746128804 0.21255583567518979 0 0.421970576772144 0.23404772778393421 0 0.44107664724435569 0.2245560732858489 0 0.421970576772144 0.23404772778393421 0 0.43220972261360963 0.24908719324126749 0 0.41857974247636981 0.24990007968898001 0 0.421970576772144 0.23404772778393421 0 0.43220972261360963 0.24908719324126749 0 0.44107664724435569 0.2245560732858489 0 0.421970576772144 0.23404772778393421 0 0.41857974247636981 0.24990007968898001 0 0.40961127844833339 0.24219072058756991 0 0.40862178551771849 0.25531915528296012 0 0.41857974247636981 0.24990007968898001 0 0.40961127844833339 0.24219072058756991 0 0.46603432271194711 0.25448828477433061 0 0.46638493405452403 0.22797825351702899 0 0.46603432271194711 0.25448828477433061 0 0.44986070813789347 0.24303391977139671 0 0.46638493405452403 0.22797825351702899 0 0.43220972261360963 0.24908719324126749 0 0.44986070813789347 0.24303391977139671 0 0.44107664724435569 0.2245560732858489 0 0.44986070813789347 0.24303391977139671 0 0.44107664724435569 0.2245560732858489 0 0.46638493405452403 0.22797825351702899 0 0.46638493405452403 0.22797825351702899 0 0.45399003686484962 0.20287975567338221 0 0.47892427514877589 0.20984365045841061 0 0.44107664724435569 0.2245560732858489 0 0.46638493405452403 0.22797825351702899 0 0.45399003686484962 0.20287975567338221 0 0.44107664724435569 0.2245560732858489 0 0.43760887495799572 0.20787208350002709 0 0.45399003686484962 0.20287975567338221 0 0.43144613261967968 0.19230797133358921 0 0.43760887495799572 0.20787208350002709 0 0.45399003686484962 0.20287975567338221 0 0.43144613261967968 0.19230797133358921 0 0.45399003686484962 0.20287975567338221 0 0.44736101364738162 0.18248525599916679 0 0.45399003686484962 0.20287975567338221 0 0.47892427514877589 0.20984365045841061 0 0.47215182981616233 0.18245951315046929 0 0.45399003686484962 0.20287975567338221 0 0.44736101364738162 0.18248525599916679 0 0.47215182981616233 0.18245951315046929 0 0.5 0.19722028457671181 0 0.47892427514877589 0.20984365045841061 0 0.47215182981616233 0.18245951315046929 0 0.5 0.19722028457671181 0 0.47892427514877589 0.20984365045841061 0 0.5 0.22235026842352301 0 0.46638493405452403 0.22797825351702899 0 0.47892427514877589 0.20984365045841061 0 0.48424112946079079 0.23531069775801969 0 0.47892427514877589 0.20984365045841061 0 0.5 0.22235026842352301 0 0.48424112946079079 0.23531069775801969 0 0.5 0.22235026842352301 0 0.5 0.24748025227033421 0 0.48424112946079079 0.23531069775801969 0 0.4848923468319864 0.25637797310919719 0 0.5 0.24748025227033421 0 0.48424112946079079 0.23531069775801969 0 0.46603432271194711 0.25448828477433061 0 0.4848923468319864 0.25637797310919719 0 0.48424112946079079 0.23531069775801969 0 0.46603432271194711 0.25448828477433061 0 0.46638493405452403 0.22797825351702899 0 0.48424112946079079 0.23531069775801969 0 0.46143709093054852 0.1407344618302438 0 0.45168682757448719 0.16330367931197531 0 0.47584341378724471 0.15513199809753281 0 0.46143709093054852 0.1407344618302438 0 0.45228150157550728 0.12743173962135201 0 0.46650483233054119 0.12027187932728831 0 0.43695859571382489 0.1316357255350829 0 0.45228150157550728 0.12743173962135201 0 0.44531420099236391 0.14548852156118811 0 0.46143709093054852 0.1407344618302438 0 0.45228150157550728 0.12743173962135201 0 0.44531420099236391 0.14548852156118811 0 0.46143709093054852 0.1407344618302438 0 0.44531420099236391 0.14548852156118811 0 0.45168682757448719 0.16330367931197531 0 0.42853113058491599 0.15097397860178399 0 0.44531420099236391 0.14548852156118811 0 0.45168682757448719 0.16330367931197531 0 0.42753024136172968 0.1714753605264179 0 0.45168682757448719 0.16330367931197531 0 0.42753024136172968 0.1714753605264179 0 0.45168682757448719 0.16330367931197531 0 0.44736101364738162 0.18248525599916679 0 0.45168682757448719 0.16330367931197531 0 0.44736101364738162 0.18248525599916679 0 0.47215182981616233 0.18245951315046929 0 0.45168682757448719 0.16330367931197531 0 0.47215182981616233 0.18245951315046929 0 0.47584341378724471 0.15513199809753281 0 0.45168682757448719 0.16330367931197531 0 0.47584341378724471 0.15513199809753281 0 0.47215182981616233 0.18245951315046929 0 0.5 0.1720903007299007 0 0.47584341378724471 0.15513199809753281 0 0.5 0.19722028457671181 0 0.47215182981616233 0.18245951315046929 0 0.5 0.1720903007299007 0 0.5 0.1720903007299007 0 0.500000000000002 0.1469603168830895 0 0.47584341378724471 0.15513199809753281 0 0.500000000000002 0.1469603168830895 0 0.47584341378724471 0.15513199809753281 0 0.48253640017485833 0.12992412476165169 0 0.500000000000002 0.1469603168830895 0 0.47584341378724471 0.15513199809753281 0 0.46143709093054852 0.1407344618302438 0 0.47584341378724471 0.15513199809753281 0 0.48253640017485833 0.12992412476165169 0 0.46143709093054852 0.1407344618302438 0 0.48253640017485833 0.12992412476165169 0 0.46650483233054119 0.12027187932728831 0 0.48253640017485833 0.12992412476165169 0 0.49999999999999989 0.12635463270684119 0 0.48807925718544592 0.1211072028518019 0 0.500000000000002 0.1469603168830895 0 0.48253640017485833 0.12992412476165169 0 0.49999999999999989 0.12635463270684119 0 0.49999999999999989 0.12635463270684119 0 0.48807925718544592 0.1211072028518019 0 0.48934007966127457 0.1127879764778968 0 0.49999999999999989 0.12635463270684119 0 0.48934007966127457 0.1127879764778968 0 0.49488862159626418 0.10282568994156591 0 0.49999999999999989 0.12635463270684119 0 0.49488862159626418 0.10282568994156591 0 0.48807925718544592 0.1211072028518019 0 0.48934007966127457 0.1127879764778968 0 0.48044054890565069 0.115362077460818 0 0.49999999999999989 0.12635463270684119 0 0.5 0.096856081705456454 0 0.49488862159626418 0.10282568994156591 0 0.49488862159626418 0.10282568994156591 0 0.48295941607962828 0.1039796414755932 0 0.4832311810921347 0.093006007213151803 0 0.48934007966127457 0.1127879764778968 0 0.49488862159626418 0.10282568994156591 0 0.48295941607962828 0.1039796414755932 0 0.48295941607962828 0.1039796414755932 0 0.4726082154622061 0.10819764722612341 0 0.48044054890565069 0.115362077460818 0 0.48295941607962828 0.1039796414755932 0 0.4735015711552093 0.096935604080380849 0 0.4832311810921347 0.093006007213151803 0 0.4735015711552093 0.096935604080380849 0 0.4726082154622061 0.10819764722612341 0 0.46179864357793521 0.1039844917082276 0 0.48295941607962828 0.1039796414755932 0 0.4735015711552093 0.096935604080380849 0 0.4726082154622061 0.10819764722612341 0 0.48253640017485833 0.12992412476165169 0 0.48044054890565069 0.115362077460818 0 0.46650483233054119 0.12027187932728831 0 0.4726082154622061 0.10819764722612341 0 0.48044054890565069 0.115362077460818 0 0.46650483233054119 0.12027187932728831 0 0.48253640017485833 0.12992412476165169 0 0.48807925718544592 0.1211072028518019 0 0.48044054890565069 0.115362077460818 0 0.48934007966127457 0.1127879764778968 0 0.48295941607962828 0.1039796414755932 0 0.48044054890565069 0.115362077460818 0 0.48977724319252858 0.079296747176290566 0 0.48466586478879298 0.055767804411015157 0 0.5 0.067357530704071689 0 0.48977724319252858 0.079296747176290566 0 0.48466586478879298 0.055767804411015157 0 0.49488862159626418 0.10282568994156591 0 0.48977724319252858 0.079296747176290566 0 0.5 0.096856081705456454 0 0.5 0.067357530704071689 0 0.48977724319252858 0.079296747176290566 0 0.49488862159626418 0.10282568994156591 0 0.48977724319252858 0.079296747176290566 0 0.4832311810921347 0.093006007213151803 0 0.5 0.096856081705456454 0 0.49488862159626418 0.10282568994156591 0 0.48977724319252858 0.079296747176290566 0 0.48977724319252858 0.079296747176290566 0 0.4832311810921347 0.093006007213151803 0 0.47320765598306302 0.083197747783986725 0 0.4735015711552093 0.096935604080380849 0 0.4832311810921347 0.093006007213151803 0 0.47320765598306302 0.083197747783986725 0 0.4735015711552093 0.096935604080380849 0 0.47320765598306302 0.083197747783986725 0 0.4628247395867125 0.090466764666393418 0 0.47787683580626911 0.071560429323963184 0 0.47077399676505433 0.064331351504394535 0 0.48466586478879298 0.055767804411015157 0 0.48977724319252858 0.079296747176290566 0 0.47320765598306302 0.083197747783986725 0 0.47787683580626911 0.071560429323963184 0 0.48977724319252858 0.079296747176290566 0 0.47787683580626911 0.071560429323963184 0 0.48466586478879298 0.055767804411015157 0 0.47320765598306302 0.083197747783986725 0 0.47787683580626911 0.071560429323963184 0 0.46802577041432231 0.073154079785104825 0 0.47787683580626911 0.071560429323963184 0 0.47077399676505433 0.064331351504394535 0 0.46802577041432231 0.073154079785104825 0 0.47077399676505433 0.064331351504394535 0 0.45883166466144071 0.065507035536667771 0 0.46802577041432231 0.073154079785104825 0 0.45883166466144071 0.065507035536667771 0 0.46802577041432231 0.073154079785104825 0 0.45929991052277819 0.078714637624168485 0 0.45883166466144071 0.065507035536667771 0 0.45929991052277819 0.078714637624168485 0 0.44804492421174202 0.073644916131556826 0 0.45929991052277819 0.078714637624168485 0 0.4628247395867125 0.090466764666393418 0 0.4516019349421318 0.085424821781688309 0 0.47320765598306302 0.083197747783986725 0 0.45929991052277819 0.078714637624168485 0 0.4628247395867125 0.090466764666393418 0 0.47320765598306302 0.083197747783986725 0 0.46802577041432231 0.073154079785104825 0 0.45929991052277819 0.078714637624168485 0 0.4628247395867125 0.090466764666393418 0 0.4516019349421318 0.085424821781688309 0 0.45317100271835681 0.095292182621917909 0 0.44336285322785768 0.090284795396110687 0 0.4516019349421318 0.085424821781688309 0 0.45317100271835681 0.095292182621917909 0 0.44336285322785768 0.090284795396110687 0 0.44048098803160118 0.079774152388725081 0 0.4516019349421318 0.085424821781688309 0 0.44336285322785768 0.090284795396110687 0 0.44048098803160118 0.079774152388725081 0 0.43216727764626772 0.085849653778902871 0 0.45929991052277819 0.078714637624168485 0 0.4516019349421318 0.085424821781688309 0 0.44804492421174202 0.073644916131556826 0 0.44048098803160118 0.079774152388725081 0 0.4516019349421318 0.085424821781688309 0 0.44804492421174202 0.073644916131556826 0 0.44048098803160118 0.079774152388725081 0 0.44804492421174202 0.073644916131556826 0 0.43824614581241111 0.069839101680043369 0 0.43824614581241111 0.069839101680043369 0 0.4307054665460151 0.063249077735696518 0 0.44367493906644639 0.059381422048544373 0 0.44804492421174202 0.073644916131556826 0 0.43824614581241111 0.069839101680043369 0 0.44367493906644639 0.059381422048544373 0 0.45883166466144071 0.065507035536667771 0 0.44804492421174202 0.073644916131556826 0 0.44367493906644639 0.059381422048544373 0 0.45442027908883081 0.1138479269944563 0 0.46650483233054119 0.12027187932728831 0 0.46179864357793521 0.1039844917082276 0 0.4726082154622061 0.10819764722612341 0 0.46650483233054119 0.12027187932728831 0 0.46179864357793521 0.1039844917082276 0 0.45228150157550728 0.12743173962135201 0 0.45442027908883081 0.1138479269944563 0 0.46650483233054119 0.12027187932728831 0 0.4735015711552093 0.096935604080380849 0 0.4628247395867125 0.090466764666393418 0 0.46179864357793521 0.1039844917082276 0 0.4628247395867125 0.090466764666393418 0 0.46179864357793521 0.1039844917082276 0 0.45317100271835681 0.095292182621917909 0 0.46179864357793521 0.1039844917082276 0 0.45317100271835681 0.095292182621917909 0 0.44917974761602109 0.1048106871559281 0 0.45442027908883081 0.1138479269944563 0 0.46179864357793521 0.1039844917082276 0 0.44917974761602109 0.1048106871559281 0 0.45317100271835681 0.095292182621917909 0 0.44917974761602109 0.1048106871559281 0 0.44436368638873119 0.098107943572795758 0 0.44336285322785768 0.090284795396110687 0 0.45317100271835681 0.095292182621917909 0 0.44436368638873119 0.098107943572795758 0 0.44436368638873119 0.098107943572795758 0 0.43977550111447178 0.10396033295604901 0 0.4363293272669489 0.096191719733973058 0 0.44336285322785768 0.090284795396110687 0 0.44436368638873119 0.098107943572795758 0 0.4363293272669489 0.096191719733973058 0 0.44917974761602109 0.1048106871559281 0 0.44436368638873119 0.098107943572795758 0 0.43977550111447178 0.10396033295604901 0 0.44917974761602109 0.1048106871559281 0 0.43977550111447178 0.10396033295604901 0 0.44151156783736523 0.1141093445017079 0 0.43977550111447178 0.10396033295604901 0 0.44151156783736523 0.1141093445017079 0 0.43547686319705858 0.10999392012328341 0 0.43695859571382489 0.1316357255350829 0 0.45228150157550728 0.12743173962135201 0 0.44151156783736523 0.1141093445017079 0 0.45442027908883081 0.1138479269944563 0 0.44917974761602109 0.1048106871559281 0 0.44151156783736523 0.1141093445017079 0 0.45228150157550728 0.12743173962135201 0 0.45442027908883081 0.1138479269944563 0 0.44151156783736523 0.1141093445017079 0 0.43695859571382489 0.1316357255350829 0 0.44151156783736523 0.1141093445017079 0 0.43033261198105022 0.1176831939091275 0 0.44151156783736523 0.1141093445017079 0 0.43033261198105022 0.1176831939091275 0 0.43547686319705858 0.10999392012328341 0 0.43033261198105022 0.1176831939091275 0 0.43547686319705858 0.10999392012328341 0 0.43028777185534761 0.10422280912624921 0 0.43033261198105022 0.1176831939091275 0 0.42128964112974671 0.11247321172594139 0 0.43028777185534761 0.10422280912624921 0 0.42188838500523917 0.13260723439252201 0 0.43033261198105022 0.1176831939091275 0 0.42154612964151322 0.1219661314369786 0 0.43033261198105022 0.1176831939091275 0 0.42154612964151322 0.1219661314369786 0 0.42128964112974671 0.11247321172594139 0 0.42154612964151322 0.1219661314369786 0 0.42128964112974671 0.11247321172594139 0 0.41267302124735589 0.1205040242533978 0 0.42128964112974671 0.11247321172594139 0 0.41267302124735589 0.1205040242533978 0 0.41157704635450598 0.1078091789252055 0 0.41267302124735589 0.1205040242533978 0 0.41157704635450598 0.1078091789252055 0 0.40324117420048178 0.11384122813751529 0 0.41267302124735589 0.1205040242533978 0 0.40344251751888732 0.12344864543600161 0 0.40324117420048178 0.11384122813751529 0 0.41087789014450538 0.097625339730381372 0 0.41157704635450598 0.1078091789252055 0 0.40040864334920517 0.1022246260653802 0 0.41087789014450538 0.097625339730381372 0 0.41157704635450598 0.1078091789252055 0 0.42132126569870698 0.1026539327046895 0 0.42128964112974671 0.11247321172594139 0 0.41157704635450598 0.1078091789252055 0 0.42132126569870698 0.1026539327046895 0 0.41087789014450538 0.097625339730381372 0 0.42132126569870698 0.1026539327046895 0 0.41853880169873559 0.094789003944220712 0 0.42132126569870698 0.1026539327046895 0 0.41853880169873559 0.094789003944220712 0 0.42798106839858141 0.095162882993316919 0 0.42132126569870698 0.1026539327046895 0 0.42798106839858141 0.095162882993316919 0 0.43028777185534761 0.10422280912624921 0 0.42128964112974671 0.11247321172594139 0 0.42132126569870698 0.1026539327046895 0 0.43028777185534761 0.10422280912624921 0 0.43977550111447178 0.10396033295604901 0 0.43547686319705858 0.10999392012328341 0 0.43028777185534761 0.10422280912624921 0 0.43977550111447178 0.10396033295604901 0 0.43028777185534761 0.10422280912624921 0 0.4363293272669489 0.096191719733973058 0 0.42798106839858141 0.095162882993316919 0 0.43028777185534761 0.10422280912624921 0 0.4363293272669489 0.096191719733973058 0 0.44336285322785768 0.090284795396110687 0 0.4363293272669489 0.096191719733973058 0 0.43216727764626772 0.085849653778902871 0 0.42798106839858141 0.095162882993316919 0 0.4363293272669489 0.096191719733973058 0 0.43216727764626772 0.085849653778902871 0 0.44048098803160118 0.079774152388725081 0 0.43216727764626772 0.085849653778902871 0 0.43060117349214339 0.074057311032402928 0 0.43216727764626772 0.085849653778902871 0 0.42224271105332561 0.088109450786276369 0 0.42052872388416118 0.077257103941300267 0 0.43216727764626772 0.085849653778902871 0 0.43060117349214339 0.074057311032402928 0 0.42052872388416118 0.077257103941300267 0 0.42798106839858141 0.095162882993316919 0 0.43216727764626772 0.085849653778902871 0 0.42224271105332561 0.088109450786276369 0 0.41853880169873559 0.094789003944220712 0 0.42798106839858141 0.095162882993316919 0 0.42224271105332561 0.088109450786276369 0 0.43824614581241111 0.069839101680043369 0 0.4307054665460151 0.063249077735696518 0 0.43060117349214339 0.074057311032402928 0 0.44048098803160118 0.079774152388725081 0 0.43824614581241111 0.069839101680043369 0 0.43060117349214339 0.074057311032402928 0 0.43060117349214339 0.074057311032402928 0 0.42259651209108451 0.067079936767330595 0 0.42052872388416118 0.077257103941300267 0 0.4307054665460151 0.063249077735696518 0 0.43060117349214339 0.074057311032402928 0 0.42259651209108451 0.067079936767330595 0 0.42259651209108451 0.067079936767330595 0 0.42052872388416118 0.077257103941300267 0 0.41322794695920961 0.066127837888709587 0 0.42259651209108451 0.067079936767330595 0 0.41322794695920961 0.066127837888709587 0 0.42071075566569782 0.056011381240647383 0 0.42052872388416118 0.077257103941300267 0 0.41025420151745928 0.077123842382778182 0 0.41322794695920961 0.066127837888709587 0 0.41025420151745928 0.077123842382778182 0 0.41322794695920961 0.066127837888709587 0 0.40196357470052652 0.069204879167021185 0 0.41322794695920961 0.066127837888709587 0 0.40196357470052652 0.069204879167021185 0 0.40549506776916922 0.054930991541253388 0 0.41853880169873559 0.094789003944220712 0 0.42224271105332561 0.088109450786276369 0 0.41212840823309199 0.087268681636391052 0 0.42052872388416118 0.077257103941300267 0 0.41025420151745928 0.077123842382778182 0 0.41212840823309199 0.087268681636391052 0 0.42224271105332561 0.088109450786276369 0 0.42052872388416118 0.077257103941300267 0 0.41212840823309199 0.087268681636391052 0 0.41025420151745928 0.077123842382778182 0 0.41212840823309199 0.087268681636391052 0 0.40077847928420818 0.079275889670544289 0 0.41087789014450538 0.097625339730381372 0 0.41212840823309199 0.087268681636391052 0 0.40137433884607288 0.090706854571631607 0 0.41087789014450538 0.097625339730381372 0 0.41853880169873559 0.094789003944220712 0 0.41212840823309199 0.087268681636391052 0 0.41212840823309199 0.087268681636391052 0 0.40137433884607288 0.090706854571631607 0 0.40077847928420818 0.079275889670544289 0 0.40137433884607288 0.090706854571631607 0 0.40077847928420818 0.079275889670544289 0 0.39243695024303898 0.083930027249695741 0 0.40077847928420818 0.079275889670544289 0 0.39243695024303898 0.083930027249695741 0 0.39004006400844282 0.074258679257443158 0 0.40137433884607288 0.090706854571631607 0 0.39243695024303898 0.083930027249695741 0 0.3916156618223875 0.093916563077397042 0 0.40196357470052652 0.069204879167021185 0 0.39198568866467021 0.063512034261398537 0 0.40549506776916922 0.054930991541253388 0 0.41025420151745928 0.077123842382778182 0 0.40077847928420818 0.079275889670544289 0 0.40196357470052652 0.069204879167021185 0 0.40077847928420818 0.079275889670544289 0 0.40196357470052652 0.069204879167021185 0 0.39004006400844282 0.074258679257443158 0 0.40196357470052652 0.069204879167021185 0 0.39198568866467021 0.063512034261398537 0 0.39004006400844282 0.074258679257443158 0 0.38102626603113399 0.066039268538919602 0 0.37971370578106539 0.084160111922415362 0 0.36529372539101401 0.069667180091170289 0 0.38102626603113399 0.066039268538919602 0 0.37971370578106539 0.084160111922415362 0 0.39004006400844282 0.074258679257443158 0 0.38102626603113399 0.066039268538919602 0 0.37971370578106539 0.084160111922415362 0 0.39198568866467021 0.063512034261398537 0 0.38102626603113399 0.066039268538919602 0 0.39198568866467021 0.063512034261398537 0 0.39004006400844282 0.074258679257443158 0 0.38102626603113399 0.066039268538919602 0 0.37971370578106539 0.084160111922415362 0 0.37840114553099707 0.10228095530591109 0 0.39243695024303898 0.083930027249695741 0 0.37971370578106539 0.084160111922415362 0 0.3916156618223875 0.093916563077397042 0 0.37971370578106539 0.084160111922415362 0 0.38489114395054952 0.09788941610669305 0 0.3916156618223875 0.093916563077397042 0 0.39243695024303898 0.083930027249695741 0 0.39004006400844282 0.074258679257443158 0 0.37971370578106539 0.084160111922415362 0 0.37971370578106539 0.084160111922415362 0 0.38489114395054952 0.09788941610669305 0 0.37840114553099707 0.10228095530591109 0 0.38489114395054952 0.09788941610669305 0 0.3916156618223875 0.093916563077397042 0 0.39097569736363952 0.1023937560801831 0 0.38489114395054952 0.09788941610669305 0 0.38374950925465778 0.10669569414755881 0 0.39097569736363952 0.1023937560801831 0 0.38374950925465778 0.10669569414755881 0 0.39400312377114749 0.1102380279101246 0 0.39097569736363952 0.1023937560801831 0 0.3711864651384027 0.1064793913261918 0 0.37840114553099707 0.10228095530591109 0 0.37742636654954181 0.1157384840216702 0 0.38374950925465778 0.10669569414755881 0 0.37840114553099707 0.10228095530591109 0 0.37742636654954181 0.1157384840216702 0 0.37840114553099707 0.10228095530591109 0 0.37742636654954181 0.1157384840216702 0 0.38489114395054952 0.09788941610669305 0 0.38374950925465778 0.10669569414755881 0 0.37840114553099707 0.10228095530591109 0 0.38374950925465778 0.10669569414755881 0 0.37840114553099707 0.10228095530591109 0 0.38374950925465778 0.10669569414755881 0 0.37742636654954181 0.1157384840216702 0 0.38647547740465771 0.1164883440294365 0 0.38252596476773049 0.1287038927912863 0 0.37742636654954181 0.1157384840216702 0 0.38647547740465771 0.1164883440294365 0 0.37190322655842561 0.1260019030421215 0 0.38252596476773049 0.1287038927912863 0 0.37742636654954181 0.1157384840216702 0 0.38252596476773049 0.1287038927912863 0 0.38647547740465771 0.1164883440294365 0 0.3946724226802108 0.12106562127654261 0 0.38374950925465778 0.10669569414755881 0 0.38647547740465771 0.1164883440294365 0 0.39400312377114749 0.1102380279101246 0 0.38647547740465771 0.1164883440294365 0 0.39400312377114749 0.1102380279101246 0 0.3946724226802108 0.12106562127654261 0 0.39400312377114749 0.1102380279101246 0 0.3946724226802108 0.12106562127654261 0 0.40324117420048178 0.11384122813751529 0 0.3946724226802108 0.12106562127654261 0 0.40344251751888732 0.12344864543600161 0 0.40324117420048178 0.11384122813751529 0 0.41157704635450598 0.1078091789252055 0 0.40324117420048178 0.11384122813751529 0 0.40040864334920517 0.1022246260653802 0 0.39400312377114749 0.1102380279101246 0 0.40324117420048178 0.11384122813751529 0 0.40040864334920517 0.1022246260653802 0 0.41087789014450538 0.097625339730381372 0 0.40137433884607288 0.090706854571631607 0 0.40040864334920517 0.1022246260653802 0 0.40137433884607288 0.090706854571631607 0 0.40040864334920517 0.1022246260653802 0 0.3916156618223875 0.093916563077397042 0 0.40040864334920517 0.1022246260653802 0 0.3916156618223875 0.093916563077397042 0 0.39097569736363952 0.1023937560801831 0 0.39400312377114749 0.1102380279101246 0 0.40040864334920517 0.1022246260653802 0 0.39097569736363952 0.1023937560801831 0 0.38443656765867162 0.018957588532325941 0 0.40209978040210248 0.037399877431868088 0 0.40675164615890291 0.020963760210769369 0 0.38443656765867162 0.018957588532325941 0 0.40675164615890291 0.020963760210769369 0 0.3963794327563544 0.011225326282936619 0 0.38443656765867162 0.018957588532325941 0 0.40675164615890291 0.020963760210769369 0 0.3963794327563544 0.011225326282936619 0 0.40675164615890291 0.020963760210769369 0 0.41022178761856393 -7.7876976212250872e-05 0 0.3963794327563544 0.011225326282936619 0 0.38567554032555151 0.001852674947024423 0 0.41022178761856393 -7.7876976212250872e-05 0 0.3963794327563544 0.011225326282936619 0 0.38567554032555151 0.001852674947024423 0 0.38443656765867162 0.018957588532325941 0 0.36656708308408281 0.01735990199805507 0 0.38567554032555151 0.001852674947024423 0 0.38443656765867162 0.018957588532325941 0 0.38567554032555151 0.001852674947024423 0 0.38443656765867162 0.018957588532325941 0 0.38443656765867162 0.018957588532325941 0 0.38273141684490392 0.042498428535622787 0 0.36656708308408281 0.01735990199805507 0 0.38443656765867162 0.018957588532325941 0 0.3749163679563009 0.030582365027654119 0 0.36656708308408281 0.01735990199805507 0 0.38443656765867162 0.018957588532325941 0 0.3749163679563009 0.030582365027654119 0 0.38443656765867162 0.018957588532325941 0 0.38273141684490392 0.042498428535622787 0 0.38443656765867162 0.018957588532325941 0 0.38273141684490392 0.042498428535622787 0 0.40209978040210248 0.037399877431868088 0 0.38102626603113399 0.066039268538919602 0 0.38273141684490392 0.042498428535622787 0 0.38102626603113399 0.066039268538919602 0 0.38273141684490392 0.042498428535622787 0 0.39242330259839531 0.052352588858882512 0 0.37498122272032741 0.053769228295686818 0 0.38102626603113399 0.066039268538919602 0 0.38273141684490392 0.042498428535622787 0 0.39198568866467021 0.063512034261398537 0 0.38102626603113399 0.066039268538919602 0 0.39242330259839531 0.052352588858882512 0 0.39242330259839531 0.052352588858882512 0 0.40549506776916922 0.054930991541253388 0 0.40209978040210248 0.037399877431868088 0 0.39198568866467021 0.063512034261398537 0 0.39242330259839531 0.052352588858882512 0 0.40549506776916922 0.054930991541253388 0 0.38273141684490392 0.042498428535622787 0 0.39242330259839531 0.052352588858882512 0 0.40209978040210248 0.037399877431868088 0 0.40209978040210248 0.037399877431868088 0 0.4159575902292072 0.044029675835000358 0 0.42059643344918202 0.034115890823993793 0 0.40549506776916922 0.054930991541253388 0 0.40209978040210248 0.037399877431868088 0 0.4159575902292072 0.044029675835000358 0 0.4159575902292072 0.044029675835000358 0 0.42059643344918202 0.034115890823993793 0 0.42783756917916171 0.043896296259257457 0 0.41322794695920961 0.066127837888709587 0 0.40549506776916922 0.054930991541253388 0 0.42071075566569782 0.056011381240647383 0 0.40549506776916922 0.054930991541253388 0 0.4159575902292072 0.044029675835000358 0 0.42071075566569782 0.056011381240647383 0 0.4159575902292072 0.044029675835000358 0 0.42071075566569782 0.056011381240647383 0 0.42783756917916171 0.043896296259257457 0 0.4307054665460151 0.063249077735696518 0 0.42259651209108451 0.067079936767330595 0 0.42071075566569782 0.056011381240647383 0 0.4307054665460151 0.063249077735696518 0 0.42071075566569782 0.056011381240647383 0 0.43086283167035733 0.053207108515365441 0 0.42071075566569782 0.056011381240647383 0 0.43086283167035733 0.053207108515365441 0 0.42783756917916171 0.043896296259257457 0 0.43086283167035733 0.053207108515365441 0 0.42783756917916171 0.043896296259257457 0 0.43931665898241051 0.048556314760846431 0 0.4307054665460151 0.063249077735696518 0 0.43086283167035733 0.053207108515365441 0 0.44367493906644639 0.059381422048544373 0 0.42059643344918202 0.034115890823993793 0 0.42783756917916171 0.043896296259257457 0 0.43797487281011233 0.035933761374917363 0 0.42783756917916171 0.043896296259257457 0 0.43931665898241051 0.048556314760846431 0 0.43797487281011233 0.035933761374917363 0 0.42059643344918202 0.034115890823993793 0 0.43280363730283811 0.023282023048054719 0 0.43797487281011233 0.035933761374917363 0 0.43280363730283811 0.023282023048054719 0 0.40675164615890291 0.020963760210769369 0 0.42949150139428932 0.0090583426063200172 0 0.43280363730283811 0.023282023048054719 0 0.42949150139428932 0.0090583426063200172 0 0.44052415527356698 0.016562649946352731 0 0.43280363730283811 0.023282023048054719 0 0.40675164615890291 0.020963760210769369 0 0.42059643344918202 0.034115890823993793 0 0.43280363730283811 0.023282023048054719 0 0.40675164615890291 0.020963760210769369 0 0.40209978040210248 0.037399877431868088 0 0.42059643344918202 0.034115890823993793 0 0.40675164615890291 0.020963760210769369 0 0.40675164615890291 0.020963760210769369 0 0.42949150139428932 0.0090583426063200172 0 0.40675164615890291 0.020963760210769369 0 0.42949150139428932 0.0090583426063200172 0 0.41022178761856393 -7.7876976212250872e-05 0 0.42949150139428932 0.0090583426063200172 0 0.41022178761856393 -7.7876976212250872e-05 0 0.42569373658177689 -0.001491283635092065 0 0.42949150139428932 0.0090583426063200172 0 0.42569373658177689 -0.001491283635092065 0 0.43690564001975618 -0.001595459937971446 0 0.42949150139428932 0.0090583426063200172 0 0.44563253592148711 0.0091591365677878896 0 0.45223135662967562 -0.0028470749981293372 0 0.42949150139428932 0.0090583426063200172 0 0.45223135662967562 -0.0028470749981293372 0 0.43690564001975618 -0.001595459937971446 0 0.42949150139428932 0.0090583426063200172 0 0.44563253592148711 0.0091591365677878896 0 0.44052415527356698 0.016562649946352731 0 0.42949150139428932 0.0090583426063200172 0 0.45223135662967562 -0.0028470749981293372 0 0.44563253592148711 0.0091591365677878896 0 0.45589988920285179 0.0084997963612544331 0 0.45223135662967562 -0.0028470749981293372 0 0.44563253592148711 0.0091591365677878896 0 0.44052415527356698 0.016562649946352731 0 0.45073262963261163 0.01626790145410038 0 0.44563253592148711 0.0091591365677878896 0 0.45073262963261163 0.01626790145410038 0 0.45589988920285179 0.0084997963612544331 0 0.43280363730283811 0.023282023048054719 0 0.44052415527356698 0.016562649946352731 0 0.44433699470480942 0.02547967265434321 0 0.44052415527356698 0.016562649946352731 0 0.44433699470480942 0.02547967265434321 0 0.45073262963261163 0.01626790145410038 0 0.43280363730283811 0.023282023048054719 0 0.44433699470480942 0.02547967265434321 0 0.43797487281011233 0.035933761374917363 0 0.44433699470480942 0.02547967265434321 0 0.45524122869095629 0.02621038900216166 0 0.44874544451877141 0.034621311100472417 0 0.44433699470480942 0.02547967265434321 0 0.45073262963261163 0.01626790145410038 0 0.45524122869095629 0.02621038900216166 0 0.45073262963261163 0.01626790145410038 0 0.45524122869095629 0.02621038900216166 0 0.4620795818999246 0.017460742833071381 0 0.45524122869095629 0.02621038900216166 0 0.46755065872480961 0.029224091527626211 0 0.4620795818999246 0.017460742833071381 0 0.4620795818999246 0.017460742833071381 0 0.46794459020253221 0.0052455089489840401 0 0.45589988920285179 0.0084997963612544331 0 0.46794459020253221 0.0052455089489840401 0 0.45589988920285179 0.0084997963612544331 0 0.45223135662967562 -0.0028470749981293372 0 0.45073262963261163 0.01626790145410038 0 0.4620795818999246 0.017460742833071381 0 0.45589988920285179 0.0084997963612544331 0 0.45883166466144071 0.065507035536667771 0 0.44367493906644639 0.059381422048544373 0 0.45495838061457577 0.053114607767968752 0 0.44367493906644639 0.059381422048544373 0 0.43931665898241051 0.048556314760846431 0 0.44872437140015742 0.045095138071232541 0 0.43086283167035733 0.053207108515365441 0 0.44367493906644639 0.059381422048544373 0 0.43931665898241051 0.048556314760846431 0 0.44367493906644639 0.059381422048544373 0 0.44872437140015742 0.045095138071232541 0 0.45495838061457577 0.053114607767968752 0 0.44872437140015742 0.045095138071232541 0 0.44874544451877141 0.034621311100472417 0 0.45922849935874549 0.040673784913150969 0 0.43931665898241051 0.048556314760846431 0 0.44872437140015742 0.045095138071232541 0 0.43797487281011233 0.035933761374917363 0 0.44872437140015742 0.045095138071232541 0 0.43797487281011233 0.035933761374917363 0 0.44874544451877141 0.034621311100472417 0 0.44433699470480942 0.02547967265434321 0 0.43797487281011233 0.035933761374917363 0 0.44874544451877141 0.034621311100472417 0 0.45524122869095629 0.02621038900216166 0 0.44874544451877141 0.034621311100472417 0 0.45922849935874549 0.040673784913150969 0 0.45524122869095629 0.02621038900216166 0 0.46755065872480961 0.029224091527626211 0 0.45922849935874549 0.040673784913150969 0 0.46755065872480961 0.029224091527626211 0 0.45922849935874549 0.040673784913150969 0 0.47219742949417087 0.042726741940621073 0 0.45922849935874549 0.040673784913150969 0 0.46677597261379672 0.053686887678969709 0 0.47219742949417087 0.042726741940621073 0 0.44872437140015742 0.045095138071232541 0 0.45922849935874549 0.040673784913150969 0 0.45495838061457577 0.053114607767968752 0 0.45922849935874549 0.040673784913150969 0 0.45495838061457577 0.053114607767968752 0 0.46677597261379672 0.053686887678969709 0 0.47077399676505433 0.064331351504394535 0 0.45883166466144071 0.065507035536667771 0 0.46677597261379672 0.053686887678969709 0 0.45883166466144071 0.065507035536667771 0 0.45495838061457577 0.053114607767968752 0 0.46677597261379672 0.053686887678969709 0 0.46677597261379672 0.053686887678969709 0 0.47219742949417087 0.042726741940621073 0 0.48466586478879298 0.055767804411015157 0 0.47077399676505433 0.064331351504394535 0 0.46677597261379672 0.053686887678969709 0 0.48466586478879298 0.055767804411015157 0 0.46755065872480961 0.029224091527626211 0 0.48354143464750909 0.032189463883833577 0 0.47219742949417087 0.042726741940621073 0 0.48354143464750909 0.032189463883833577 0 0.47219742949417087 0.042726741940621073 0 0.48466586478879298 0.055767804411015157 0 0.48354143464750909 0.032189463883833577 0 0.5 0.037858979702686917 0 0.48466586478879298 0.055767804411015157 0 0.5 0.067357530704071689 0 0.5 0.037858979702686917 0 0.48466586478879298 0.055767804411015157 0 0.46794459020253221 0.0052455089489840401 0 0.47721775884840201 0.017708468818216569 0 0.48402671218319931 -0.00091524168683170546 0 0.4620795818999246 0.017460742833071381 0 0.46794459020253221 0.0052455089489840401 0 0.47721775884840201 0.017708468818216569 0 0.46755065872480961 0.029224091527626211 0 0.4620795818999246 0.017460742833071381 0 0.47721775884840201 0.017708468818216569 0 0.46755065872480961 0.029224091527626211 0 0.48354143464750909 0.032189463883833577 0 0.47721775884840201 0.017708468818216569 0 0.48354143464750909 0.032189463883833577 0 0.47721775884840201 0.017708468818216569 0 0.5 0.0083604287013021583 0 0.48354143464750909 0.032189463883833577 0 0.5 0.037858979702686917 0 0.5 0.0083604287013021583 0 0.47721775884840201 0.017708468818216569 0 0.5 0.0083604287013021583 0 0.48402671218319931 -0.00091524168683170546 0 0.47497121186506203 -0.014752492602578691 0 0.48402671218319931 -0.00091524168683170546 0 0.5 -0.02113812230008261 0 0.5 0.0083604287013021583 0 0.48402671218319931 -0.00091524168683170546 0 0.5 -0.02113812230008261 0 0.46794459020253221 0.0052455089489840401 0 0.47497121186506203 -0.014752492602578691 0 0.48402671218319931 -0.00091524168683170546 0 0.47497121186506203 -0.014752492602578691 0 0.48413852697423171 -0.037560894517496328 0 0.46131209203989088 -0.035308766101901173 0 0.47497121186506203 -0.014752492602578691 0 0.5 -0.02113812230008261 0 0.48413852697423171 -0.037560894517496328 0 0.5 -0.02113812230008261 0 0.5 -0.050636673301467372 0 0.48413852697423171 -0.037560894517496328 0 0.5 -0.050636673301467372 0 0.48413852697423171 -0.037560894517496328 0 0.48550466998168862 -0.065253067449395033 0 0.48413852697423171 -0.037560894517496328 0 0.46810430909848799 -0.055787714993325313 0 0.48550466998168862 -0.065253067449395033 0 0.48413852697423171 -0.037560894517496328 0 0.46131209203989088 -0.035308766101901173 0 0.46810430909848799 -0.055787714993325313 0 0.46131209203989088 -0.035308766101901173 0 0.46810430909848799 -0.055787714993325313 0 0.45286109786794559 -0.054382607881069391 0 0.46810430909848799 -0.055787714993325313 0 0.45286109786794559 -0.054382607881069391 0 0.45444479351112887 -0.067332522926853794 0 0.44231899697532612 -0.045342560022963573 0 0.43880737769639572 -0.065358419816401392 0 0.45286109786794559 -0.054382607881069391 0 0.44231899697532612 -0.045342560022963573 0 0.43880737769639572 -0.065358419816401392 0 0.45286109786794559 -0.054382607881069391 0 0.45444479351112887 -0.067332522926853794 0 0.43880737769639572 -0.065358419816401392 0 0.46131209203989088 -0.035308766101901173 0 0.45286109786794559 -0.054382607881069391 0 0.44231899697532612 -0.045342560022963573 0 0.44231899697532612 -0.045342560022963573 0 0.44583061625425519 -0.025326700229525601 0 0.44231899697532612 -0.045342560022963573 0 0.44583061625425519 -0.025326700229525601 0 0.43042078022585478 -0.026739891483105061 0 0.46131209203989088 -0.035308766101901173 0 0.44231899697532612 -0.045342560022963573 0 0.44583061625425519 -0.025326700229525601 0 0.44583061625425519 -0.025326700229525601 0 0.43743285230218171 -0.01428724915154579 0 0.43042078022585478 -0.026739891483105061 0 0.44583061625425519 -0.025326700229525601 0 0.44934223553318448 -0.0053108404360876424 0 0.44583061625425519 -0.025326700229525601 0 0.44934223553318448 -0.0053108404360876424 0 0.45953224009290949 -0.01568188918307065 0 0.44583061625425519 -0.025326700229525601 0 0.44934223553318448 -0.0053108404360876424 0 0.43743285230218171 -0.01428724915154579 0 0.44934223553318448 -0.0053108404360876424 0 0.43690564001975618 -0.001595459937971446 0 0.43743285230218171 -0.01428724915154579 0 0.44934223553318448 -0.0053108404360876424 0 0.45223135662967562 -0.0028470749981293372 0 0.43690564001975618 -0.001595459937971446 0 0.47497121186506203 -0.014752492602578691 0 0.45223135662967562 -0.0028470749981293372 0 0.46794459020253221 0.0052455089489840401 0 0.47497121186506203 -0.014752492602578691 0 0.45223135662967562 -0.0028470749981293372 0 0.44934223553318448 -0.0053108404360876424 0 0.45223135662967562 -0.0028470749981293372 0 0.45953224009290949 -0.01568188918307065 0 0.47497121186506203 -0.014752492602578691 0 0.45223135662967562 -0.0028470749981293372 0 0.45953224009290949 -0.01568188918307065 0 0.46131209203989088 -0.035308766101901173 0 0.44583061625425519 -0.025326700229525601 0 0.45953224009290949 -0.01568188918307065 0 0.47497121186506203 -0.014752492602578691 0 0.46131209203989088 -0.035308766101901173 0 0.45953224009290949 -0.01568188918307065 0 0.48051954266017161 -0.11134232666167281 0 0.46202517864625509 -0.1330576255974065 0 0.48051954266017161 -0.11134232666167281 0 0.47771409043414692 -0.10660145168600969 0 0.45777356252562662 -0.1160100877946766 0 0.48051954266017161 -0.11134232666167281 0 0.47964853272501412 -0.12348302909803451 0 0.46202517864625509 -0.1330576255974065 0 0.48051954266017161 -0.11134232666167281 0 0.47964853272501412 -0.12348302909803451 0 0.48751687209397893 -0.11394055740388059 0 0.49073704697651838 -0.12405757185968649 0 0.5 -0.1096337753042366 0 0.5 -0.1391323263056212 0 0.47964853272501412 -0.12348302909803451 0 0.49073704697651838 -0.12405757185968649 0 0.48751687209397893 -0.11394055740388059 0 0.49073704697651838 -0.12405757185968649 0 0.5 -0.1096337753042366 0 0.48751687209397893 -0.11394055740388059 0 0.48051954266017161 -0.11134232666167281 0 0.48751687209397893 -0.11394055740388059 0 0.48667923810819042 -0.1011860840957727 0 0.5 -0.1096337753042366 0 0.48751687209397893 -0.11394055740388059 0 0.48667923810819042 -0.1011860840957727 0 0.5 -0.1096337753042366 0 0.48667923810819042 -0.1011860840957727 0 0.5 -0.080135224302851971 0 0.48667923810819042 -0.1011860840957727 0 0.47771409043414692 -0.10660145168600969 0 0.47418276710762741 -0.095980095372241586 0 0.48667923810819042 -0.1011860840957727 0 0.47418276710762741 -0.095980095372241586 0 0.4797874562506087 -0.084124531680393577 0 0.48051954266017161 -0.11134232666167281 0 0.48667923810819042 -0.1011860840957727 0 0.47771409043414692 -0.10660145168600969 0 0.47771409043414692 -0.10660145168600969 0 0.47418276710762741 -0.095980095372241586 0 0.46327877784577742 -0.1005833731195082 0 0.47418276710762741 -0.095980095372241586 0 0.4797874562506087 -0.084124531680393577 0 0.46691725378732502 -0.087475509472801249 0 0.4797874562506087 -0.084124531680393577 0 0.46697755906281557 -0.073772421017043649 0 0.46691725378732502 -0.087475509472801249 0 0.48667923810819042 -0.1011860840957727 0 0.4797874562506087 -0.084124531680393577 0 0.5 -0.080135224302851971 0 0.4797874562506087 -0.084124531680393577 0 0.5 -0.080135224302851971 0 0.48550466998168862 -0.065253067449395033 0 0.5 -0.050636673301467372 0 0.5 -0.080135224302851971 0 0.48550466998168862 -0.065253067449395033 0 0.46810430909848799 -0.055787714993325313 0 0.48550466998168862 -0.065253067449395033 0 0.46697755906281557 -0.073772421017043649 0 0.4797874562506087 -0.084124531680393577 0 0.48550466998168862 -0.065253067449395033 0 0.46697755906281557 -0.073772421017043649 0 0.46697755906281557 -0.073772421017043649 0 0.45444479351112887 -0.067332522926853794 0 0.45104307777108632 -0.082970896467955038 0 0.46810430909848799 -0.055787714993325313 0 0.46697755906281557 -0.073772421017043649 0 0.45444479351112887 -0.067332522926853794 0 0.43880737769639572 -0.065358419816401392 0 0.45104307777108632 -0.082970896467955038 0 0.43592831157607742 -0.081768793271784213 0 0.43880737769639572 -0.065358419816401392 0 0.45104307777108632 -0.082970896467955038 0 0.45444479351112887 -0.067332522926853794 0 0.43880737769639572 -0.065358419816401392 0 0.45104307777108632 -0.082970896467955038 0 0.45104307777108632 -0.082970896467955038 0 0.44934073211967318 -0.1001122865907428 0 0.43636497061646301 -0.093640965321518221 0 0.45104307777108632 -0.082970896467955038 0 0.43636497061646301 -0.093640965321518221 0 0.43592831157607742 -0.081768793271784213 0 0.45104307777108632 -0.082970896467955038 0 0.46327877784577742 -0.1005833731195082 0 0.46697755906281557 -0.073772421017043649 0 0.45104307777108632 -0.082970896467955038 0 0.46691725378732502 -0.087475509472801249 0 0.45104307777108632 -0.082970896467955038 0 0.46691725378732502 -0.087475509472801249 0 0.46327877784577742 -0.1005833731195082 0 0.45104307777108632 -0.082970896467955038 0 0.46327877784577742 -0.1005833731195082 0 0.44934073211967318 -0.1001122865907428 0 0.47771409043414692 -0.10660145168600969 0 0.46327877784577742 -0.1005833731195082 0 0.45777356252562662 -0.1160100877946766 0 0.46327877784577742 -0.1005833731195082 0 0.44934073211967318 -0.1001122865907428 0 0.45777356252562662 -0.1160100877946766 0 0.47418276710762741 -0.095980095372241586 0 0.46691725378732502 -0.087475509472801249 0 0.46327877784577742 -0.1005833731195082 0 0.44934073211967318 -0.1001122865907428 0 0.44368820136680648 -0.1118134445020034 0 0.45777356252562662 -0.1160100877946766 0 0.44934073211967318 -0.1001122865907428 0 0.43967505767299753 -0.10348752911479391 0 0.43636497061646301 -0.093640965321518221 0 0.44934073211967318 -0.1001122865907428 0 0.43967505767299753 -0.10348752911479391 0 0.44368820136680648 -0.1118134445020034 0 0.45777356252562662 -0.1160100877946766 0 0.45065063704758618 -0.12674901402115141 0 0.43783303461710632 -0.12541872390334341 0 0.45777356252562662 -0.1160100877946766 0 0.43783303461710632 -0.12541872390334341 0 0.44368820136680648 -0.1118134445020034 0 0.45777356252562662 -0.1160100877946766 0 0.43783303461710632 -0.12541872390334341 0 0.44368820136680648 -0.1118134445020034 0 0.43381861989862858 -0.1140385951064606 0 0.43783303461710632 -0.12541872390334341 0 0.43967505767299753 -0.10348752911479391 0 0.44368820136680648 -0.1118134445020034 0 0.43381861989862858 -0.1140385951064606 0 0.47771409043414692 -0.10660145168600969 0 0.45777356252562662 -0.1160100877946766 0 0.48051954266017161 -0.11134232666167281 0 0.45777356252562662 -0.1160100877946766 0 0.46202517864625509 -0.1330576255974065 0 0.40776917513558419 -0.1168613643963779 0 0.4144981905027485 -0.1220223261157493 0 0.40715869003188282 -0.1266756526129092 0 0.40776917513558419 -0.1168613643963779 0 0.41663365733394181 -0.1122885223363239 0 0.40900720914202771 -0.1058422377259242 0 0.40776917513558419 -0.1168613643963779 0 0.41663365733394181 -0.1122885223363239 0 0.4144981905027485 -0.1220223261157493 0 0.41663365733394181 -0.1122885223363239 0 0.4144981905027485 -0.1220223261157493 0 0.42303692330374748 -0.11945873122112551 0 0.42303692330374748 -0.11945873122112551 0 0.42814527113201711 -0.1234358525607348 0 0.43381861989862858 -0.1140385951064606 0 0.42814527113201711 -0.1234358525607348 0 0.43381861989862858 -0.1140385951064606 0 0.43783303461710632 -0.12541872390334341 0 0.41663365733394181 -0.1122885223363239 0 0.42303692330374748 -0.11945873122112551 0 0.42689909343199589 -0.10538506348273061 0 0.42303692330374748 -0.11945873122112551 0 0.43381861989862858 -0.1140385951064606 0 0.42689909343199589 -0.10538506348273061 0 0.43967505767299753 -0.10348752911479391 0 0.43381861989862858 -0.1140385951064606 0 0.42689909343199589 -0.10538506348273061 0 0.43967505767299753 -0.10348752911479391 0 0.42689909343199589 -0.10538506348273061 0 0.43636497061646301 -0.093640965321518221 0 0.42689909343199589 -0.10538506348273061 0 0.41773087129961378 -0.1028563262712895 0 0.42333889822481618 -0.091141159979132857 0 0.42689909343199589 -0.10538506348273061 0 0.42333889822481618 -0.091141159979132857 0 0.43636497061646301 -0.093640965321518221 0 0.41773087129961378 -0.1028563262712895 0 0.41129952896327537 -0.095127993708496922 0 0.42333889822481618 -0.091141159979132857 0 0.41663365733394181 -0.1122885223363239 0 0.41773087129961378 -0.1028563262712895 0 0.40900720914202771 -0.1058422377259242 0 0.41663365733394181 -0.1122885223363239 0 0.42689909343199589 -0.10538506348273061 0 0.41773087129961378 -0.1028563262712895 0 0.41773087129961378 -0.1028563262712895 0 0.40900720914202771 -0.1058422377259242 0 0.41129952896327537 -0.095127993708496922 0 0.40900720914202771 -0.1058422377259242 0 0.41129952896327537 -0.095127993708496922 0 0.40231454603077971 -0.099253561355007236 0 0.41129952896327537 -0.095127993708496922 0 0.41208626239240342 -0.08434858055920795 0 0.40095514874201471 -0.085824337100766465 0 0.41208626239240342 -0.08434858055920795 0 0.40608257518642871 -0.072192928369443646 0 0.40095514874201471 -0.085824337100766465 0 0.41208626239240342 -0.08434858055920795 0 0.42333889822481618 -0.091141159979132857 0 0.41957241545477791 -0.076364947473058511 0 0.41129952896327537 -0.095127993708496922 0 0.41208626239240342 -0.08434858055920795 0 0.42333889822481618 -0.091141159979132857 0 0.42333889822481618 -0.091141159979132857 0 0.43592831157607742 -0.081768793271784213 0 0.41957241545477791 -0.076364947473058511 0 0.42333889822481618 -0.091141159979132857 0 0.43636497061646301 -0.093640965321518221 0 0.43592831157607742 -0.081768793271784213 0 0.43880737769639572 -0.065358419816401392 0 0.43592831157607742 -0.081768793271784213 0 0.42385235993077419 -0.063416271819876052 0 0.43592831157607742 -0.081768793271784213 0 0.42385235993077419 -0.063416271819876052 0 0.41957241545477791 -0.076364947473058511 0 0.43880737769639572 -0.065358419816401392 0 0.43592831157607742 -0.081768793271784213 0 0.42385235993077419 -0.063416271819876052 0 0.41957241545477791 -0.076364947473058511 0 0.41357702242010591 -0.06408519876552396 0 0.41208626239240342 -0.08434858055920795 0 0.41957241545477791 -0.076364947473058511 0 0.40608257518642871 -0.072192928369443646 0 0.41957241545477791 -0.076364947473058511 0 0.41357702242010591 -0.06408519876552396 0 0.40608257518642871 -0.072192928369443646 0 0.41357702242010591 -0.06408519876552396 0 0.40608257518642871 -0.072192928369443646 0 0.400608109188335 -0.05878980261458111 0 0.3938554761860707 -0.069741310392460065 0 0.38870755472211721 -0.085446797626308912 0 0.40608257518642871 -0.072192928369443646 0 0.3938554761860707 -0.069741310392460065 0 0.40095514874201471 -0.085824337100766465 0 0.40608257518642871 -0.072192928369443646 0 0.3938554761860707 -0.069741310392460065 0 0.400608109188335 -0.05878980261458111 0 0.3938554761860707 -0.069741310392460065 0 0.38173453065848689 -0.073822489864734248 0 0.3835907701026614 -0.058371885555363587 0 0.3938554761860707 -0.069741310392460065 0 0.38173453065848689 -0.073822489864734248 0 0.38870755472211721 -0.085446797626308912 0 0.38173453065848689 -0.073822489864734248 0 0.3835907701026614 -0.058371885555363587 0 0.36873766737797348 -0.071803855289852767 0 0.38173453065848689 -0.073822489864734248 0 0.37614865031806749 -0.086478070075005437 0 0.36873766737797348 -0.071803855289852767 0 0.38870755472211721 -0.085446797626308912 0 0.38355963325816278 -0.1011522848601575 0 0.38870755472211721 -0.085446797626308912 0 0.37614865031806749 -0.086478070075005437 0 0.38355963325816278 -0.1011522848601575 0 0.38173453065848689 -0.073822489864734248 0 0.38870755472211721 -0.085446797626308912 0 0.37614865031806749 -0.086478070075005437 0 0.37614865031806749 -0.086478070075005437 0 0.38355963325816278 -0.1011522848601575 0 0.36922816734384672 -0.09195272489597095 0 0.3938554761860707 -0.069741310392460065 0 0.38870755472211721 -0.085446797626308912 0 0.40095514874201471 -0.085824337100766465 0 0.38870755472211721 -0.085446797626308912 0 0.40095514874201471 -0.085824337100766465 0 0.39357804365965132 -0.095378238792204653 0 0.41129952896327537 -0.095127993708496922 0 0.40095514874201471 -0.085824337100766465 0 0.40231454603077971 -0.099253561355007236 0 0.40095514874201471 -0.085824337100766465 0 0.40231454603077971 -0.099253561355007236 0 0.39357804365965132 -0.095378238792204653 0 0.40900720914202771 -0.1058422377259242 0 0.40231454603077971 -0.099253561355007236 0 0.39829547608897198 -0.10866565828805 0 0.39829547608897198 -0.10866565828805 0 0.39357804365965132 -0.095378238792204653 0 0.38355963325816278 -0.1011522848601575 0 0.39829547608897198 -0.10866565828805 0 0.38355963325816278 -0.1011522848601575 0 0.39068899793598511 -0.115268877680531 0 0.40231454603077971 -0.099253561355007236 0 0.39829547608897198 -0.10866565828805 0 0.39357804365965132 -0.095378238792204653 0 0.38355963325816278 -0.1011522848601575 0 0.37833014564927581 -0.11710661739146271 0 0.38870755472211721 -0.085446797626308912 0 0.39357804365965132 -0.095378238792204653 0 0.38355963325816278 -0.1011522848601575 0 0.37614865031806749 -0.086478070075005437 0 0.38355963325816278 -0.1011522848601575 0 0.38355963325816278 -0.1011522848601575 0 0.39068899793598511 -0.115268877680531 0 0.38355963325816278 -0.1011522848601575 0 0.37833014564927581 -0.11710661739146271 0 0.36971866730971892 -0.1121015945020892 0 0.38355963325816278 -0.1011522848601575 0 0.37833014564927581 -0.11710661739146271 0 0.39068899793598511 -0.115268877680531 0 0.37833014564927581 -0.11710661739146271 0 0.39068899793598511 -0.115268877680531 0 0.38652804903322519 -0.12590609172094719 0 0.39068899793598511 -0.115268877680531 0 0.39781836261380787 -0.12938547050090421 0 0.38652804903322519 -0.12590609172094719 0 0.39068899793598511 -0.115268877680531 0 0.40047043414882749 -0.119817411740684 0 0.39781836261380787 -0.12938547050090421 0 0.39068899793598511 -0.115268877680531 0 0.39781836261380787 -0.12938547050090421 0 0.39829547608897198 -0.10866565828805 0 0.39068899793598511 -0.115268877680531 0 0.40047043414882749 -0.119817411740684 0 0.40776917513558419 -0.1168613643963779 0 0.39829547608897198 -0.10866565828805 0 0.40047043414882749 -0.119817411740684 0 0.40776917513558419 -0.1168613643963779 0 0.40900720914202771 -0.1058422377259242 0 0.39829547608897198 -0.10866565828805 0 0.40776917513558419 -0.1168613643963779 0 0.40047043414882749 -0.119817411740684 0 0.40715869003188282 -0.1266756526129092 0 0.40820487254262022 -0.021308148543836319 0 0.43042078022585478 -0.026739891483105061 0 0.42350612511950758 -0.043333284180119107 0 0.40820487254262022 -0.021308148543836319 0 0.42523121816123871 -0.01084140677064001 0 0.43042078022585478 -0.026739891483105061 0 0.40820487254262022 -0.021308148543836319 0 0.41022178761856393 -7.7876976212250872e-05 0 0.42523121816123871 -0.01084140677064001 0 0.41022178761856393 -7.7876976212250872e-05 0 0.42523121816123871 -0.01084140677064001 0 0.42569373658177689 -0.001491283635092065 0 0.42523121816123871 -0.01084140677064001 0 0.42569373658177689 -0.001491283635092065 0 0.43690564001975618 -0.001595459937971446 0 0.42523121816123871 -0.01084140677064001 0 0.43690564001975618 -0.001595459937971446 0 0.43743285230218171 -0.01428724915154579 0 0.42523121816123871 -0.01084140677064001 0 0.43743285230218171 -0.01428724915154579 0 0.43042078022585478 -0.026739891483105061 0 0.44231899697532612 -0.045342560022963573 0 0.43042078022585478 -0.026739891483105061 0 0.42350612511950758 -0.043333284180119107 0 0.43880737769639572 -0.065358419816401392 0 0.42385235993077419 -0.063416271819876052 0 0.42350612511950758 -0.043333284180119107 0 0.43880737769639572 -0.065358419816401392 0 0.42350612511950758 -0.043333284180119107 0 0.44231899697532612 -0.045342560022963573 0 0.43880737769639572 -0.065358419816401392 0 0.42350612511950758 -0.043333284180119107 0 0.42385235993077419 -0.063416271819876052 0 0.42350612511950758 -0.043333284180119107 0 0.41060617342528671 -0.048791194479694378 0 0.42385235993077419 -0.063416271819876052 0 0.41357702242010591 -0.06408519876552396 0 0.41060617342528671 -0.048791194479694378 0 0.41357702242010591 -0.06408519876552396 0 0.41060617342528671 -0.048791194479694378 0 0.400608109188335 -0.05878980261458111 0 0.40820487254262022 -0.021308148543836319 0 0.42350612511950758 -0.043333284180119107 0 0.40820487254262022 -0.021308148543836319 0 0.42350612511950758 -0.043333284180119107 0 0.41060617342528671 -0.048791194479694378 0 0.40820487254262022 -0.021308148543836319 0 0.41060617342528671 -0.048791194479694378 0 0.39388855135037742 -0.041814460954229721 0 0.3938554761860707 -0.069741310392460065 0 0.400608109188335 -0.05878980261458111 0 0.3835907701026614 -0.058371885555363587 0 0.39388855135037742 -0.041814460954229721 0 0.400608109188335 -0.05878980261458111 0 0.3835907701026614 -0.058371885555363587 0 0.41060617342528671 -0.048791194479694378 0 0.39388855135037742 -0.041814460954229721 0 0.400608109188335 -0.05878980261458111 0 0.39388855135037742 -0.041814460954229721 0 0.3835907701026614 -0.058371885555363587 0 0.36801413928000992 -0.04208260286055019 0 0.39388855135037742 -0.041814460954229721 0 0.3884127362051949 -0.019260532068301289 0 0.36801413928000992 -0.04208260286055019 0 0.40820487254262022 -0.021308148543836319 0 0.39388855135037742 -0.041814460954229721 0 0.3884127362051949 -0.019260532068301289 0 0.38567554032555151 0.001852674947024423 0 0.41022178761856393 -7.7876976212250872e-05 0 0.3884127362051949 -0.019260532068301289 0 0.40820487254262022 -0.021308148543836319 0 0.41022178761856393 -7.7876976212250872e-05 0 0.3884127362051949 -0.019260532068301289 0 0.38567554032555151 0.001852674947024423 0 0.3884127362051949 -0.019260532068301289 0 0.3672906111820452 -0.01236135043124763 0 0.3672906111820452 -0.01236135043124763 0 0.35775543883844602 -0.027269773838512559 0 0.36801413928000992 -0.04208260286055019 0 0.3672906111820452 -0.01236135043124763 0 0.36801413928000992 -0.04208260286055019 0 0.3884127362051949 -0.019260532068301289 0 0.3672906111820452 -0.01236135043124763 0 0.36801413928000992 -0.04208260286055019 0 0.3672906111820452 -0.01236135043124763 0 0.35775543883844602 -0.027269773838512559 0 0.35405484783332097 -0.013653934485032149 0 0.35775543883844602 -0.027269773838512559 0 0.35405484783332097 -0.013653934485032149 0 0.3433658414719124 -0.02156603584720386 0 0.35405484783332097 -0.013653934485032149 0 0.34939658156656728 -0.001197740830967714 0 0.3433658414719124 -0.02156603584720386 0 0.3672906111820452 -0.01236135043124763 0 0.35405484783332097 -0.013653934485032149 0 0.34939658156656728 -0.001197740830967714 0 0.34452910215819282 0.002646692393150967 0 0.34939658156656728 -0.001197740830967714 0 0.3433658414719124 -0.02156603584720386 0 0.35321055371749438 0.0086347728343585499 0 0.3672906111820452 -0.01236135043124763 0 0.34939658156656728 -0.001197740830967714 0 0.34452910215819282 0.002646692393150967 0 0.3433658414719124 -0.02156603584720386 0 0.33446223024334432 -0.0039363226785728766 0 0.3433658414719124 -0.02156603584720386 0 0.32626752027617639 -0.016444327721498359 0 0.33446223024334432 -0.0039363226785728766 0 0.3433658414719124 -0.02156603584720386 0 0.34452910215819282 0.002646692393150967 0 0.33446223024334432 -0.0039363226785728766 0 0.3433658414719124 -0.02156603584720386 0 0.3433658414719124 -0.02156603584720386 0 0.32626752027617639 -0.016444327721498359 0 0.32546941710176402 -0.03153996001904328 0 0.31445556104574268 -0.020011708518544859 0 0.32546941710176402 -0.03153996001904328 0 0.3060310534278215 -0.036651633982862392 0 0.32626752027617639 -0.016444327721498359 0 0.31445556104574268 -0.020011708518544859 0 0.32546941710176402 -0.03153996001904328 0 0.32626752027617639 -0.016444327721498359 0 0.31445556104574268 -0.020011708518544859 0 0.31742064398169118 -0.0065115008486939354 0 0.32160269560844379 0.0042964609114135733 0 0.33446223024334432 -0.0039363226785728766 0 0.31742064398169118 -0.0065115008486939354 0 0.33446223024334432 -0.0039363226785728766 0 0.32626752027617639 -0.016444327721498359 0 0.31742064398169118 -0.0065115008486939354 0 0.32160269560844379 0.0042964609114135733 0 0.31188418584687871 0.002019974638982556 0 0.31742064398169118 -0.0065115008486939354 0 0.32409755703902698 -0.051926265967585983 0 0.34132266152672852 -0.064093872764936582 0 0.3135885945154161 -0.068647623223243484 0 0.32409755703902698 -0.051926265967585983 0 0.32546941710176402 -0.03153996001904328 0 0.3060310534278215 -0.036651633982862392 0 0.3433658414719124 -0.02156603584720386 0 0.32546941710176402 -0.03153996001904328 0 0.34234425149932102 -0.042829954306070242 0 0.3433658414719124 -0.02156603584720386 0 0.34234425149932102 -0.042829954306070242 0 0.32409755703902698 -0.051926265967585983 0 0.32546941710176402 -0.03153996001904328 0 0.34234425149932102 -0.042829954306070242 0 0.34234425149932102 -0.042829954306070242 0 0.34132266152672852 -0.064093872764936582 0 0.32409755703902698 -0.051926265967585983 0 0.34234425149932102 -0.042829954306070242 0 0.34132266152672852 -0.064093872764936582 0 0.35009548672240648 -0.053631760950174627 0 0.36066327943863441 -0.0609182711611631 0 0.34132266152672852 -0.064093872764936582 0 0.34234425149932102 -0.042829954306070242 0 0.35009548672240648 -0.053631760950174627 0 0.34132266152672852 -0.064093872764936582 0 0.34234425149932102 -0.042829954306070242 0 0.35009548672240648 -0.053631760950174627 0 0.35605175442494219 -0.046684945568528598 0 0.35009548672240648 -0.053631760950174627 0 0.35605175442494219 -0.046684945568528598 0 0.36066327943863441 -0.0609182711611631 0 0.35775543883844602 -0.027269773838512559 0 0.3433658414719124 -0.02156603584720386 0 0.35605175442494219 -0.046684945568528598 0 0.3433658414719124 -0.02156603584720386 0 0.34234425149932102 -0.042829954306070242 0 0.35605175442494219 -0.046684945568528598 0 0.3433658414719124 -0.02156603584720386 0 0.35605175442494219 -0.046684945568528598 0 0.35775543883844602 -0.027269773838512559 0 0.35605175442494219 -0.046684945568528598 0 0.36801413928000992 -0.04208260286055019 0 0.35605175442494219 -0.046684945568528598 0 0.36066327943863441 -0.0609182711611631 0 0.36873766737797348 -0.071803855289852767 0 0.35605175442494219 -0.046684945568528598 0 0.36873766737797348 -0.071803855289852767 0 0.3835907701026614 -0.058371885555363587 0 0.36801413928000992 -0.04208260286055019 0 0.36873766737797348 -0.071803855289852767 0 0.36801413928000992 -0.04208260286055019 0 0.36873766737797348 -0.071803855289852767 0 0.35605175442494219 -0.046684945568528598 0 0.36801413928000992 -0.04208260286055019 0 0.36873766737797348 -0.071803855289852767 0 0.36066327943863441 -0.0609182711611631 0 0.36873766737797348 -0.071803855289852767 0 0.35797276652240329 -0.073056799940041189 0 0.36873766737797348 -0.071803855289852767 0 0.36158730697706348 -0.081705717331077996 0 0.35797276652240329 -0.073056799940041189 0 0.36873766737797348 -0.071803855289852767 0 0.36922816734384672 -0.09195272489597095 0 0.36873766737797348 -0.071803855289852767 0 0.36922816734384672 -0.09195272489597095 0 0.36158730697706348 -0.081705717331077996 0 0.37614865031806749 -0.086478070075005437 0 0.36873766737797348 -0.071803855289852767 0 0.36922816734384672 -0.09195272489597095 0 0.37614865031806749 -0.086478070075005437 0 0.36873766737797348 -0.071803855289852767 0 0.36922816734384672 -0.09195272489597095 0 0.36158730697706348 -0.081705717331077996 0 0.35816370727071117 -0.089468139797570012 0 0.36922816734384672 -0.09195272489597095 0 0.35816370727071117 -0.089468139797570012 0 0.36243683988810071 -0.095118273171456921 0 0.36158730697706348 -0.081705717331077996 0 0.35383422637038198 -0.082247066731955101 0 0.35797276652240329 -0.073056799940041189 0 0.36158730697706348 -0.081705717331077996 0 0.35383422637038198 -0.082247066731955101 0 0.35816370727071117 -0.089468139797570012 0 0.35816370727071117 -0.089468139797570012 0 0.34732073920677331 -0.0889136497606412 0 0.35246883092766501 -0.097466698575846153 0 0.35383422637038198 -0.082247066731955101 0 0.35816370727071117 -0.089468139797570012 0 0.34732073920677331 -0.0889136497606412 0 0.35383422637038198 -0.082247066731955101 0 0.34577431352360488 -0.08147750224216177 0 0.34917514562240259 -0.075546890287979826 0 0.35383422637038198 -0.082247066731955101 0 0.34732073920677331 -0.0889136497606412 0 0.34577431352360488 -0.08147750224216177 0 0.34577431352360488 -0.08147750224216177 0 0.34917514562240259 -0.075546890287979826 0 0.34176286947782802 -0.076238673859135658 0 0.34917514562240259 -0.075546890287979826 0 0.34572253787373258 -0.071253117694170351 0 0.34176286947782802 -0.076238673859135658 0 0.36066327943863441 -0.0609182711611631 0 0.34132266152672852 -0.064093872764936582 0 0.34917514562240259 -0.075546890287979826 0 0.34572253787373258 -0.071253117694170351 0 0.3517621339452171 -0.067190569106213058 0 0.36066327943863441 -0.0609182711611631 0 0.3517621339452171 -0.067190569106213058 0 0.34132266152672852 -0.064093872764936582 0 0.34572253787373258 -0.071253117694170351 0 0.3448386638929285 -0.068017236789019164 0 0.3517621339452171 -0.067190569106213058 0 0.3448386638929285 -0.068017236789019164 0 0.3517621339452171 -0.067190569106213058 0 0.34132266152672852 -0.064093872764936582 0 0.34572253787373258 -0.071253117694170351 0 0.3448386638929285 -0.068017236789019164 0 0.34107387643028692 -0.06927221842850409 0 0.36066327943863441 -0.0609182711611631 0 0.3517621339452171 -0.067190569106213058 0 0.35797276652240329 -0.073056799940041189 0 0.34917514562240259 -0.075546890287979826 0 0.3517621339452171 -0.067190569106213058 0 0.35797276652240329 -0.073056799940041189 0 0.35383422637038198 -0.082247066731955101 0 0.34917514562240259 -0.075546890287979826 0 0.35797276652240329 -0.073056799940041189 0 0.37833014564927581 -0.11710661739146271 0 0.36971866730971892 -0.1121015945020892 0 0.37020916727559261 -0.13225046410820751 0 0.36391682436117467 -0.1198527238948791 0 0.36971866730971892 -0.1121015945020892 0 0.37020916727559261 -0.13225046410820751 0 0.36971866730971892 -0.1121015945020892 0 0.37020916727559261 -0.13225046410820751 0 0.36391682436117467 -0.1198527238948791 0 0.36045339428522899 -0.1092489659634739 0 0.35921495288696331 -0.1231002213711709 0 0.36391682436117467 -0.1198527238948791 0 0.36971866730971892 -0.1121015945020892 0 0.36045339428522899 -0.1092489659634739 0 0.36922816734384672 -0.09195272489597095 0 0.36971866730971892 -0.1121015945020892 0 0.38355963325816278 -0.1011522848601575 0 0.36922816734384672 -0.09195272489597095 0 0.36971866730971892 -0.1121015945020892 0 0.36971866730971892 -0.1121015945020892 0 0.36045339428522899 -0.1092489659634739 0 0.36801867587976239 -0.094901703547434213 0 0.36922816734384672 -0.09195272489597095 0 0.36971866730971892 -0.1121015945020892 0 0.36801867587976239 -0.094901703547434213 0 0.36045339428522899 -0.1092489659634739 0 0.36801867587976239 -0.094901703547434213 0 0.36801867587976239 -0.094901703547434213 0 0.35984233588781561 -0.100469213953084 0 0.36243683988810071 -0.095118273171456921 0 0.36922816734384672 -0.09195272489597095 0 0.36801867587976239 -0.094901703547434213 0 0.36243683988810071 -0.095118273171456921 0 0.36045339428522899 -0.1092489659634739 0 0.36801867587976239 -0.094901703547434213 0 0.35984233588781561 -0.100469213953084 0 0.34732073920677331 -0.0889136497606412 0 0.35246883092766501 -0.097466698575846153 0 0.33537929048099052 -0.095040403722569985 0 0.35246883092766501 -0.097466698575846153 0 0.34413370158584261 -0.10931831605104191 0 0.33537929048099052 -0.095040403722569985 0 0.35816370727071117 -0.089468139797570012 0 0.36243683988810071 -0.095118273171456921 0 0.35246883092766501 -0.097466698575846153 0 0.35984233588781561 -0.100469213953084 0 0.35246883092766501 -0.097466698575846153 0 0.35388143788515219 -0.1056740987106549 0 0.35984233588781561 -0.100469213953084 0 0.36243683988810071 -0.095118273171456921 0 0.35246883092766501 -0.097466698575846153 0 0.34413370158584261 -0.10931831605104191 0 0.35388143788515219 -0.1056740987106549 0 0.35250892673920869 -0.11186729900982879 0 0.35246883092766501 -0.097466698575846153 0 0.34413370158584261 -0.10931831605104191 0 0.35388143788515219 -0.1056740987106549 0 0.36045339428522899 -0.1092489659634739 0 0.35984233588781561 -0.100469213953084 0 0.35388143788515219 -0.1056740987106549 0 0.36045339428522899 -0.1092489659634739 0 0.35388143788515219 -0.1056740987106549 0 0.35250892673920869 -0.11186729900982879 0 0.3528881126906952 -0.1235962283795133 0 0.33556547358501959 -0.1225398253462803 0 0.35114279585001251 -0.1269061539122934 0 0.34413370158584261 -0.10931831605104191 0 0.3528881126906952 -0.1235962283795133 0 0.33556547358501959 -0.1225398253462803 0 0.36045339428522899 -0.1092489659634739 0 0.35250892673920869 -0.11186729900982879 0 0.3528881126906952 -0.1235962283795133 0 0.36045339428522899 -0.1092489659634739 0 0.3528881126906952 -0.1235962283795133 0 0.34413370158584261 -0.10931831605104191 0 0.3528881126906952 -0.1235962283795133 0 0.34413370158584261 -0.10931831605104191 0 0.35250892673920869 -0.11186729900982879 0 0.3528881126906952 -0.1235962283795133 0 0.36045339428522899 -0.1092489659634739 0 0.3528881126906952 -0.1235962283795133 0 0.35921495288696331 -0.1231002213711709 0 0.3528881126906952 -0.1235962283795133 0 0.35921495288696331 -0.1231002213711709 0 0.35570095813353292 -0.12818380830298259 0 0.33556547358501959 -0.1225398253462803 0 0.35114279585001251 -0.1269061539122934 0 0.34413370158584261 -0.10931831605104191 0 0.33556547358501959 -0.1225398253462803 0 0.33001052293674332 -0.10815504128491631 0 0.33556547358501959 -0.1225398253462803 0 0.33001052293674332 -0.10815504128491631 0 0.319988151320027 -0.1181734967802663 0 0.33001052293674332 -0.10815504128491631 0 0.33537929048099052 -0.095040403722569985 0 0.32447923748519109 -0.089819120441008787 0 0.34413370158584261 -0.10931831605104191 0 0.33537929048099052 -0.095040403722569985 0 0.34413370158584261 -0.10931831605104191 0 0.33001052293674332 -0.10815504128491631 0 0.33537929048099052 -0.095040403722569985 0 0.31681040350206963 -0.10390718998757199 0 0.32447923748519109 -0.089819120441008787 0 0.3058272015225969 -0.092036968790355722 0 0.33001052293674332 -0.10815504128491631 0 0.31681040350206963 -0.10390718998757199 0 0.32447923748519109 -0.089819120441008787 0 0.31681040350206963 -0.10390718998757199 0 0.319988151320027 -0.1181734967802663 0 0.30374690424579009 -0.11135132264131289 0 0.33001052293674332 -0.10815504128491631 0 0.31681040350206963 -0.10390718998757199 0 0.319988151320027 -0.1181734967802663 0 0.33556547358501959 -0.1225398253462803 0 0.319988151320027 -0.1181734967802663 0 0.33273138480788089 -0.075211673988842528 0 0.34132266152672852 -0.064093872764936582 0 0.3135885945154161 -0.068647623223243484 0 0.33273138480788089 -0.075211673988842528 0 0.34132266152672852 -0.064093872764936582 0 0.34107387643028692 -0.06927221842850409 0 0.34132266152672852 -0.064093872764936582 0 0.34107387643028692 -0.06927221842850409 0 0.3448386638929285 -0.068017236789019164 0 0.34132266152672852 -0.064093872764936582 0 0.34107387643028692 -0.06927221842850409 0 0.33273138480788089 -0.075211673988842528 0 0.34107387643028692 -0.06927221842850409 0 0.34176286947782802 -0.076238673859135658 0 0.34572253787373258 -0.071253117694170351 0 0.34107387643028692 -0.06927221842850409 0 0.34176286947782802 -0.076238673859135658 0 0.33273138480788089 -0.075211673988842528 0 0.34176286947782802 -0.076238673859135658 0 0.33677858694063861 -0.084441230571097065 0 0.34577431352360488 -0.08147750224216177 0 0.34176286947782802 -0.076238673859135658 0 0.33677858694063861 -0.084441230571097065 0 0.34732073920677331 -0.0889136497606412 0 0.34577431352360488 -0.08147750224216177 0 0.33677858694063861 -0.084441230571097065 0 0.34732073920677331 -0.0889136497606412 0 0.33537929048099052 -0.095040403722569985 0 0.33677858694063861 -0.084441230571097065 0 0.33537929048099052 -0.095040403722569985 0 0.33677858694063861 -0.084441230571097065 0 0.32447923748519109 -0.089819120441008787 0 0.33273138480788089 -0.075211673988842528 0 0.33677858694063861 -0.084441230571097065 0 0.32447923748519109 -0.089819120441008787 0 0.32447923748519109 -0.089819120441008787 0 0.3135885945154161 -0.068647623223243484 0 0.3058272015225969 -0.092036968790355722 0 0.33273138480788089 -0.075211673988842528 0 0.32447923748519109 -0.089819120441008787 0 0.3135885945154161 -0.068647623223243484 0 0.34132266152672852 -0.064093872764936582 0 0.3135885945154161 -0.068647623223243484 0 0.3135885945154161 -0.068647623223243484 0 0.3058272015225969 -0.092036968790355722 0 0.28585452750410367 -0.073201373681550497 0 0.3135885945154161 -0.068647623223243484 0 0.28585452750410367 -0.073201373681550497 0 0.29866414831699201 -0.055146196072292687 0 0.3135885945154161 -0.068647623223243484 0 0.28585452750410367 -0.073201373681550497 0 0.3058272015225969 -0.092036968790355722 0 0.28585452750410367 -0.073201373681550497 0 0.28258712452076851 -0.10013034617610279 0 0.30374690424579009 -0.11135132264131289 0 0.28849282367389389 -0.12573275096917511 0 0.30524790852963912 -0.12749298812828691 0 0.319988151320027 -0.1181734967802663 0 0.30374690424579009 -0.11135132264131289 0 0.30524790852963912 -0.12749298812828691 0 0.3058272015225969 -0.092036968790355722 0 0.30374690424579009 -0.11135132264131289 0 0.28258712452076851 -0.10013034617610279 0 0.31681040350206963 -0.10390718998757199 0 0.3058272015225969 -0.092036968790355722 0 0.30374690424579009 -0.11135132264131289 0 0.30374690424579009 -0.11135132264131289 0 0.28258712452076851 -0.10013034617610279 0 0.28849282367389389 -0.12573275096917511 0 0.28258712452076851 -0.10013034617610279 0 0.26813714013530598 -0.1233569395119871 0 0.28849282367389389 -0.12573275096917511 0 0.28258712452076851 -0.10013034617610279 0 0.26813714013530598 -0.1233569395119871 0 0.25935686379416828 -0.1013797141485 0 0.26813714013530598 -0.1233569395119871 0 0.25935686379416828 -0.1013797141485 0 0.23788436405943969 -0.11130854597012869 0 0.26813714013530598 -0.1233569395119871 0 0.23788436405943969 -0.11130854597012869 0 0.24538233463740061 -0.14030821734209339 0 0.28585452750410367 -0.073201373681550497 0 0.25812046049279119 -0.077755124139857509 0 0.26381855233952961 -0.057001892524054187 0 0.28585452750410367 -0.073201373681550497 0 0.25812046049279119 -0.077755124139857509 0 0.28585452750410367 -0.073201373681550497 0 0.28258712452076851 -0.10013034617610279 0 0.25812046049279119 -0.077755124139857509 0 0.28258712452076851 -0.10013034617610279 0 0.25935686379416828 -0.1013797141485 0 0.25812046049279119 -0.077755124139857509 0 0.25812046049279119 -0.077755124139857509 0 0.26381855233952961 -0.057001892524054187 0 0.24323350190093851 -0.062751526388443779 0 0.26381855233952961 -0.057001892524054187 0 0.26315050765641462 -0.039771865217924647 0 0.25078803597544019 -0.045203457516093407 0 0.26381855233952961 -0.057001892524054187 0 0.25078803597544019 -0.045203457516093407 0 0.24323350190093851 -0.062751526388443779 0 0.28585452750410367 -0.073201373681550497 0 0.26381855233952961 -0.057001892524054187 0 0.27994399591746988 -0.043060119313866253 0 0.27994399591746988 -0.043060119313866253 0 0.26751786352744189 -0.025523254419045922 0 0.28865158080266118 -0.026032913069011839 0 0.26381855233952961 -0.057001892524054187 0 0.27994399591746988 -0.043060119313866253 0 0.26315050765641462 -0.039771865217924647 0 0.27994399591746988 -0.043060119313866253 0 0.26315050765641462 -0.039771865217924647 0 0.26751786352744189 -0.025523254419045922 0 0.26315050765641462 -0.039771865217924647 0 0.25003759031211548 -0.029589841427259629 0 0.26751786352744189 -0.025523254419045922 0 0.26315050765641462 -0.039771865217924647 0 0.25078803597544019 -0.045203457516093407 0 0.25003759031211548 -0.029589841427259629 0 0.25003759031211548 -0.029589841427259629 0 0.25542177803258259 -0.013444791143500849 0 0.26751786352744189 -0.025523254419045922 0 0.26104006763393839 0.0012701416544474229 0 0.25542177803258259 -0.013444791143500849 0 0.27624649625513609 -0.0076604213645516629 0 0.26104006763393839 0.0012701416544474229 0 0.25542177803258259 -0.013444791143500849 0 0.24263170208881479 -0.00092825196113245905 0 0.25542177803258259 -0.013444791143500849 0 0.27624649625513609 -0.0076604213645516629 0 0.26751786352744189 -0.025523254419045922 0 0.27624649625513609 -0.0076604213645516629 0 0.26751786352744189 -0.025523254419045922 0 0.28865158080266118 -0.026032913069011839 0 0.28865158080266118 -0.026032913069011839 0 0.29735916568785198 -0.0090057068241571024 0 0.27624649625513609 -0.0076604213645516629 0 0.28865158080266118 -0.026032913069011839 0 0.29735916568785198 -0.0090057068241571024 0 0.29182878711465432 0.0086251075704954182 0 0.29735916568785198 -0.0090057068241571024 0 0.29182878711465432 0.0086251075704954182 0 0.27624649625513609 -0.0076604213645516629 0 0.29735916568785198 -0.0090057068241571024 0 0.31188418584687871 0.002019974638982556 0 0.31742064398169118 -0.0065115008486939354 0 0.29735916568785198 -0.0090057068241571024 0 0.30626689523571821 0.0084128713676943495 0 0.29735916568785198 -0.0090057068241571024 0 0.31445556104574268 -0.020011708518544859 0 0.31742064398169118 -0.0065115008486939354 0 0.29735916568785198 -0.0090057068241571024 0 0.28865158080266118 -0.026032913069011839 0 0.29735916568785198 -0.0090057068241571024 0 0.3060310534278215 -0.036651633982862392 0 0.31445556104574268 -0.020011708518544859 0 0.29735916568785198 -0.0090057068241571024 0 0.3060310534278215 -0.036651633982862392 0 0.29735916568785198 -0.0090057068241571024 0 0.3060310534278215 -0.036651633982862392 0 0.32409755703902698 -0.051926265967585983 0 0.3060310534278215 -0.036651633982862392 0 0.29866414831699201 -0.055146196072292687 0 0.32409755703902698 -0.051926265967585983 0 0.3135885945154161 -0.068647623223243484 0 0.29866414831699201 -0.055146196072292687 0 0.28585452750410367 -0.073201373681550497 0 0.27994399591746988 -0.043060119313866253 0 0.29866414831699201 -0.055146196072292687 0 0.27994399591746988 -0.043060119313866253 0 0.3060310534278215 -0.036651633982862392 0 0.29866414831699201 -0.055146196072292687 0 0.27994399591746988 -0.043060119313866253 0 0.28865158080266118 -0.026032913069011839 0 0.27994399591746988 -0.043060119313866253 0 0.28865158080266118 -0.026032913069011839 0 0.3060310534278215 -0.036651633982862392 0 0.29141598664935198 -0.20841164149987851 0 0.28526601498741722 -0.2216135543687148 0 0.27884040654082942 -0.2056227853308184 0 0.29141598664935198 -0.20841164149987851 0 0.306933416810799 -0.21074752245884909 0 0.28526601498741722 -0.2216135543687148 0 0.29141598664935198 -0.20841164149987851 0 0.29435873972273668 -0.18799129746706181 0 0.27884040654082942 -0.2056227853308184 0 0.29141598664935198 -0.20841164149987851 0 0.29435873972273668 -0.18799129746706181 0 0.306933416810799 -0.21074752245884909 0 0.29435873972273668 -0.18799129746706181 0 0.306933416810799 -0.21074752245884909 0 0.31976688954613869 -0.18640934036447021 0 0.306933416810799 -0.21074752245884909 0 0.29409994407545942 -0.23508570455322789 0 0.306933416810799 -0.21074752245884909 0 0.29409994407545942 -0.23508570455322789 0 0.31857371304866039 -0.23452857652045761 0 0.30707304683279413 -0.24470768234974569 0 0.29409994407545942 -0.23508570455322789 0 0.2938855435493673 -0.25243579177091169 0 0.30707304683279413 -0.24470768234974569 0 0.29409994407545942 -0.23508570455322789 0 0.31857371304866039 -0.23452857652045761 0 0.29409994407545942 -0.23508570455322789 0 0.28126647134011767 -0.25942388664760568 0 0.2938855435493673 -0.25243579177091169 0 0.28419635772906149 -0.24149005612315749 0 0.27842704466151758 -0.23841944732622511 0 0.28126647134011767 -0.25942388664760568 0 0.29409994407545942 -0.23508570455322789 0 0.28419635772906149 -0.24149005612315749 0 0.28126647134011767 -0.25942388664760568 0 0.29409994407545942 -0.23508570455322789 0 0.28126647134011767 -0.25942388664760568 0 0.29409994407545942 -0.23508570455322789 0 0.28419635772906149 -0.24149005612315749 0 0.28299197083914962 -0.2330311859655704 0 0.28419635772906149 -0.24149005612315749 0 0.28299197083914962 -0.2330311859655704 0 0.27842704466151758 -0.23841944732622511 0 0.306933416810799 -0.21074752245884909 0 0.29409994407545942 -0.23508570455322789 0 0.28526601498741722 -0.2216135543687148 0 0.28299197083914962 -0.2330311859655704 0 0.28526601498741722 -0.2216135543687148 0 0.27626995202913951 -0.22860411290174981 0 0.29409994407545942 -0.23508570455322789 0 0.28299197083914962 -0.2330311859655704 0 0.28526601498741722 -0.2216135543687148 0 0.28526601498741722 -0.2216135543687148 0 0.27626995202913951 -0.22860411290174981 0 0.27108323503280668 -0.2200525399177598 0 0.28299197083914962 -0.2330311859655704 0 0.27626995202913951 -0.22860411290174981 0 0.27620958371875542 -0.23569865404486559 0 0.27626995202913951 -0.22860411290174981 0 0.27168586832568908 -0.2321536506407226 0 0.27620958371875542 -0.23569865404486559 0 0.27626995202913951 -0.22860411290174981 0 0.26961916102970251 -0.22826984021381119 0 0.27168586832568908 -0.2321536506407226 0 0.26961916102970251 -0.22826984021381119 0 0.26647600331346277 -0.23304620274101759 0 0.26126819414035563 -0.22756466789319821 0 0.27168586832568908 -0.2321536506407226 0 0.27620958371875542 -0.23569865404486559 0 0.27011981557626308 -0.23520982480040351 0 0.27168586832568908 -0.2321536506407226 0 0.26647600331346277 -0.23304620274101759 0 0.27011981557626308 -0.23520982480040351 0 0.26961916102970251 -0.22826984021381119 0 0.27168586832568908 -0.2321536506407226 0 0.26647600331346277 -0.23304620274101759 0 0.27626995202913951 -0.22860411290174981 0 0.26961916102970251 -0.22826984021381119 0 0.27108323503280668 -0.2200525399177598 0 0.26961916102970251 -0.22826984021381119 0 0.27108323503280668 -0.2200525399177598 0 0.26126819414035563 -0.22756466789319821 0 0.27842704466151758 -0.23841944732622511 0 0.28126647134011767 -0.25942388664760568 0 0.27842704466151758 -0.23841944732622511 0 0.27235809219508972 -0.24821515392153251 0 0.27649657611036821 -0.25245644874571171 0 0.27842704466151758 -0.23841944732622511 0 0.27620958371875542 -0.23569865404486559 0 0.27235809219508972 -0.24821515392153251 0 0.28299197083914962 -0.2330311859655704 0 0.27842704466151758 -0.23841944732622511 0 0.27620958371875542 -0.23569865404486559 0 0.27620958371875542 -0.23569865404486559 0 0.26119066106972227 -0.24947327871929251 0 0.26560910274470562 -0.23919592101418849 0 0.27620958371875542 -0.23569865404486559 0 0.27011981557626308 -0.23520982480040351 0 0.26560910274470562 -0.23919592101418849 0 0.26647600331346277 -0.23304620274101759 0 0.27011981557626308 -0.23520982480040351 0 0.26560910274470562 -0.23919592101418849 0 0.27620958371875542 -0.23569865404486559 0 0.26119066106972227 -0.24947327871929251 0 0.27620958371875542 -0.23569865404486559 0 0.27235809219508972 -0.24821515392153251 0 0.26119066106972227 -0.24947327871929251 0 0.26119066106972227 -0.24947327871929251 0 0.26123579873519448 -0.24183006579568561 0 0.26560910274470562 -0.23919592101418849 0 0.26119066106972227 -0.24947327871929251 0 0.26123579873519448 -0.24183006579568561 0 0.25699366367800691 -0.24266728800233639 0 0.26119029575736752 -0.23602822747954549 0 0.25699366367800691 -0.24266728800233639 0 0.25579317546987712 -0.2325564137259083 0 0.26123579873519448 -0.24183006579568561 0 0.26119029575736752 -0.23602822747954549 0 0.25699366367800691 -0.24266728800233639 0 0.26123579873519448 -0.24183006579568561 0 0.26560910274470562 -0.23919592101418849 0 0.26119029575736752 -0.23602822747954549 0 0.26647600331346277 -0.23304620274101759 0 0.26560910274470562 -0.23919592101418849 0 0.26119029575736752 -0.23602822747954549 0 0.25699366367800691 -0.24266728800233639 0 0.25579317546987712 -0.2325564137259083 0 0.2471401050683816 -0.24044568876157441 0 0.25579317546987712 -0.2325564137259083 0 0.2471401050683816 -0.24044568876157441 0 0.24807986274914559 -0.23134654928405779 0 0.25699366367800691 -0.24266728800233639 0 0.25474187865843811 -0.25527143246304812 0 0.2471401050683816 -0.24044568876157441 0 0.26119066106972227 -0.24947327871929251 0 0.25699366367800691 -0.24266728800233639 0 0.25474187865843811 -0.25527143246304812 0 0.27108323503280668 -0.2200525399177598 0 0.26126819414035563 -0.22756466789319821 0 0.25944735269933489 -0.21752606572717709 0 0.26126819414035563 -0.22756466789319821 0 0.25322099111116902 -0.2256082324152863 0 0.25944735269933489 -0.21752606572717709 0 0.26647600331346277 -0.23304620274101759 0 0.26119029575736752 -0.23602822747954549 0 0.26126819414035563 -0.22756466789319821 0 0.26119029575736752 -0.23602822747954549 0 0.26126819414035563 -0.22756466789319821 0 0.25579317546987712 -0.2325564137259083 0 0.26126819414035563 -0.22756466789319821 0 0.25579317546987712 -0.2325564137259083 0 0.25322099111116902 -0.2256082324152863 0 0.25579317546987712 -0.2325564137259083 0 0.25322099111116902 -0.2256082324152863 0 0.24807986274914559 -0.23134654928405779 0 0.25322099111116902 -0.2256082324152863 0 0.251392483024373 -0.21776015733053469 0 0.25944735269933489 -0.21752606572717709 0 0.25322099111116902 -0.2256082324152863 0 0.251392483024373 -0.21776015733053469 0 0.24586617667324001 -0.2235943784580354 0 0.251392483024373 -0.21776015733053469 0 0.25243368126071952 -0.2058826908270244 0 0.25944735269933489 -0.21752606572717709 0 0.25243368126071952 -0.2058826908270244 0 0.25944735269933489 -0.21752606572717709 0 0.26597850809750928 -0.2083623871435758 0 0.27108323503280668 -0.2200525399177598 0 0.25944735269933489 -0.21752606572717709 0 0.26597850809750928 -0.2083623871435758 0 0.28526601498741722 -0.2216135543687148 0 0.27108323503280668 -0.2200525399177598 0 0.27884040654082942 -0.2056227853308184 0 0.27108323503280668 -0.2200525399177598 0 0.26597850809750928 -0.2083623871435758 0 0.27884040654082942 -0.2056227853308184 0 0.26597850809750928 -0.2083623871435758 0 0.27884040654082942 -0.2056227853308184 0 0.26622299579566722 -0.18996473087443519 0 0.29435873972273668 -0.18799129746706181 0 0.27884040654082942 -0.2056227853308184 0 0.26622299579566722 -0.18996473087443519 0 0.25243368126071952 -0.2058826908270244 0 0.26622299579566722 -0.18996473087443519 0 0.2422856756366969 -0.19063257428894059 0 0.25243368126071952 -0.2058826908270244 0 0.26597850809750928 -0.2083623871435758 0 0.26622299579566722 -0.18996473087443519 0 0.26622299579566722 -0.18996473087443519 0 0.25190291276486892 -0.16552765784078211 0 0.2422856756366969 -0.19063257428894059 0 0.26622299579566722 -0.18996473087443519 0 0.25190291276486892 -0.16552765784078211 0 0.2747147587598523 -0.1704898214579971 0 0.2747147587598523 -0.1704898214579971 0 0.27214503699720788 -0.1473252122596255 0 0.28894410851878077 -0.16164020884808061 0 0.25190291276486892 -0.16552765784078211 0 0.2747147587598523 -0.1704898214579971 0 0.27214503699720788 -0.1473252122596255 0 0.29435873972273668 -0.18799129746706181 0 0.26622299579566722 -0.18996473087443519 0 0.2747147587598523 -0.1704898214579971 0 0.26813714013530598 -0.1233569395119871 0 0.27214503699720788 -0.1473252122596255 0 0.24538233463740061 -0.14030821734209339 0 0.26813714013530598 -0.1233569395119871 0 0.24538233463740061 -0.14030821734209339 0 0.25190291276486892 -0.16552765784078211 0 0.27214503699720788 -0.1473252122596255 0 0.24538233463740061 -0.14030821734209339 0 0.26813714013530598 -0.1233569395119871 0 0.27214503699720788 -0.1473252122596255 0 0.28849282367389389 -0.12573275096917511 0 0.27214503699720788 -0.1473252122596255 0 0.28849282367389389 -0.12573275096917511 0 0.2977010475110512 -0.14330654357154951 0 0.27214503699720788 -0.1473252122596255 0 0.2977010475110512 -0.14330654357154951 0 0.28894410851878077 -0.16164020884808061 0 0.2977010475110512 -0.14330654357154951 0 0.31176665673360943 -0.15940679104734459 0 0.31631061589743292 -0.13890082667913059 0 0.2977010475110512 -0.14330654357154951 0 0.28894410851878077 -0.16164020884808061 0 0.31176665673360943 -0.15940679104734459 0 0.28849282367389389 -0.12573275096917511 0 0.2977010475110512 -0.14330654357154951 0 0.30524790852963912 -0.12749298812828691 0 0.2977010475110512 -0.14330654357154951 0 0.30524790852963912 -0.12749298812828691 0 0.31631061589743292 -0.13890082667913059 0 0.29435873972273668 -0.18799129746706181 0 0.2747147587598523 -0.1704898214579971 0 0.28894410851878077 -0.16164020884808061 0 0.29435873972273668 -0.18799129746706181 0 0.28894410851878077 -0.16164020884808061 0 0.31176665673360943 -0.15940679104734459 0 0.29435873972273668 -0.18799129746706181 0 0.31176665673360943 -0.15940679104734459 0 0.31976688954613869 -0.18640934036447021 0 0.31976688954613869 -0.18640934036447021 0 0.33260036228147838 -0.16207115827009119 0 0.31176665673360943 -0.15940679104734459 0 0.33260036228147838 -0.16207115827009119 0 0.3265278674823347 -0.14952793804306971 0 0.31176665673360943 -0.15940679104734459 0 0.31976688954613869 -0.18640934036447021 0 0.33260036228147838 -0.16207115827009119 0 0.33260036228147838 -0.16207115827009119 0 0.34180251077279361 -0.18106700961516181 0 0.34879849728163248 -0.1670852508781672 0 0.31976688954613869 -0.18640934036447021 0 0.33260036228147838 -0.16207115827009119 0 0.34180251077279361 -0.18106700961516181 0 0.319988151320027 -0.1181734967802663 0 0.30524790852963912 -0.12749298812828691 0 0.31631061589743292 -0.13890082667913059 0 0.33556547358501959 -0.1225398253462803 0 0.319988151320027 -0.1181734967802663 0 0.31631061589743292 -0.13890082667913059 0 0.31176665673360943 -0.15940679104734459 0 0.31631061589743292 -0.13890082667913059 0 0.3265278674823347 -0.14952793804306971 0 0.33260036228147838 -0.16207115827009119 0 0.3454338350168179 -0.13773297617571209 0 0.35248515722932627 -0.15446745648491961 0 0.33260036228147838 -0.16207115827009119 0 0.3265278674823347 -0.14952793804306971 0 0.3454338350168179 -0.13773297617571209 0 0.31631061589743292 -0.13890082667913059 0 0.3265278674823347 -0.14952793804306971 0 0.3454338350168179 -0.13773297617571209 0 0.33260036228147838 -0.16207115827009119 0 0.3454338350168179 -0.13773297617571209 0 0.33556547358501959 -0.1225398253462803 0 0.31631061589743292 -0.13890082667913059 0 0.3454338350168179 -0.13773297617571209 0 0.31631061589743292 -0.13890082667913059 0 0.3454338350168179 -0.13773297617571209 0 0.35570095813353292 -0.12818380830298259 0 0.3454338350168179 -0.13773297617571209 0 0.36116908305545392 -0.13710198764151221 0 0.3454338350168179 -0.13773297617571209 0 0.36116908305545392 -0.13710198764151221 0 0.3454338350168179 -0.13773297617571209 0 0.35355099449584398 -0.14364026115120329 0 0.36116908305545392 -0.13710198764151221 0 0.35570095813353292 -0.12818380830298259 0 0.36116908305545392 -0.13710198764151221 0 0.3528881126906952 -0.1235962283795133 0 0.35570095813353292 -0.12818380830298259 0 0.35570095813353292 -0.12818380830298259 0 0.35114279585001251 -0.1269061539122934 0 0.3528881126906952 -0.1235962283795133 0 0.35570095813353292 -0.12818380830298259 0 0.35114279585001251 -0.1269061539122934 0 0.3528881126906952 -0.1235962283795133 0 0.35114279585001251 -0.1269061539122934 0 0.33556547358501959 -0.1225398253462803 0 0.35114279585001251 -0.1269061539122934 0 0.3454338350168179 -0.13773297617571209 0 0.35114279585001251 -0.1269061539122934 0 0.3454338350168179 -0.13773297617571209 0 0.35570095813353292 -0.12818380830298259 0 0.35114279585001251 -0.1269061539122934 0 0.3454338350168179 -0.13773297617571209 0 0.35355099449584398 -0.14364026115120329 0 0.35248515722932627 -0.15446745648491961 0 0.37199310751122638 -0.15475531353285771 0 0.3454338350168179 -0.13773297617571209 0 0.35355099449584398 -0.14364026115120329 0 0.35248515722932627 -0.15446745648491961 0 0.37199310751122638 -0.15475531353285771 0 0.36116908305545392 -0.13710198764151221 0 0.37199310751122638 -0.15475531353285771 0 0.37007382160790531 -0.1422953450630535 0 0.36116908305545392 -0.13710198764151221 0 0.35355099449584398 -0.14364026115120329 0 0.37199310751122638 -0.15475531353285771 0 0.36116908305545392 -0.13710198764151221 0 0.37199310751122638 -0.15475531353285771 0 0.37007382160790531 -0.1422953450630535 0 0.38053123924715559 -0.14706232839911779 0 0.37833014564927581 -0.11710661739146271 0 0.373100658040388 -0.13306094992276771 0 0.37020916727559261 -0.13225046410820751 0 0.36116908305545392 -0.13710198764151221 0 0.3703183403226854 -0.13673509946676449 0 0.37007382160790531 -0.1422953450630535 0 0.36116908305545392 -0.13710198764151221 0 0.3703183403226854 -0.13673509946676449 0 0.37007382160790531 -0.1422953450630535 0 0.3703183403226854 -0.13673509946676449 0 0.37191736838122191 -0.13667097792458491 0 0.36116908305545392 -0.13710198764151221 0 0.3703183403226854 -0.13673509946676449 0 0.37020916727559261 -0.13225046410820751 0 0.37007382160790531 -0.1422953450630535 0 0.37191736838122191 -0.13667097792458491 0 0.37007382160790531 -0.1422953450630535 0 0.37191736838122191 -0.13667097792458491 0 0.37680320833581088 -0.14138677243747549 0 0.373100658040388 -0.13306094992276771 0 0.37191736838122191 -0.13667097792458491 0 0.37020916727559261 -0.13225046410820751 0 0.373100658040388 -0.13306094992276771 0 0.37191736838122191 -0.13667097792458491 0 0.3703183403226854 -0.13673509946676449 0 0.37191736838122191 -0.13667097792458491 0 0.3703183403226854 -0.13673509946676449 0 0.37020916727559261 -0.13225046410820751 0 0.3703183403226854 -0.13673509946676449 0 0.37191736838122191 -0.13667097792458491 0 0.37020916727559261 -0.13225046410820751 0 0.373100658040388 -0.13306094992276771 0 0.37020916727559261 -0.13225046410820751 0 0.35570095813353292 -0.12818380830298259 0 0.36116908305545392 -0.13710198764151221 0 0.37020916727559261 -0.13225046410820751 0 0.35921495288696331 -0.1231002213711709 0 0.35570095813353292 -0.12818380830298259 0 0.37020916727559261 -0.13225046410820751 0 0.36391682436117467 -0.1198527238948791 0 0.35921495288696331 -0.1231002213711709 0 0.37020916727559261 -0.13225046410820751 0 0.35570095813353292 -0.12818380830298259 0 0.37020916727559261 -0.13225046410820751 0 0.34180251077279361 -0.18106700961516181 0 0.34879849728163248 -0.1670852508781672 0 0.36148899199782542 -0.17703401008323061 0 0.34180251077279361 -0.18106700961516181 0 0.36148899199782542 -0.17703401008323061 0 0.35578853175836689 -0.19273287331530911 0 0.33260036228147838 -0.16207115827009119 0 0.35248515722932627 -0.15446745648491961 0 0.34879849728163248 -0.1670852508781672 0 0.35248515722932627 -0.15446745648491961 0 0.34879849728163248 -0.1670852508781672 0 0.36323588279498942 -0.16411288974376431 0 0.34879849728163248 -0.1670852508781672 0 0.36323588279498942 -0.16411288974376431 0 0.36148899199782542 -0.17703401008323061 0 0.37199310751122638 -0.15475531353285771 0 0.36323588279498942 -0.16411288974376431 0 0.38281713196699929 -0.17240863942420279 0 0.36323588279498942 -0.16411288974376431 0 0.36148899199782542 -0.17703401008323061 0 0.38281713196699929 -0.17240863942420279 0 0.35248515722932627 -0.15446745648491961 0 0.37199310751122638 -0.15475531353285771 0 0.36323588279498942 -0.16411288974376431 0 0.36148899199782542 -0.17703401008323061 0 0.35578853175836689 -0.19273287331530911 0 0.37647177940292409 -0.18844425578901741 0 0.36148899199782542 -0.17703401008323061 0 0.37647177940292409 -0.18844425578901741 0 0.38281713196699929 -0.17240863942420279 0 0.36868282589313761 -0.2025191153988353 0 0.35578853175836689 -0.19273287331530911 0 0.37647177940292409 -0.18844425578901741 0 0.36868282589313761 -0.2025191153988353 0 0.36690353043358442 -0.215353290985597 0 0.35260469139076339 -0.2100046348474518 0 0.36690353043358442 -0.215353290985597 0 0.37619638365947639 -0.22315507694006759 0 0.37940548653432099 -0.21213528544267041 0 0.36868282589313761 -0.2025191153988353 0 0.36690353043358442 -0.215353290985597 0 0.37940548653432099 -0.21213528544267041 0 0.35260469139076339 -0.2100046348474518 0 0.3477308774084743 -0.2215161674006238 0 0.3580166836648378 -0.22272002199830221 0 0.36690353043358442 -0.215353290985597 0 0.35260469139076339 -0.2100046348474518 0 0.3580166836648378 -0.22272002199830221 0 0.35260469139076339 -0.2100046348474518 0 0.33787664763408731 -0.2160471643227688 0 0.3477308774084743 -0.2215161674006238 0 0.36868282589313761 -0.2025191153988353 0 0.35260469139076339 -0.2100046348474518 0 0.35578853175836689 -0.19273287331530911 0 0.35260469139076339 -0.2100046348474518 0 0.35578853175836689 -0.19273287331530911 0 0.33237179177132042 -0.20106942477970249 0 0.31976688954613869 -0.18640934036447021 0 0.34180251077279361 -0.18106700961516181 0 0.33237179177132042 -0.20106942477970249 0 0.34180251077279361 -0.18106700961516181 0 0.35578853175836689 -0.19273287331530911 0 0.33237179177132042 -0.20106942477970249 0 0.35260469139076339 -0.2100046348474518 0 0.33237179177132042 -0.20106942477970249 0 0.33787664763408731 -0.2160471643227688 0 0.33237179177132042 -0.20106942477970249 0 0.33787664763408731 -0.2160471643227688 0 0.32501580993969342 -0.21874381182704669 0 0.306933416810799 -0.21074752245884909 0 0.33237179177132042 -0.20106942477970249 0 0.32501580993969342 -0.21874381182704669 0 0.306933416810799 -0.21074752245884909 0 0.31976688954613869 -0.18640934036447021 0 0.33237179177132042 -0.20106942477970249 0 0.306933416810799 -0.21074752245884909 0 0.31976688954613869 -0.18640934036447021 0 0.30707304683279413 -0.24470768234974569 0 0.31857371304866039 -0.23452857652045761 0 0.32971513663461421 -0.25627368788503341 0 0.32501580993969342 -0.21874381182704669 0 0.31857371304866039 -0.23452857652045761 0 0.33586998959333753 -0.22777757910026011 0 0.306933416810799 -0.21074752245884909 0 0.32501580993969342 -0.21874381182704669 0 0.31857371304866039 -0.23452857652045761 0 0.33787664763408731 -0.2160471643227688 0 0.32501580993969342 -0.21874381182704669 0 0.33586998959333753 -0.22777757910026011 0 0.33787664763408731 -0.2160471643227688 0 0.33586998959333753 -0.22777757910026011 0 0.3477308774084743 -0.2215161674006238 0 0.31857371304866039 -0.23452857652045761 0 0.33586998959333753 -0.22777757910026011 0 0.33744064244568772 -0.24264398240295029 0 0.31857371304866039 -0.23452857652045761 0 0.33744064244568772 -0.24264398240295029 0 0.32971513663461421 -0.25627368788503341 0 0.33586998959333753 -0.22777757910026011 0 0.33744064244568772 -0.24264398240295029 0 0.34858224708342178 -0.2331857721277138 0 0.33744064244568772 -0.24264398240295029 0 0.34804520248401238 -0.2436259116219682 0 0.35360504741292609 -0.25222472858449141 0 0.34804520248401238 -0.2436259116219682 0 0.35226309361536878 -0.24771815749725601 0 0.35360504741292609 -0.25222472858449141 0 0.34804520248401238 -0.2436259116219682 0 0.35226309361536878 -0.24771815749725601 0 0.35417584582047412 -0.24333145612230439 0 0.34804520248401238 -0.2436259116219682 0 0.35332049111017771 -0.23810140534918259 0 0.34858224708342178 -0.2331857721277138 0 0.33744064244568772 -0.24264398240295029 0 0.34804520248401238 -0.2436259116219682 0 0.34858224708342178 -0.2331857721277138 0 0.35332049111017771 -0.23810140534918259 0 0.34858224708342178 -0.2331857721277138 0 0.35841609883320169 -0.23257979828903769 0 0.34804520248401238 -0.2436259116219682 0 0.35332049111017771 -0.23810140534918259 0 0.35417584582047412 -0.24333145612230439 0 0.35332049111017771 -0.23810140534918259 0 0.3591255029285485 -0.2376443617357632 0 0.35841609883320169 -0.23257979828903769 0 0.35332049111017771 -0.23810140534918259 0 0.3591255029285485 -0.2376443617357632 0 0.35417584582047412 -0.24333145612230439 0 0.3591255029285485 -0.2376443617357632 0 0.35417584582047412 -0.24333145612230439 0 0.36010029122333831 -0.24277154448918031 0 0.35655655375839651 -0.24749973360468461 0 0.35417584582047412 -0.24333145612230439 0 0.36010029122333831 -0.24277154448918031 0 0.35655655375839651 -0.24749973360468461 0 0.36093225594175782 -0.24740303344352771 0 0.36010029122333831 -0.24277154448918031 0 0.35655655375839651 -0.24749973360468461 0 0.36093225594175782 -0.24740303344352771 0 0.35768305431110142 -0.25153357137962479 0 0.35655655375839651 -0.24749973360468461 0 0.35226309361536878 -0.24771815749725601 0 0.35417584582047412 -0.24333145612230439 0 0.35226309361536878 -0.24771815749725601 0 0.35360504741292609 -0.25222472858449141 0 0.35655655375839651 -0.24749973360468461 0 0.35226309361536878 -0.24771815749725601 0 0.35360504741292609 -0.25222472858449141 0 0.3477308774084743 -0.2215161674006238 0 0.34858224708342178 -0.2331857721277138 0 0.3580166836648378 -0.22272002199830221 0 0.33586998959333753 -0.22777757910026011 0 0.3477308774084743 -0.2215161674006238 0 0.34858224708342178 -0.2331857721277138 0 0.34858224708342178 -0.2331857721277138 0 0.35841609883320169 -0.23257979828903769 0 0.3580166836648378 -0.22272002199830221 0 0.36690353043358442 -0.215353290985597 0 0.3580166836648378 -0.22272002199830221 0 0.36779440139741593 -0.22893335124672071 0 0.35841609883320169 -0.23257979828903769 0 0.3580166836648378 -0.22272002199830221 0 0.36779440139741593 -0.22893335124672071 0 0.35841609883320169 -0.23257979828903769 0 0.36779440139741593 -0.22893335124672071 0 0.36445514048056249 -0.23615617820709089 0 0.36779440139741593 -0.22893335124672071 0 0.37891693007254768 -0.23575850216111499 0 0.37619638365947639 -0.22315507694006759 0 0.36779440139741593 -0.22893335124672071 0 0.3702486170108118 -0.23825607445487121 0 0.37891693007254768 -0.23575850216111499 0 0.36690353043358442 -0.215353290985597 0 0.36779440139741593 -0.22893335124672071 0 0.37619638365947639 -0.22315507694006759 0 0.36560184119517269 -0.2440076977818911 0 0.36093225594175782 -0.24740303344352771 0 0.36471953922078032 -0.25120261996225779 0 0.36560184119517269 -0.2440076977818911 0 0.36093225594175782 -0.24740303344352771 0 0.36010029122333831 -0.24277154448918031 0 0.36560184119517269 -0.2440076977818911 0 0.36445514048056249 -0.23615617820709089 0 0.3702486170108118 -0.23825607445487121 0 0.3591255029285485 -0.2376443617357632 0 0.36010029122333831 -0.24277154448918031 0 0.36445514048056249 -0.23615617820709089 0 0.36560184119517269 -0.2440076977818911 0 0.36010029122333831 -0.24277154448918031 0 0.36445514048056249 -0.23615617820709089 0 0.3591255029285485 -0.2376443617357632 0 0.35841609883320169 -0.23257979828903769 0 0.36445514048056249 -0.23615617820709089 0 0.3702486170108118 -0.23825607445487121 0 0.37156235643447938 -0.24778879157739861 0 0.37891693007254768 -0.23575850216111499 0 0.36779440139741593 -0.22893335124672071 0 0.36445514048056249 -0.23615617820709089 0 0.3702486170108118 -0.23825607445487121 0 0.36560184119517269 -0.2440076977818911 0 0.3702486170108118 -0.23825607445487121 0 0.37156235643447938 -0.24778879157739861 0 0.36560184119517269 -0.2440076977818911 0 0.37156235643447938 -0.24778879157739861 0 0.36471953922078032 -0.25120261996225779 0 0.37156235643447938 -0.24778879157739861 0 0.38160705988066251 -0.2493058735567372 0 0.37891693007254768 -0.23575850216111499 0 0.38160705988066251 -0.2493058735567372 0 0.39029936394058679 -0.23772880715822489 0 0.39725578317647231 -0.2494040661117283 0 0.38160705988066251 -0.2493058735567372 0 0.37891693007254768 -0.23575850216111499 0 0.39029936394058679 -0.23772880715822489 0 0.39725578317647231 -0.2494040661117283 0 0.40103199504948539 -0.2310363873330111 0 0.41635167375268822 -0.2317176704621208 0 0.39029936394058679 -0.23772880715822489 0 0.39725578317647231 -0.2494040661117283 0 0.40103199504948539 -0.2310363873330111 0 0.40103199504948539 -0.2310363873330111 0 0.38945910846001641 -0.22360261480694671 0 0.40698422180580529 -0.21620160398867061 0 0.39029936394058679 -0.23772880715822489 0 0.40103199504948539 -0.2310363873330111 0 0.38945910846001641 -0.22360261480694671 0 0.37891693007254768 -0.23575850216111499 0 0.39029936394058679 -0.23772880715822489 0 0.38945910846001641 -0.22360261480694671 0 0.37891693007254768 -0.23575850216111499 0 0.38945910846001641 -0.22360261480694671 0 0.37619638365947639 -0.22315507694006759 0 0.38945910846001641 -0.22360261480694671 0 0.37619638365947639 -0.22315507694006759 0 0.37940548653432099 -0.21213528544267041 0 0.36868282589313761 -0.2025191153988353 0 0.37940548653432099 -0.21213528544267041 0 0.38411928320086153 -0.19986697185132429 0 0.37940548653432099 -0.21213528544267041 0 0.38411928320086153 -0.19986697185132429 0 0.39093681427489779 -0.21041432374916219 0 0.38411928320086153 -0.19986697185132429 0 0.39525370079563088 -0.20066611999489931 0 0.39093681427489779 -0.21041432374916219 0 0.38945910846001641 -0.22360261480694671 0 0.37940548653432099 -0.21213528544267041 0 0.39093681427489779 -0.21041432374916219 0 0.37647177940292409 -0.18844425578901741 0 0.38411928320086153 -0.19986697185132429 0 0.39364115642277242 -0.19006196531554781 0 0.36868282589313761 -0.2025191153988353 0 0.37647177940292409 -0.18844425578901741 0 0.38411928320086153 -0.19986697185132429 0 0.38411928320086153 -0.19986697185132429 0 0.39364115642277242 -0.19006196531554781 0 0.39525370079563088 -0.20066611999489931 0 0.39364115642277242 -0.19006196531554781 0 0.39525370079563088 -0.20066611999489931 0 0.40585177129186373 -0.19901406140788461 0 0.39364115642277242 -0.19006196531554781 0 0.40585177129186373 -0.19901406140788461 0 0.40694290907061248 -0.18401535924898091 0 0.38945910846001641 -0.22360261480694671 0 0.39093681427489779 -0.21041432374916219 0 0.40698422180580529 -0.21620160398867061 0 0.39525370079563088 -0.20066611999489931 0 0.39093681427489779 -0.21041432374916219 0 0.40698422180580529 -0.21620160398867061 0 0.39525370079563088 -0.20066611999489931 0 0.40585177129186373 -0.19901406140788461 0 0.40698422180580529 -0.21620160398867061 0 0.40698422180580529 -0.21620160398867061 0 0.4246436038939656 -0.1966038412852853 0 0.40585177129186373 -0.19901406140788461 0 0.40698422180580529 -0.21620160398867061 0 0.4246436038939656 -0.1966038412852853 0 0.40585177129186373 -0.19901406140788461 0 0.4246436038939656 -0.1966038412852853 0 0.42536865130846702 -0.176098167488282 0 0.40585177129186373 -0.19901406140788461 0 0.42536865130846702 -0.176098167488282 0 0.40698422180580529 -0.21620160398867061 0 0.4246436038939656 -0.1966038412852853 0 0.43544756432890441 -0.21403127481251319 0 0.4246436038939656 -0.1966038412852853 0 0.43544756432890441 -0.21403127481251319 0 0.45167030134208719 -0.20157755514007389 0 0.43544756432890441 -0.21403127481251319 0 0.43713281636094931 -0.23744687585277041 0 0.41635167375268822 -0.2317176704621208 0 0.43544756432890441 -0.21403127481251319 0 0.41635167375268822 -0.2317176704621208 0 0.43713281636094931 -0.23744687585277041 0 0.424441574478298 -0.2433870531134403 0 0.42744690890201359 -0.25595607817183019 0 0.43713281636094931 -0.23744687585277041 0 0.424441574478298 -0.2433870531134403 0 0.41635167375268822 -0.2317176704621208 0 0.424441574478298 -0.2433870531134403 0 0.41515786506949381 -0.24865793278917281 0 0.42744690890201359 -0.25595607817183019 0 0.39725578317647231 -0.2494040661117283 0 0.41635167375268822 -0.2317176704621208 0 0.39725578317647231 -0.2494040661117283 0 0.41515786506949381 -0.24865793278917281 0 0.41635167375268822 -0.2317176704621208 0 0.424441574478298 -0.2433870531134403 0 0.41515786506949381 -0.24865793278917281 0 0.41635167375268822 -0.2317176704621208 0 0.40698422180580529 -0.21620160398867061 0 0.43544756432890441 -0.21403127481251319 0 0.41635167375268822 -0.2317176704621208 0 0.40103199504948539 -0.2310363873330111 0 0.40698422180580529 -0.21620160398867061 0 0.41635167375268822 -0.2317176704621208 0 0.40105614923330463 -0.13550250339065389 0 0.38421979175802318 -0.13617764676929661 0 0.40444170494703963 -0.141845855702424 0 0.38421979175802318 -0.13617764676929661 0 0.40444170494703963 -0.141845855702424 0 0.40105614923330463 -0.13550250339065389 0 0.38421979175802318 -0.13617764676929661 0 0.40105614923330463 -0.13550250339065389 0 0.39781836261380787 -0.12938547050090421 0 0.38421979175802318 -0.13617764676929661 0 0.40047043414882749 -0.119817411740684 0 0.39781836261380787 -0.12938547050090421 0 0.40715869003188282 -0.1266756526129092 0 0.40105614923330463 -0.13550250339065389 0 0.39781836261380787 -0.12938547050090421 0 0.40715869003188282 -0.1266756526129092 0 0.4061711025179674 -0.14035792706710859 0 0.40105614923330463 -0.13550250339065389 0 0.40444170494703963 -0.141845855702424 0 0.37833014564927581 -0.11710661739146271 0 0.373100658040388 -0.13306094992276771 0 0.37833014564927581 -0.11710661739146271 0 0.373100658040388 -0.13306094992276771 0 0.38652804903322519 -0.12590609172094719 0 0.39781836261380787 -0.12938547050090421 0 0.38652804903322519 -0.12590609172094719 0 0.38421979175802318 -0.13617764676929661 0 0.373100658040388 -0.13306094992276771 0 0.38652804903322519 -0.12590609172094719 0 0.38421979175802318 -0.13617764676929661 0 0.37191736838122191 -0.13667097792458491 0 0.38421979175802318 -0.13617764676929661 0 0.373100658040388 -0.13306094992276771 0 0.38421979175802318 -0.13617764676929661 0 0.373100658040388 -0.13306094992276771 0 0.37191736838122191 -0.13667097792458491 0 0.38421979175802318 -0.13617764676929661 0 0.37191736838122191 -0.13667097792458491 0 0.38421979175802318 -0.13617764676929661 0 0.37680320833581088 -0.14138677243747549 0 0.38421979175802318 -0.13617764676929661 0 0.38053123924715559 -0.14706232839911779 0 0.39027641301355781 -0.1534760058586398 0 0.37199310751122638 -0.15475531353285771 0 0.38053123924715559 -0.14706232839911779 0 0.39027641301355781 -0.1534760058586398 0 0.37007382160790531 -0.1422953450630535 0 0.38053123924715559 -0.14706232839911779 0 0.37680320833581088 -0.14138677243747549 0 0.38421979175802318 -0.13617764676929661 0 0.38053123924715559 -0.14706232839911779 0 0.37680320833581088 -0.14138677243747549 0 0.38421979175802318 -0.13617764676929661 0 0.39027641301355781 -0.1534760058586398 0 0.40444170494703963 -0.141845855702424 0 0.39027641301355781 -0.1534760058586398 0 0.40444170494703963 -0.141845855702424 0 0.40525164239911499 -0.15651850043831009 0 0.39027641301355781 -0.1534760058586398 0 0.40291005725934698 -0.17088724278420911 0 0.40525164239911499 -0.15651850043831009 0 0.39027641301355781 -0.1534760058586398 0 0.40291005725934698 -0.17088724278420911 0 0.38281713196699929 -0.17240863942420279 0 0.37199310751122638 -0.15475531353285771 0 0.39027641301355781 -0.1534760058586398 0 0.38281713196699929 -0.17240863942420279 0 0.37199310751122638 -0.15475531353285771 0 0.38281713196699929 -0.17240863942420279 0 0.39364115642277242 -0.19006196531554781 0 0.38281713196699929 -0.17240863942420279 0 0.37647177940292409 -0.18844425578901741 0 0.39364115642277242 -0.19006196531554781 0 0.38281713196699929 -0.17240863942420279 0 0.39364115642277242 -0.19006196531554781 0 0.40291005725934698 -0.17088724278420911 0 0.38281713196699929 -0.17240863942420279 0 0.39364115642277242 -0.19006196531554781 0 0.40291005725934698 -0.17088724278420911 0 0.40694290907061248 -0.18401535924898091 0 0.40585177129186373 -0.19901406140788461 0 0.40694290907061248 -0.18401535924898091 0 0.42536865130846702 -0.176098167488282 0 0.40291005725934698 -0.17088724278420911 0 0.40694290907061248 -0.18401535924898091 0 0.42536865130846702 -0.176098167488282 0 0.4246436038939656 -0.1966038412852853 0 0.42536865130846702 -0.176098167488282 0 0.44230298598212592 -0.17700607858190001 0 0.4246436038939656 -0.1966038412852853 0 0.44230298598212592 -0.17700607858190001 0 0.42536865130846702 -0.176098167488282 0 0.44488553132507169 -0.1531822735686808 0 0.42536865130846702 -0.176098167488282 0 0.420384785684639 -0.1609515056884446 0 0.44488553132507169 -0.1531822735686808 0 0.40291005725934698 -0.17088724278420911 0 0.42536865130846702 -0.176098167488282 0 0.420384785684639 -0.1609515056884446 0 0.40291005725934698 -0.17088724278420911 0 0.40525164239911499 -0.15651850043831009 0 0.420384785684639 -0.1609515056884446 0 0.40444170494703963 -0.141845855702424 0 0.42466361813605552 -0.14751406463555281 0 0.4061711025179674 -0.14035792706710859 0 0.40444170494703963 -0.141845855702424 0 0.42466361813605552 -0.14751406463555281 0 0.40525164239911499 -0.15651850043831009 0 0.420384785684639 -0.1609515056884446 0 0.42466361813605552 -0.14751406463555281 0 0.4061711025179674 -0.14035792706710859 0 0.42466361813605552 -0.14751406463555281 0 0.41789250670858591 -0.13482736001201009 0 0.40444170494703963 -0.141845855702424 0 0.40525164239911499 -0.15651850043831009 0 0.42466361813605552 -0.14751406463555281 0 0.42466361813605552 -0.14751406463555281 0 0.44488553132507169 -0.1531822735686808 0 0.42466361813605552 -0.14751406463555281 0 0.43995884267742053 -0.1339424928047078 0 0.44488553132507169 -0.1531822735686808 0 0.420384785684639 -0.1609515056884446 0 0.42466361813605552 -0.14751406463555281 0 0.44488553132507169 -0.1531822735686808 0 0.41789250670858591 -0.13482736001201009 0 0.43783303461710632 -0.12541872390334341 0 0.43995884267742053 -0.1339424928047078 0 0.42814527113201711 -0.1234358525607348 0 0.41789250670858591 -0.13482736001201009 0 0.43783303461710632 -0.12541872390334341 0 0.42466361813605552 -0.14751406463555281 0 0.41789250670858591 -0.13482736001201009 0 0.43995884267742053 -0.1339424928047078 0 0.41789250670858591 -0.13482736001201009 0 0.43783303461710632 -0.12541872390334341 0 0.41789250670858591 -0.13482736001201009 0 0.43995884267742053 -0.1339424928047078 0 0.42303692330374748 -0.11945873122112551 0 0.42814527113201711 -0.1234358525607348 0 0.41789250670858591 -0.13482736001201009 0 0.4144981905027485 -0.1220223261157493 0 0.42303692330374748 -0.11945873122112551 0 0.41789250670858591 -0.13482736001201009 0 0.40105614923330463 -0.13550250339065389 0 0.41789250670858591 -0.13482736001201009 0 0.4061711025179674 -0.14035792706710859 0 0.40105614923330463 -0.13550250339065389 0 0.41789250670858591 -0.13482736001201009 0 0.40105614923330463 -0.13550250339065389 0 0.41789250670858591 -0.13482736001201009 0 0.40715869003188282 -0.1266756526129092 0 0.4061711025179674 -0.14035792706710859 0 0.41789250670858591 -0.13482736001201009 0 0.4144981905027485 -0.1220223261157493 0 0.41789250670858591 -0.13482736001201009 0 0.40715869003188282 -0.1266756526129092 0 0.45777356252562662 -0.1160100877946766 0 0.46202517864625509 -0.1330576255974065 0 0.45065063704758618 -0.12674901402115141 0 0.46202517864625509 -0.1330576255974065 0 0.43995884267742053 -0.1339424928047078 0 0.46202517864625509 -0.1330576255974065 0 0.43995884267742053 -0.1339424928047078 0 0.44488553132507169 -0.1531822735686808 0 0.46202517864625509 -0.1330576255974065 0 0.45065063704758618 -0.12674901402115141 0 0.43995884267742053 -0.1339424928047078 0 0.45065063704758618 -0.12674901402115141 0 0.43783303461710632 -0.12541872390334341 0 0.43995884267742053 -0.1339424928047078 0 0.44488553132507169 -0.1531822735686808 0 0.45996236807028618 -0.15740831587851459 0 0.46202517864625509 -0.1330576255974065 0 0.45996236807028618 -0.15740831587851459 0 0.47575777325096502 -0.13987912935378871 0 0.46202517864625509 -0.1330576255974065 0 0.44488553132507169 -0.1531822735686808 0 0.45996236807028618 -0.15740831587851459 0 0.45996236807028618 -0.15740831587851459 0 0.47575777325096502 -0.13987912935378871 0 0.46202517864625509 -0.1330576255974065 0 0.44488553132507169 -0.1531822735686808 0 0.46351647869018719 -0.16985907570641279 0 0.45996236807028618 -0.15740831587851459 0 0.44230298598212592 -0.17700607858190001 0 0.46351647869018719 -0.16985907570641279 0 0.45996236807028618 -0.15740831587851459 0 0.47506354640920978 -0.16354133258917339 0 0.42536865130846702 -0.176098167488282 0 0.44488553132507169 -0.1531822735686808 0 0.44230298598212592 -0.17700607858190001 0 0.44488553132507169 -0.1531822735686808 0 0.45996236807028618 -0.15740831587851459 0 0.44230298598212592 -0.17700607858190001 0 0.45996236807028618 -0.15740831587851459 0 0.44230298598212592 -0.17700607858190001 0 0.44230298598212592 -0.17700607858190001 0 0.46301450995615312 -0.18081188974559911 0 0.45075561381936768 -0.1877307396150053 0 0.4246436038939656 -0.1966038412852853 0 0.44230298598212592 -0.17700607858190001 0 0.45075561381936768 -0.1877307396150053 0 0.46301450995615312 -0.18081188974559911 0 0.45075561381936768 -0.1877307396150053 0 0.4693111853678279 -0.19071605059672489 0 0.46351647869018719 -0.16985907570641279 0 0.44230298598212592 -0.17700607858190001 0 0.46301450995615312 -0.18081188974559911 0 0.46351647869018719 -0.16985907570641279 0 0.46301450995615312 -0.18081188974559911 0 0.47126741106608988 -0.17816480063745499 0 0.46301450995615312 -0.18081188974559911 0 0.47126741106608988 -0.17816480063745499 0 0.4693111853678279 -0.19071605059672489 0 0.47126741106608988 -0.17816480063745499 0 0.4833756976061408 -0.1861852928965311 0 0.47506354640920978 -0.16354133258917339 0 0.4833756976061408 -0.1861852928965311 0 0.47506354640920978 -0.16354133258917339 0 0.4833756976061408 -0.1861852928965311 0 0.48768408561009952 -0.17419108441877779 0 0.47506354640920978 -0.16354133258917339 0 0.47126741106608988 -0.17816480063745499 0 0.4833756976061408 -0.1861852928965311 0 0.4693111853678279 -0.19071605059672489 0 0.48768408561009952 -0.17419108441877779 0 0.50000000000000244 -0.16863087730700591 0 0.5 -0.18957832270841951 0 0.4833756976061408 -0.1861852928965311 0 0.48768408561009952 -0.17419108441877779 0 0.5 -0.18957832270841951 0 0.50000000000000244 -0.16863087730700591 0 0.47998118403514439 -0.16301959659275991 0 0.48768408561009952 -0.17419108441877779 0 0.50000000000000244 -0.16863087730700591 0 0.47998118403514439 -0.16301959659275991 0 0.50000000000000244 -0.16863087730700591 0 0.47998118403514439 -0.16301959659275991 0 0.4860331483415033 -0.15008292213243629 0 0.45996236807028618 -0.15740831587851459 0 0.47998118403514439 -0.16301959659275991 0 0.45996236807028618 -0.15740831587851459 0 0.47998118403514439 -0.16301959659275991 0 0.47506354640920978 -0.16354133258917339 0 0.45996236807028618 -0.15740831587851459 0 0.47998118403514439 -0.16301959659275991 0 0.4744004108660787 -0.15219458866368851 0 0.48768408561009952 -0.17419108441877779 0 0.47998118403514439 -0.16301959659275991 0 0.47506354640920978 -0.16354133258917339 0 0.46351647869018719 -0.16985907570641279 0 0.47126741106608988 -0.17816480063745499 0 0.47506354640920978 -0.16354133258917339 0 0.45996236807028618 -0.15740831587851459 0 0.4744004108660787 -0.15219458866368851 0 0.47575777325096502 -0.13987912935378871 0 0.4860331483415033 -0.15008292213243629 0 0.48605952189682949 -0.1376410145717544 0 0.47575777325096502 -0.13987912935378871 0 0.4744004108660787 -0.15219458866368851 0 0.4860331483415033 -0.15008292213243629 0 0.47575777325096502 -0.13987912935378871 0 0.47998118403514439 -0.16301959659275991 0 0.4744004108660787 -0.15219458866368851 0 0.4860331483415033 -0.15008292213243629 0 0.50000000000000244 -0.16863087730700591 0 0.4860331483415033 -0.15008292213243629 0 0.5 -0.1391323263056212 0 0.4860331483415033 -0.15008292213243629 0 0.48605952189682949 -0.1376410145717544 0 0.5 -0.1391323263056212 0 0.49073704697651838 -0.12405757185968649 0 0.48605952189682949 -0.1376410145717544 0 0.5 -0.1391323263056212 0 0.49073704697651838 -0.12405757185968649 0 0.48605952189682949 -0.1376410145717544 0 0.47824747004193768 -0.13240710646710629 0 0.46202517864625509 -0.1330576255974065 0 0.47824747004193768 -0.13240710646710629 0 0.46202517864625509 -0.1330576255974065 0 0.47824747004193768 -0.13240710646710629 0 0.47575777325096502 -0.13987912935378871 0 0.47964853272501412 -0.12348302909803451 0 0.46202517864625509 -0.1330576255974065 0 0.47824747004193768 -0.13240710646710629 0 0.47964853272501412 -0.12348302909803451 0 0.49073704697651838 -0.12405757185968649 0 0.47824747004193768 -0.13240710646710629 0 0.48605952189682949 -0.1376410145717544 0 0.47824747004193768 -0.13240710646710629 0 0.47575777325096502 -0.13987912935378871 0 0.46565104611775848 -0.22020929312276261 0 0.45283297406742917 -0.23350644957467301 0 0.4501247664665502 -0.2190230992729725 0 0.46565104611775848 -0.22020929312276261 0 0.46566506077577918 -0.23518852817793251 0 0.45283297406742917 -0.23350644957467301 0 0.46566506077577918 -0.23518852817793251 0 0.46964320539480803 -0.25506091407963788 0 0.45342857674338799 -0.25041449485024608 0 0.46566506077577918 -0.23518852817793251 0 0.45283297406742917 -0.23350644957467301 0 0.45342857674338799 -0.25041449485024608 0 0.43713281636094931 -0.23744687585277041 0 0.45342857674338799 -0.25041449485024608 0 0.44153218992871479 -0.25771217667600183 0 0.43713281636094931 -0.23744687585277041 0 0.45283297406742917 -0.23350644957467301 0 0.45342857674338799 -0.25041449485024608 0 0.43544756432890441 -0.21403127481251319 0 0.43713281636094931 -0.23744687585277041 0 0.4501247664665502 -0.2190230992729725 0 0.43713281636094931 -0.23744687585277041 0 0.45283297406742917 -0.23350644957467301 0 0.4501247664665502 -0.2190230992729725 0 0.43544756432890441 -0.21403127481251319 0 0.4501247664665502 -0.2190230992729725 0 0.45167030134208719 -0.20157755514007389 0 0.4246436038939656 -0.1966038412852853 0 0.45167030134208719 -0.20157755514007389 0 0.45075561381936768 -0.1877307396150053 0 0.45167030134208719 -0.20157755514007389 0 0.4712278532062133 -0.20379132433395189 0 0.4693111853678279 -0.19071605059672489 0 0.45167030134208719 -0.20157755514007389 0 0.45075561381936768 -0.1877307396150053 0 0.4693111853678279 -0.19071605059672489 0 0.46565104611775848 -0.22020929312276261 0 0.45966849178315228 -0.21115031796744019 0 0.4712278532062133 -0.20379132433395189 0 0.4501247664665502 -0.2190230992729725 0 0.45167030134208719 -0.20157755514007389 0 0.45966849178315228 -0.21115031796744019 0 0.45167030134208719 -0.20157755514007389 0 0.45966849178315228 -0.21115031796744019 0 0.4712278532062133 -0.20379132433395189 0 0.46565104611775848 -0.22020929312276261 0 0.4501247664665502 -0.2190230992729725 0 0.45966849178315228 -0.21115031796744019 0 0.46565104611775848 -0.22020929312276261 0 0.4712278532062133 -0.20379132433395189 0 0.4796532896371325 -0.21265094698413561 0 0.4712278532062133 -0.20379132433395189 0 0.4796532896371325 -0.21265094698413561 0 0.47946230238426352 -0.20037664593361321 0 0.4796532896371325 -0.21265094698413561 0 0.47946230238426352 -0.20037664593361321 0 0.49168784880307181 -0.2088292532038887 0 0.4712278532062133 -0.20379132433395189 0 0.4693111853678279 -0.19071605059672489 0 0.47946230238426352 -0.20037664593361321 0 0.4833756976061408 -0.1861852928965311 0 0.4693111853678279 -0.19071605059672489 0 0.47946230238426352 -0.20037664593361321 0 0.4833756976061408 -0.1861852928965311 0 0.5 -0.18957832270841951 0 0.49168784880307181 -0.2088292532038887 0 0.5 -0.18957832270841951 0 0.5 -0.21052576810983309 0 0.49168784880307181 -0.2088292532038887 0 0.4833756976061408 -0.1861852928965311 0 0.47946230238426352 -0.20037664593361321 0 0.49168784880307181 -0.2088292532038887 0 0.4833756976061408 -0.1861852928965311 0 0.49168784880307181 -0.2088292532038887 0 0.5 -0.21052576810983309 0 0.49168784880307181 -0.2088292532038887 0 0.50000000000000144 -0.23147321351124669 0 0.4796532896371325 -0.21265094698413561 0 0.49168784880307181 -0.2088292532038887 0 0.48273828372361272 -0.22496205555337009 0 0.49168784880307181 -0.2088292532038887 0 0.50000000000000144 -0.23147321351124669 0 0.48273828372361272 -0.22496205555337009 0 0.49168784880307181 -0.2088292532038887 0 0.50000000000000144 -0.23147321351124669 0 0.50000000000000144 -0.23147321351124669 0 0.48273828372361272 -0.22496205555337009 0 0.48899761938282121 -0.2409222662096778 0 0.46565104611775848 -0.22020929312276261 0 0.4796532896371325 -0.21265094698413561 0 0.48273828372361272 -0.22496205555337009 0 0.46566506077577918 -0.23518852817793251 0 0.48273828372361272 -0.22496205555337009 0 0.47691155030112531 -0.24122166784709251 0 0.46565104611775848 -0.22020929312276261 0 0.46566506077577918 -0.23518852817793251 0 0.48273828372361272 -0.22496205555337009 0 0.48273828372361272 -0.22496205555337009 0 0.47691155030112531 -0.24122166784709251 0 0.48899761938282121 -0.2409222662096778 0 0.46566506077577918 -0.23518852817793251 0 0.47691155030112531 -0.24122166784709251 0 0.46964320539480803 -0.25506091407963788 0 0.47691155030112531 -0.24122166784709251 0 0.48899761938282121 -0.2409222662096778 0 0.48479378741898982 -0.25342774386208539 0 0.47691155030112531 -0.24122166784709251 0 0.48479378741898982 -0.25342774386208539 0 0.46964320539480803 -0.25506091407963788 0 0.50000000000000144 -0.23147321351124669 0 0.48899761938282121 -0.2409222662096778 0 0.5 -0.25553585281544411 0 0.48899761938282121 -0.2409222662096778 0 0.5 -0.25553585281544411 0 0.48479378741898982 -0.25342774386208539 0 0.48479378741898982 -0.25342774386208539 0 0.49166832530014271 -0.26826749440552972 0 0.48023528300613422 -0.26438035391317039 0 0.5 -0.25553585281544411 0 0.48479378741898982 -0.25342774386208539 0 0.49166832530014271 -0.26826749440552972 0 0.5 -0.25553585281544411 0 0.5 -0.27959849211964138 0 0.49166832530014271 -0.26826749440552972 0 0.49552844260915369 -0.27970968876083591 0 0.5 -0.27959849211964138 0 0.49166832530014271 -0.26826749440552972 0 0.49166832530014271 -0.26826749440552972 0 0.48248991287192089 -0.27404567510940958 0 0.48023528300613422 -0.26438035391317039 0 0.49552844260915369 -0.27970968876083591 0 0.49166832530014271 -0.26826749440552972 0 0.48248991287192089 -0.27404567510940958 0 0.49552844260915369 -0.27970968876083591 0 0.48248991287192089 -0.27404567510940958 0 0.4732651489421193 -0.28488124337301962 0 0.48248991287192089 -0.27404567510940958 0 0.4717523645020546 -0.27298959509449239 0 0.48023528300613422 -0.26438035391317039 0 0.4717523645020546 -0.27298959509449239 0 0.4615312208688776 -0.27879971950035659 0 0.4732651489421193 -0.28488124337301962 0 0.48248991287192089 -0.27404567510940958 0 0.4717523645020546 -0.27298959509449239 0 0.4732651489421193 -0.28488124337301962 0 0.4717523645020546 -0.27298959509449239 0 0.48023528300613422 -0.26438035391317039 0 0.46964320539480803 -0.25506091407963788 0 0.48479378741898982 -0.25342774386208539 0 0.48023528300613422 -0.26438035391317039 0 0.46964320539480803 -0.25506091407963788 0 0.46964320539480803 -0.25506091407963788 0 0.45342857674338799 -0.25041449485024608 0 0.46042071429610631 -0.26907890216966251 0 0.45342857674338799 -0.25041449485024608 0 0.46042071429610631 -0.26907890216966251 0 0.44962102286941491 -0.26534922021771618 0 0.4717523645020546 -0.27298959509449239 0 0.46964320539480803 -0.25506091407963788 0 0.46042071429610631 -0.26907890216966251 0 0.4717523645020546 -0.27298959509449239 0 0.4615312208688776 -0.27879971950035659 0 0.46042071429610631 -0.26907890216966251 0 0.4615312208688776 -0.27879971950035659 0 0.46042071429610631 -0.26907890216966251 0 0.4522204358475711 -0.27588214249537879 0 0.46042071429610631 -0.26907890216966251 0 0.4522204358475711 -0.27588214249537879 0 0.44962102286941491 -0.26534922021771618 0 0.4522204358475711 -0.27588214249537879 0 0.44050319753129391 -0.27365838489729172 0 0.44962102286941491 -0.26534922021771618 0 0.4522204358475711 -0.27588214249537879 0 0.44050319753129391 -0.27365838489729172 0 0.45100185527508457 -0.29005279798520173 0 0.44050319753129391 -0.27365838489729172 0 0.44153218992871479 -0.25771217667600183 0 0.44962102286941491 -0.26534922021771618 0 0.45342857674338799 -0.25041449485024608 0 0.44153218992871479 -0.25771217667600183 0 0.44962102286941491 -0.26534922021771618 0 0.44113797314683612 -0.30350386740735519 0 0.45999379932161188 -0.30518416264080961 0 0.44421359836425001 -0.31788644205633082 0 0.44113797314683612 -0.30350386740735519 0 0.45100185527508457 -0.29005279798520173 0 0.45999379932161188 -0.30518416264080961 0 0.44050319753129391 -0.27365838489729172 0 0.45100185527508457 -0.29005279798520173 0 0.42264478508922237 -0.28217714333340488 0 0.44113797314683612 -0.30350386740735519 0 0.45100185527508457 -0.29005279798520173 0 0.42709358803597092 -0.29560646455219641 0 0.45100185527508457 -0.29005279798520173 0 0.42709358803597092 -0.29560646455219641 0 0.4615312208688776 -0.27879971950035659 0 0.45100185527508457 -0.29005279798520173 0 0.4732651489421193 -0.28488124337301962 0 0.45100185527508457 -0.29005279798520173 0 0.4732651489421193 -0.28488124337301962 0 0.47550092763754132 -0.29685696470451989 0 0.45100185527508457 -0.29005279798520173 0 0.47550092763754132 -0.29685696470451989 0 0.45100185527508457 -0.29005279798520173 0 0.4732651489421193 -0.28488124337301962 0 0.4615312208688776 -0.27879971950035659 0 0.4522204358475711 -0.27588214249537879 0 0.45100185527508457 -0.29005279798520173 0 0.45100185527508457 -0.29005279798520173 0 0.45999379932161188 -0.30518416264080961 0 0.47550092763754132 -0.29685696470451989 0 0.45999379932161188 -0.30518416264080961 0 0.47550092763754132 -0.29685696470451989 0 0.46808498708083512 -0.32081573117124967 0 0.47550092763754132 -0.29685696470451989 0 0.48816698931869451 -0.30180956159748451 0 0.46808498708083512 -0.32081573117124967 0 0.48816698931869451 -0.30180956159748451 0 0.46808498708083512 -0.32081573117124967 0 0.49552844260915369 -0.27970968876083591 0 0.4732651489421193 -0.28488124337301962 0 0.48120667397255462 -0.28959518167013393 0 0.4732651489421193 -0.28488124337301962 0 0.47550092763754132 -0.29685696470451989 0 0.48120667397255462 -0.28959518167013393 0 0.47550092763754132 -0.29685696470451989 0 0.48120667397255462 -0.28959518167013393 0 0.49044720884385001 -0.28988429173579389 0 0.49552844260915369 -0.27970968876083591 0 0.4732651489421193 -0.28488124337301962 0 0.5 -0.27959849211964138 0 0.49044720884385001 -0.28988429173579389 0 0.49999999999999761 -0.30366113142383871 0 0.47550092763754132 -0.29685696470451989 0 0.49044720884385001 -0.28988429173579389 0 0.49999999999999761 -0.30366113142383871 0 0.49552844260915369 -0.27970968876083591 0 0.48120667397255462 -0.28959518167013393 0 0.49044720884385001 -0.28988429173579389 0 0.49552844260915369 -0.27970968876083591 0 0.5 -0.27959849211964138 0 0.49044720884385001 -0.28988429173579389 0 0.47550092763754132 -0.29685696470451989 0 0.49999999999999761 -0.30366113142383871 0 0.47550092763754132 -0.29685696470451989 0 0.49999999999999761 -0.30366113142383871 0 0.48816698931869451 -0.30180956159748451 0 0.49999999999999761 -0.30366113142383871 0 0.48816698931869451 -0.30180956159748451 0 0.48871713143196399 -0.3198595061032245 0 0.49999999999999761 -0.30366113142383871 0 0.48871713143196399 -0.3198595061032245 0 0.50000000000000089 -0.33295003374183202 0 0.48871713143196399 -0.3198595061032245 0 0.50000000000000089 -0.33295003374183202 0 0.48147365831583838 -0.34316891962249563 0 0.50000000000000089 -0.33295003374183202 0 0.48147365831583838 -0.34316891962249563 0 0.48147365831583838 -0.34316891962249563 0 0.46808498708083512 -0.32081573117124967 0 0.46512723671783118 -0.33929858926047979 0 0.48816698931869451 -0.30180956159748451 0 0.48871713143196399 -0.3198595061032245 0 0.46808498708083512 -0.32081573117124967 0 0.48871713143196399 -0.3198595061032245 0 0.48147365831583838 -0.34316891962249563 0 0.46808498708083512 -0.32081573117124967 0 0.50000000000000289 -0.35848851561584988 0 0.47221048747375832 -0.36104760349983722 0 0.50000000000000289 -0.35848851561584988 0 0.47221048747375832 -0.36104760349983722 0 0.5 -0.38336400959794381 0 0.48147365831583838 -0.34316891962249563 0 0.50000000000000289 -0.35848851561584988 0 0.47221048747375832 -0.36104760349983722 0 0.50000000000000089 -0.33295003374183202 0 0.48147365831583838 -0.34316891962249563 0 0.50000000000000289 -0.35848851561584988 0 0.48147365831583838 -0.34316891962249563 0 0.46294731663167571 -0.35338780550315879 0 0.46512723671783118 -0.33929858926047979 0 0.48147365831583838 -0.34316891962249563 0 0.46294731663167571 -0.35338780550315879 0 0.48147365831583838 -0.34316891962249563 0 0.47221048747375832 -0.36104760349983722 0 0.46294731663167571 -0.35338780550315879 0 0.47221048747375832 -0.36104760349983722 0 0.44442097494751348 -0.36360669138382312 0 0.45191945425336177 -0.37974699692739122 0 0.47221048747375832 -0.36104760349983722 0 0.44442097494751348 -0.36360669138382312 0 0.46294731663167571 -0.35338780550315879 0 0.44442097494751348 -0.36360669138382312 0 0.47221048747375832 -0.36104760349983722 0 0.46294731663167571 -0.35338780550315879 0 0.44442097494751348 -0.36360669138382312 0 0.46294731663167571 -0.35338780550315879 0 0.46512723671783118 -0.33929858926047979 0 0.44800298484297552 -0.33982190074501512 0 0.44442097494751348 -0.36360669138382312 0 0.44800298484297552 -0.33982190074501512 0 0.42792098260511591 -0.3588280703187805 0 0.46294731663167571 -0.35338780550315879 0 0.44442097494751348 -0.36360669138382312 0 0.44800298484297552 -0.33982190074501512 0 0.44800298484297552 -0.33982190074501512 0 0.42792098260511591 -0.3588280703187805 0 0.44442097494751348 -0.36360669138382312 0 0.43480364249197317 -0.37486994426325898 0 0.45191945425336177 -0.37974699692739122 0 0.46808498708083512 -0.32081573117124967 0 0.44800298484297552 -0.33982190074501512 0 0.44421359836425001 -0.31788644205633082 0 0.45999379932161188 -0.30518416264080961 0 0.46808498708083512 -0.32081573117124967 0 0.44421359836425001 -0.31788644205633082 0 0.46808498708083512 -0.32081573117124967 0 0.44800298484297552 -0.33982190074501512 0 0.46808498708083512 -0.32081573117124967 0 0.46512723671783118 -0.33929858926047979 0 0.44800298484297552 -0.33982190074501512 0 0.44800298484297552 -0.33982190074501512 0 0.44421359836425001 -0.31788644205633082 0 0.4347518306518347 -0.33085327533906578 0 0.42358673209268938 -0.31300080852443762 0 0.4347518306518347 -0.33085327533906578 0 0.4160555815341424 -0.33316996026327889 0 0.44421359836425001 -0.31788644205633082 0 0.42358673209268938 -0.31300080852443762 0 0.4347518306518347 -0.33085327533906578 0 0.4347518306518347 -0.33085327533906578 0 0.42611941638821382 -0.34356815550832243 0 0.4160555815341424 -0.33316996026327889 0 0.44800298484297552 -0.33982190074501512 0 0.4347518306518347 -0.33085327533906578 0 0.42611941638821382 -0.34356815550832243 0 0.42611941638821382 -0.34356815550832243 0 0.4160555815341424 -0.33316996026327889 0 0.4124686127151217 -0.35017679060757551 0 0.4160555815341424 -0.33316996026327889 0 0.4124686127151217 -0.35017679060757551 0 0.40469115829510249 -0.34341017238135568 0 0.4160555815341424 -0.33316996026327889 0 0.40296495740953092 -0.33300184463303961 0 0.40469115829510249 -0.34341017238135568 0 0.4160555815341424 -0.33316996026327889 0 0.40803636445561309 -0.31898900602633179 0 0.40296495740953092 -0.33300184463303961 0 0.42358673209268938 -0.31300080852443762 0 0.4160555815341424 -0.33316996026327889 0 0.40803636445561309 -0.31898900602633179 0 0.44442097494751348 -0.36360669138382312 0 0.42792098260511591 -0.3588280703187805 0 0.42125481406081328 -0.36574002285509988 0 0.44442097494751348 -0.36360669138382312 0 0.42429322420218329 -0.37470889339474489 0 0.42125481406081328 -0.36574002285509988 0 0.44442097494751348 -0.36360669138382312 0 0.42125481406081328 -0.36574002285509988 0 0.44442097494751348 -0.36360669138382312 0 0.42429322420218329 -0.37470889339474489 0 0.43480364249197317 -0.37486994426325898 0 0.44442097494751348 -0.36360669138382312 0 0.42429322420218329 -0.37470889339474489 0 0.42429322420218329 -0.37470889339474489 0 0.43480364249197317 -0.37486994426325898 0 0.42792098260511591 -0.3588280703187805 0 0.41900614337144337 -0.35690077476165011 0 0.42125481406081328 -0.36574002285509988 0 0.44800298484297552 -0.33982190074501512 0 0.42611941638821382 -0.34356815550832243 0 0.42792098260511591 -0.3588280703187805 0 0.42611941638821382 -0.34356815550832243 0 0.42792098260511591 -0.3588280703187805 0 0.41900614337144337 -0.35690077476165011 0 0.42611941638821382 -0.34356815550832243 0 0.4124686127151217 -0.35017679060757551 0 0.41900614337144337 -0.35690077476165011 0 0.4124686127151217 -0.35017679060757551 0 0.4020787832576061 -0.3555348905039088 0 0.40469115829510249 -0.34341017238135568 0 0.4124686127151217 -0.35017679060757551 0 0.41900614337144337 -0.35690077476165011 0 0.40927987044250019 -0.36255138861556119 0 0.4124686127151217 -0.35017679060757551 0 0.40927987044250019 -0.36255138861556119 0 0.4020787832576061 -0.3555348905039088 0 0.42125481406081328 -0.36574002285509988 0 0.39808865317411302 -0.36787335432637569 0 0.42429322420218329 -0.37470889339474489 0 0.39527993653293841 -0.37426432353570072 0 0.42429322420218329 -0.37470889339474489 0 0.42125481406081328 -0.36574002285509988 0 0.39808865317411302 -0.36787335432637569 0 0.42125481406081328 -0.36574002285509988 0 0.40927987044250019 -0.36255138861556119 0 0.39808865317411302 -0.36787335432637569 0 0.41900614337144337 -0.35690077476165011 0 0.42125481406081328 -0.36574002285509988 0 0.40927987044250019 -0.36255138861556119 0 0.42429322420218329 -0.37470889339474489 0 0.39808865317411302 -0.36787335432637569 0 0.39527993653293841 -0.37426432353570072 0 0.40927987044250019 -0.36255138861556119 0 0.40076377132827168 -0.3612798884484868 0 0.4020787832576061 -0.3555348905039088 0 0.40927987044250019 -0.36255138861556119 0 0.39808865317411302 -0.36787335432637569 0 0.40076377132827168 -0.3612798884484868 0 0.39808865317411302 -0.36787335432637569 0 0.40076377132827168 -0.3612798884484868 0 0.39360777843886752 -0.3591599203481014 0 0.39808865317411302 -0.36787335432637569 0 0.39360777843886752 -0.3591599203481014 0 0.38487493537474671 -0.36245973635417522 0 0.39360777843886752 -0.3591599203481014 0 0.39511100924386378 -0.347829878273128 0 0.38368078318808208 -0.356040030466861 0 0.39360777843886752 -0.3591599203481014 0 0.4020787832576061 -0.3555348905039088 0 0.39511100924386378 -0.347829878273128 0 0.40076377132827168 -0.3612798884484868 0 0.39360777843886752 -0.3591599203481014 0 0.4020787832576061 -0.3555348905039088 0 0.4020787832576061 -0.3555348905039088 0 0.39511100924386378 -0.347829878273128 0 0.40469115829510249 -0.34341017238135568 0 0.39511100924386378 -0.347829878273128 0 0.38128998658537039 -0.34519674196806482 0 0.38368078318808208 -0.356040030466861 0 0.38128998658537039 -0.34519674196806482 0 0.38368078318808208 -0.356040030466861 0 0.37310812150742212 -0.34978584533321311 0 0.38368078318808208 -0.356040030466861 0 0.38487493537474671 -0.36245973635417522 0 0.37407496978525789 -0.3592186908318864 0 0.38368078318808208 -0.356040030466861 0 0.37407496978525789 -0.3592186908318864 0 0.37310812150742212 -0.34978584533321311 0 0.39360777843886752 -0.3591599203481014 0 0.38368078318808208 -0.356040030466861 0 0.38487493537474671 -0.36245973635417522 0 0.39527993653293841 -0.37426432353570072 0 0.36626664886369342 -0.3738197536766566 0 0.39808865317411302 -0.36787335432637569 0 0.38487493537474671 -0.36245973635417522 0 0.3749224922874127 -0.37000668579765139 0 0.39527993653293841 -0.37426432353570072 0 0.36626664886369342 -0.3738197536766566 0 0.3749224922874127 -0.37000668579765139 0 0.39808865317411302 -0.36787335432637569 0 0.3749224922874127 -0.37000668579765139 0 0.39808865317411302 -0.36787335432637569 0 0.39527993653293841 -0.37426432353570072 0 0.3749224922874127 -0.37000668579765139 0 0.38487493537474671 -0.36245973635417522 0 0.3749224922874127 -0.37000668579765139 0 0.37407496978525789 -0.3592186908318864 0 0.39438923044484608 -0.31461228559171339 0 0.40296495740953092 -0.33300184463303961 0 0.38719403140080322 -0.32727183797965548 0 0.40803636445561309 -0.31898900602633179 0 0.39438923044484608 -0.31461228559171339 0 0.40296495740953092 -0.33300184463303961 0 0.39511100924386378 -0.347829878273128 0 0.38719403140080322 -0.32727183797965548 0 0.39511100924386378 -0.347829878273128 0 0.40296495740953092 -0.33300184463303961 0 0.38719403140080322 -0.32727183797965548 0 0.39511100924386378 -0.347829878273128 0 0.40296495740953092 -0.33300184463303961 0 0.40469115829510249 -0.34341017238135568 0 0.39511100924386378 -0.347829878273128 0 0.38128998658537039 -0.34519674196806482 0 0.38719403140080322 -0.32727183797965548 0 0.38128998658537039 -0.34519674196806482 0 0.37436875179225892 -0.32195373862217169 0 0.38128998658537039 -0.34519674196806482 0 0.38719403140080322 -0.32727183797965548 0 0.37436875179225892 -0.32195373862217169 0 0.38719403140080322 -0.32727183797965548 0 0.37927705355774249 -0.30671379768618301 0 0.39438923044484608 -0.31461228559171339 0 0.38719403140080322 -0.32727183797965548 0 0.37927705355774249 -0.30671379768618301 0 0.38719403140080322 -0.32727183797965548 0 0.37927705355774249 -0.30671379768618301 0 0.37436875179225892 -0.32195373862217169 0 0.37927705355774249 -0.30671379768618301 0 0.40318532079685659 -0.3011601311191896 0 0.38747910573968691 -0.29122504978253771 0 0.37927705355774249 -0.30671379768618301 0 0.40318532079685659 -0.3011601311191896 0 0.40803636445561309 -0.31898900602633179 0 0.39438923044484608 -0.31461228559171339 0 0.40318532079685659 -0.3011601311191896 0 0.39438923044484608 -0.31461228559171339 0 0.37927705355774249 -0.30671379768618301 0 0.40318532079685659 -0.3011601311191896 0 0.40318532079685659 -0.3011601311191896 0 0.39548911920737201 -0.28529695427145629 0 0.38747910573968691 -0.29122504978253771 0 0.40318532079685659 -0.3011601311191896 0 0.39548911920737201 -0.28529695427145629 0 0.40854010560655629 -0.28770843639157129 0 0.39548911920737201 -0.28529695427145629 0 0.39428771490335968 -0.27430148868160942 0 0.40854010560655629 -0.28770843639157129 0 0.38747910573968691 -0.29122504978253771 0 0.37951463593155171 -0.29003742415378653 0 0.38173118148199547 -0.28070026307683738 0 0.37927705355774249 -0.30671379768618301 0 0.37951463593155171 -0.29003742415378653 0 0.36957120294678197 -0.28151058606958818 0 0.39548911920737201 -0.28529695427145629 0 0.38747910573968691 -0.29122504978253771 0 0.38173118148199547 -0.28070026307683738 0 0.37927705355774249 -0.30671379768618301 0 0.38747910573968691 -0.29122504978253771 0 0.37951463593155171 -0.29003742415378653 0 0.37951463593155171 -0.29003742415378653 0 0.38173118148199547 -0.28070026307683738 0 0.36957120294678197 -0.28151058606958818 0 0.38173118148199547 -0.28070026307683738 0 0.39428771490335968 -0.27430148868160942 0 0.36593064471749698 -0.26642583402981401 0 0.37815989260025612 -0.26709046176133588 0 0.39428771490335968 -0.27430148868160942 0 0.36593064471749698 -0.26642583402981401 0 0.39428771490335968 -0.27430148868160942 0 0.36593064471749698 -0.26642583402981401 0 0.39548911920737201 -0.28529695427145629 0 0.38173118148199547 -0.28070026307683738 0 0.39428771490335968 -0.27430148868160942 0 0.39725578317647231 -0.2494040661117283 0 0.37815989260025612 -0.26709046176133588 0 0.39428771490335968 -0.27430148868160942 0 0.38160705988066251 -0.2493058735567372 0 0.37815989260025612 -0.26709046176133588 0 0.37183506152775803 -0.2582963166598275 0 0.38160705988066251 -0.2493058735567372 0 0.39725578317647231 -0.2494040661117283 0 0.37815989260025612 -0.26709046176133588 0 0.39725578317647231 -0.2494040661117283 0 0.37815989260025612 -0.26709046176133588 0 0.37156235643447938 -0.24778879157739861 0 0.38160705988066251 -0.2493058735567372 0 0.37183506152775803 -0.2582963166598275 0 0.39725578317647231 -0.2494040661117283 0 0.39428771490335968 -0.27430148868160942 0 0.41270289870123589 -0.26485628632885061 0 0.41270289870123589 -0.26485628632885061 0 0.42748980586114221 -0.26875604103939083 0 0.42264478508922237 -0.28217714333340488 0 0.39428771490335968 -0.27430148868160942 0 0.41270289870123589 -0.26485628632885061 0 0.42264478508922237 -0.28217714333340488 0 0.39428771490335968 -0.27430148868160942 0 0.42264478508922237 -0.28217714333340488 0 0.39725578317647231 -0.2494040661117283 0 0.41515786506949381 -0.24865793278917281 0 0.41270289870123589 -0.26485628632885061 0 0.41515786506949381 -0.24865793278917281 0 0.41270289870123589 -0.26485628632885061 0 0.42744690890201359 -0.25595607817183019 0 0.43713281636094931 -0.23744687585277041 0 0.44153218992871479 -0.25771217667600183 0 0.42744690890201359 -0.25595607817183019 0 0.41270289870123589 -0.26485628632885061 0 0.42744690890201359 -0.25595607817183019 0 0.42748980586114221 -0.26875604103939083 0 0.44153218992871479 -0.25771217667600183 0 0.42744690890201359 -0.25595607817183019 0 0.42748980586114221 -0.26875604103939083 0 0.44050319753129391 -0.27365838489729172 0 0.42748980586114221 -0.26875604103939083 0 0.42264478508922237 -0.28217714333340488 0 0.44050319753129391 -0.27365838489729172 0 0.44153218992871479 -0.25771217667600183 0 0.42748980586114221 -0.26875604103939083 0 0.45100185527508457 -0.29005279798520173 0 0.42264478508922237 -0.28217714333340488 0 0.42709358803597092 -0.29560646455219641 0 0.45100185527508457 -0.29005279798520173 0 0.42264478508922237 -0.28217714333340488 0 0.44113797314683612 -0.30350386740735519 0 0.44421359836425001 -0.31788644205633082 0 0.42358673209268938 -0.31300080852443762 0 0.44113797314683612 -0.30350386740735519 0 0.42358673209268938 -0.31300080852443762 0 0.42709358803597092 -0.29560646455219641 0 0.42358673209268938 -0.31300080852443762 0 0.40803636445561309 -0.31898900602633179 0 0.40318532079685659 -0.3011601311191896 0 0.42358673209268938 -0.31300080852443762 0 0.40318532079685659 -0.3011601311191896 0 0.42709358803597092 -0.29560646455219641 0 0.40318532079685659 -0.3011601311191896 0 0.42709358803597092 -0.29560646455219641 0 0.40318532079685659 -0.3011601311191896 0 0.42709358803597092 -0.29560646455219641 0 0.40854010560655629 -0.28770843639157129 0 0.42264478508922237 -0.28217714333340488 0 0.42709358803597092 -0.29560646455219641 0 0.40854010560655629 -0.28770843639157129 0 0.39428771490335968 -0.27430148868160942 0 0.42264478508922237 -0.28217714333340488 0 0.40854010560655629 -0.28770843639157129 0 0.45015350651333619 -0.48686132632476953 0 0.43021078265031032 -0.4890700793724711 0 0.45015350651333619 -0.48686132632476953 0 0.44084945538508968 -0.49398285142431009 0 0.43021078265031032 -0.4890700793724711 0 0.45015350651333619 -0.48686132632476953 0 0.44914346391183568 -0.5 0 0.44084945538508968 -0.49398285142431009 0 0.44914346391183568 -0.5 0 0.44084945538508968 -0.49398285142431009 0 0.4338900684648761 -0.49999999999999623 0 0.45015350651333619 -0.48686132632476953 0 0.44222784838114909 -0.47117739153465032 0 0.43021078265031032 -0.4890700793724711 0 0.45015350651333619 -0.48686132632476953 0 0.44222784838114909 -0.47117739153465032 0 0.46104400112187499 -0.46866656275513918 0 0.45015350651333619 -0.48686132632476953 0 0.47009623037636189 -0.4846525732770659 0 0.46104400112187499 -0.46866656275513918 0 0.45015350651333619 -0.48686132632476953 0 0.46439685935879521 -0.50000000000000067 0 0.47009623037636189 -0.4846525732770659 0 0.45015350651333619 -0.48686132632476953 0 0.47009623037636189 -0.4846525732770659 0 0.45015350651333619 -0.48686132632476953 0 0.44914346391183568 -0.5 0 0.46439685935879521 -0.50000000000000067 0 0.46439685935879521 -0.50000000000000067 0 0.47009623037636189 -0.4846525732770659 0 0.46439685935879521 -0.50000000000000067 0 0.48362327243378922 -0.49149828988708982 0 0.47009623037636189 -0.4846525732770659 0 0.46439685935879521 -0.50000000000000067 0 0.48362327243378922 -0.49149828988708982 0 0.5 -0.5 0 0.48362327243378922 -0.49149828988708982 0 0.5 -0.5 0 0.50000000000000389 -0.48134058627129339 0 0.48362327243378922 -0.49149828988708982 0 0.47009623037636189 -0.4846525732770659 0 0.50000000000000389 -0.48134058627129339 0 0.47009623037636189 -0.4846525732770659 0 0.50000000000000389 -0.48134058627129339 0 0.47009623037636189 -0.4846525732770659 0 0.47894477997154528 -0.46082494982567729 0 0.46104400112187499 -0.46866656275513918 0 0.47009623037636189 -0.4846525732770659 0 0.50000000000000389 -0.48134058627129339 0 0.47894477997154528 -0.46082494982567729 0 0.47009623037636189 -0.4846525732770659 0 0.47894477997154528 -0.46082494982567729 0 0.50000000000000389 -0.48134058627129339 0 0.47894477997154528 -0.46082494982567729 0 0.5 -0.45722779191671248 0 0.47894477997154528 -0.46082494982567729 0 0.5 -0.45722779191671248 0 0.48779332956672877 -0.43699732637428901 0 0.5 -0.45722779191671248 0 0.48779332956672877 -0.43699732637428901 0 0.50000000000000178 -0.43311499756213162 0 0.47549288254626748 -0.44561174276644172 0 0.46965107328718508 -0.43512106533133799 0 0.48779332956672877 -0.43699732637428901 0 0.47894477997154528 -0.46082494982567729 0 0.47549288254626748 -0.44561174276644172 0 0.48779332956672877 -0.43699732637428901 0 0.47894477997154528 -0.46082494982567729 0 0.48779332956672877 -0.43699732637428901 0 0.47894477997154528 -0.46082494982567729 0 0.47549288254626748 -0.44561174276644172 0 0.46558234735961052 -0.44950362953446249 0 0.47549288254626748 -0.44561174276644172 0 0.46558234735961052 -0.44950362953446249 0 0.46965107328718508 -0.43512106533133799 0 0.46558234735961052 -0.44950362953446249 0 0.45112487922503908 -0.44355398612736602 0 0.46965107328718508 -0.43512106533133799 0 0.46558234735961052 -0.44950362953446249 0 0.45074097990376433 -0.45805391401771278 0 0.45112487922503908 -0.44355398612736602 0 0.47894477997154528 -0.46082494982567729 0 0.46558234735961052 -0.44950362953446249 0 0.46104400112187499 -0.46866656275513918 0 0.46558234735961052 -0.44950362953446249 0 0.46104400112187499 -0.46866656275513918 0 0.45074097990376433 -0.45805391401771278 0 0.44222784838114909 -0.47117739153465032 0 0.46104400112187499 -0.46866656275513918 0 0.45074097990376433 -0.45805391401771278 0 0.44222784838114909 -0.47117739153465032 0 0.45074097990376433 -0.45805391401771278 0 0.43525809271664567 -0.45481189205646849 0 0.45112487922503908 -0.44355398612736602 0 0.43405631471315231 -0.43754179795114928 0 0.43525809271664567 -0.45481189205646849 0 0.45074097990376433 -0.45805391401771278 0 0.45112487922503908 -0.44355398612736602 0 0.43525809271664567 -0.45481189205646849 0 0.45112487922503908 -0.44355398612736602 0 0.45146046736987677 -0.42629161787306519 0 0.43405631471315231 -0.43754179795114928 0 0.45146046736987677 -0.42629161787306519 0 0.43405631471315231 -0.43754179795114928 0 0.45146046736987677 -0.42629161787306519 0 0.43149998330328021 -0.41449982697438797 0 0.43405631471315231 -0.43754179795114928 0 0.45146046736987677 -0.42629161787306519 0 0.45457549332152503 -0.41202329928281528 0 0.43149998330328021 -0.41449982697438797 0 0.45457549332152503 -0.41202329928281528 0 0.43559302750413131 -0.39589748560964122 0 0.43149998330328021 -0.41449982697438797 0 0.45146046736987677 -0.42629161787306519 0 0.46953251115364703 -0.42409061405241749 0 0.4688646200266014 -0.41504143779498121 0 0.45146046736987677 -0.42629161787306519 0 0.4688646200266014 -0.41504143779498121 0 0.45146046736987677 -0.42629161787306519 0 0.45457549332152503 -0.41202329928281528 0 0.4688646200266014 -0.41504143779498121 0 0.45457549332152503 -0.41202329928281528 0 0.4688646200266014 -0.41504143779498121 0 0.45287218858774669 -0.39751857401632978 0 0.47643609429387462 -0.41531678578923031 0 0.4688646200266014 -0.41504143779498121 0 0.45287218858774669 -0.39751857401632978 0 0.47643609429387462 -0.41531678578923031 0 0.45287218858774669 -0.39751857401632978 0 0.45112487922503908 -0.44355398612736602 0 0.45146046736987677 -0.42629161787306519 0 0.46965107328718508 -0.43512106533133799 0 0.45146046736987677 -0.42629161787306519 0 0.46965107328718508 -0.43512106533133799 0 0.46953251115364703 -0.42409061405241749 0 0.46965107328718508 -0.43512106533133799 0 0.48125030079069681 -0.42868216347347299 0 0.48779332956672877 -0.43699732637428901 0 0.46953251115364703 -0.42409061405241749 0 0.48125030079069681 -0.42868216347347299 0 0.47643609429387462 -0.41531678578923031 0 0.46965107328718508 -0.43512106533133799 0 0.46953251115364703 -0.42409061405241749 0 0.48125030079069681 -0.42868216347347299 0 0.48125030079069681 -0.42868216347347299 0 0.48779332956672877 -0.43699732637428901 0 0.50000000000000178 -0.43311499756213162 0 0.50000000000000178 -0.43311499756213162 0 0.47643609429387462 -0.41531678578923031 0 0.48125030079069681 -0.42868216347347299 0 0.50000000000000178 -0.43311499756213162 0 0.47643609429387462 -0.41531678578923031 0 0.50000000000000178 -0.43311499756213162 0 0.5 -0.40823950358003769 0 0.49040156734979812 -0.41471924040462471 0 0.50000000000000178 -0.43311499756213162 0 0.49040156734979812 -0.41471924040462471 0 0.47643609429387462 -0.41531678578923031 0 0.5 -0.40823950358003769 0 0.49040156734979812 -0.41471924040462471 0 0.4851701751053179 -0.40220567468709928 0 0.49040156734979812 -0.41471924040462471 0 0.47643609429387462 -0.41531678578923031 0 0.4851701751053179 -0.40220567468709928 0 0.46953251115364703 -0.42409061405241749 0 0.47643609429387462 -0.41531678578923031 0 0.4688646200266014 -0.41504143779498121 0 0.47175849671458908 -0.40074872692307212 0 0.4851701751053179 -0.40220567468709928 0 0.47255552887141722 -0.38795387319962871 0 0.47643609429387462 -0.41531678578923031 0 0.47175849671458908 -0.40074872692307212 0 0.4851701751053179 -0.40220567468709928 0 0.4851701751053179 -0.40220567468709928 0 0.5 -0.38336400959794381 0 0.47255552887141722 -0.38795387319962871 0 0.5 -0.40823950358003769 0 0.4851701751053179 -0.40220567468709928 0 0.5 -0.38336400959794381 0 0.47221048747375832 -0.36104760349983722 0 0.5 -0.38336400959794381 0 0.47255552887141722 -0.38795387319962871 0 0.47221048747375832 -0.36104760349983722 0 0.47255552887141722 -0.38795387319962871 0 0.45191945425336177 -0.37974699692739122 0 0.47255552887141722 -0.38795387319962871 0 0.45287218858774669 -0.39751857401632978 0 0.45191945425336177 -0.37974699692739122 0 0.47643609429387462 -0.41531678578923031 0 0.47175849671458908 -0.40074872692307212 0 0.45287218858774669 -0.39751857401632978 0 0.47175849671458908 -0.40074872692307212 0 0.47255552887141722 -0.38795387319962871 0 0.45287218858774669 -0.39751857401632978 0 0.45287218858774669 -0.39751857401632978 0 0.42930828288161887 -0.37972036224342948 0 0.43559302750413131 -0.39589748560964122 0 0.45457549332152503 -0.41202329928281528 0 0.45287218858774669 -0.39751857401632978 0 0.43559302750413131 -0.39589748560964122 0 0.45287218858774669 -0.39751857401632978 0 0.42930828288161887 -0.37972036224342948 0 0.43480364249197317 -0.37486994426325898 0 0.45191945425336177 -0.37974699692739122 0 0.42930828288161887 -0.37972036224342948 0 0.45287218858774669 -0.39751857401632978 0 0.45191945425336177 -0.37974699692739122 0 0.42930828288161887 -0.37972036224342948 0 0.42686483590192631 -0.38983442480305641 0 0.42930828288161887 -0.37972036224342948 0 0.43559302750413131 -0.39589748560964122 0 0.42686483590192631 -0.38983442480305641 0 0.41992877209835089 -0.39640214907374138 0 0.41945410616206702 -0.38456653777192618 0 0.42686483590192631 -0.38983442480305641 0 0.42457286522143423 -0.38170909867872438 0 0.42930828288161887 -0.37972036224342948 0 0.42686483590192631 -0.38983442480305641 0 0.42457286522143423 -0.38170909867872438 0 0.41945410616206702 -0.38456653777192618 0 0.42429322420218329 -0.37470889339474489 0 0.43480364249197317 -0.37486994426325898 0 0.42930828288161887 -0.37972036224342948 0 0.42429322420218329 -0.37470889339474489 0 0.42457286522143423 -0.38170909867872438 0 0.41945410616206702 -0.38456653777192618 0 0.42429322420218329 -0.37470889339474489 0 0.42457286522143423 -0.38170909867872438 0 0.42930828288161887 -0.37972036224342948 0 0.42686483590192631 -0.38983442480305641 0 0.43559302750413131 -0.39589748560964122 0 0.42672571727350123 -0.4036978889018159 0 0.43559302750413131 -0.39589748560964122 0 0.42672571727350123 -0.4036978889018159 0 0.43149998330328021 -0.41449982697438797 0 0.42686483590192631 -0.38983442480305641 0 0.42672571727350123 -0.4036978889018159 0 0.41992877209835089 -0.39640214907374138 0 0.41118187735905559 -0.39513020792885428 0 0.39900657084906338 -0.39637286164564373 0 0.41628571575389212 -0.40642268309810248 0 0.41992877209835089 -0.39640214907374138 0 0.41118187735905559 -0.39513020792885428 0 0.41945410616206702 -0.38456653777192618 0 0.41992877209835089 -0.39640214907374138 0 0.41118187735905559 -0.39513020792885428 0 0.41628571575389212 -0.40642268309810248 0 0.42672571727350123 -0.4036978889018159 0 0.41992877209835089 -0.39640214907374138 0 0.41628571575389212 -0.40642268309810248 0 0.41118187735905559 -0.39513020792885428 0 0.41945410616206702 -0.38456653777192618 0 0.40059171893717349 -0.3877823312937192 0 0.42429322420218329 -0.37470889339474489 0 0.40136166199352108 -0.38039904618489317 0 0.40059171893717349 -0.3877823312937192 0 0.42429322420218329 -0.37470889339474489 0 0.41945410616206702 -0.38456653777192618 0 0.40059171893717349 -0.3877823312937192 0 0.42429322420218329 -0.37470889339474489 0 0.40059171893717349 -0.3877823312937192 0 0.42429322420218329 -0.37470889339474489 0 0.39527993653293841 -0.37426432353570072 0 0.40136166199352108 -0.38039904618489317 0 0.40136166199352108 -0.38039904618489317 0 0.40059171893717349 -0.3877823312937192 0 0.39101655830847509 -0.38374219355594752 0 0.39527993653293841 -0.37426432353570072 0 0.40136166199352108 -0.38039904618489317 0 0.39101655830847509 -0.38374219355594752 0 0.39101655830847509 -0.38374219355594752 0 0.37958908542395742 -0.38416722440891471 0 0.37689021367216358 -0.40085576919269328 0 0.39527993653293841 -0.37426432353570072 0 0.39101655830847509 -0.38374219355594752 0 0.37958908542395742 -0.38416722440891471 0 0.39527993653293841 -0.37426432353570072 0 0.37958908542395742 -0.38416722440891471 0 0.36626664886369342 -0.3738197536766566 0 0.40059171893717349 -0.3877823312937192 0 0.39101655830847509 -0.38374219355594752 0 0.37689021367216358 -0.40085576919269328 0 0.37689021367216358 -0.40085576919269328 0 0.39900657084906338 -0.39637286164564373 0 0.38810369585617932 -0.41984185238038418 0 0.40059171893717349 -0.3877823312937192 0 0.37689021367216358 -0.40085576919269328 0 0.40059171893717349 -0.3877823312937192 0 0.37689021367216358 -0.40085576919269328 0 0.39900657084906338 -0.39637286164564373 0 0.41118187735905559 -0.39513020792885428 0 0.40059171893717349 -0.3877823312937192 0 0.39900657084906338 -0.39637286164564373 0 0.39900657084906338 -0.39637286164564373 0 0.38810369585617932 -0.41984185238038418 0 0.40782936645274659 -0.42258241983743972 0 0.39900657084906338 -0.39637286164564373 0 0.40782936645274659 -0.42258241983743972 0 0.37689021367216358 -0.40085576919269328 0 0.38810369585617932 -0.41984185238038418 0 0.3714655793476489 -0.4209564273317502 0 0.38810369585617932 -0.41984185238038418 0 0.39594215079901202 -0.44117372160150659 0 0.37597054724784068 -0.43873143187693919 0 0.38810369585617932 -0.41984185238038418 0 0.37597054724784068 -0.43873143187693919 0 0.3714655793476489 -0.4209564273317502 0 0.38810369585617932 -0.41984185238038418 0 0.40782936645274659 -0.42258241983743972 0 0.39594215079901202 -0.44117372160150659 0 0.40782936645274659 -0.42258241983743972 0 0.43405631471315231 -0.43754179795114928 0 0.41665216205642919 -0.44879197802923559 0 0.40782936645274659 -0.42258241983743972 0 0.41665216205642919 -0.44879197802923559 0 0.40782936645274659 -0.42258241983743972 0 0.41628571575389212 -0.40642268309810248 0 0.43149998330328021 -0.41449982697438797 0 0.39900657084906338 -0.39637286164564373 0 0.40782936645274659 -0.42258241983743972 0 0.41628571575389212 -0.40642268309810248 0 0.42672571727350123 -0.4036978889018159 0 0.41628571575389212 -0.40642268309810248 0 0.43149998330328021 -0.41449982697438797 0 0.40782936645274659 -0.42258241983743972 0 0.43149998330328021 -0.41449982697438797 0 0.43405631471315231 -0.43754179795114928 0 0.43405631471315231 -0.43754179795114928 0 0.41665216205642919 -0.44879197802923559 0 0.43405631471315231 -0.43754179795114928 0 0.43525809271664567 -0.45481189205646849 0 0.41665216205642919 -0.44879197802923559 0 0.43525809271664567 -0.45481189205646849 0 0.41665216205642919 -0.44879197802923559 0 0.42343147235337031 -0.46893102870085318 0 0.44222784838114909 -0.47117739153465032 0 0.43525809271664567 -0.45481189205646849 0 0.42343147235337031 -0.46893102870085318 0 0.41665216205642919 -0.44879197802923559 0 0.42343147235337031 -0.46893102870085318 0 0.41665216205642919 -0.44879197802923559 0 0.40595180274042159 -0.47333885935642389 0 0.42343147235337031 -0.46893102870085318 0 0.40782936645274659 -0.42258241983743972 0 0.41665216205642919 -0.44879197802923559 0 0.39594215079901202 -0.44117372160150659 0 0.41665216205642919 -0.44879197802923559 0 0.39594215079901202 -0.44117372160150659 0 0.39136668222852872 -0.46513670948702801 0 0.39594215079901202 -0.44117372160150659 0 0.37597054724784068 -0.43873143187693919 0 0.39136668222852872 -0.46513670948702801 0 0.37597054724784068 -0.43873143187693919 0 0.39136668222852872 -0.46513670948702801 0 0.36726727237376811 -0.45900209328122438 0 0.41665216205642919 -0.44879197802923559 0 0.39136668222852872 -0.46513670948702801 0 0.40595180274042159 -0.47333885935642389 0 0.41665216205642919 -0.44879197802923559 0 0.39136668222852872 -0.46513670948702801 0 0.39136668222852872 -0.46513670948702801 0 0.40595180274042159 -0.47333885935642389 0 0.38838825594888049 -0.4831582959001956 0 0.40595180274042159 -0.47333885935642389 0 0.38838825594888049 -0.4831582959001956 0 0.40175644542179562 -0.49222153473561892 0 0.39136668222852872 -0.46513670948702801 0 0.36608120240062958 -0.48148144094482259 0 0.39136668222852872 -0.46513670948702801 0 0.38838825594888049 -0.4831582959001956 0 0.36608120240062958 -0.48148144094482259 0 0.38838825594888049 -0.4831582959001956 0 0.38167245638482428 -0.5 0 0.40175644542179562 -0.49222153473561892 0 0.38838825594888049 -0.4831582959001956 0 0.38167245638482428 -0.5 0 0.36608120240062958 -0.48148144094482259 0 0.38167245638482428 -0.5 0 0.40175644542179562 -0.49222153473561892 0 0.40778126242485008 -0.5 0 0.40175644542179562 -0.49222153473561892 0 0.43021078265031032 -0.4890700793724711 0 0.40175644542179562 -0.49222153473561892 0 0.40778126242485008 -0.5 0 0.43021078265031032 -0.4890700793724711 0 0.40175644542179562 -0.49222153473561892 0 0.41411579843352531 -0.48179360928561288 0 0.43021078265031032 -0.4890700793724711 0 0.40595180274042159 -0.47333885935642389 0 0.41411579843352531 -0.48179360928561288 0 0.42343147235337031 -0.46893102870085318 0 0.40595180274042159 -0.47333885935642389 0 0.40175644542179562 -0.49222153473561892 0 0.41411579843352531 -0.48179360928561288 0 0.41411579843352531 -0.48179360928561288 0 0.42343147235337031 -0.46893102870085318 0 0.43021078265031032 -0.4890700793724711 0 0.42343147235337031 -0.46893102870085318 0 0.43021078265031032 -0.4890700793724711 0 0.44222784838114909 -0.47117739153465032 0 0.42343147235337031 -0.46893102870085318 0 0.43021078265031032 -0.4890700793724711 0 0.40778126242485008 -0.5 0 0.43021078265031032 -0.4890700793724711 0 0.4338900684648761 -0.49999999999999623 0 0.44084945538508968 -0.49398285142431009 0 0.43021078265031032 -0.4890700793724711 0 0.4338900684648761 -0.49999999999999623 0 0.43021078265031032 -0.4890700793724711 0 0.4338900684648761 -0.49999999999999623 0 0.3205409254934557 -0.48450413714884688 0 0.32945484430477251 -0.5 0 0.30334603826474649 -0.50000000000000155 0 0.3205409254934557 -0.48450413714884688 0 0.31732584484547199 -0.46913625071229742 0 0.30845624819629108 -0.47335327820081979 0 0.31732584484547199 -0.46913625071229742 0 0.32770201216322548 -0.47442403904703179 0 0.32525369439588858 -0.46576818126076619 0 0.3205409254934557 -0.48450413714884688 0 0.31732584484547199 -0.46913625071229742 0 0.32770201216322548 -0.47442403904703179 0 0.34050539420123538 -0.4811221854182236 0 0.35330712837873651 -0.4693774545342268 0 0.33249378390293621 -0.4637868745216791 0 0.3205409254934557 -0.48450413714884688 0 0.32770201216322548 -0.47442403904703179 0 0.34050539420123538 -0.4811221854182236 0 0.32770201216322548 -0.47442403904703179 0 0.34050539420123538 -0.4811221854182236 0 0.33249378390293621 -0.4637868745216791 0 0.3205409254934557 -0.48450413714884688 0 0.34050539420123538 -0.4811221854182236 0 0.32945484430477251 -0.5 0 0.34050539420123538 -0.4811221854182236 0 0.32945484430477251 -0.5 0 0.35556365034479842 -0.5 0 0.34050539420123538 -0.4811221854182236 0 0.35556365034479842 -0.5 0 0.36608120240062958 -0.48148144094482259 0 0.38167245638482428 -0.5 0 0.35556365034479842 -0.5 0 0.36608120240062958 -0.48148144094482259 0 0.36608120240062958 -0.48148144094482259 0 0.35330712837873651 -0.4693774545342268 0 0.36726727237376811 -0.45900209328122438 0 0.34050539420123538 -0.4811221854182236 0 0.36608120240062958 -0.48148144094482259 0 0.35330712837873651 -0.4693774545342268 0 0.35330712837873651 -0.4693774545342268 0 0.3477562869651456 -0.4539752001253673 0 0.33249378390293621 -0.4637868745216791 0 0.35330712837873651 -0.4693774545342268 0 0.3477562869651456 -0.4539752001253673 0 0.36726727237376811 -0.45900209328122438 0 0.39136668222852872 -0.46513670948702801 0 0.36608120240062958 -0.48148144094482259 0 0.36726727237376811 -0.45900209328122438 0 0.37597054724784068 -0.43873143187693919 0 0.36726727237376811 -0.45900209328122438 0 0.35588954706562459 -0.4392071586946687 0 0.3477562869651456 -0.4539752001253673 0 0.36726727237376811 -0.45900209328122438 0 0.35588954706562459 -0.4392071586946687 0 0.35588954706562459 -0.4392071586946687 0 0.34333439674255228 -0.44370955187728828 0 0.33884928849655221 -0.43263778147234683 0 0.3477562869651456 -0.4539752001253673 0 0.35588954706562459 -0.4392071586946687 0 0.34333439674255228 -0.44370955187728828 0 0.34333439674255228 -0.44370955187728828 0 0.33218968339888122 -0.44770614929664232 0 0.33884928849655221 -0.43263778147234683 0 0.33218968339888122 -0.44770614929664232 0 0.32728389145324921 -0.43871217924688999 0 0.32498088062617358 -0.44596059251298781 0 0.33218968339888122 -0.44770614929664232 0 0.32728389145324921 -0.43871217924688999 0 0.33884928849655221 -0.43263778147234683 0 0.3477562869651456 -0.4539752001253673 0 0.34333439674255228 -0.44370955187728828 0 0.33218968339888122 -0.44770614929664232 0 0.3477562869651456 -0.4539752001253673 0 0.33218968339888122 -0.44770614929664232 0 0.33249378390293621 -0.4637868745216791 0 0.33218968339888122 -0.44770614929664232 0 0.33249378390293621 -0.4637868745216791 0 0.32349313667192081 -0.4557255607620565 0 0.32770201216322548 -0.47442403904703179 0 0.33249378390293621 -0.4637868745216791 0 0.32525369439588858 -0.46576818126076619 0 0.31732584484547199 -0.46913625071229742 0 0.32349313667192081 -0.4557255607620565 0 0.31695681098064332 -0.44169848074636231 0 0.31732584484547199 -0.46913625071229742 0 0.31356645812783529 -0.44670655640163809 0 0.30845624819629108 -0.47335327820081979 0 0.31732584484547199 -0.46913625071229742 0 0.31695681098064332 -0.44169848074636231 0 0.31732584484547199 -0.46913625071229742 0 0.32349313667192081 -0.4557255607620565 0 0.32525369439588858 -0.46576818126076619 0 0.33249378390293621 -0.4637868745216791 0 0.32349313667192081 -0.4557255607620565 0 0.32525369439588858 -0.46576818126076619 0 0.31732584484547199 -0.46913625071229742 0 0.31356645812783529 -0.44670655640163809 0 0.31695681098064332 -0.44169848074636231 0 0.31356645812783529 -0.44670655640163809 0 0.31695681098064332 -0.44169848074636231 0 0.31124016551153227 -0.44355025662845532 0 0.31695681098064332 -0.44169848074636231 0 0.32728389145324921 -0.43871217924688999 0 0.32498088062617358 -0.44596059251298781 0 0.32349313667192081 -0.4557255607620565 0 0.31695681098064332 -0.44169848074636231 0 0.32498088062617358 -0.44596059251298781 0 0.33218968339888122 -0.44770614929664232 0 0.32349313667192081 -0.4557255607620565 0 0.32498088062617358 -0.44596059251298781 0 0.31695681098064332 -0.44169848074636231 0 0.31658777711581459 -0.41426071078042731 0 0.31695681098064332 -0.44169848074636231 0 0.31658777711581459 -0.41426071078042731 0 0.30643120437979859 -0.42677719606758679 0 0.31695681098064332 -0.44169848074636231 0 0.32624946620511269 -0.42843209021644713 0 0.31658777711581459 -0.41426071078042731 0 0.31695681098064332 -0.44169848074636231 0 0.32728389145324921 -0.43871217924688999 0 0.32624946620511269 -0.42843209021644713 0 0.32624946620511269 -0.42843209021644713 0 0.31658777711581459 -0.41426071078042731 0 0.33510140247251791 -0.41699220804280568 0 0.31658777711581459 -0.41426071078042731 0 0.33510140247251791 -0.41699220804280568 0 0.33245345362455031 -0.40032595311814939 0 0.33510140247251791 -0.41699220804280568 0 0.33884928849655221 -0.43263778147234683 0 0.35318870840715372 -0.41392920709166731 0 0.33510140247251791 -0.41699220804280568 0 0.35318870840715372 -0.41392920709166731 0 0.33245345362455031 -0.40032595311814939 0 0.32624946620511269 -0.42843209021644713 0 0.33510140247251791 -0.41699220804280568 0 0.33884928849655221 -0.43263778147234683 0 0.32728389145324921 -0.43871217924688999 0 0.32624946620511269 -0.42843209021644713 0 0.33884928849655221 -0.43263778147234683 0 0.35588954706562459 -0.4392071586946687 0 0.33884928849655221 -0.43263778147234683 0 0.35318870840715372 -0.41392920709166731 0 0.35588954706562459 -0.4392071586946687 0 0.3714655793476489 -0.4209564273317502 0 0.35318870840715372 -0.41392920709166731 0 0.37597054724784068 -0.43873143187693919 0 0.35588954706562459 -0.4392071586946687 0 0.3714655793476489 -0.4209564273317502 0 0.37689021367216358 -0.40085576919269328 0 0.3714655793476489 -0.4209564273317502 0 0.35318870840715372 -0.41392920709166731 0 0.37689021367216358 -0.40085576919269328 0 0.35318870840715372 -0.41392920709166731 0 0.35318870840715372 -0.41392920709166731 0 0.34772310003268292 -0.39194293171339217 0 0.33245345362455031 -0.40032595311814939 0 0.35318870840715372 -0.41392920709166731 0 0.34772310003268292 -0.39194293171339217 0 0.36355153599270162 -0.39102919743736531 0 0.37689021367216358 -0.40085576919269328 0 0.35318870840715372 -0.41392920709166731 0 0.36355153599270162 -0.39102919743736531 0 0.37958908542395742 -0.38416722440891471 0 0.37689021367216358 -0.40085576919269328 0 0.36355153599270162 -0.39102919743736531 0 0.37958908542395742 -0.38416722440891471 0 0.36355153599270162 -0.39102919743736531 0 0.36626664886369342 -0.3738197536766566 0 0.36355153599270162 -0.39102919743736531 0 0.35590002001242649 -0.38443140095736272 0 0.36626664886369342 -0.3738197536766566 0 0.35590002001242649 -0.38443140095736272 0 0.34721310684211032 -0.38155297508692448 0 0.36626664886369342 -0.3738197536766566 0 0.34721310684211032 -0.38155297508692448 0 0.36626664886369342 -0.3738197536766566 0 0.3372533611944486 -0.37337518381761248 0 0.34772310003268292 -0.39194293171339217 0 0.36355153599270162 -0.39102919743736531 0 0.35590002001242649 -0.38443140095736272 0 0.34772310003268292 -0.39194293171339217 0 0.35590002001242649 -0.38443140095736272 0 0.34721310684211032 -0.38155297508692448 0 0.34772310003268292 -0.39194293171339217 0 0.34721310684211032 -0.38155297508692448 0 0.33123102747026423 -0.38543411343937339 0 0.34721310684211032 -0.38155297508692448 0 0.33123102747026423 -0.38543411343937339 0 0.3372533611944486 -0.37337518381761248 0 0.33123102747026423 -0.38543411343937339 0 0.3372533611944486 -0.37337518381761248 0 0.31905133501054411 -0.36807883540392761 0 0.34772310003268292 -0.39194293171339217 0 0.33123102747026423 -0.38543411343937339 0 0.33245345362455031 -0.40032595311814939 0 0.31658777711581459 -0.41426071078042731 0 0.31621874325098592 -0.38682294081449198 0 0.33123102747026423 -0.38543411343937339 0 0.33245345362455031 -0.40032595311814939 0 0.31621874325098592 -0.38682294081449198 0 0.31658777711581459 -0.41426071078042731 0 0.33245345362455031 -0.40032595311814939 0 0.31621874325098592 -0.38682294081449198 0 0.31658777711581459 -0.41426071078042731 0 0.31621874325098592 -0.38682294081449198 0 0.30829473344363079 -0.39996149599862729 0 0.31621874325098592 -0.38682294081449198 0 0.30726695456248448 -0.37588407282156461 0 0.31905133501054411 -0.36807883540392761 0 0.33123102747026423 -0.38543411343937339 0 0.31621874325098592 -0.38682294081449198 0 0.31905133501054411 -0.36807883540392761 0 0.31621874325098592 -0.38682294081449198 0 0.29875017015965832 -0.38875819689287178 0 0.30726695456248448 -0.37588407282156461 0 0.29875017015965832 -0.38875819689287178 0 0.29587809707125212 -0.36751225827902501 0 0.29875017015965832 -0.38875819689287178 0 0.30726695456248448 -0.37588407282156461 0 0.29587809707125212 -0.36751225827902501 0 0.29875017015965832 -0.38875819689287178 0 0.29357127839658492 -0.38192336768013102 0 0.30162224324806458 -0.41000413550671838 0 0.29875017015965832 -0.38875819689287178 0 0.30162224324806458 -0.41000413550671838 0 0.29357127839658492 -0.38192336768013102 0 0.30162224324806458 -0.41000413550671838 0 0.29875017015965832 -0.38875819689287178 0 0.30829473344363079 -0.39996149599862729 0 0.30162224324806458 -0.41000413550671838 0 0.31621874325098592 -0.38682294081449198 0 0.29875017015965832 -0.38875819689287178 0 0.30829473344363079 -0.39996149599862729 0 0.29357127839658492 -0.38192336768013102 0 0.28006658890870911 -0.39485910230645199 0 0.30162224324806458 -0.41000413550671838 0 0.28006658890870911 -0.39485910230645199 0 0.29134187353514862 -0.41364907449129712 0 0.30162224324806458 -0.41000413550671838 0 0.29875017015965832 -0.38875819689287178 0 0.29357127839658492 -0.38192336768013102 0 0.29587809707125212 -0.36751225827902501 0 0.29357127839658492 -0.38192336768013102 0 0.28006658890870911 -0.39485910230645199 0 0.28419461098319748 -0.37071241035270458 0 0.28006658890870911 -0.39485910230645199 0 0.28419461098319748 -0.37071241035270458 0 0.27000758913651263 -0.38175852856128062 0 0.26192604574643119 -0.3924367234911858 0 0.28006658890870911 -0.39485910230645199 0 0.27000758913651263 -0.38175852856128062 0 0.28006658890870911 -0.39485910230645199 0 0.28419461098319748 -0.37071241035270458 0 0.27000758913651263 -0.38175852856128062 0 0.27201687660474527 -0.36942602927988938 0 0.26093370216372819 -0.37414899814628461 0 0.27000758913651263 -0.38175852856128062 0 0.25674494122947611 -0.38255006011579429 0 0.26093370216372819 -0.37414899814628461 0 0.25674494122947611 -0.38255006011579429 0 0.26192604574643119 -0.3924367234911858 0 0.243707760799101 -0.39069278572709643 0 0.27000758913651263 -0.38175852856128062 0 0.25674494122947611 -0.38255006011579429 0 0.26192604574643119 -0.3924367234911858 0 0.25674494122947611 -0.38255006011579429 0 0.26093370216372819 -0.37414899814628461 0 0.2471496083016074 -0.37371326465312449 0 0.26276909196271292 -0.41310045356741049 0 0.24550816276710241 -0.40308941675492183 0 0.243707760799101 -0.39069278572709643 0 0.26192604574643119 -0.3924367234911858 0 0.26276909196271292 -0.41310045356741049 0 0.243707760799101 -0.39069278572709643 0 0.26276909196271292 -0.41310045356741049 0 0.243707760799101 -0.39069278572709643 0 0.26192604574643119 -0.3924367234911858 0 0.27007336723918479 -0.40416858807962641 0 0.26276909196271292 -0.41310045356741049 0 0.26192604574643119 -0.3924367234911858 0 0.27007336723918479 -0.40416858807962641 0 0.28006658890870911 -0.39485910230645199 0 0.27007336723918479 -0.40416858807962641 0 0.28006658890870911 -0.39485910230645199 0 0.27593856683422069 -0.41900579426019918 0 0.28006658890870911 -0.39485910230645199 0 0.27593856683422069 -0.41900579426019918 0 0.27593856683422069 -0.41900579426019918 0 0.26276909196271292 -0.41310045356741049 0 0.26198187283402352 -0.42857883197297991 0 0.27007336723918479 -0.40416858807962641 0 0.27593856683422069 -0.41900579426019918 0 0.26276909196271292 -0.41310045356741049 0 0.26276909196271292 -0.41310045356741049 0 0.24830805512212459 -0.4212844528229146 0 0.24550816276710241 -0.40308941675492183 0 0.26276909196271292 -0.41310045356741049 0 0.26198187283402352 -0.42857883197297991 0 0.24830805512212459 -0.4212844528229146 0 0.26198187283402352 -0.42857883197297991 0 0.2441915696309368 -0.44293034679538912 0 0.24830805512212459 -0.4212844528229146 0 0.27593856683422069 -0.41900579426019918 0 0.26198187283402352 -0.42857883197297991 0 0.27181054475973232 -0.44315248621394637 0 0.27593856683422069 -0.41900579426019918 0 0.28542847750996209 -0.43434477315676362 0 0.27181054475973232 -0.44315248621394637 0 0.27593856683422069 -0.41900579426019918 0 0.27181054475973232 -0.44315248621394637 0 0.28542847750996209 -0.43434477315676362 0 0.29532736990172492 -0.43121945978065362 0 0.29248183410762962 -0.44096878351526703 0 0.28542847750996209 -0.43434477315676362 0 0.29532736990172492 -0.43121945978065362 0 0.28906711285257108 -0.42359905534303738 0 0.29532736990172492 -0.43121945978065362 0 0.30127957941185329 -0.44008008543441102 0 0.29248183410762962 -0.44096878351526703 0 0.29532736990172492 -0.43121945978065362 0 0.28906711285257108 -0.42359905534303738 0 0.29727601114853502 -0.42154686516685641 0 0.27593856683422069 -0.41900579426019918 0 0.28542847750996209 -0.43434477315676362 0 0.28906711285257108 -0.42359905534303738 0 0.28006658890870911 -0.39485910230645199 0 0.27593856683422069 -0.41900579426019918 0 0.29134187353514862 -0.41364907449129712 0 0.27593856683422069 -0.41900579426019918 0 0.28906711285257108 -0.42359905534303738 0 0.29134187353514862 -0.41364907449129712 0 0.28906711285257108 -0.42359905534303738 0 0.29134187353514862 -0.41364907449129712 0 0.29727601114853502 -0.42154686516685641 0 0.29134187353514862 -0.41364907449129712 0 0.29727601114853502 -0.42154686516685641 0 0.30244189383494291 -0.41286297519284909 0 0.29727601114853502 -0.42154686516685641 0 0.30244189383494291 -0.41286297519284909 0 0.30643120437979859 -0.42677719606758679 0 0.30244189383494291 -0.41286297519284909 0 0.30643120437979859 -0.42677719606758679 0 0.29134187353514862 -0.41364907449129712 0 0.30244189383494291 -0.41286297519284909 0 0.30162224324806458 -0.41000413550671838 0 0.30244189383494291 -0.41286297519284909 0 0.30162224324806458 -0.41000413550671838 0 0.31658777711581459 -0.41426071078042731 0 0.30244189383494291 -0.41286297519284909 0 0.30162224324806458 -0.41000413550671838 0 0.31658777711581459 -0.41426071078042731 0 0.30829473344363079 -0.39996149599862729 0 0.30162224324806458 -0.41000413550671838 0 0.31658777711581459 -0.41426071078042731 0 0.30244189383494291 -0.41286297519284909 0 0.30643120437979859 -0.42677719606758679 0 0.30643120437979859 -0.42677719606758679 0 0.31124016551153227 -0.44355025662845532 0 0.31695681098064332 -0.44169848074636231 0 0.30643120437979859 -0.42677719606758679 0 0.31124016551153227 -0.44355025662845532 0 0.30643120437979859 -0.42677719606758679 0 0.30127957941185329 -0.44008008543441102 0 0.31124016551153227 -0.44355025662845532 0 0.29532736990172492 -0.43121945978065362 0 0.30643120437979859 -0.42677719606758679 0 0.30127957941185329 -0.44008008543441102 0 0.29532736990172492 -0.43121945978065362 0 0.29727601114853502 -0.42154686516685641 0 0.30643120437979859 -0.42677719606758679 0 0.30406088851001523 -0.45008932002827351 0 0.29506721319986001 -0.45730998069801082 0 0.29589140170354988 -0.4481197318843676 0 0.30406088851001523 -0.45008932002827351 0 0.30127957941185329 -0.44008008543441102 0 0.29589140170354988 -0.4481197318843676 0 0.30406088851001523 -0.45008932002827351 0 0.30127957941185329 -0.44008008543441102 0 0.31124016551153227 -0.44355025662845532 0 0.31356645812783529 -0.44670655640163809 0 0.30406088851001523 -0.45008932002827351 0 0.30361578093284292 -0.45947838179518091 0 0.31356645812783529 -0.44670655640163809 0 0.30406088851001523 -0.45008932002827351 0 0.31124016551153227 -0.44355025662845532 0 0.31356645812783529 -0.44670655640163809 0 0.30361578093284292 -0.45947838179518091 0 0.30845624819629108 -0.47335327820081979 0 0.31356645812783529 -0.44670655640163809 0 0.30845624819629108 -0.47335327820081979 0 0.30361578093284292 -0.45947838179518091 0 0.29506721319986001 -0.45730998069801082 0 0.2950995936378682 -0.4664663672298488 0 0.30361578093284292 -0.45947838179518091 0 0.2950995936378682 -0.4664663672298488 0 0.30845624819629108 -0.47335327820081979 0 0.30406088851001523 -0.45008932002827351 0 0.30361578093284292 -0.45947838179518091 0 0.29506721319986001 -0.45730998069801082 0 0.29506721319986001 -0.45730998069801082 0 0.2950995936378682 -0.4664663672298488 0 0.28202979115145499 -0.46265905731706802 0 0.29506721319986001 -0.45730998069801082 0 0.28202979115145499 -0.46265905731706802 0 0.28575781195358502 -0.44861605858039377 0 0.29506721319986001 -0.45730998069801082 0 0.28575781195358502 -0.44861605858039377 0 0.29589140170354988 -0.4481197318843676 0 0.28575781195358502 -0.44861605858039377 0 0.29589140170354988 -0.4481197318843676 0 0.29248183410762962 -0.44096878351526703 0 0.30127957941185329 -0.44008008543441102 0 0.29589140170354988 -0.4481197318843676 0 0.29248183410762962 -0.44096878351526703 0 0.28542847750996209 -0.43434477315676362 0 0.28575781195358502 -0.44861605858039377 0 0.29248183410762962 -0.44096878351526703 0 0.28542847750996209 -0.43434477315676362 0 0.28575781195358502 -0.44861605858039377 0 0.27181054475973232 -0.44315248621394637 0 0.28202979115145499 -0.46265905731706802 0 0.28575781195358502 -0.44861605858039377 0 0.27181054475973232 -0.44315248621394637 0 0.27181054475973232 -0.44315248621394637 0 0.25056920823421691 -0.46279726953252331 0 0.2441915696309368 -0.44293034679538912 0 0.26198187283402352 -0.42857883197297991 0 0.27181054475973232 -0.44315248621394637 0 0.2441915696309368 -0.44293034679538912 0 0.27181054475973232 -0.44315248621394637 0 0.25056920823421691 -0.46279726953252331 0 0.2676825226852439 -0.46729917816769362 0 0.28202979115145499 -0.46265905731706802 0 0.27181054475973232 -0.44315248621394637 0 0.2676825226852439 -0.46729917816769362 0 0.27181054475973232 -0.44315248621394637 0 0.2676825226852439 -0.46729917816769362 0 0.2676825226852439 -0.46729917816769362 0 0.26981406869158953 -0.48216682086473578 0 0.28632893470889192 -0.47953113813816428 0 0.28202979115145499 -0.46265905731706802 0 0.2676825226852439 -0.46729917816769362 0 0.28632893470889192 -0.47953113813816428 0 0.25056920823421691 -0.46279726953252331 0 0.2676825226852439 -0.46729917816769362 0 0.25116524377074317 -0.48183696715308538 0 0.2676825226852439 -0.46729917816769362 0 0.26981406869158953 -0.48216682086473578 0 0.25116524377074317 -0.48183696715308538 0 0.25116524377074317 -0.48183696715308538 0 0.27407957360147922 -0.5 0 0.24481310893821151 -0.5 0 0.26981406869158953 -0.48216682086473578 0 0.25116524377074317 -0.48183696715308538 0 0.27407957360147922 -0.5 0 0.26981406869158953 -0.48216682086473578 0 0.27407957360147922 -0.5 0 0.28632893470889192 -0.47953113813816428 0 0.27407957360147922 -0.5 0 0.28632893470889192 -0.47953113813816428 0 0.30334603826474649 -0.50000000000000155 0 0.2950995936378682 -0.4664663672298488 0 0.28632893470889192 -0.47953113813816428 0 0.30845624819629108 -0.47335327820081979 0 0.2950995936378682 -0.4664663672298488 0 0.28202979115145499 -0.46265905731706802 0 0.28632893470889192 -0.47953113813816428 0 0.28632893470889192 -0.47953113813816428 0 0.30845624819629108 -0.47335327820081979 0 0.30334603826474649 -0.50000000000000155 0 0.30845624819629108 -0.47335327820081979 0 0.30334603826474649 -0.50000000000000155 0 0.3205409254934557 -0.48450413714884688 0 0.30845624819629108 -0.47335327820081979 0 0.30334603826474649 -0.50000000000000155 0 0.34266697448133371 -0.28234599179004799 0 0.34101799672488581 -0.29767344916675242 0 0.32560708406488997 -0.29342030289673482 0 0.34266697448133371 -0.28234599179004799 0 0.32560708406488997 -0.29342030289673482 0 0.32691080881567203 -0.27431520734356202 0 0.34101799672488581 -0.29767344916675242 0 0.34899201390731438 -0.31411330367675699 0 0.32125548283550692 -0.31767507008138479 0 0.34101799672488581 -0.29767344916675242 0 0.32125548283550692 -0.31767507008138479 0 0.34101799672488581 -0.29767344916675242 0 0.32560708406488997 -0.29342030289673482 0 0.32125548283550692 -0.31767507008138479 0 0.32560708406488997 -0.29342030289673482 0 0.32125548283550692 -0.31767507008138479 0 0.30867818512353362 -0.30183768037143649 0 0.32560708406488997 -0.29342030289673482 0 0.31311305640840859 -0.28667441862722542 0 0.32691080881567203 -0.27431520734356202 0 0.32560708406488997 -0.29342030289673482 0 0.31311305640840859 -0.28667441862722542 0 0.30867818512353362 -0.30183768037143649 0 0.31311305640840859 -0.28667441862722542 0 0.32691080881567203 -0.27431520734356202 0 0.30425082405790949 -0.27588647493474289 0 0.32691080881567203 -0.27431520734356202 0 0.32971513663461421 -0.25627368788503341 0 0.30582522585630217 -0.26032264718557557 0 0.32971513663461421 -0.25627368788503341 0 0.30582522585630217 -0.26032264718557557 0 0.30707304683279413 -0.24470768234974569 0 0.32971513663461421 -0.25627368788503341 0 0.30582522585630217 -0.26032264718557557 0 0.32971513663461421 -0.25627368788503341 0 0.35360504741292609 -0.25222472858449141 0 0.33744064244568772 -0.24264398240295029 0 0.32971513663461421 -0.25627368788503341 0 0.35360504741292609 -0.25222472858449141 0 0.32971513663461421 -0.25627368788503341 0 0.34390593319476193 -0.26746727270005177 0 0.35360504741292609 -0.25222472858449141 0 0.34266697448133371 -0.28234599179004799 0 0.32691080881567203 -0.27431520734356202 0 0.34390593319476193 -0.26746727270005177 0 0.32691080881567203 -0.27431520734356202 0 0.32971513663461421 -0.25627368788503341 0 0.34390593319476193 -0.26746727270005177 0 0.34266697448133371 -0.28234599179004799 0 0.34390593319476193 -0.26746727270005177 0 0.36052628220603572 -0.27546773193038532 0 0.35360504741292609 -0.25222472858449141 0 0.36052628220603572 -0.27546773193038532 0 0.34390593319476193 -0.26746727270005177 0 0.35360504741292609 -0.25222472858449141 0 0.36052628220603572 -0.27546773193038532 0 0.35360504741292609 -0.25222472858449141 0 0.35986535233582162 -0.25630737445299329 0 0.36052628220603572 -0.27546773193038532 0 0.35768305431110142 -0.25153357137962479 0 0.35360504741292609 -0.25222472858449141 0 0.35655655375839651 -0.24749973360468461 0 0.35768305431110142 -0.25153357137962479 0 0.35360504741292609 -0.25222472858449141 0 0.35768305431110142 -0.25153357137962479 0 0.35360504741292609 -0.25222472858449141 0 0.35986535233582162 -0.25630737445299329 0 0.35768305431110142 -0.25153357137962479 0 0.36471953922078032 -0.25120261996225779 0 0.35986535233582162 -0.25630737445299329 0 0.36093225594175782 -0.24740303344352771 0 0.35768305431110142 -0.25153357137962479 0 0.36471953922078032 -0.25120261996225779 0 0.36471953922078032 -0.25120261996225779 0 0.35986535233582162 -0.25630737445299329 0 0.36620492809700178 -0.25673908071635521 0 0.35986535233582162 -0.25630737445299329 0 0.36620492809700178 -0.25673908071635521 0 0.36593064471749698 -0.26642583402981401 0 0.36620492809700178 -0.25673908071635521 0 0.37183506152775803 -0.2582963166598275 0 0.36593064471749698 -0.26642583402981401 0 0.37815989260025612 -0.26709046176133588 0 0.37183506152775803 -0.2582963166598275 0 0.36593064471749698 -0.26642583402981401 0 0.37156235643447938 -0.24778879157739861 0 0.36471953922078032 -0.25120261996225779 0 0.36620492809700178 -0.25673908071635521 0 0.37156235643447938 -0.24778879157739861 0 0.36620492809700178 -0.25673908071635521 0 0.37183506152775803 -0.2582963166598275 0 0.38173118148199547 -0.28070026307683738 0 0.36593064471749698 -0.26642583402981401 0 0.36957120294678197 -0.28151058606958818 0 0.35986535233582162 -0.25630737445299329 0 0.36957120294678197 -0.28151058606958818 0 0.35986535233582162 -0.25630737445299329 0 0.36593064471749698 -0.26642583402981401 0 0.36957120294678197 -0.28151058606958818 0 0.35986535233582162 -0.25630737445299329 0 0.36052628220603572 -0.27546773193038532 0 0.36957120294678197 -0.28151058606958818 0 0.37927705355774249 -0.30671379768618301 0 0.36957120294678197 -0.28151058606958818 0 0.36052628220603572 -0.27546773193038532 0 0.36957120294678197 -0.28151058606958818 0 0.36744751699914718 -0.29871073527627862 0 0.36052628220603572 -0.27546773193038532 0 0.36744751699914718 -0.29871073527627862 0 0.36052628220603572 -0.27546773193038532 0 0.35457315635134939 -0.29020058400563808 0 0.36744751699914718 -0.29871073527627862 0 0.37927705355774249 -0.30671379768618301 0 0.36957120294678197 -0.28151058606958818 0 0.36744751699914718 -0.29871073527627862 0 0.34266697448133371 -0.28234599179004799 0 0.36052628220603572 -0.27546773193038532 0 0.35457315635134939 -0.29020058400563808 0 0.34266697448133371 -0.28234599179004799 0 0.34101799672488581 -0.29767344916675242 0 0.35457315635134939 -0.29020058400563808 0 0.34101799672488581 -0.29767344916675242 0 0.35553279685594258 -0.3028063185006416 0 0.34899201390731438 -0.31411330367675699 0 0.34101799672488581 -0.29767344916675242 0 0.35457315635134939 -0.29020058400563808 0 0.35553279685594258 -0.3028063185006416 0 0.35457315635134939 -0.29020058400563808 0 0.35553279685594258 -0.3028063185006416 0 0.36744751699914718 -0.29871073527627862 0 0.35553279685594258 -0.3028063185006416 0 0.36153616247802678 -0.31259332637900622 0 0.34899201390731438 -0.31411330367675699 0 0.36744751699914718 -0.29871073527627862 0 0.37436875179225892 -0.32195373862217169 0 0.36744751699914718 -0.29871073527627862 0 0.36153616247802678 -0.31259332637900622 0 0.37436875179225892 -0.32195373862217169 0 0.37927705355774249 -0.30671379768618301 0 0.36744751699914718 -0.29871073527627862 0 0.37436875179225892 -0.32195373862217169 0 0.35553279685594258 -0.3028063185006416 0 0.36744751699914718 -0.29871073527627862 0 0.36153616247802678 -0.31259332637900622 0 0.36153616247802678 -0.31259332637900622 0 0.36133973283547072 -0.32538253581918219 0 0.37436875179225892 -0.32195373862217169 0 0.36133973283547072 -0.32538253581918219 0 0.36762010244713411 -0.33909603439963593 0 0.35136990232835091 -0.34117485137579689 0 0.36133973283547072 -0.32538253581918219 0 0.37436875179225892 -0.32195373862217169 0 0.36762010244713411 -0.33909603439963593 0 0.38128998658537039 -0.34519674196806482 0 0.37436875179225892 -0.32195373862217169 0 0.36762010244713411 -0.33909603439963593 0 0.36133973283547072 -0.32538253581918219 0 0.35136990232835091 -0.34117485137579689 0 0.34295408725877619 -0.32685336216652838 0 0.36133973283547072 -0.32538253581918219 0 0.34899201390731438 -0.31411330367675699 0 0.34295408725877619 -0.32685336216652838 0 0.36153616247802678 -0.31259332637900622 0 0.36133973283547072 -0.32538253581918219 0 0.34899201390731438 -0.31411330367675699 0 0.3749224922874127 -0.37000668579765139 0 0.35175633140071239 -0.37214001726892709 0 0.3749224922874127 -0.37000668579765139 0 0.36244420244306291 -0.36247811286952958 0 0.35175633140071239 -0.37214001726892709 0 0.36626664886369342 -0.3738197536766566 0 0.3749224922874127 -0.37000668579765139 0 0.35175633140071239 -0.37214001726892709 0 0.3749224922874127 -0.37000668579765139 0 0.36244420244306291 -0.36247811286952958 0 0.37407496978525789 -0.3592186908318864 0 0.36762010244713411 -0.33909603439963593 0 0.35136990232835091 -0.34117485137579689 0 0.36358493171979078 -0.35140941160840788 0 0.36244420244306291 -0.36247811286952958 0 0.37407496978525789 -0.3592186908318864 0 0.36358493171979078 -0.35140941160840788 0 0.37407496978525789 -0.3592186908318864 0 0.37310812150742212 -0.34978584533321311 0 0.36358493171979078 -0.35140941160840788 0 0.36762010244713411 -0.33909603439963593 0 0.37310812150742212 -0.34978584533321311 0 0.36358493171979078 -0.35140941160840788 0 0.38128998658537039 -0.34519674196806482 0 0.36762010244713411 -0.33909603439963593 0 0.37310812150742212 -0.34978584533321311 0 0.35136990232835091 -0.34117485137579689 0 0.34788228702214052 -0.3596157588407749 0 0.33538314484659132 -0.35032536604155129 0 0.36244420244306291 -0.36247811286952958 0 0.36358493171979078 -0.35140941160840788 0 0.34788228702214052 -0.3596157588407749 0 0.35136990232835091 -0.34117485137579689 0 0.36358493171979078 -0.35140941160840788 0 0.34788228702214052 -0.3596157588407749 0 0.36626664886369342 -0.3738197536766566 0 0.35175633140071239 -0.37214001726892709 0 0.3372533611944486 -0.37337518381761248 0 0.36626664886369342 -0.3738197536766566 0 0.3372533611944486 -0.37337518381761248 0 0.36244420244306291 -0.36247811286952958 0 0.34788228702214052 -0.3596157588407749 0 0.35175633140071239 -0.37214001726892709 0 0.34788228702214052 -0.3596157588407749 0 0.35175633140071239 -0.37214001726892709 0 0.3372533611944486 -0.37337518381761248 0 0.34788228702214052 -0.3596157588407749 0 0.33034891347822742 -0.36272031858053327 0 0.3372533611944486 -0.37337518381761248 0 0.33034891347822742 -0.36272031858053327 0 0.3372533611944486 -0.37337518381761248 0 0.31905133501054411 -0.36807883540392761 0 0.34788228702214052 -0.3596157588407749 0 0.33034891347822742 -0.36272031858053327 0 0.33538314484659132 -0.35032536604155129 0 0.33538314484659132 -0.35032536604155129 0 0.31467105480584429 -0.34963491475112157 0 0.33181330438723811 -0.33592104987952109 0 0.33034891347822742 -0.36272031858053327 0 0.33538314484659132 -0.35032536604155129 0 0.31467105480584429 -0.34963491475112157 0 0.31467105480584429 -0.34963491475112157 0 0.31905133501054411 -0.36807883540392761 0 0.30395077816939192 -0.35666387516255849 0 0.33034891347822742 -0.36272031858053327 0 0.31467105480584429 -0.34963491475112157 0 0.31905133501054411 -0.36807883540392761 0 0.34899201390731438 -0.31411330367675699 0 0.34295408725877619 -0.32685336216652838 0 0.32125548283550692 -0.31767507008138479 0 0.34295408725877619 -0.32685336216652838 0 0.33181330438723811 -0.33592104987952109 0 0.32125548283550692 -0.31767507008138479 0 0.35136990232835091 -0.34117485137579689 0 0.34295408725877619 -0.32685336216652838 0 0.33181330438723811 -0.33592104987952109 0 0.35136990232835091 -0.34117485137579689 0 0.33538314484659132 -0.35032536604155129 0 0.33181330438723811 -0.33592104987952109 0 0.33181330438723811 -0.33592104987952109 0 0.31730820274367949 -0.33522693142701138 0 0.32125548283550692 -0.31767507008138479 0 0.31467105480584429 -0.34963491475112157 0 0.33181330438723811 -0.33592104987952109 0 0.31730820274367949 -0.33522693142701138 0 0.31730820274367949 -0.33522693142701138 0 0.32125548283550692 -0.31767507008138479 0 0.3014929689461287 -0.33767669099601821 0 0.32125548283550692 -0.31767507008138479 0 0.30350217876816887 -0.31912648292043072 0 0.30867818512353362 -0.30183768037143649 0 0.32125548283550692 -0.31767507008138479 0 0.30350217876816887 -0.31912648292043072 0 0.3014929689461287 -0.33767669099601821 0 0.32125548283550692 -0.31767507008138479 0 0.3014929689461287 -0.33767669099601821 0 0.31467105480584429 -0.34963491475112157 0 0.31730820274367949 -0.33522693142701138 0 0.3014929689461287 -0.33767669099601821 0 0.30350217876816887 -0.31912648292043072 0 0.3014929689461287 -0.33767669099601821 0 0.29049585706548919 -0.3276975539704674 0 0.31467105480584429 -0.34963491475112157 0 0.3014929689461287 -0.33767669099601821 0 0.3014929689461287 -0.33767669099601821 0 0.29300602398284609 -0.3462663196651784 0 0.29049585706548919 -0.3276975539704674 0 0.29300602398284609 -0.3462663196651784 0 0.27957947137234368 -0.33312167847018431 0 0.3014929689461287 -0.33767669099601821 0 0.29049585706548919 -0.3276975539704674 0 0.3014929689461287 -0.33767669099601821 0 0.29049585706548919 -0.3276975539704674 0 0.29300602398284609 -0.3462663196651784 0 0.28552031354510521 -0.35384259985354333 0 0.27957947137234368 -0.33312167847018431 0 0.29049585706548919 -0.3276975539704674 0 0.29300602398284609 -0.3462663196651784 0 0.29049585706548919 -0.3276975539704674 0 0.28709882869039349 -0.30256829921086748 0 0.30350217876816887 -0.31912648292043072 0 0.29049585706548919 -0.3276975539704674 0 0.28709882869039349 -0.30256829921086748 0 0.29049585706548919 -0.3276975539704674 0 0.27363862919958321 -0.31240075708682502 0 0.29049585706548919 -0.3276975539704674 0 0.27363862919958321 -0.31240075708682502 0 0.28709882869039349 -0.30256829921086748 0 0.30726695456248448 -0.37588407282156461 0 0.31905133501054411 -0.36807883540392761 0 0.30395077816939192 -0.35666387516255849 0 0.30726695456248448 -0.37588407282156461 0 0.30395077816939192 -0.35666387516255849 0 0.29587809707125212 -0.36751225827902501 0 0.3014929689461287 -0.33767669099601821 0 0.30395077816939192 -0.35666387516255849 0 0.29300602398284609 -0.3462663196651784 0 0.31467105480584429 -0.34963491475112157 0 0.3014929689461287 -0.33767669099601821 0 0.30395077816939192 -0.35666387516255849 0 0.30395077816939192 -0.35666387516255849 0 0.29300602398284609 -0.3462663196651784 0 0.29587809707125212 -0.36751225827902501 0 0.29300602398284609 -0.3462663196651784 0 0.28552031354510521 -0.35384259985354333 0 0.27957947137234368 -0.33312167847018431 0 0.29300602398284609 -0.3462663196651784 0 0.29587809707125212 -0.36751225827902501 0 0.29300602398284609 -0.3462663196651784 0 0.28552031354510521 -0.35384259985354333 0 0.29587809707125212 -0.36751225827902501 0 0.29300602398284609 -0.3462663196651784 0 0.28552031354510521 -0.35384259985354333 0 0.28552031354510521 -0.35384259985354333 0 0.27961304993715791 -0.35982133555439388 0 0.29357127839658492 -0.38192336768013102 0 0.28552031354510521 -0.35384259985354333 0 0.29357127839658492 -0.38192336768013102 0 0.28552031354510521 -0.35384259985354333 0 0.29587809707125212 -0.36751225827902501 0 0.29357127839658492 -0.38192336768013102 0 0.28552031354510521 -0.35384259985354333 0 0.28419461098319748 -0.37071241035270458 0 0.28552031354510521 -0.35384259985354333 0 0.28419461098319748 -0.37071241035270458 0 0.27961304993715791 -0.35982133555439388 0 0.27201687660474527 -0.36942602927988938 0 0.26457888767226762 -0.36509642065033587 0 0.26093370216372819 -0.37414899814628461 0 0.27000758913651263 -0.38175852856128062 0 0.28419461098319748 -0.37071241035270458 0 0.27201687660474527 -0.36942602927988938 0 0.28419461098319748 -0.37071241035270458 0 0.27201687660474527 -0.36942602927988938 0 0.27961304993715791 -0.35982133555439388 0 0.27201687660474527 -0.36942602927988938 0 0.27961304993715791 -0.35982133555439388 0 0.27097651410634682 -0.360840928710216 0 0.27201687660474527 -0.36942602927988938 0 0.27097651410634682 -0.360840928710216 0 0.26457888767226762 -0.36509642065033587 0 0.27097651410634682 -0.360840928710216 0 0.26363156025915319 -0.357637059482457 0 0.26457888767226762 -0.36509642065033587 0 0.28552031354510521 -0.35384259985354333 0 0.27176163088931471 -0.3477751192698641 0 0.27957947137234368 -0.33312167847018431 0 0.27097651410634682 -0.360840928710216 0 0.27176163088931471 -0.3477751192698641 0 0.26363156025915319 -0.357637059482457 0 0.28552031354510521 -0.35384259985354333 0 0.27961304993715791 -0.35982133555439388 0 0.27176163088931471 -0.3477751192698641 0 0.27961304993715791 -0.35982133555439388 0 0.27097651410634682 -0.360840928710216 0 0.27176163088931471 -0.3477751192698641 0 0.25370149673836367 -0.34777205731706889 0 0.26363156025915319 -0.357637059482457 0 0.25533578522736472 -0.36342908763283249 0 0.25370149673836367 -0.34777205731706889 0 0.25533578522736472 -0.36342908763283249 0 0.2422550263352192 -0.36032824125058599 0 0.27176163088931471 -0.3477751192698641 0 0.25370149673836367 -0.34777205731706889 0 0.26363156025915319 -0.357637059482457 0 0.26363156025915319 -0.357637059482457 0 0.26457888767226762 -0.36509642065033587 0 0.25533578522736472 -0.36342908763283249 0 0.25533578522736472 -0.36342908763283249 0 0.26093370216372819 -0.37414899814628461 0 0.2471496083016074 -0.37371326465312449 0 0.26457888767226762 -0.36509642065033587 0 0.25533578522736472 -0.36342908763283249 0 0.26093370216372819 -0.37414899814628461 0 0.27957947137234368 -0.33312167847018431 0 0.2629306942622226 -0.32855854838515419 0 0.27363862919958321 -0.31240075708682502 0 0.27957947137234368 -0.33312167847018431 0 0.27363862919958321 -0.31240075708682502 0 0.29049585706548919 -0.3276975539704674 0 0.27957947137234368 -0.33312167847018431 0 0.27363862919958321 -0.31240075708682502 0 0.27176163088931471 -0.3477751192698641 0 0.27957947137234368 -0.33312167847018431 0 0.2629306942622226 -0.32855854838515419 0 0.25370149673836367 -0.34777205731706889 0 0.2629306942622226 -0.32855854838515419 0 0.2443175155229193 -0.32871409787887917 0 0.27176163088931471 -0.3477751192698641 0 0.25370149673836367 -0.34777205731706889 0 0.2629306942622226 -0.32855854838515419 0 0.2629306942622226 -0.32855854838515419 0 0.25220610996838949 -0.31305345767134202 0 0.2443175155229193 -0.32871409787887917 0 0.2629306942622226 -0.32855854838515419 0 0.25220610996838949 -0.31305345767134202 0 0.27363862919958321 -0.31240075708682502 0 0.25220610996838949 -0.31305345767134202 0 0.25395653443885929 -0.29454058409786432 0 0.24524667439442449 -0.28851368250530413 0 0.25395653443885929 -0.29454058409786432 0 0.27363862919958321 -0.31240075708682502 0 0.25220610996838949 -0.31305345767134202 0 0.25395653443885929 -0.29454058409786432 0 0.27363862919958321 -0.31240075708682502 0 0.25395653443885929 -0.29454058409786432 0 0.26514689641768152 -0.28278264533340619 0 0.24524667439442449 -0.28851368250530413 0 0.26514689641768152 -0.28278264533340619 0 0.25608488911752281 -0.27702281654080518 0 0.24524667439442449 -0.28851368250530413 0 0.26514689641768152 -0.28278264533340619 0 0.24524667439442449 -0.28851368250530413 0 0.25395653443885929 -0.29454058409786432 0 0.26514689641768152 -0.28278264533340619 0 0.26939276280863211 -0.29759170121011569 0 0.26514689641768152 -0.28278264533340619 0 0.27633507205800162 -0.29009542255141418 0 0.28370180031529868 -0.27743904445126738 0 0.27633507205800162 -0.29009542255141418 0 0.26939276280863211 -0.29759170121011569 0 0.28709882869039349 -0.30256829921086748 0 0.26514689641768152 -0.28278264533340619 0 0.26939276280863211 -0.29759170121011569 0 0.26514689641768152 -0.28278264533340619 0 0.27633507205800162 -0.29009542255141418 0 0.26939276280863211 -0.29759170121011569 0 0.25395653443885929 -0.29454058409786432 0 0.26939276280863211 -0.29759170121011569 0 0.27363862919958321 -0.31240075708682502 0 0.26939276280863211 -0.29759170121011569 0 0.27363862919958321 -0.31240075708682502 0 0.28709882869039349 -0.30256829921086748 0 0.26939276280863211 -0.29759170121011569 0 0.27363862919958321 -0.31240075708682502 0 0.28709882869039349 -0.30256829921086748 0 0.28370180031529868 -0.27743904445126738 0 0.28709882869039349 -0.30256829921086748 0 0.29731344097545942 -0.28719306649486548 0 0.28370180031529868 -0.27743904445126738 0 0.27633507205800162 -0.29009542255141418 0 0.28709882869039349 -0.30256829921086748 0 0.28370180031529868 -0.27743904445126738 0 0.31311305640840859 -0.28667441862722542 0 0.29731344097545942 -0.28719306649486548 0 0.30867818512353362 -0.30183768037143649 0 0.31311305640840859 -0.28667441862722542 0 0.29731344097545942 -0.28719306649486548 0 0.30425082405790949 -0.27588647493474289 0 0.30350217876816887 -0.31912648292043072 0 0.28709882869039349 -0.30256829921086748 0 0.30867818512353362 -0.30183768037143649 0 0.28709882869039349 -0.30256829921086748 0 0.29731344097545942 -0.28719306649486548 0 0.30867818512353362 -0.30183768037143649 0 0.30707304683279413 -0.24470768234974569 0 0.30582522585630217 -0.26032264718557557 0 0.2938855435493673 -0.25243579177091169 0 0.30582522585630217 -0.26032264718557557 0 0.30425082405790949 -0.27588647493474289 0 0.28818601225167678 -0.27614764251293228 0 0.32691080881567203 -0.27431520734356202 0 0.30582522585630217 -0.26032264718557557 0 0.30425082405790949 -0.27588647493474289 0 0.30582522585630217 -0.26032264718557557 0 0.28818601225167678 -0.27614764251293228 0 0.2819353150779903 -0.26437160648611779 0 0.29731344097545942 -0.28719306649486548 0 0.30425082405790949 -0.27588647493474289 0 0.28818601225167678 -0.27614764251293228 0 0.29731344097545942 -0.28719306649486548 0 0.28818601225167678 -0.27614764251293228 0 0.28370180031529868 -0.27743904445126738 0 0.28818601225167678 -0.27614764251293228 0 0.28370180031529868 -0.27743904445126738 0 0.28818601225167678 -0.27614764251293228 0 0.28370180031529868 -0.27743904445126738 0 0.2819353150779903 -0.26437160648611779 0 0.28370180031529868 -0.27743904445126738 0 0.2819353150779903 -0.26437160648611779 0 0.2819353150779903 -0.26437160648611779 0 0.28126647134011767 -0.25942388664760568 0 0.30582522585630217 -0.26032264718557557 0 0.2819353150779903 -0.26437160648611779 0 0.2938855435493673 -0.25243579177091169 0 0.30582522585630217 -0.26032264718557557 0 0.2819353150779903 -0.26437160648611779 0 0.2819353150779903 -0.26437160648611779 0 0.28126647134011767 -0.25942388664760568 0 0.2938855435493673 -0.25243579177091169 0 0.27842704466151758 -0.23841944732622511 0 0.28126647134011767 -0.25942388664760568 0 0.27649657611036821 -0.25245644874571171 0 0.27235809219508972 -0.24821515392153251 0 0.27649657611036821 -0.25245644874571171 0 0.27313948332243387 -0.25801641882305842 0 0.27649657611036821 -0.25245644874571171 0 0.27730960063694537 -0.25871960225043039 0 0.27313948332243387 -0.25801641882305842 0 0.28126647134011767 -0.25942388664760568 0 0.27649657611036821 -0.25245644874571171 0 0.27730960063694537 -0.25871960225043039 0 0.28126647134011767 -0.25942388664760568 0 0.27833587177485958 -0.26498165478534491 0 0.27730960063694537 -0.25871960225043039 0 0.2819353150779903 -0.26437160648611779 0 0.28126647134011767 -0.25942388664760568 0 0.27833587177485958 -0.26498165478534491 0 0.28126647134011767 -0.25942388664760568 0 0.27833587177485958 -0.26498165478534491 0 0.2819353150779903 -0.26437160648611779 0 0.27833587177485958 -0.26498165478534491 0 0.27833587177485958 -0.26498165478534491 0 0.27730960063694537 -0.25871960225043039 0 0.27313948332243387 -0.25801641882305842 0 0.27313948332243387 -0.25801641882305842 0 0.26812539399678259 -0.26456529721184552 0 0.26627962694788199 -0.25467557977774707 0 0.27833587177485958 -0.26498165478534491 0 0.27313948332243387 -0.25801641882305842 0 0.26812539399678259 -0.26456529721184552 0 0.27235809219508972 -0.24821515392153251 0 0.27313948332243387 -0.25801641882305842 0 0.26627962694788199 -0.25467557977774707 0 0.27235809219508972 -0.24821515392153251 0 0.26119066106972227 -0.24947327871929251 0 0.26627962694788199 -0.25467557977774707 0 0.27833587177485958 -0.26498165478534491 0 0.25936623561860672 -0.26819670591950318 0 0.26514689641768152 -0.28278264533340619 0 0.28370180031529868 -0.27743904445126738 0 0.27611079521908771 -0.26920142596537722 0 0.27833587177485958 -0.26498165478534491 0 0.26759799324985201 -0.27137879720154912 0 0.25936623561860672 -0.26819670591950318 0 0.27833587177485958 -0.26498165478534491 0 0.26812539399678259 -0.26456529721184552 0 0.25936623561860672 -0.26819670591950318 0 0.26514689641768152 -0.28278264533340619 0 0.28370180031529868 -0.27743904445126738 0 0.28370180031529868 -0.27743904445126738 0 0.2819353150779903 -0.26437160648611779 0 0.27611079521908771 -0.26920142596537722 0 0.27833587177485958 -0.26498165478534491 0 0.27611079521908771 -0.26920142596537722 0 0.26759799324985201 -0.27137879720154912 0 0.2819353150779903 -0.26437160648611779 0 0.27833587177485958 -0.26498165478534491 0 0.27611079521908771 -0.26920142596537722 0 0.27833587177485958 -0.26498165478534491 0 0.27611079521908771 -0.26920142596537722 0 0.26514689641768152 -0.28278264533340619 0 0.27611079521908771 -0.26920142596537722 0 0.26759799324985201 -0.27137879720154912 0 0.25936623561860672 -0.26819670591950318 0 0.25608488911752281 -0.27702281654080518 0 0.240396599462354 -0.27141175705366211 0 0.26514689641768152 -0.28278264533340619 0 0.26387415090770561 -0.27834346669739501 0 0.25608488911752281 -0.27702281654080518 0 0.26514689641768152 -0.28278264533340619 0 0.26759799324985201 -0.27137879720154912 0 0.26387415090770561 -0.27834346669739501 0 0.26514689641768152 -0.28278264533340619 0 0.26387415090770561 -0.27834346669739501 0 0.26759799324985201 -0.27137879720154912 0 0.26387415090770561 -0.27834346669739501 0 0.26173081722342167 -0.27373544658981308 0 0.26387415090770561 -0.27834346669739501 0 0.26173081722342167 -0.27373544658981308 0 0.25608488911752281 -0.27702281654080518 0 0.26759799324985201 -0.27137879720154912 0 0.26173081722342167 -0.27373544658981308 0 0.25936623561860672 -0.26819670591950318 0 0.26173081722342167 -0.27373544658981308 0 0.25936623561860672 -0.26819670591950318 0 0.25608488911752281 -0.27702281654080518 0 0.25936623561860672 -0.26819670591950318 0 0.25474187865843811 -0.25527143246304812 0 0.23970678643250451 -0.26897939648660418 0 0.26119066106972227 -0.24947327871929251 0 0.26627962694788199 -0.25467557977774707 0 0.25474187865843811 -0.25527143246304812 0 0.26119066106972227 -0.24947327871929251 0 0.25474187865843811 -0.25527143246304812 0 0.26812539399678259 -0.26456529721184552 0 0.26627962694788199 -0.25467557977774707 0 0.25474187865843811 -0.25527143246304812 0 0.26812539399678259 -0.26456529721184552 0 0.25474187865843811 -0.25527143246304812 0 0.26812539399678259 -0.26456529721184552 0 0.25936623561860672 -0.26819670591950318 0 0.25474187865843811 -0.25527143246304812 0 0.2364052014137788 -0.25733762565763169 0 0.23975951607120169 -0.25670855390486291 0 0.23117875831394971 -0.23890858249388919 0 0.25474187865843811 -0.25527143246304812 0 0.23975951607120169 -0.25670855390486291 0 0.23117875831394971 -0.23890858249388919 0 0.25474187865843811 -0.25527143246304812 0 0.23902872238575371 -0.26658846419352011 0 0.25474187865843811 -0.25527143246304812 0 0.23975951607120169 -0.25670855390486291 0 0.23902872238575371 -0.26658846419352011 0 0.25474187865843811 -0.25527143246304812 0 0.23970678643250451 -0.26897939648660418 0 0.23902872238575371 -0.26658846419352011 0 0.25474187865843811 -0.25527143246304812 0 0.23970678643250451 -0.26897939648660418 0 0.2364052014137788 -0.25733762565763169 0 0.23902872238575371 -0.26658846419352011 0 0.2364052014137788 -0.25733762565763169 0 0.23902872238575371 -0.26658846419352011 0 0.2290316296115317 -0.26486313024266772 0 0.2364052014137788 -0.25733762565763169 0 0.23975951607120169 -0.25670855390486291 0 0.23902872238575371 -0.26658846419352011 0 0.2364052014137788 -0.25733762565763169 0 0.23975951607120169 -0.25670855390486291 0 0.240396599462354 -0.27141175705366211 0 0.24524667439442449 -0.28851368250530413 0 0.240396599462354 -0.27141175705366211 0 0.24524667439442449 -0.28851368250530413 0 0.23485845780079501 -0.2835408048076471 0 0.25608488911752281 -0.27702281654080518 0 0.240396599462354 -0.27141175705366211 0 0.24524667439442449 -0.28851368250530413 0 0.25936623561860672 -0.26819670591950318 0 0.240396599462354 -0.27141175705366211 0 0.25936623561860672 -0.26819670591950318 0 0.23970678643250451 -0.26897939648660418 0 0.240396599462354 -0.27141175705366211 0 0.23902872238575371 -0.26658846419352011 0 0.23064256746546799 -0.27306491009128042 0 0.23902872238575371 -0.26658846419352011 0 0.23627225300748389 -0.27211076807517859 0 0.23064256746546799 -0.27306491009128042 0 0.23970678643250451 -0.26897939648660418 0 0.23902872238575371 -0.26658846419352011 0 0.23627225300748389 -0.27211076807517859 0 0.23970678643250451 -0.26897939648660418 0 0.23902872238575371 -0.26658846419352011 0 0.23970678643250451 -0.26897939648660418 0 0.23627225300748389 -0.27211076807517859 0 0.23970678643250451 -0.26897939648660418 0 0.23627225300748389 -0.27211076807517859 0 0.240396599462354 -0.27141175705366211 0 0.23627225300748389 -0.27211076807517859 0 0.240396599462354 -0.27141175705366211 0 0.23970678643250451 -0.26897939648660418 0 0.240396599462354 -0.27141175705366211 0 0.23627225300748389 -0.27211076807517859 0 0.240396599462354 -0.27141175705366211 0 0.23485845780079501 -0.2835408048076471 0 0.23064256746546799 -0.27306491009128042 0 0.21110228613958371 -0.28815544634265139 0 0.23627225300748389 -0.27211076807517859 0 0.23064256746546799 -0.27306491009128042 0 0.215907404082611 -0.29067803804681008 0 0.22837474716656439 -0.27344926950460718 0 0.23064256746546799 -0.27306491009128042 0 0.21110228613958371 -0.28815544634265139 0 0.23064256746546799 -0.27306491009128042 0 0.22731014661849161 -0.26937068491544319 0 0.2290316296115317 -0.26486313024266772 0 0.23902872238575371 -0.26658846419352011 0 0.23064256746546799 -0.27306491009128042 0 0.2290316296115317 -0.26486313024266772 0 0.22837474716656439 -0.27344926950460718 0 0.23064256746546799 -0.27306491009128042 0 0.22731014661849161 -0.26937068491544319 0 0.22837474716656439 -0.27344926950460718 0 0.23064256746546799 -0.27306491009128042 0 0.23627225300748389 -0.27211076807517859 0 0.23064256746546799 -0.27306491009128042 0 0.22837474716656439 -0.27344926950460718 0 0.2224191001331797 -0.26806372229697167 0 0.21534886057708461 -0.27209437877157211 0 0.22731014661849161 -0.26937068491544319 0 0.2224191001331797 -0.26806372229697167 0 0.2290316296115317 -0.26486313024266772 0 0.22837474716656439 -0.27344926950460718 0 0.22731014661849161 -0.26937068491544319 0 0.2224191001331797 -0.26806372229697167 0 0.2364052014137788 -0.25733762565763169 0 0.2290316296115317 -0.26486313024266772 0 0.21279727788146241 -0.26176508084666528 0 0.2364052014137788 -0.25733762565763169 0 0.21279727788146241 -0.26176508084666528 0 0.212501698291124 -0.24270781522122761 0 0.2224191001331797 -0.26806372229697167 0 0.2290316296115317 -0.26486313024266772 0 0.21279727788146241 -0.26176508084666528 0 0.2364052014137788 -0.25733762565763169 0 0.21279727788146241 -0.26176508084666528 0 0.21534886057708461 -0.27209437877157211 0 0.20444378844348371 -0.27327863675010938 0 0.21110228613958371 -0.28815544634265139 0 0.2224191001331797 -0.26806372229697167 0 0.21279727788146241 -0.26176508084666528 0 0.21534886057708461 -0.27209437877157211 0 0.22837474716656439 -0.27344926950460718 0 0.21534886057708461 -0.27209437877157211 0 0.21110228613958371 -0.28815544634265139 0 0.21279727788146241 -0.26176508084666528 0 0.21534886057708461 -0.27209437877157211 0 0.20444378844348371 -0.27327863675010938 0 0.20444378844348371 -0.27327863675010938 0 0.1937811632701415 -0.27818574175395783 0 0.1891893543491463 -0.26619253603570059 0 0.20444378844348371 -0.27327863675010938 0 0.1937811632701415 -0.27818574175395783 0 0.21110228613958371 -0.28815544634265139 0 0.21279727788146241 -0.26176508084666528 0 0.20444378844348371 -0.27327863675010938 0 0.1891893543491463 -0.26619253603570059 0 0.21279727788146241 -0.26176508084666528 0 0.1891893543491463 -0.26619253603570059 0 0.21279727788146241 -0.26176508084666528 0 0.1891893543491463 -0.26619253603570059 0 0.19041510554842311 -0.24010009916004249 0 0.19156200481369859 -0.30324598259402152 0 0.19554255515773861 -0.30924530801844219 0 0.21110228613958371 -0.28815544634265139 0 0.19156200481369859 -0.30324598259402152 0 0.21110228613958371 -0.28815544634265139 0 0.1937811632701415 -0.27818574175395783 0 0.19156200481369859 -0.30324598259402152 0 0.18307367039974051 -0.28986593852963272 0 0.1937811632701415 -0.27818574175395783 0 0.19156200481369859 -0.30324598259402152 0 0.21110228613958371 -0.28815544634265139 0 0.19554255515773861 -0.30924530801844219 0 0.21110228613958371 -0.28815544634265139 0 0.215907404082611 -0.29067803804681008 0 0.19554255515773861 -0.30924530801844219 0 0.21216596563442849 -0.29804054966059201 0 0.2112097715129691 -0.31455558546777679 0 0.19554255515773861 -0.30924530801844219 0 0.215907404082611 -0.29067803804681008 0 0.21216596563442849 -0.29804054966059201 0 0.21216596563442849 -0.29804054966059201 0 0.22534452610498071 -0.30720854629956662 0 0.2112097715129691 -0.31455558546777679 0 0.19554255515773861 -0.30924530801844219 0 0.215907404082611 -0.29067803804681008 0 0.21216596563442849 -0.29804054966059201 0 0.22534452610498071 -0.30720854629956662 0 0.2287063200144264 -0.29327711608294782 0 0.22534452610498071 -0.30720854629956662 0 0.2287063200144264 -0.29327711608294782 0 0.23783938036610311 -0.30333167429192331 0 0.22534452610498071 -0.30720854629956662 0 0.23783938036610311 -0.30333167429192331 0 0.23966657381566309 -0.31596362624810093 0 0.23064256746546799 -0.27306491009128042 0 0.21110228613958371 -0.28815544634265139 0 0.215907404082611 -0.29067803804681008 0 0.215907404082611 -0.29067803804681008 0 0.2287063200144264 -0.29327711608294782 0 0.23485845780079501 -0.2835408048076471 0 0.23627225300748389 -0.27211076807517859 0 0.215907404082611 -0.29067803804681008 0 0.23485845780079501 -0.2835408048076471 0 0.23627225300748389 -0.27211076807517859 0 0.215907404082611 -0.29067803804681008 0 0.21216596563442849 -0.29804054966059201 0 0.2287063200144264 -0.29327711608294782 0 0.215907404082611 -0.29067803804681008 0 0.21216596563442849 -0.29804054966059201 0 0.2287063200144264 -0.29327711608294782 0 0.2287063200144264 -0.29327711608294782 0 0.24524667439442449 -0.28851368250530413 0 0.2287063200144264 -0.29327711608294782 0 0.24524667439442449 -0.28851368250530413 0 0.23783938036610311 -0.30333167429192331 0 0.2287063200144264 -0.29327711608294782 0 0.24524667439442449 -0.28851368250530413 0 0.23485845780079501 -0.2835408048076471 0 0.25220610996838949 -0.31305345767134202 0 0.24524667439442449 -0.28851368250530413 0 0.25220610996838949 -0.31305345767134202 0 0.24524667439442449 -0.28851368250530413 0 0.23783938036610311 -0.30333167429192331 0 0.25220610996838949 -0.31305345767134202 0 0.23783938036610311 -0.30333167429192331 0 0.23966657381566309 -0.31596362624810093 0 0.23966657381566309 -0.31596362624810093 0 0.2443175155229193 -0.32871409787887917 0 0.22721507120797979 -0.3213420636804073 0 0.25220610996838949 -0.31305345767134202 0 0.23966657381566309 -0.31596362624810093 0 0.2443175155229193 -0.32871409787887917 0 0.25370149673836367 -0.34777205731706889 0 0.2443175155229193 -0.32871409787887917 0 0.23012425489139229 -0.34345411365858841 0 0.2443175155229193 -0.32871409787887917 0 0.23012425489139229 -0.34345411365858841 0 0.22721507120797979 -0.3213420636804073 0 0.23012425489139229 -0.34345411365858841 0 0.22721507120797979 -0.3213420636804073 0 0.21511645041239449 -0.33142309550732152 0 0.22534452610498071 -0.30720854629956662 0 0.22721507120797979 -0.3213420636804073 0 0.2112097715129691 -0.31455558546777679 0 0.22534452610498071 -0.30720854629956662 0 0.23966657381566309 -0.31596362624810093 0 0.22721507120797979 -0.3213420636804073 0 0.2471496083016074 -0.37371326465312449 0 0.2422550263352192 -0.36032824125058599 0 0.22464642963548909 -0.36828511788678231 0 0.25533578522736472 -0.36342908763283249 0 0.2471496083016074 -0.37371326465312449 0 0.2422550263352192 -0.36032824125058599 0 0.25370149673836367 -0.34777205731706889 0 0.23012425489139229 -0.34345411365858841 0 0.2422550263352192 -0.36032824125058599 0 0.23012425489139229 -0.34345411365858841 0 0.2422550263352192 -0.36032824125058599 0 0.22464642963548909 -0.36828511788678231 0 0.23012425489139229 -0.34345411365858841 0 0.22464642963548909 -0.36828511788678231 0 0.20558509847187731 -0.3458774500464683 0 0.22464642963548909 -0.36828511788678231 0 0.20558509847187731 -0.3458774500464683 0 0.19778021896716261 -0.37469753768840192 0 0.22464642963548909 -0.36828511788678231 0 0.20558509847187731 -0.3458774500464683 0 0.20558509847187731 -0.3458774500464683 0 0.19778021896716261 -0.37469753768840192 0 0.18087019939777069 -0.35489545339448242 0 0.22721507120797979 -0.3213420636804073 0 0.2112097715129691 -0.31455558546777679 0 0.21511645041239449 -0.33142309550732152 0 0.2112097715129691 -0.31455558546777679 0 0.21511645041239449 -0.33142309550732152 0 0.1978123500273683 -0.32831568449443371 0 0.23012425489139229 -0.34345411365858841 0 0.20558509847187731 -0.3458774500464683 0 0.21511645041239449 -0.33142309550732152 0 0.20558509847187731 -0.3458774500464683 0 0.21511645041239449 -0.33142309550732152 0 0.1978123500273683 -0.32831568449443371 0 0.20558509847187731 -0.3458774500464683 0 0.1978123500273683 -0.32831568449443371 0 0.18087019939777069 -0.35489545339448242 0 0.19554255515773861 -0.30924530801844219 0 0.1978123500273683 -0.32831568449443371 0 0.17517770623286619 -0.32781257799007418 0 0.19554255515773861 -0.30924530801844219 0 0.2112097715129691 -0.31455558546777679 0 0.1978123500273683 -0.32831568449443371 0 0.19554255515773861 -0.30924530801844219 0 0.17517770623286619 -0.32781257799007418 0 0.19554255515773861 -0.30924530801844219 0 0.17268359650093401 -0.32161253264010309 0 0.17202172348781361 -0.3183365188453916 0 0.19554255515773861 -0.30924530801844219 0 0.17268359650093401 -0.32161253264010309 0 0.17517770623286619 -0.32781257799007418 0 0.1978123500273683 -0.32831568449443371 0 0.17517770623286619 -0.32781257799007418 0 0.18087019939777069 -0.35489545339448242 0 0.17268359650093401 -0.32161253264010309 0 0.15248144216192711 -0.33342705509675991 0 0.15385282866771369 -0.3410461551859223 0 0.17517770623286619 -0.32781257799007418 0 0.15481285730799441 -0.34637984796170679 0 0.15385282866771369 -0.3410461551859223 0 0.17517770623286619 -0.32781257799007418 0 0.15481285730799441 -0.34637984796170679 0 0.17517770623286619 -0.32781257799007418 0 0.18087019939777069 -0.35489545339448242 0 0.15481285730799441 -0.34637984796170679 0 0.17268359650093401 -0.32161253264010309 0 0.17517770623286619 -0.32781257799007418 0 0.15385282866771369 -0.3410461551859223 0 0.17268359650093401 -0.32161253264010309 0 0.15385282866771369 -0.3410461551859223 0 0.17268359650093401 -0.32161253264010309 0 0.17202172348781361 -0.3183365188453916 0 0.15248144216192711 -0.33342705509675991 0 0.17202172348781361 -0.3183365188453916 0 0.15248144216192711 -0.33342705509675991 0 0.17202172348781361 -0.3183365188453916 0 0.15248144216192711 -0.33342705509675991 0 0.14831432090847421 -0.31027551191067809 0 0.18087019939777069 -0.35489545339448242 0 0.15985190689674189 -0.37437561940083708 0 0.17883823062081361 -0.38131901502173932 0 0.19778021896716261 -0.37469753768840192 0 0.18087019939777069 -0.35489545339448242 0 0.17883823062081361 -0.38131901502173932 0 0.18087019939777069 -0.35489545339448242 0 0.15985190689674189 -0.37437561940083708 0 0.15481285730799441 -0.34637984796170679 0 0.15985190689674189 -0.37437561940083708 0 0.15481285730799441 -0.34637984796170679 0 0.15985190689674189 -0.37437561940083708 0 0.14155693699835109 -0.36923924606316172 0 0.1436603321215873 -0.35654795413157481 0 0.13553980930991499 -0.3599454538776013 0 0.15385282866771369 -0.3410461551859223 0 0.15985190689674189 -0.37437561940083708 0 0.1436603321215873 -0.35654795413157481 0 0.15481285730799441 -0.34637984796170679 0 0.13690279282679199 -0.34704134529491831 0 0.13553980930991499 -0.3599454538776013 0 0.15385282866771369 -0.3410461551859223 0 0.1436603321215873 -0.35654795413157481 0 0.13553980930991499 -0.3599454538776013 0 0.15385282866771369 -0.3410461551859223 0 0.1436603321215873 -0.35654795413157481 0 0.15481285730799441 -0.34637984796170679 0 0.15385282866771369 -0.3410461551859223 0 0.1436603321215873 -0.35654795413157481 0 0.15481285730799441 -0.34637984796170679 0 0.12611025469419551 -0.34657644161854001 0 0.1295267384843459 -0.35339824243741269 0 0.12085265325255409 -0.35297492396549851 0 0.13690279282679199 -0.34704134529491831 0 0.12611025469419551 -0.34657644161854001 0 0.1295267384843459 -0.35339824243741269 0 0.1295267384843459 -0.35339824243741269 0 0.13553980930991499 -0.3599454538776013 0 0.1218454054314798 -0.36163876098538622 0 0.13690279282679199 -0.34704134529491831 0 0.1295267384843459 -0.35339824243741269 0 0.13553980930991499 -0.3599454538776013 0 0.13553980930991499 -0.3599454538776013 0 0.11722678995211699 -0.37884475256928091 0 0.13553980930991499 -0.3599454538776013 0 0.13264250069366579 -0.37293898654671259 0 0.11722678995211699 -0.37884475256928091 0 0.14155693699835109 -0.36923924606316172 0 0.1436603321215873 -0.35654795413157481 0 0.13553980930991499 -0.3599454538776013 0 0.14155693699835109 -0.36923924606316172 0 0.13553980930991499 -0.3599454538776013 0 0.13264250069366579 -0.37293898654671259 0 0.15248144216192711 -0.33342705509675991 0 0.14831432090847421 -0.31027551191067809 0 0.15248144216192711 -0.33342705509675991 0 0.13732440278794861 -0.31765902908725452 0 0.14831432090847421 -0.31027551191067809 0 0.13690279282679199 -0.34704134529491831 0 0.15385282866771369 -0.3410461551859223 0 0.1437585704865143 -0.34016354005511867 0 0.15248144216192711 -0.33342705509675991 0 0.1437585704865143 -0.34016354005511867 0 0.13732440278794861 -0.31765902908725452 0 0.15248144216192711 -0.33342705509675991 0 0.15385282866771369 -0.3410461551859223 0 0.1437585704865143 -0.34016354005511867 0 0.15481285730799441 -0.34637984796170679 0 0.15385282866771369 -0.3410461551859223 0 0.15248144216192711 -0.33342705509675991 0 0.15385282866771369 -0.3410461551859223 0 0.15248144216192711 -0.33342705509675991 0 0.1437585704865143 -0.34016354005511867 0 0.13690279282679199 -0.34704134529491831 0 0.128431179022887 -0.32746325010546429 0 0.13732440278794861 -0.31765902908725452 0 0.13690279282679199 -0.34704134529491831 0 0.128431179022887 -0.32746325010546429 0 0.1249235365101648 -0.33602767214691098 0 0.13690279282679199 -0.34704134529491831 0 0.13732440278794861 -0.31765902908725452 0 0.13690279282679199 -0.34704134529491831 0 0.1437585704865143 -0.34016354005511867 0 0.13732440278794861 -0.31765902908725452 0 0.13690279282679199 -0.34704134529491831 0 0.12611025469419551 -0.34657644161854001 0 0.1249235365101648 -0.33602767214691098 0 0.128431179022887 -0.32746325010546429 0 0.12773481768736741 -0.31635837873482991 0 0.1219700001874202 -0.32092131842010307 0 0.128431179022887 -0.32746325010546429 0 0.13732440278794861 -0.31765902908725452 0 0.12773481768736741 -0.31635837873482991 0 0.13732440278794861 -0.31765902908725452 0 0.12773481768736741 -0.31635837873482991 0 0.12810442599866201 -0.30707764536538318 0 0.13732440278794861 -0.31765902908725452 0 0.13774601274910539 -0.28827671287959039 0 0.12810442599866201 -0.30707764536538318 0 0.13774601274910539 -0.28827671287959039 0 0.12262484769184979 -0.3019659851865571 0 0.12773481768736741 -0.31635837873482991 0 0.12810442599866201 -0.30707764536538318 0 0.1205138846428966 -0.31280205985375981 0 0.13732440278794861 -0.31765902908725452 0 0.12810442599866201 -0.30707764536538318 0 0.13774601274910539 -0.28827671287959039 0 0.14831432090847421 -0.31027551191067809 0 0.14414719965502831 -0.28712396872459511 0 0.14831432090847421 -0.31027551191067809 0 0.14414719965502831 -0.28712396872459511 0 0.15864045024687601 -0.29646608002178848 0 0.13732440278794861 -0.31765902908725452 0 0.14831432090847421 -0.31027551191067809 0 0.13774601274910539 -0.28827671287959039 0 0.14414719965502831 -0.28712396872459511 0 0.155166579804739 -0.2788615654005947 0 0.16896418146258491 -0.28265485523927641 0 0.14831432090847421 -0.31027551191067809 0 0.14414719965502831 -0.28712396872459511 0 0.13774601274910539 -0.28827671287959039 0 0.14414719965502831 -0.28712396872459511 0 0.13774601274910539 -0.28827671287959039 0 0.13774601274910539 -0.28827671287959039 0 0.1133054119981933 -0.29267804658133673 0 0.13774601274910539 -0.28827671287959039 0 0.1379249460249985 -0.27580671791564859 0 0.11458848163888451 -0.28018326336652472 0 0.13774601274910539 -0.28827671287959039 0 0.1379249460249985 -0.27580671791564859 0 0.14414719965502831 -0.28712396872459511 0 0.13774601274910539 -0.28827671287959039 0 0.1379249460249985 -0.27580671791564859 0 0.1379249460249985 -0.27580671791564859 0 0.1264802309302159 -0.26127717380767518 0 0.11574820645416919 -0.26888963619595219 0 0.1379249460249985 -0.27580671791564859 0 0.1382339586381357 -0.25427139582214042 0 0.1419735072845156 -0.27504744641377832 0 0.1379249460249985 -0.27580671791564859 0 0.11458848163888451 -0.28018326336652472 0 0.1379249460249985 -0.27580671791564859 0 0.1419735072845156 -0.27504744641377832 0 0.1382339586381357 -0.25427139582214042 0 0.1419735072845156 -0.27504744641377832 0 0.1379249460249985 -0.27580671791564859 0 0.1264802309302159 -0.26127717380767518 0 0.1382339586381357 -0.25427139582214042 0 0.1379249460249985 -0.27580671791564859 0 0.1382339586381357 -0.25427139582214042 0 0.12614567111574171 -0.25305400209924589 0 0.1382339586381357 -0.25427139582214042 0 0.13228130988087511 -0.2488158246781623 0 0.12614567111574171 -0.25305400209924589 0 0.1264802309302159 -0.26127717380767518 0 0.1382339586381357 -0.25427139582214042 0 0.1382339586381357 -0.25427139582214042 0 0.15300240920737629 -0.26026605735860853 0 0.1419735072845156 -0.27504744641377832 0 0.1382339586381357 -0.25427139582214042 0 0.15300240920737629 -0.26026605735860853 0 0.1533096842193164 -0.24622324229544559 0 0.1419735072845156 -0.27504744641377832 0 0.1655814308168303 -0.2706199912247359 0 0.1419735072845156 -0.27504744641377832 0 0.155166579804739 -0.2788615654005947 0 0.1655814308168303 -0.2706199912247359 0 0.15300240920737629 -0.26026605735860853 0 0.1419735072845156 -0.27504744641377832 0 0.1655814308168303 -0.2706199912247359 0 0.14414719965502831 -0.28712396872459511 0 0.1419735072845156 -0.27504744641377832 0 0.14414719965502831 -0.28712396872459511 0 0.1379249460249985 -0.27580671791564859 0 0.1419735072845156 -0.27504744641377832 0 0.14414719965502831 -0.28712396872459511 0 0.1419735072845156 -0.27504744641377832 0 0.155166579804739 -0.2788615654005947 0 0.155166579804739 -0.2788615654005947 0 0.1655814308168303 -0.2706199912247359 0 0.16896418146258491 -0.28265485523927641 0 0.1655814308168303 -0.2706199912247359 0 0.17908370711720961 -0.27415952891137202 0 0.16896418146258491 -0.28265485523927641 0 0.15300240920737629 -0.26026605735860853 0 0.16984189318766019 -0.25339206212148591 0 0.1533096842193164 -0.24622324229544559 0 0.15300240920737629 -0.26026605735860853 0 0.1655814308168303 -0.2706199912247359 0 0.16984189318766019 -0.25339206212148591 0 0.1891893543491463 -0.26619253603570059 0 0.16984189318766019 -0.25339206212148591 0 0.19041510554842311 -0.24010009916004249 0 0.1891893543491463 -0.26619253603570059 0 0.1655814308168303 -0.2706199912247359 0 0.16984189318766019 -0.25339206212148591 0 0.1891893543491463 -0.26619253603570059 0 0.1655814308168303 -0.2706199912247359 0 0.1891893543491463 -0.26619253603570059 0 0.1655814308168303 -0.2706199912247359 0 0.17908370711720961 -0.27415952891137202 0 0.1937811632701415 -0.27818574175395783 0 0.16896418146258491 -0.28265485523927641 0 0.1937811632701415 -0.27818574175395783 0 0.17908370711720961 -0.27415952891137202 0 0.16896418146258491 -0.28265485523927641 0 0.1937811632701415 -0.27818574175395783 0 0.1891893543491463 -0.26619253603570059 0 0.17908370711720961 -0.27415952891137202 0 0.1937811632701415 -0.27818574175395783 0 0.18307367039974051 -0.28986593852963272 0 0.16896418146258491 -0.28265485523927641 0 0.18307367039974051 -0.28986593852963272 0 0.1748524060821427 -0.29811387504602221 0 0.16896418146258491 -0.28265485523927641 0 0.19156200481369859 -0.30324598259402152 0 0.17202172348781361 -0.3183365188453916 0 0.1748524060821427 -0.29811387504602221 0 0.19156200481369859 -0.30324598259402152 0 0.19554255515773861 -0.30924530801844219 0 0.17202172348781361 -0.3183365188453916 0 0.19156200481369859 -0.30324598259402152 0 0.17202172348781361 -0.3183365188453916 0 0.19156200481369859 -0.30324598259402152 0 0.18307367039974051 -0.28986593852963272 0 0.1748524060821427 -0.29811387504602221 0 0.17202172348781361 -0.3183365188453916 0 0.1748524060821427 -0.29811387504602221 0 0.15864045024687601 -0.29646608002178848 0 0.17202172348781361 -0.3183365188453916 0 0.14831432090847421 -0.31027551191067809 0 0.15864045024687601 -0.29646608002178848 0 0.14414719965502831 -0.28712396872459511 0 0.15864045024687601 -0.29646608002178848 0 0.16896418146258491 -0.28265485523927641 0 0.1748524060821427 -0.29811387504602221 0 0.15864045024687601 -0.29646608002178848 0 0.16896418146258491 -0.28265485523927641 0 0.14414719965502831 -0.28712396872459511 0 0.16896418146258491 -0.28265485523927641 0 0.19920161439914749 -0.48329209037161458 0 0.21554664427494391 -0.5 0 0.1862801796116762 -0.5 0 0.19920161439914749 -0.48329209037161458 0 0.1808523992863057 -0.48038261724801867 0 0.1862801796116762 -0.5 0 0.19920161439914749 -0.48329209037161458 0 0.19786276711058279 -0.46686694166266812 0 0.1808523992863057 -0.48038261724801867 0 0.19920161439914749 -0.48329209037161458 0 0.21660103408727929 -0.47766446341204172 0 0.19786276711058279 -0.46686694166266812 0 0.19920161439914749 -0.48329209037161458 0 0.21660103408727929 -0.47766446341204172 0 0.21554664427494391 -0.5 0 0.21554664427494391 -0.5 0 0.23216272730107029 -0.48613168651859751 0 0.24481310893821151 -0.5 0 0.21660103408727929 -0.47766446341204172 0 0.21554664427494391 -0.5 0 0.23216272730107029 -0.48613168651859751 0 0.25116524377074317 -0.48183696715308538 0 0.23216272730107029 -0.48613168651859751 0 0.24481310893821151 -0.5 0 0.25056920823421691 -0.46279726953252331 0 0.25116524377074317 -0.48183696715308538 0 0.23268760543417391 -0.47115700202786059 0 0.25116524377074317 -0.48183696715308538 0 0.23216272730107029 -0.48613168651859751 0 0.23268760543417391 -0.47115700202786059 0 0.25116524377074317 -0.48183696715308538 0 0.23268760543417391 -0.47115700202786059 0 0.21660103408727929 -0.47766446341204172 0 0.23216272730107029 -0.48613168651859751 0 0.23268760543417391 -0.47115700202786059 0 0.21660103408727929 -0.47766446341204172 0 0.23268760543417391 -0.47115700202786059 0 0.2142099670976047 -0.46047703690263592 0 0.23268760543417391 -0.47115700202786059 0 0.2142099670976047 -0.46047703690263592 0 0.23268760543417391 -0.47115700202786059 0 0.22522867231908711 -0.44649314899385811 0 0.2142099670976047 -0.46047703690263592 0 0.23268760543417391 -0.47115700202786059 0 0.2441915696309368 -0.44293034679538912 0 0.22522867231908711 -0.44649314899385811 0 0.25056920823421691 -0.46279726953252331 0 0.23268760543417391 -0.47115700202786059 0 0.2441915696309368 -0.44293034679538912 0 0.21187381040186279 -0.44774877777762112 0 0.19573232876103569 -0.44979707177741057 0 0.21232427342972371 -0.43422785343657999 0 0.22522867231908711 -0.44649314899385811 0 0.21187381040186279 -0.44774877777762112 0 0.21232427342972371 -0.43422785343657999 0 0.21187381040186279 -0.44774877777762112 0 0.2142099670976047 -0.46047703690263592 0 0.19573232876103569 -0.44979707177741057 0 0.19573232876103569 -0.44979707177741057 0 0.21232427342972371 -0.43422785343657999 0 0.22522867231908711 -0.44649314899385811 0 0.21187381040186279 -0.44774877777762112 0 0.2142099670976047 -0.46047703690263592 0 0.2142099670976047 -0.46047703690263592 0 0.19573232876103569 -0.44979707177741057 0 0.21660103408727929 -0.47766446341204172 0 0.2142099670976047 -0.46047703690263592 0 0.19786276711058279 -0.46686694166266812 0 0.19786276711058279 -0.46686694166266812 0 0.19573232876103569 -0.44979707177741057 0 0.18271939644576871 -0.46200788784004521 0 0.2142099670976047 -0.46047703690263592 0 0.19786276711058279 -0.46686694166266812 0 0.19573232876103569 -0.44979707177741057 0 0.19573232876103569 -0.44979707177741057 0 0.18271939644576871 -0.46200788784004521 0 0.19573232876103569 -0.44979707177741057 0 0.18369925410829521 -0.44284202615417517 0 0.19573232876103569 -0.44979707177741057 0 0.19424036320630941 -0.42763121187086223 0 0.18369925410829521 -0.44284202615417517 0 0.19573232876103569 -0.44979707177741057 0 0.19424036320630941 -0.42763121187086223 0 0.21232427342972371 -0.43422785343657999 0 0.19424036320630941 -0.42763121187086223 0 0.21017571895787451 -0.41234446970190142 0 0.18855009535595149 -0.40296547904973778 0 0.21017571895787451 -0.41234446970190142 0 0.21232427342972371 -0.43422785343657999 0 0.228916218098413 -0.41865863509575091 0 0.19424036320630941 -0.42763121187086223 0 0.21017571895787451 -0.41234446970190142 0 0.21232427342972371 -0.43422785343657999 0 0.22522867231908711 -0.44649314899385811 0 0.21232427342972371 -0.43422785343657999 0 0.228916218098413 -0.41865863509575091 0 0.21232427342972371 -0.43422785343657999 0 0.228916218098413 -0.41865863509575091 0 0.2441915696309368 -0.44293034679538912 0 0.22522867231908711 -0.44649314899385811 0 0.228916218098413 -0.41865863509575091 0 0.2441915696309368 -0.44293034679538912 0 0.24830805512212459 -0.4212844528229146 0 0.228916218098413 -0.41865863509575091 0 0.24830805512212459 -0.4212844528229146 0 0.228916218098413 -0.41865863509575091 0 0.24550816276710241 -0.40308941675492183 0 0.228916218098413 -0.41865863509575091 0 0.24550816276710241 -0.40308941675492183 0 0.228916218098413 -0.41865863509575091 0 0.22707264662326521 -0.39801746816127992 0 0.24550816276710241 -0.40308941675492183 0 0.21017571895787451 -0.41234446970190142 0 0.228916218098413 -0.41865863509575091 0 0.22707264662326521 -0.39801746816127992 0 0.22707264662326521 -0.39801746816127992 0 0.24550816276710241 -0.40308941675492183 0 0.243707760799101 -0.39069278572709643 0 0.25674494122947611 -0.38255006011579429 0 0.2471496083016074 -0.37371326465312449 0 0.243707760799101 -0.39069278572709643 0 0.2471496083016074 -0.37371326465312449 0 0.22464642963548909 -0.36828511788678231 0 0.243707760799101 -0.39069278572709643 0 0.22464642963548909 -0.36828511788678231 0 0.22707264662326521 -0.39801746816127992 0 0.243707760799101 -0.39069278572709643 0 0.22464642963548909 -0.36828511788678231 0 0.22707264662326521 -0.39801746816127992 0 0.20995071703358409 -0.39256617059719789 0 0.22464642963548909 -0.36828511788678231 0 0.243707760799101 -0.39069278572709643 0 0.22464642963548909 -0.36828511788678231 0 0.19778021896716261 -0.37469753768840192 0 0.20995071703358409 -0.39256617059719789 0 0.21017571895787451 -0.41234446970190142 0 0.22707264662326521 -0.39801746816127992 0 0.20995071703358409 -0.39256617059719789 0 0.21017571895787451 -0.41234446970190142 0 0.20995071703358409 -0.39256617059719789 0 0.18855009535595149 -0.40296547904973778 0 0.19778021896716261 -0.37469753768840192 0 0.20995071703358409 -0.39256617059719789 0 0.18855009535595149 -0.40296547904973778 0 0.19778021896716261 -0.37469753768840192 0 0.18855009535595149 -0.40296547904973778 0 0.17883823062081361 -0.38131901502173932 0 0.18855009535595149 -0.40296547904973778 0 0.17883823062081361 -0.38131901502173932 0 0.16713873248644129 -0.39966098557523738 0 0.15985190689674189 -0.37437561940083708 0 0.16713873248644129 -0.39966098557523738 0 0.14755116236506241 -0.39912375044092779 0 0.16713873248644129 -0.39966098557523738 0 0.14755116236506241 -0.39912375044092779 0 0.15551395031022849 -0.41829109355483252 0 0.15985190689674189 -0.37437561940083708 0 0.17883823062081361 -0.38131901502173932 0 0.16713873248644129 -0.39966098557523738 0 0.15985190689674189 -0.37437561940083708 0 0.13624646651427991 -0.38372649367680661 0 0.14755116236506241 -0.39912375044092779 0 0.15985190689674189 -0.37437561940083708 0 0.14155693699835109 -0.36923924606316172 0 0.13624646651427991 -0.38372649367680661 0 0.13264250069366579 -0.37293898654671259 0 0.13624646651427991 -0.38372649367680661 0 0.11722678995211699 -0.37884475256928091 0 0.14155693699835109 -0.36923924606316172 0 0.13264250069366579 -0.37293898654671259 0 0.13624646651427991 -0.38372649367680661 0 0.13624646651427991 -0.38372649367680661 0 0.13133416761619529 -0.40310047145831512 0 0.14755116236506241 -0.39912375044092779 0 0.13624646651427991 -0.38372649367680661 0 0.13133416761619529 -0.40310047145831512 0 0.1141278598283879 -0.39660076517194681 0 0.14755116236506241 -0.39912375044092779 0 0.15551395031022849 -0.41829109355483252 0 0.1372296501927216 -0.41940408289418979 0 0.13133416761619529 -0.40310047145831512 0 0.14755116236506241 -0.39912375044092779 0 0.1372296501927216 -0.41940408289418979 0 0.13133416761619529 -0.40310047145831512 0 0.1372296501927216 -0.41940408289418979 0 0.11909771329798891 -0.4203610082021832 0 0.1372296501927216 -0.41940408289418979 0 0.1451251525901287 -0.43652868939369188 0 0.12299028521486211 -0.43937867549087217 0 0.1372296501927216 -0.41940408289418979 0 0.12299028521486211 -0.43937867549087217 0 0.11909771329798891 -0.4203610082021832 0 0.15551395031022849 -0.41829109355483252 0 0.1451251525901287 -0.43652868939369188 0 0.164827651110481 -0.43724995871260719 0 0.15551395031022849 -0.41829109355483252 0 0.1372296501927216 -0.41940408289418979 0 0.1451251525901287 -0.43652868939369188 0 0.15551395031022849 -0.41829109355483252 0 0.164827651110481 -0.43724995871260719 0 0.17542963617694871 -0.42114215790133908 0 0.16713873248644129 -0.39966098557523738 0 0.15551395031022849 -0.41829109355483252 0 0.17542963617694871 -0.42114215790133908 0 0.19424036320630941 -0.42763121187086223 0 0.18855009535595149 -0.40296547904973778 0 0.17542963617694871 -0.42114215790133908 0 0.18855009535595149 -0.40296547904973778 0 0.16713873248644129 -0.39966098557523738 0 0.17542963617694871 -0.42114215790133908 0 0.19424036320630941 -0.42763121187086223 0 0.17542963617694871 -0.42114215790133908 0 0.18369925410829521 -0.44284202615417517 0 0.164827651110481 -0.43724995871260719 0 0.17542963617694871 -0.42114215790133908 0 0.18369925410829521 -0.44284202615417517 0 0.164827651110481 -0.43724995871260719 0 0.18369925410829521 -0.44284202615417517 0 0.1692592360195756 -0.45354595831885941 0 0.19573232876103569 -0.44979707177741057 0 0.18369925410829521 -0.44284202615417517 0 0.18271939644576871 -0.46200788784004521 0 0.18369925410829521 -0.44284202615417517 0 0.18271939644576871 -0.46200788784004521 0 0.1692592360195756 -0.45354595831885941 0 0.18271939644576871 -0.46200788784004521 0 0.1692592360195756 -0.45354595831885941 0 0.162408274836564 -0.47228494985957581 0 0.1692592360195756 -0.45354595831885941 0 0.15264160359676909 -0.45334496902789362 0 0.162408274836564 -0.47228494985957581 0 0.164827651110481 -0.43724995871260719 0 0.1692592360195756 -0.45354595831885941 0 0.15264160359676909 -0.45334496902789362 0 0.1451251525901287 -0.43652868939369188 0 0.164827651110481 -0.43724995871260719 0 0.15264160359676909 -0.45334496902789362 0 0.1451251525901287 -0.43652868939369188 0 0.1347344017274506 -0.4537612172306365 0 0.15264160359676909 -0.45334496902789362 0 0.1451251525901287 -0.43652868939369188 0 0.1347344017274506 -0.4537612172306365 0 0.12299028521486211 -0.43937867549087217 0 0.1347344017274506 -0.4537612172306365 0 0.13991412966170541 -0.4715561996893739 0 0.1130008375737878 -0.46799755255135089 0 0.1347344017274506 -0.4537612172306365 0 0.15264160359676909 -0.45334496902789362 0 0.13991412966170541 -0.4715561996893739 0 0.15264160359676909 -0.45334496902789362 0 0.13991412966170541 -0.4715561996893739 0 0.162408274836564 -0.47228494985957581 0 0.13991412966170541 -0.4715561996893739 0 0.12774725028514089 -0.5 0 0.1130008375737878 -0.46799755255135089 0 0.13991412966170541 -0.4715561996893739 0 0.15701371494840849 -0.5 0 0.162408274836564 -0.47228494985957581 0 0.13991412966170541 -0.4715561996893739 0 0.12774725028514089 -0.5 0 0.15701371494840849 -0.5 0 0.15701371494840849 -0.5 0 0.162408274836564 -0.47228494985957581 0 0.1808523992863057 -0.48038261724801867 0 0.19786276711058279 -0.46686694166266812 0 0.18271939644576871 -0.46200788784004521 0 0.1808523992863057 -0.48038261724801867 0 0.18271939644576871 -0.46200788784004521 0 0.162408274836564 -0.47228494985957581 0 0.1808523992863057 -0.48038261724801867 0 0.15701371494840849 -0.5 0 0.1808523992863057 -0.48038261724801867 0 0.1862801796116762 -0.5 0 0.069214320958605691 -0.5 0 0.065007136256869047 -0.47064528108601639 0 0.055204352970375889 -0.48738563148835451 0 0.069214320958605691 -0.5 0 0.065007136256869047 -0.47064528108601639 0 0.086249470916041571 -0.47889728427247458 0 0.069214320958605691 -0.5 0 0.086249470916041571 -0.47889728427247458 0 0.098480785621873235 -0.5 0 0.086249470916041571 -0.47889728427247458 0 0.098480785621873235 -0.5 0 0.1130008375737878 -0.46799755255135089 0 0.12774725028514089 -0.5 0 0.098480785621873235 -0.5 0 0.1130008375737878 -0.46799755255135089 0 0.086249470916041571 -0.47889728427247458 0 0.1130008375737878 -0.46799755255135089 0 0.085544274169072024 -0.45584358772500583 0 0.1130008375737878 -0.46799755255135089 0 0.1014427253162679 -0.44118727141070119 0 0.085544274169072024 -0.45584358772500583 0 0.1347344017274506 -0.4537612172306365 0 0.1130008375737878 -0.46799755255135089 0 0.12299028521486211 -0.43937867549087217 0 0.1130008375737878 -0.46799755255135089 0 0.12299028521486211 -0.43937867549087217 0 0.1014427253162679 -0.44118727141070119 0 0.1014427253162679 -0.44118727141070119 0 0.085544274169072024 -0.45584358772500583 0 0.08294302576319848 -0.43030382458303879 0 0.085544274169072024 -0.45584358772500583 0 0.0673167861254029 -0.44506405837655538 0 0.08294302576319848 -0.43030382458303879 0 0.065007136256869047 -0.47064528108601639 0 0.086249470916041571 -0.47889728427247458 0 0.085544274169072024 -0.45584358772500583 0 0.065007136256869047 -0.47064528108601639 0 0.0673167861254029 -0.44506405837655538 0 0.056064035161623393 -0.45331984591529628 0 0.065007136256869047 -0.47064528108601639 0 0.085544274169072024 -0.45584358772500583 0 0.0673167861254029 -0.44506405837655538 0 0.0673167861254029 -0.44506405837655538 0 0.069524448360381283 -0.43167321633331213 0 0.08294302576319848 -0.43030382458303879 0 0.0673167861254029 -0.44506405837655538 0 0.069524448360381283 -0.43167321633331213 0 0.056933510661834073 -0.4266079709254228 0 0.069524448360381283 -0.43167321633331213 0 0.072459957954834162 -0.41953034541054812 0 0.08294302576319848 -0.43030382458303879 0 0.069524448360381283 -0.43167321633331213 0 0.072459957954834162 -0.41953034541054812 0 0.056933510661834073 -0.4266079709254228 0 0.072459957954834162 -0.41953034541054812 0 0.084912611975574245 -0.40708579147023832 0 0.067986193013182719 -0.4019809237407288 0 0.072459957954834162 -0.41953034541054812 0 0.067986193013182719 -0.4019809237407288 0 0.056933510661834073 -0.4266079709254228 0 0.084912611975574245 -0.40708579147023832 0 0.08294302576319848 -0.43030382458303879 0 0.1006959664430561 -0.41307179012915851 0 0.072459957954834162 -0.41953034541054812 0 0.084912611975574245 -0.40708579147023832 0 0.08294302576319848 -0.43030382458303879 0 0.1014427253162679 -0.44118727141070119 0 0.08294302576319848 -0.43030382458303879 0 0.1006959664430561 -0.41307179012915851 0 0.1014427253162679 -0.44118727141070119 0 0.11909771329798891 -0.4203610082021832 0 0.1006959664430561 -0.41307179012915851 0 0.12299028521486211 -0.43937867549087217 0 0.1014427253162679 -0.44118727141070119 0 0.11909771329798891 -0.4203610082021832 0 0.11909771329798891 -0.4203610082021832 0 0.1006959664430561 -0.41307179012915851 0 0.1141278598283879 -0.39660076517194681 0 0.13133416761619529 -0.40310047145831512 0 0.11909771329798891 -0.4203610082021832 0 0.1141278598283879 -0.39660076517194681 0 0.1006959664430561 -0.41307179012915851 0 0.1141278598283879 -0.39660076517194681 0 0.097700077964383 -0.38918407221036 0 0.084912611975574245 -0.40708579147023832 0 0.1006959664430561 -0.41307179012915851 0 0.097700077964383 -0.38918407221036 0 0.1141278598283879 -0.39660076517194681 0 0.11722678995211699 -0.37884475256928091 0 0.097700077964383 -0.38918407221036 0 0.13624646651427991 -0.38372649367680661 0 0.1141278598283879 -0.39660076517194681 0 0.11722678995211699 -0.37884475256928091 0 0.11722678995211699 -0.37884475256928091 0 0.097700077964383 -0.38918407221036 0 0.1060810361584669 -0.36303043207713759 0 0.097700077964383 -0.38918407221036 0 0.079038875364531386 -0.37735387655603481 0 0.1060810361584669 -0.36303043207713759 0 0.084912611975574245 -0.40708579147023832 0 0.097700077964383 -0.38918407221036 0 0.079038875364531386 -0.37735387655603481 0 0.084912611975574245 -0.40708579147023832 0 0.079038875364531386 -0.37735387655603481 0 0.067986193013182719 -0.4019809237407288 0 0.079038875364531386 -0.37735387655603481 0 0.067986193013182719 -0.4019809237407288 0 0.079038875364531386 -0.37735387655603481 0 0.067986193013182719 -0.4019809237407288 0 0.053031828829682569 -0.37989835778484349 0 0.053031828829682569 -0.37989835778484349 0 0.040143055524193068 -0.40512950554780941 0 0.02892166688488625 -0.37196220180358558 0 0.067986193013182719 -0.4019809237407288 0 0.053031828829682569 -0.37989835778484349 0 0.040143055524193068 -0.40512950554780941 0 0.01273800266234317 -0.39707597398976979 0 0.02892166688488625 -0.37196220180358558 0 0.040143055524193068 -0.40512950554780941 0 0.01273800266234317 -0.39707597398976979 0 0.02892166688488625 -0.37196220180358558 0 0.0042626220530392351 -0.37695717118284638 0 0.01273800266234317 -0.39707597398976979 0 0.02892166688488625 -0.37196220180358558 0 -0.0048272621547900702 -0.38887262676377188 0 0.0042626220530392351 -0.37695717118284638 0 0.01273800266234317 -0.39707597398976979 0 0.040143055524193068 -0.40512950554780941 0 0.01273800266234317 -0.39707597398976979 0 0.017906115392894151 -0.41341586132202579 0 0.040143055524193068 -0.40512950554780941 0 0.017906115392894151 -0.41341586132202579 0 0.026194987363324811 -0.42530735182979812 0 0.017906115392894151 -0.41341586132202579 0 0.01160626878211752 -0.42603012189493372 0 0.026194987363324811 -0.42530735182979812 0 -0.003445661560199844 -0.42218974617595412 0 0.017906115392894151 -0.41341586132202579 0 0.01160626878211752 -0.42603012189493372 0 -0.003445661560199844 -0.42218974617595412 0 0.01273800266234317 -0.39707597398976979 0 -0.003445661560199844 -0.42218974617595412 0 0.01273800266234317 -0.39707597398976979 0 0.017906115392894151 -0.41341586132202579 0 -0.003445661560199844 -0.42218974617595412 0 0.01160626878211752 -0.42603012189493372 0 0.0045937318333055636 -0.43870336981972913 0 -0.003445661560199844 -0.42218974617595412 0 0.0045937318333055636 -0.43870336981972913 0 0.01160626878211752 -0.42603012189493372 0 0.015413629536542151 -0.43564754380750847 0 0.0045937318333055636 -0.43870336981972913 0 0.015413629536542151 -0.43564754380750847 0 0.026194987363324811 -0.42530735182979812 0 0.024637443049125681 -0.44274616367029879 0 0.026194987363324811 -0.42530735182979812 0 0.035135376546169939 -0.435744300947221 0 0.024637443049125681 -0.44274616367029879 0 0.01160626878211752 -0.42603012189493372 0 0.015413629536542151 -0.43564754380750847 0 0.026194987363324811 -0.42530735182979812 0 0.035135376546169939 -0.435744300947221 0 0.041310859866185282 -0.42600295321872289 0 0.047169759699465318 -0.43854202651916779 0 0.026194987363324811 -0.42530735182979812 0 0.035135376546169939 -0.435744300947221 0 0.041310859866185282 -0.42600295321872289 0 0.040143055524193068 -0.40512950554780941 0 0.026194987363324811 -0.42530735182979812 0 0.041310859866185282 -0.42600295321872289 0 0.040143055524193068 -0.40512950554780941 0 0.041310859866185282 -0.42600295321872289 0 0.056933510661834073 -0.4266079709254228 0 0.067986193013182719 -0.4019809237407288 0 0.040143055524193068 -0.40512950554780941 0 0.056933510661834073 -0.4266079709254228 0 0.067986193013182719 -0.4019809237407288 0 0.056933510661834073 -0.4266079709254228 0 0.0673167861254029 -0.44506405837655538 0 0.056933510661834073 -0.4266079709254228 0 0.047169759699465318 -0.43854202651916779 0 0.041310859866185282 -0.42600295321872289 0 0.056933510661834073 -0.4266079709254228 0 0.047169759699465318 -0.43854202651916779 0 0.0673167861254029 -0.44506405837655538 0 0.047169759699465318 -0.43854202651916779 0 0.056064035161623393 -0.45331984591529628 0 0.047169759699465318 -0.43854202651916779 0 0.056064035161623393 -0.45331984591529628 0 0.044762458564756288 -0.45902801767944562 0 0.065007136256869047 -0.47064528108601639 0 0.056064035161623393 -0.45331984591529628 0 0.044762458564756288 -0.45902801767944562 0 0.044762458564756288 -0.45902801767944562 0 0.032446844794780043 -0.46797433763693502 0 0.029136516368286739 -0.45587092835025772 0 0.044762458564756288 -0.45902801767944562 0 0.036363832752748633 -0.44612300949811717 0 0.029136516368286739 -0.45587092835025772 0 0.047169759699465318 -0.43854202651916779 0 0.044762458564756288 -0.45902801767944562 0 0.036363832752748633 -0.44612300949811717 0 0.047169759699465318 -0.43854202651916779 0 0.044762458564756288 -0.45902801767944562 0 0.035135376546169939 -0.435744300947221 0 0.047169759699465318 -0.43854202651916779 0 0.036363832752748633 -0.44612300949811717 0 0.035135376546169939 -0.435744300947221 0 0.036363832752748633 -0.44612300949811717 0 0.024637443049125681 -0.44274616367029879 0 0.024637443049125681 -0.44274616367029879 0 0.016797720213901 -0.45434687272549629 0 0.029136516368286739 -0.45587092835025772 0 0.036363832752748633 -0.44612300949811717 0 0.024637443049125681 -0.44274616367029879 0 0.029136516368286739 -0.45587092835025772 0 0.024637443049125681 -0.44274616367029879 0 0.0114797000731799 -0.44591389079837768 0 0.016797720213901 -0.45434687272549629 0 0.015413629536542151 -0.43564754380750847 0 0.024637443049125681 -0.44274616367029879 0 0.0114797000731799 -0.44591389079837768 0 0.015413629536542151 -0.43564754380750847 0 0.0114797000731799 -0.44591389079837768 0 0.0045937318333055636 -0.43870336981972913 0 0.0114797000731799 -0.44591389079837768 0 0.0090577080797555939 -0.45239236141853723 0 0.016797720213901 -0.45434687272549629 0 -0.0022048812588714088 -0.45036648344931579 0 0.0114797000731799 -0.44591389079837768 0 0.0090577080797555939 -0.45239236141853723 0 -0.0022048812588714088 -0.45036648344931579 0 0.0114797000731799 -0.44591389079837768 0 -0.0022048812588714088 -0.45036648344931579 0 0.0114797000731799 -0.44591389079837768 0 0.0045937318333055636 -0.43870336981972913 0 -0.0022048812588714088 -0.45036648344931579 0 0.0117114293732775 -0.47350696219567062 0 0.0015345328049725211 -0.47002748391346488 0 -0.0022048812588714088 -0.45036648344931579 0 0.01015829329081552 -0.45894219870095743 0 0.0117114293732775 -0.47350696219567062 0 -0.0022048812588714088 -0.45036648344931579 0 0.0117114293732775 -0.47350696219567062 0 -0.0022048812588714088 -0.45036648344931579 0 0.0090577080797555939 -0.45239236141853723 0 0.01015829329081552 -0.45894219870095743 0 0.01015829329081552 -0.45894219870095743 0 0.019732794865617648 -0.46493864553846881 0 0.016797720213901 -0.45434687272549629 0 0.0090577080797555939 -0.45239236141853723 0 0.01015829329081552 -0.45894219870095743 0 0.016797720213901 -0.45434687272549629 0 0.01015829329081552 -0.45894219870095743 0 0.019732794865617648 -0.46493864553846881 0 0.0117114293732775 -0.47350696219567062 0 0.019732794865617648 -0.46493864553846881 0 0.016797720213901 -0.45434687272549629 0 0.029136516368286739 -0.45587092835025772 0 0.032446844794780043 -0.46797433763693502 0 0.019732794865617648 -0.46493864553846881 0 0.029136516368286739 -0.45587092835025772 0 0.032446844794780043 -0.46797433763693502 0 0.019732794865617648 -0.46493864553846881 0 0.026247296745192269 -0.48052008777677929 0 0.026247296745192269 -0.48052008777677929 0 0.0117114293732775 -0.47350696219567062 0 0.025627740005429039 -0.49664744094202368 0 0.019732794865617648 -0.46493864553846881 0 0.026247296745192269 -0.48052008777677929 0 0.0117114293732775 -0.47350696219567062 0 0.0117114293732775 -0.47350696219567062 0 0.004165483349073032 -0.47895499613113729 0 0.011382128427891819 -0.48752219458644391 0 0.0117114293732775 -0.47350696219567062 0 0.004165483349073032 -0.47895499613113729 0 0.0015345328049725211 -0.47002748391346488 0 -0.01195887214444297 -0.5 0 0.001411497336231856 -0.48850157366338798 0 0.01399449207544767 -0.5 0 0.004165483349073032 -0.47895499613113729 0 0.001411497336231856 -0.48850157366338798 0 0.011382128427891819 -0.48752219458644391 0 0.001411497336231856 -0.48850157366338798 0 0.011382128427891819 -0.48752219458644391 0 0.01399449207544767 -0.5 0 0.0117114293732775 -0.47350696219567062 0 0.025627740005429039 -0.49664744094202368 0 0.01399449207544767 -0.5 0 0.025627740005429039 -0.49664744094202368 0 0.039947856295338119 -0.50000000000000111 0 0.011382128427891819 -0.48752219458644391 0 0.01399449207544767 -0.5 0 0.025627740005429039 -0.49664744094202368 0 0.0117114293732775 -0.47350696219567062 0 0.011382128427891819 -0.48752219458644391 0 0.025627740005429039 -0.49664744094202368 0 0.025627740005429039 -0.49664744094202368 0 0.039947856295338119 -0.50000000000000111 0 0.042355157430047273 -0.47951400883972328 0 0.039947856295338119 -0.50000000000000111 0 0.042355157430047273 -0.47951400883972328 0 0.055204352970375889 -0.48738563148835451 0 0.026247296745192269 -0.48052008777677929 0 0.025627740005429039 -0.49664744094202368 0 0.042355157430047273 -0.47951400883972328 0 0.039947856295338119 -0.50000000000000111 0 0.042355157430047273 -0.47951400883972328 0 0.044762458564756288 -0.45902801767944562 0 0.042355157430047273 -0.47951400883972328 0 0.044762458564756288 -0.45902801767944562 0 0.032446844794780043 -0.46797433763693502 0 0.042355157430047273 -0.47951400883972328 0 0.032446844794780043 -0.46797433763693502 0 0.026247296745192269 -0.48052008777677929 0 0.042355157430047273 -0.47951400883972328 0 0.065007136256869047 -0.47064528108601639 0 0.044762458564756288 -0.45902801767944562 0 0.042355157430047273 -0.47951400883972328 0 0.065007136256869047 -0.47064528108601639 0 0.042355157430047273 -0.47951400883972328 0 0.055204352970375889 -0.48738563148835451 0 0.069214320958605691 -0.5 0 0.039947856295338119 -0.50000000000000111 0 0.055204352970375889 -0.48738563148835451 0 0.090534552183960393 -0.28469436298255579 0 0.066480622729036098 -0.28920546259858571 0 0.090534552183960393 -0.28469436298255579 0 0.082618922648646786 -0.29820415787208898 0 0.066480622729036098 -0.28920546259858571 0 0.090534552183960393 -0.28469436298255579 0 0.082618922648646786 -0.29820415787208898 0 0.097962167323419974 -0.2954411022267126 0 0.082618922648646786 -0.29820415787208898 0 0.097962167323419974 -0.2954411022267126 0 0.093147635779301879 -0.30370471578404468 0 0.085094026114337779 -0.31078913893405652 0 0.082618922648646786 -0.29820415787208898 0 0.085094026114337779 -0.31078913893405652 0 0.082618922648646786 -0.29820415787208898 0 0.067112539659503367 -0.30930822994522089 0 0.093147635779301879 -0.30370471578404468 0 0.082618922648646786 -0.29820415787208898 0 0.097962167323419974 -0.2954411022267126 0 0.093147635779301879 -0.30370471578404468 0 0.085094026114337779 -0.31078913893405652 0 0.097030874059012354 -0.31052008634532319 0 0.082618922648646786 -0.29820415787208898 0 0.067112539659503367 -0.30930822994522089 0 0.066480622729036098 -0.28920546259858571 0 0.067112539659503367 -0.30930822994522089 0 0.066480622729036098 -0.28920546259858571 0 0.055662553539641418 -0.29876002570656052 0 0.090534552183960393 -0.28469436298255579 0 0.066480622729036098 -0.28920546259858571 0 0.076935915599791377 -0.27949866487830288 0 0.066480622729036098 -0.28920546259858571 0 0.067259798510224872 -0.27221229350630233 0 0.076935915599791377 -0.27949866487830288 0 0.067259798510224872 -0.27221229350630233 0 0.076935915599791377 -0.27949866487830288 0 0.083468688975944186 -0.27188254042576798 0 0.067259798510224872 -0.27221229350630233 0 0.067436098530931882 -0.25179322976183088 0 0.083570000600806271 -0.25252161182914828 0 0.067259798510224872 -0.27221229350630233 0 0.083570000600806271 -0.25252161182914828 0 0.067259798510224872 -0.27221229350630233 0 0.083570000600806271 -0.25252161182914828 0 0.083468688975944186 -0.27188254042576798 0 0.083570000600806271 -0.25252161182914828 0 0.083468688975944186 -0.27188254042576798 0 0.094915569414673107 -0.26735311553556951 0 0.090534552183960393 -0.28469436298255579 0 0.076935915599791377 -0.27949866487830288 0 0.083468688975944186 -0.27188254042576798 0 0.083468688975944186 -0.27188254042576798 0 0.097785806791355512 -0.27504557072198099 0 0.094915569414673107 -0.26735311553556951 0 0.090534552183960393 -0.28469436298255579 0 0.083468688975944186 -0.27188254042576798 0 0.097785806791355512 -0.27504557072198099 0 0.097785806791355512 -0.27504557072198099 0 0.1054217417433152 -0.27111457129948602 0 0.11458848163888451 -0.28018326336652472 0 0.090534552183960393 -0.28469436298255579 0 0.097785806791355512 -0.27504557072198099 0 0.11458848163888451 -0.28018326336652472 0 0.097785806791355512 -0.27504557072198099 0 0.094915569414673107 -0.26735311553556951 0 0.1054217417433152 -0.27111457129948602 0 0.094915569414673107 -0.26735311553556951 0 0.1054217417433152 -0.27111457129948602 0 0.1041983505403495 -0.26121724511324051 0 0.1054217417433152 -0.27111457129948602 0 0.1041983505403495 -0.26121724511324051 0 0.11574820645416919 -0.26888963619595219 0 0.083570000600806271 -0.25252161182914828 0 0.094915569414673107 -0.26735311553556951 0 0.1041983505403495 -0.26121724511324051 0 0.083570000600806271 -0.25252161182914828 0 0.1041983505403495 -0.26121724511324051 0 0.1036638327581733 -0.24862179266327261 0 0.1041983505403495 -0.26121724511324051 0 0.11486499769313351 -0.25645063671342588 0 0.1036638327581733 -0.24862179266327261 0 0.11486499769313351 -0.25645063671342588 0 0.11318591556133049 -0.24557771175621371 0 0.1036638327581733 -0.24862179266327261 0 0.11486499769313351 -0.25645063671342588 0 0.1191165240372454 -0.24986064156997109 0 0.11318591556133049 -0.24557771175621371 0 0.1041983505403495 -0.26121724511324051 0 0.11486499769313351 -0.25645063671342588 0 0.11574820645416919 -0.26888963619595219 0 0.1264802309302159 -0.26127717380767518 0 0.11486499769313351 -0.25645063671342588 0 0.11574820645416919 -0.26888963619595219 0 0.12614567111574171 -0.25305400209924589 0 0.1264802309302159 -0.26127717380767518 0 0.11486499769313351 -0.25645063671342588 0 0.12614567111574171 -0.25305400209924589 0 0.11486499769313351 -0.25645063671342588 0 0.1191165240372454 -0.24986064156997109 0 0.1379249460249985 -0.27580671791564859 0 0.11458848163888451 -0.28018326336652472 0 0.11574820645416919 -0.26888963619595219 0 0.11458848163888451 -0.28018326336652472 0 0.11574820645416919 -0.26888963619595219 0 0.1054217417433152 -0.27111457129948602 0 0.11458848163888451 -0.28018326336652472 0 0.11574820645416919 -0.26888963619595219 0 0.13774601274910539 -0.28827671287959039 0 0.1145629926500073 -0.29820077283209839 0 0.12262484769184979 -0.3019659851865571 0 0.13774601274910539 -0.28827671287959039 0 0.11458848163888451 -0.28018326336652472 0 0.1133054119981933 -0.29267804658133673 0 0.13774601274910539 -0.28827671287959039 0 0.1133054119981933 -0.29267804658133673 0 0.1145629926500073 -0.29820077283209839 0 0.11458848163888451 -0.28018326336652472 0 0.1133054119981933 -0.29267804658133673 0 0.090534552183960393 -0.28469436298255579 0 0.11458848163888451 -0.28018326336652472 0 0.11458848163888451 -0.28018326336652472 0 0.1133054119981933 -0.29267804658133673 0 0.097962167323419974 -0.2954411022267126 0 0.090534552183960393 -0.28469436298255579 0 0.11458848163888451 -0.28018326336652472 0 0.097962167323419974 -0.2954411022267126 0 0.1133054119981933 -0.29267804658133673 0 0.097962167323419974 -0.2954411022267126 0 0.1027236706717132 -0.30187500414416663 0 0.1133054119981933 -0.29267804658133673 0 0.097962167323419974 -0.2954411022267126 0 0.093147635779301879 -0.30370471578404468 0 0.097030874059012354 -0.31052008634532319 0 0.1027236706717132 -0.30187500414416663 0 0.093147635779301879 -0.30370471578404468 0 0.097962167323419974 -0.2954411022267126 0 0.1027236706717132 -0.30187500414416663 0 0.097030874059012354 -0.31052008634532319 0 0.1027236706717132 -0.30187500414416663 0 0.11219692241857759 -0.30347273500195288 0 0.097030874059012354 -0.31052008634532319 0 0.11219692241857759 -0.30347273500195288 0 0.1001137158234451 -0.31598013551004422 0 0.11219692241857759 -0.30347273500195288 0 0.1145629926500073 -0.29820077283209839 0 0.12262484769184979 -0.3019659851865571 0 0.1133054119981933 -0.29267804658133673 0 0.1027236706717132 -0.30187500414416663 0 0.11219692241857759 -0.30347273500195288 0 0.1133054119981933 -0.29267804658133673 0 0.11219692241857759 -0.30347273500195288 0 0.1145629926500073 -0.29820077283209839 0 0.1133054119981933 -0.29267804658133673 0 0.11219692241857759 -0.30347273500195288 0 0.11219692241857759 -0.30347273500195288 0 0.1145629926500073 -0.29820077283209839 0 0.12810442599866201 -0.30707764536538318 0 0.12262484769184979 -0.3019659851865571 0 0.1205138846428966 -0.31280205985375981 0 0.11219692241857759 -0.30347273500195288 0 0.12262484769184979 -0.3019659851865571 0 0.1205138846428966 -0.31280205985375981 0 0.11219692241857759 -0.30347273500195288 0 0.1170198843142273 -0.3220994701502029 0 0.1091389792885224 -0.33325158353954532 0 0.11219692241857759 -0.30347273500195288 0 0.1205138846428966 -0.31280205985375981 0 0.1170198843142273 -0.3220994701502029 0 0.11219692241857759 -0.30347273500195288 0 0.1091389792885224 -0.33325158353954532 0 0.1205138846428966 -0.31280205985375981 0 0.1170198843142273 -0.3220994701502029 0 0.1219700001874202 -0.32092131842010307 0 0.12773481768736741 -0.31635837873482991 0 0.1205138846428966 -0.31280205985375981 0 0.1219700001874202 -0.32092131842010307 0 0.1170198843142273 -0.3220994701502029 0 0.1211135448191802 -0.32852630261282129 0 0.1171859745287669 -0.33362282147303551 0 0.1170198843142273 -0.3220994701502029 0 0.1219700001874202 -0.32092131842010307 0 0.1211135448191802 -0.32852630261282129 0 0.128431179022887 -0.32746325010546429 0 0.1219700001874202 -0.32092131842010307 0 0.1211135448191802 -0.32852630261282129 0 0.128431179022887 -0.32746325010546429 0 0.1211135448191802 -0.32852630261282129 0 0.1249235365101648 -0.33602767214691098 0 0.1211135448191802 -0.32852630261282129 0 0.1249235365101648 -0.33602767214691098 0 0.1171859745287669 -0.33362282147303551 0 0.12611025469419551 -0.34657644161854001 0 0.1249235365101648 -0.33602767214691098 0 0.11746044146705679 -0.34395848459897099 0 0.1249235365101648 -0.33602767214691098 0 0.1171859745287669 -0.33362282147303551 0 0.11746044146705679 -0.34395848459897099 0 0.1171859745287669 -0.33362282147303551 0 0.1091389792885224 -0.33325158353954532 0 0.11746044146705679 -0.34395848459897099 0 0.1170198843142273 -0.3220994701502029 0 0.1171859745287669 -0.33362282147303551 0 0.1091389792885224 -0.33325158353954532 0 0.10114424006722859 -0.32809978218664693 0 0.090091557715880011 -0.35272682937134081 0 0.1091389792885224 -0.33325158353954532 0 0.10114424006722859 -0.32809978218664693 0 0.090091557715880011 -0.35272682937134081 0 0.11219692241857759 -0.30347273500195288 0 0.10114424006722859 -0.32809978218664693 0 0.1001137158234451 -0.31598013551004422 0 0.11219692241857759 -0.30347273500195288 0 0.1091389792885224 -0.33325158353954532 0 0.10114424006722859 -0.32809978218664693 0 0.11219692241857759 -0.30347273500195288 0 0.10114424006722859 -0.32809978218664693 0 0.10114424006722859 -0.32809978218664693 0 0.1001137158234451 -0.31598013551004422 0 0.090082826748961828 -0.32182793850625391 0 0.097030874059012354 -0.31052008634532319 0 0.1001137158234451 -0.31598013551004422 0 0.090082826748961828 -0.32182793850625391 0 0.13553980930991499 -0.3599454538776013 0 0.11722678995211699 -0.37884475256928091 0 0.1218454054314798 -0.36163876098538622 0 0.11722678995211699 -0.37884475256928091 0 0.1218454054314798 -0.36163876098538622 0 0.1060810361584669 -0.36303043207713759 0 0.1218454054314798 -0.36163876098538622 0 0.12085265325255409 -0.35297492396549851 0 0.1060810361584669 -0.36303043207713759 0 0.1091389792885224 -0.33325158353954532 0 0.11746044146705679 -0.34395848459897099 0 0.1060810361584669 -0.36303043207713759 0 0.12085265325255409 -0.35297492396549851 0 0.11746044146705679 -0.34395848459897099 0 0.1060810361584669 -0.36303043207713759 0 0.1295267384843459 -0.35339824243741269 0 0.1218454054314798 -0.36163876098538622 0 0.12085265325255409 -0.35297492396549851 0 0.12611025469419551 -0.34657644161854001 0 0.12085265325255409 -0.35297492396549851 0 0.11746044146705679 -0.34395848459897099 0 0.1091389792885224 -0.33325158353954532 0 0.1060810361584669 -0.36303043207713759 0 0.090091557715880011 -0.35272682937134081 0 0.1091389792885224 -0.33325158353954532 0 0.1060810361584669 -0.36303043207713759 0 0.079038875364531386 -0.37735387655603481 0 0.1060810361584669 -0.36303043207713759 0 0.090091557715880011 -0.35272682937134081 0 0.079038875364531386 -0.37735387655603481 0 0.090091557715880011 -0.35272682937134081 0 0.090091557715880011 -0.35272682937134081 0 0.064671642009733674 -0.35650219391061549 0 0.071656930761659521 -0.33993938180084687 0 0.079038875364531386 -0.37735387655603481 0 0.053031828829682569 -0.37989835778484349 0 0.064671642009733674 -0.35650219391061549 0 0.079038875364531386 -0.37735387655603481 0 0.090091557715880011 -0.35272682937134081 0 0.064671642009733674 -0.35650219391061549 0 0.090082826748961828 -0.32182793850625391 0 0.08574459535965849 -0.33343772107158293 0 0.076701115312247048 -0.32455821159759812 0 0.085094026114337779 -0.31078913893405652 0 0.090082826748961828 -0.32182793850625391 0 0.076701115312247048 -0.32455821159759812 0 0.085094026114337779 -0.31078913893405652 0 0.097030874059012354 -0.31052008634532319 0 0.090082826748961828 -0.32182793850625391 0 0.10114424006722859 -0.32809978218664693 0 0.090082826748961828 -0.32182793850625391 0 0.08574459535965849 -0.33343772107158293 0 0.090091557715880011 -0.35272682937134081 0 0.08574459535965849 -0.33343772107158293 0 0.071656930761659521 -0.33993938180084687 0 0.10114424006722859 -0.32809978218664693 0 0.090091557715880011 -0.35272682937134081 0 0.08574459535965849 -0.33343772107158293 0 0.064671642009733674 -0.35650219391061549 0 0.071656930761659521 -0.33993938180084687 0 0.054625825030362431 -0.33195390244569989 0 0.071656930761659521 -0.33993938180084687 0 0.076701115312247048 -0.32455821159759812 0 0.054625825030362431 -0.33195390244569989 0 0.08574459535965849 -0.33343772107158293 0 0.071656930761659521 -0.33993938180084687 0 0.076701115312247048 -0.32455821159759812 0 0.085094026114337779 -0.31078913893405652 0 0.067112539659503367 -0.30930822994522089 0 0.076701115312247048 -0.32455821159759812 0 0.067112539659503367 -0.30930822994522089 0 0.076701115312247048 -0.32455821159759812 0 0.054625825030362431 -0.33195390244569989 0 0.067112539659503367 -0.30930822994522089 0 0.054625825030362431 -0.33195390244569989 0 0.046751320761070247 -0.31160907058585607 0 0.054625825030362431 -0.33195390244569989 0 0.040230396190538212 -0.3239927423217186 0 0.046751320761070247 -0.31160907058585607 0 0.054625825030362431 -0.33195390244569989 0 0.031869561764282968 -0.33624436319677897 0 0.040230396190538212 -0.3239927423217186 0 0.054625825030362431 -0.33195390244569989 0 0.031869561764282968 -0.33624436319677897 0 0.042323508781289071 -0.35466719960413751 0 0.040230396190538212 -0.3239927423217186 0 0.027674877206437212 -0.31616363305853928 0 0.046751320761070247 -0.31160907058585607 0 0.031869561764282968 -0.33624436319677897 0 0.040230396190538212 -0.3239927423217186 0 0.027674877206437212 -0.31616363305853928 0 0.053031828829682569 -0.37989835778484349 0 0.064671642009733674 -0.35650219391061549 0 0.042323508781289071 -0.35466719960413751 0 0.064671642009733674 -0.35650219391061549 0 0.054625825030362431 -0.33195390244569989 0 0.042323508781289071 -0.35466719960413751 0 0.031869561764282968 -0.33624436319677897 0 0.042323508781289071 -0.35466719960413751 0 0.020820528168786542 -0.3514421784833015 0 0.053031828829682569 -0.37989835778484349 0 0.042323508781289071 -0.35466719960413751 0 0.02892166688488625 -0.37196220180358558 0 0.02892166688488625 -0.37196220180358558 0 0.020820528168786542 -0.3514421784833015 0 0.01021458246237264 -0.36275467972052061 0 0.042323508781289071 -0.35466719960413751 0 0.02892166688488625 -0.37196220180358558 0 0.020820528168786542 -0.3514421784833015 0 0.020820528168786542 -0.3514421784833015 0 0.0024485211723043812 -0.34984543908587851 0 0.01021458246237264 -0.36275467972052061 0 0.020820528168786542 -0.3514421784833015 0 0.0024485211723043812 -0.34984543908587851 0 0.011039760448805209 -0.33149773469279481 0 -0.0053804259671532207 -0.36356640804699097 0 0.0024485211723043812 -0.34984543908587851 0 0.01021458246237264 -0.36275467972052061 0 0.0042626220530392351 -0.37695717118284638 0 0.02892166688488625 -0.37196220180358558 0 0.01021458246237264 -0.36275467972052061 0 -0.0053804259671532207 -0.36356640804699097 0 0.0042626220530392351 -0.37695717118284638 0 0.01021458246237264 -0.36275467972052061 0 0.031869561764282968 -0.33624436319677897 0 0.027674877206437212 -0.31616363305853928 0 0.011039760448805209 -0.33149773469279481 0 0.027674877206437212 -0.31616363305853928 0 0.011039760448805209 -0.33149773469279481 0 0.01075476764413975 -0.30850246277364701 0 0.031869561764282968 -0.33624436319677897 0 0.020820528168786542 -0.3514421784833015 0 0.011039760448805209 -0.33149773469279481 0 -0.0074884072069438734 -0.33725145532869172 0 0.0024485211723043812 -0.34984543908587851 0 0.011039760448805209 -0.33149773469279481 0 -0.0053582218815532608 -0.32008932611812541 0 0.011039760448805209 -0.33149773469279481 0 0.01075476764413975 -0.30850246277364701 0 -0.0064867905280374507 -0.30485728301885628 0 0.01075476764413975 -0.30850246277364701 0 0.0039663261745269971 -0.29451927062814087 0 0.01075476764413975 -0.30850246277364701 0 0.0039663261745269971 -0.29451927062814087 0 0.017084357990401481 -0.29177459259335498 0 -0.0002561390762269919 -0.28264639703223943 0 0.0039663261745269971 -0.29451927062814087 0 0.011327751325709399 -0.28239030306137802 0 0.0039663261745269971 -0.29451927062814087 0 0.011327751325709399 -0.28239030306137802 0 0.017084357990401481 -0.29177459259335498 0 0.011327751325709399 -0.28239030306137802 0 0.017084357990401481 -0.29177459259335498 0 0.023705876399660909 -0.27649746321243041 0 0.017084357990401481 -0.29177459259335498 0 0.029983892557589879 -0.28859604394362098 0 0.0278154570334503 -0.30058696497797799 0 0.017084357990401481 -0.29177459259335498 0 0.029983892557589879 -0.28859604394362098 0 0.023705876399660909 -0.27649746321243041 0 0.029983892557589879 -0.28859604394362098 0 0.039044649515492753 -0.28127372868201911 0 0.023705876399660909 -0.27649746321243041 0 0.01075476764413975 -0.30850246277364701 0 0.017084357990401481 -0.29177459259335498 0 0.0278154570334503 -0.30058696497797799 0 0.027674877206437212 -0.31616363305853928 0 0.01075476764413975 -0.30850246277364701 0 0.0278154570334503 -0.30058696497797799 0 0.0278154570334503 -0.30058696497797799 0 0.046751320761070247 -0.31160907058585607 0 0.041983938456029768 -0.29327139933898783 0 0.027674877206437212 -0.31616363305853928 0 0.0278154570334503 -0.30058696497797799 0 0.046751320761070247 -0.31160907058585607 0 0.029983892557589879 -0.28859604394362098 0 0.0278154570334503 -0.30058696497797799 0 0.041983938456029768 -0.29327139933898783 0 0.029983892557589879 -0.28859604394362098 0 0.039044649515492753 -0.28127372868201911 0 0.041983938456029768 -0.29327139933898783 0 0.039044649515492753 -0.28127372868201911 0 0.041983938456029768 -0.29327139933898783 0 0.051399911386875788 -0.27980362865209962 0 0.066480622729036098 -0.28920546259858571 0 0.055662553539641418 -0.29876002570656052 0 0.051399911386875788 -0.27980362865209962 0 0.041983938456029768 -0.29327139933898783 0 0.055662553539641418 -0.29876002570656052 0 0.051399911386875788 -0.27980362865209962 0 0.067112539659503367 -0.30930822994522089 0 0.046751320761070247 -0.31160907058585607 0 0.055662553539641418 -0.29876002570656052 0 0.046751320761070247 -0.31160907058585607 0 0.041983938456029768 -0.29327139933898783 0 0.055662553539641418 -0.29876002570656052 0 0.067259798510224872 -0.27221229350630233 0 0.067436098530931882 -0.25179322976183088 0 0.05248601544670365 -0.26280510357134812 0 0.05248601544670365 -0.26280510357134812 0 0.039169284472429913 -0.25235331981085207 0 0.05419183297682837 -0.24338748912938579 0 0.067436098530931882 -0.25179322976183088 0 0.05248601544670365 -0.26280510357134812 0 0.05419183297682837 -0.24338748912938579 0 0.067259798510224872 -0.27221229350630233 0 0.05248601544670365 -0.26280510357134812 0 0.051399911386875788 -0.27980362865209962 0 0.066480622729036098 -0.28920546259858571 0 0.067259798510224872 -0.27221229350630233 0 0.051399911386875788 -0.27980362865209962 0 0.05248601544670365 -0.26280510357134812 0 0.051399911386875788 -0.27980362865209962 0 0.037980732784977461 -0.26889378237118222 0 0.039044649515492753 -0.28127372868201911 0 0.051399911386875788 -0.27980362865209962 0 0.037980732784977461 -0.26889378237118222 0 0.039044649515492753 -0.28127372868201911 0 0.037980732784977461 -0.26889378237118222 0 0.023705876399660909 -0.27649746321243041 0 0.05248601544670365 -0.26280510357134812 0 0.037980732784977461 -0.26889378237118222 0 0.039169284472429913 -0.25235331981085207 0 0.037980732784977461 -0.26889378237118222 0 0.039169284472429913 -0.25235331981085207 0 0.02421335298666898 -0.2593119314100425 0 0.039169284472429913 -0.25235331981085207 0 0.02421335298666898 -0.2593119314100425 0 0.02549129903750446 -0.24162453847862689 0 0.02421335298666898 -0.2593119314100425 0 0.01302461609886712 -0.24918343071783591 0 0.02549129903750446 -0.24162453847862689 0 0.037980732784977461 -0.26889378237118222 0 0.02421335298666898 -0.2593119314100425 0 0.023705876399660909 -0.27649746321243041 0 0.02421335298666898 -0.2593119314100425 0 0.023705876399660909 -0.27649746321243041 0 0.0058517119539637039 -0.26526726738753448 0 -0.0002561390762269919 -0.28264639703223943 0 0.011327751325709399 -0.28239030306137802 0 0.0058517119539637039 -0.26526726738753448 0 0.011327751325709399 -0.28239030306137802 0 0.023705876399660909 -0.27649746321243041 0 0.0058517119539637039 -0.26526726738753448 0 0.02421335298666898 -0.2593119314100425 0 0.0058517119539637039 -0.26526726738753448 0 0.01302461609886712 -0.24918343071783591 0 0.0058517119539637039 -0.26526726738753448 0 0.01302461609886712 -0.24918343071783591 0 5.5069077789237038e-05 -0.24501837689693201 0 0.01302461609886712 -0.24918343071783591 0 5.5069077789237038e-05 -0.24501837689693201 0 0.010477701011133119 -0.2317576984450738 0 -0.003336457728542803 -0.2305931919632517 0 5.5069077789237038e-05 -0.24501837689693201 0 0.010477701011133119 -0.2317576984450738 0 -0.003336457728542803 -0.2305931919632517 0 0.010477701011133119 -0.2317576984450738 0 0.0025689561348744431 -0.21461094376595721 0 0.010477701011133119 -0.2317576984450738 0 0.024461027736537039 -0.22121275950411051 0 0.0025689561348744431 -0.21461094376595721 0 0.024461027736537039 -0.22121275950411051 0 0.02549129903750446 -0.24162453847862689 0 0.040516640387631739 -0.23317278634822369 0 0.010477701011133119 -0.2317576984450738 0 0.024461027736537039 -0.22121275950411051 0 0.02549129903750446 -0.24162453847862689 0 0.01302461609886712 -0.24918343071783591 0 0.010477701011133119 -0.2317576984450738 0 0.02549129903750446 -0.24162453847862689 0 -0.0078558202761950489 -0.19775503520096671 0 0.0073116621217151666 -0.1932980156746201 0 0.0025689561348744431 -0.21461094376595721 0 0.024461027736537039 -0.22121275950411051 0 0.0025689561348744431 -0.21461094376595721 0 0.01686706873828888 -0.2058921313538207 0 0.0073116621217151666 -0.1932980156746201 0 0.0025689561348744431 -0.21461094376595721 0 0.01686706873828888 -0.2058921313538207 0 0.024461027736537039 -0.22121275950411051 0 0.01686706873828888 -0.2058921313538207 0 0.035934790314109788 -0.20200335792844981 0 0.01686706873828888 -0.2058921313538207 0 0.022942606830186649 -0.18991648810087541 0 0.035934790314109788 -0.20200335792844981 0 0.0073116621217151666 -0.1932980156746201 0 0.01686706873828888 -0.2058921313538207 0 0.022942606830186649 -0.18991648810087541 0 0.022942606830186649 -0.18991648810087541 0 0.034677507325461543 -0.1883993205466242 0 0.035934790314109788 -0.20200335792844981 0 0.035934790314109788 -0.20200335792844981 0 0.051120202584041853 -0.20791733803957221 0 0.049942263458442201 -0.19021348593550241 0 0.034677507325461543 -0.1883993205466242 0 0.035934790314109788 -0.20200335792844981 0 0.049942263458442201 -0.19021348593550241 0 0.024461027736537039 -0.22121275950411051 0 0.035934790314109788 -0.20200335792844981 0 0.042434078289938823 -0.21765832930473569 0 0.035934790314109788 -0.20200335792844981 0 0.042434078289938823 -0.21765832930473569 0 0.051120202584041853 -0.20791733803957221 0 0.051120202584041853 -0.20791733803957221 0 0.055856654028952499 -0.2222081535119611 0 0.069994158217776881 -0.20896302164933531 0 0.042434078289938823 -0.21765832930473569 0 0.051120202584041853 -0.20791733803957221 0 0.055856654028952499 -0.2222081535119611 0 0.051120202584041853 -0.20791733803957221 0 0.049942263458442201 -0.19021348593550241 0 0.069994158217776881 -0.20896302164933531 0 0.049942263458442201 -0.19021348593550241 0 0.069994158217776881 -0.20896302164933531 0 0.039169284472429913 -0.25235331981085207 0 0.02549129903750446 -0.24162453847862689 0 0.040516640387631739 -0.23317278634822369 0 0.039169284472429913 -0.25235331981085207 0 0.040516640387631739 -0.23317278634822369 0 0.05419183297682837 -0.24338748912938579 0 0.024461027736537039 -0.22121275950411051 0 0.042434078289938823 -0.21765832930473569 0 0.040516640387631739 -0.23317278634822369 0 0.042434078289938823 -0.21765832930473569 0 0.040516640387631739 -0.23317278634822369 0 0.055856654028952499 -0.2222081535119611 0 0.040516640387631739 -0.23317278634822369 0 0.055856654028952499 -0.2222081535119611 0 0.05419183297682837 -0.24338748912938579 0 0.055856654028952499 -0.2222081535119611 0 0.05419183297682837 -0.24338748912938579 0 0.068593976518200678 -0.23055758744154309 0 0.067436098530931882 -0.25179322976183088 0 0.080910318479644389 -0.23864157981941569 0 0.068593976518200678 -0.23055758744154309 0 0.067436098530931882 -0.25179322976183088 0 0.05419183297682837 -0.24338748912938579 0 0.068593976518200678 -0.23055758744154309 0 0.067436098530931882 -0.25179322976183088 0 0.083570000600806271 -0.25252161182914828 0 0.080910318479644389 -0.23864157981941569 0 0.083570000600806271 -0.25252161182914828 0 0.080910318479644389 -0.23864157981941569 0 0.09988020269138774 -0.23283093015199441 0 0.083570000600806271 -0.25252161182914828 0 0.09988020269138774 -0.23283093015199441 0 0.080910318479644389 -0.23864157981941569 0 0.090046052977111588 -0.22771255736316839 0 0.068593976518200678 -0.23055758744154309 0 0.080910318479644389 -0.23864157981941569 0 0.090046052977111588 -0.22771255736316839 0 0.09988020269138774 -0.23283093015199441 0 0.090046052977111588 -0.22771255736316839 0 0.068593976518200678 -0.23055758744154309 0 0.069994158217776881 -0.20896302164933531 0 0.055856654028952499 -0.2222081535119611 0 0.068593976518200678 -0.23055758744154309 0 0.069994158217776881 -0.20896302164933531 0 0.049942263458442201 -0.19021348593550241 0 0.069994158217776881 -0.20896302164933531 0 0.070531890601592484 -0.1915275306772394 0 0.069994158217776881 -0.20896302164933531 0 0.070531890601592484 -0.1915275306772394 0 0.079493392447268371 -0.19845276943415269 0 0.070531890601592484 -0.1915275306772394 0 0.079493392447268371 -0.19845276943415269 0 0.08800670842386088 -0.18558374139178049 0 0.079493392447268371 -0.19845276943415269 0 0.089622527515117997 -0.20815141158544889 0 0.08800670842386088 -0.18558374139178049 0 0.089622527515117997 -0.20815141158544889 0 0.1031478102299638 -0.1938007559748102 0 0.08800670842386088 -0.18558374139178049 0 0.089622527515117997 -0.20815141158544889 0 0.08800670842386088 -0.18558374139178049 0 0.069994158217776881 -0.20896302164933531 0 0.079493392447268371 -0.19845276943415269 0 0.089622527515117997 -0.20815141158544889 0 0.090046052977111588 -0.22771255736316839 0 0.069994158217776881 -0.20896302164933531 0 0.089622527515117997 -0.20815141158544889 0 0.090046052977111588 -0.22771255736316839 0 0.089622527515117997 -0.20815141158544889 0 0.10042114900323811 -0.21784076968348889 0 0.090046052977111588 -0.22771255736316839 0 0.069994158217776881 -0.20896302164933531 0 0.089622527515117997 -0.20815141158544889 0 0.10042114900323811 -0.21784076968348889 0 0.1063665570506038 -0.2073687008419928 0 0.10042114900323811 -0.21784076968348889 0 0.1063665570506038 -0.2073687008419928 0 0.11619040478196919 -0.21314024847484031 0 0.089622527515117997 -0.20815141158544889 0 0.1063665570506038 -0.2073687008419928 0 0.1031478102299638 -0.1938007559748102 0 0.1063665570506038 -0.2073687008419928 0 0.1031478102299638 -0.1938007559748102 0 0.11670628205469979 -0.20101572358297989 0 0.1031478102299638 -0.1938007559748102 0 0.11670628205469979 -0.20101572358297989 0 0.11328620959146481 -0.1872308346946949 0 0.11670628205469979 -0.20101572358297989 0 0.11328620959146481 -0.1872308346946949 0 0.12692312696636221 -0.19143108185169169 0 0.11670628205469979 -0.20101572358297989 0 0.11619040478196919 -0.21314024847484031 0 0.13148233906467871 -0.21676098932711141 0 0.1063665570506038 -0.2073687008419928 0 0.11670628205469979 -0.20101572358297989 0 0.11619040478196919 -0.21314024847484031 0 0.11619040478196919 -0.21314024847484031 0 0.1200926945434784 -0.22690872377445159 0 0.13148233906467871 -0.21676098932711141 0 0.11619040478196919 -0.21314024847484031 0 0.11153891324392901 -0.2301125659786474 0 0.1200926945434784 -0.22690872377445159 0 0.11153891324392901 -0.2301125659786474 0 0.1200926945434784 -0.22690872377445159 0 0.11769988473150959 -0.2370786297338042 0 0.1200926945434784 -0.22690872377445159 0 0.11769988473150959 -0.2370786297338042 0 0.12563083416654611 -0.23539860469462029 0 0.1200926945434784 -0.22690872377445159 0 0.127785320379038 -0.22972588517508291 0 0.12563083416654611 -0.23539860469462029 0 0.11769988473150959 -0.2370786297338042 0 0.12563083416654611 -0.23539860469462029 0 0.12653472001570881 -0.24118888798723179 0 0.11769988473150959 -0.2370786297338042 0 0.1201242040164975 -0.24343388504263261 0 0.12653472001570881 -0.24118888798723179 0 0.1201242040164975 -0.24343388504263261 0 0.1191165240372454 -0.24986064156997109 0 0.1260475031306488 -0.24683605874453271 0 0.12614567111574171 -0.25305400209924589 0 0.1191165240372454 -0.24986064156997109 0 0.1260475031306488 -0.24683605874453271 0 0.1201242040164975 -0.24343388504263261 0 0.12653472001570881 -0.24118888798723179 0 0.1260475031306488 -0.24683605874453271 0 0.1201242040164975 -0.24343388504263261 0 0.1191165240372454 -0.24986064156997109 0 0.11318591556133049 -0.24557771175621371 0 0.11769988473150959 -0.2370786297338042 0 0.1201242040164975 -0.24343388504263261 0 0.11318591556133049 -0.24557771175621371 0 0.11153891324392901 -0.2301125659786474 0 0.11769988473150959 -0.2370786297338042 0 0.1088458831923413 -0.23900499110736331 0 0.11769988473150959 -0.2370786297338042 0 0.11318591556133049 -0.24557771175621371 0 0.1088458831923413 -0.23900499110736331 0 0.083570000600806271 -0.25252161182914828 0 0.1036638327581733 -0.24862179266327261 0 0.09988020269138774 -0.23283093015199441 0 0.1088458831923413 -0.23900499110736331 0 0.1036638327581733 -0.24862179266327261 0 0.09988020269138774 -0.23283093015199441 0 0.11318591556133049 -0.24557771175621371 0 0.1088458831923413 -0.23900499110736331 0 0.1036638327581733 -0.24862179266327261 0 0.11619040478196919 -0.21314024847484031 0 0.09988020269138774 -0.23283093015199441 0 0.10042114900323811 -0.21784076968348889 0 0.11619040478196919 -0.21314024847484031 0 0.09988020269138774 -0.23283093015199441 0 0.11619040478196919 -0.21314024847484031 0 0.11153891324392901 -0.2301125659786474 0 0.09988020269138774 -0.23283093015199441 0 0.090046052977111588 -0.22771255736316839 0 0.10042114900323811 -0.21784076968348889 0 0.09988020269138774 -0.23283093015199441 0 0.11153891324392901 -0.2301125659786474 0 0.1088458831923413 -0.23900499110736331 0 0.09988020269138774 -0.23283093015199441 0 0.1030970431742629 -0.15434636996131429 0 0.1006937180466326 -0.13288431339828721 0 0.084775070241346631 -0.1404484010044435 0 0.1030970431742629 -0.15434636996131429 0 0.1006937180466326 -0.13288431339828721 0 0.11780470276972931 -0.14077126690085251 0 0.11780470276972931 -0.14077126690085251 0 0.1132454906714129 -0.1154413594254329 0 0.1302628723399378 -0.1285280644434712 0 0.1006937180466326 -0.13288431339828721 0 0.11780470276972931 -0.14077126690085251 0 0.1132454906714129 -0.1154413594254329 0 0.11780470276972931 -0.14077126690085251 0 0.1132454906714129 -0.1154413594254329 0 0.1030970431742629 -0.15434636996131429 0 0.11780470276972931 -0.14077126690085251 0 0.1114801036853121 -0.16501732924458631 0 0.11780470276972931 -0.14077126690085251 0 0.12236391486804581 -0.16610117437627209 0 0.11780470276972931 -0.14077126690085251 0 0.12236391486804581 -0.16610117437627209 0 0.12595086852801551 -0.1570358531236655 0 0.11780470276972931 -0.14077126690085251 0 0.12595086852801551 -0.1570358531236655 0 0.1290884801471891 -0.14529206250405541 0 0.11780470276972931 -0.14077126690085251 0 0.12236391486804581 -0.16610117437627209 0 0.1114801036853121 -0.16501732924458631 0 0.12236391486804581 -0.16610117437627209 0 0.1114801036853121 -0.16501732924458631 0 0.1155322385573062 -0.17694613035610701 0 0.12236391486804581 -0.16610117437627209 0 0.1155322385573062 -0.17694613035610701 0 0.12692312696636221 -0.19143108185169169 0 0.12236391486804581 -0.16610117437627209 0 0.12692312696636221 -0.19143108185169169 0 0.1155322385573062 -0.17694613035610701 0 0.11328620959146481 -0.1872308346946949 0 0.12692312696636221 -0.19143108185169169 0 0.1114801036853121 -0.16501732924458631 0 0.1155322385573062 -0.17694613035610701 0 0.103607837675346 -0.17495023161329001 0 0.1155322385573062 -0.17694613035610701 0 0.11328620959146481 -0.1872308346946949 0 0.103607837675346 -0.17495023161329001 0 0.1031478102299638 -0.1938007559748102 0 0.11328620959146481 -0.1872308346946949 0 0.103607837675346 -0.17495023161329001 0 0.1031478102299638 -0.1938007559748102 0 0.103607837675346 -0.17495023161329001 0 0.08800670842386088 -0.18558374139178049 0 0.1030970431742629 -0.15434636996131429 0 0.1114801036853121 -0.16501732924458631 0 0.103607837675346 -0.17495023161329001 0 0.1030970431742629 -0.15434636996131429 0 0.103607837675346 -0.17495023161329001 0 0.086390889332603749 -0.16301607119811201 0 0.086390889332603749 -0.16301607119811201 0 0.08800670842386088 -0.18558374139178049 0 0.065336502316410847 -0.1746837772049217 0 0.103607837675346 -0.17495023161329001 0 0.086390889332603749 -0.16301607119811201 0 0.08800670842386088 -0.18558374139178049 0 0.086390889332603749 -0.16301607119811201 0 0.08800670842386088 -0.18558374139178049 0 0.070531890601592484 -0.1915275306772394 0 0.08800670842386088 -0.18558374139178049 0 0.065336502316410847 -0.1746837772049217 0 0.086390889332603749 -0.16301607119811201 0 0.065336502316410847 -0.1746837772049217 0 0.067221175487476276 -0.15663324827712771 0 0.067221175487476276 -0.15663324827712771 0 0.066726137542017727 -0.14168775224274049 0 0.084775070241346631 -0.1404484010044435 0 0.086390889332603749 -0.16301607119811201 0 0.084775070241346631 -0.1404484010044435 0 0.086390889332603749 -0.16301607119811201 0 0.067221175487476276 -0.15663324827712771 0 0.084775070241346631 -0.1404484010044435 0 0.1030970431742629 -0.15434636996131429 0 0.086390889332603749 -0.16301607119811201 0 0.084775070241346631 -0.1404484010044435 0 0.084775070241346631 -0.1404484010044435 0 0.0831592511500895 -0.11788073081077489 0 0.1006937180466326 -0.13288431339828721 0 0.084775070241346631 -0.1404484010044435 0 0.0831592511500895 -0.11788073081077489 0 0.084775070241346631 -0.1404484010044435 0 0.063216714101410096 -0.12545088579149641 0 0.0831592511500895 -0.11788073081077489 0 0.066726137542017727 -0.14168775224274049 0 0.084775070241346631 -0.1404484010044435 0 0.063216714101410096 -0.12545088579149641 0 0.063216714101410096 -0.12545088579149641 0 0.051691590337837878 -0.14421847389789449 0 0.039545671360825568 -0.1208474463642879 0 0.066726137542017727 -0.14168775224274049 0 0.063216714101410096 -0.12545088579149641 0 0.051691590337837878 -0.14421847389789449 0 0.067221175487476276 -0.15663324827712771 0 0.066726137542017727 -0.14168775224274049 0 0.051691590337837878 -0.14421847389789449 0 0.051691590337837878 -0.14421847389789449 0 0.042087984223343998 -0.1558269822834619 0 0.053953049587528147 -0.1613704562198735 0 0.067221175487476276 -0.15663324827712771 0 0.051691590337837878 -0.14421847389789449 0 0.053953049587528147 -0.1613704562198735 0 0.051691590337837878 -0.14421847389789449 0 0.042087984223343998 -0.1558269822834619 0 0.034251989770644267 -0.14027304773109611 0 0.042087984223343998 -0.1558269822834619 0 0.034251989770644267 -0.14027304773109611 0 0.024702000525055699 -0.15589427989936011 0 0.034251989770644267 -0.14027304773109611 0 0.026926147766695451 -0.12679788292982369 0 0.039545671360825568 -0.1208474463642879 0 0.051691590337837878 -0.14421847389789449 0 0.034251989770644267 -0.14027304773109611 0 0.039545671360825568 -0.1208474463642879 0 0.049942263458442201 -0.19021348593550241 0 0.065336502316410847 -0.1746837772049217 0 0.045809078769364187 -0.1728665443937952 0 0.049942263458442201 -0.19021348593550241 0 0.070531890601592484 -0.1915275306772394 0 0.065336502316410847 -0.1746837772049217 0 0.065336502316410847 -0.1746837772049217 0 0.053953049587528147 -0.1613704562198735 0 0.045809078769364187 -0.1728665443937952 0 0.065336502316410847 -0.1746837772049217 0 0.067221175487476276 -0.15663324827712771 0 0.053953049587528147 -0.1613704562198735 0 0.042087984223343998 -0.1558269822834619 0 0.053953049587528147 -0.1613704562198735 0 0.045809078769364187 -0.1728665443937952 0 0.045809078769364187 -0.1728665443937952 0 0.024702000525055699 -0.15589427989936011 0 0.045809078769364187 -0.1728665443937952 0 0.029890368699107508 -0.1714639502216693 0 0.024702000525055699 -0.15589427989936011 0 0.042087984223343998 -0.1558269822834619 0 0.045809078769364187 -0.1728665443937952 0 0.024702000525055699 -0.15589427989936011 0 0.049942263458442201 -0.19021348593550241 0 0.045809078769364187 -0.1728665443937952 0 0.029890368699107508 -0.1714639502216693 0 0.034677507325461543 -0.1883993205466242 0 0.049942263458442201 -0.19021348593550241 0 0.029890368699107508 -0.1714639502216693 0 0.049942263458442201 -0.19021348593550241 0 0.029890368699107508 -0.1714639502216693 0 0.022942606830186649 -0.18991648810087541 0 0.034677507325461543 -0.1883993205466242 0 0.029890368699107508 -0.1714639502216693 0 0.022942606830186649 -0.18991648810087541 0 0.029890368699107508 -0.1714639502216693 0 0.015569944662435799 -0.16758671547186449 0 0.015569944662435799 -0.16758671547186449 0 0.024702000525055699 -0.15589427989936011 0 0.008251175175888522 -0.15569183585199861 0 0.029890368699107508 -0.1714639502216693 0 0.015569944662435799 -0.16758671547186449 0 0.024702000525055699 -0.15589427989936011 0 0.002015510852514211 -0.16373569640836241 0 0.015569944662435799 -0.16758671547186449 0 0.008251175175888522 -0.15569183585199861 0 -0.0049556213924309414 -0.15220617744372489 0 0.002015510852514211 -0.16373569640836241 0 0.008251175175888522 -0.15569183585199861 0 0.002015510852514211 -0.16373569640836241 0 0.015569944662435799 -0.16758671547186449 0 0.0047182208822879237 -0.1777034137916996 0 0.0073116621217151666 -0.1932980156746201 0 0.022942606830186649 -0.18991648810087541 0 0.0047182208822879237 -0.1777034137916996 0 -0.01057488861986809 -0.18415519504167921 0 0.0073116621217151666 -0.1932980156746201 0 0.0047182208822879237 -0.1777034137916996 0 0.022942606830186649 -0.18991648810087541 0 0.0047182208822879237 -0.1777034137916996 0 0.022942606830186649 -0.18991648810087541 0 0.015569944662435799 -0.16758671547186449 0 0.0047182208822879237 -0.1777034137916996 0 0.020558544410107089 -0.13805322101174891 0 0.026926147766695451 -0.12679788292982369 0 0.013285449581102881 -0.1238667698182491 0 0.034251989770644267 -0.14027304773109611 0 0.020558544410107089 -0.13805322101174891 0 0.026926147766695451 -0.12679788292982369 0 0.020558544410107089 -0.13805322101174891 0 0.024702000525055699 -0.15589427989936011 0 0.0035949222807473368 -0.13892201540492491 0 0.034251989770644267 -0.14027304773109611 0 0.020558544410107089 -0.13805322101174891 0 0.024702000525055699 -0.15589427989936011 0 -0.0049556213924309414 -0.15220617744372489 0 0.008251175175888522 -0.15569183585199861 0 0.0035949222807473368 -0.13892201540492491 0 0.024702000525055699 -0.15589427989936011 0 0.0035949222807473368 -0.13892201540492491 0 0.024702000525055699 -0.15589427989936011 0 0.008251175175888522 -0.15569183585199861 0 0.0035949222807473368 -0.13892201540492491 0 -0.00012684235317440761 -0.1204046958944044 0 0.0035949222807473368 -0.13892201540492491 0 0.013285449581102881 -0.1238667698182491 0 0.020558544410107089 -0.13805322101174891 0 0.0035949222807473368 -0.13892201540492491 0 0.013285449581102881 -0.1238667698182491 0 0.0035949222807473368 -0.13892201540492491 0 0.013285449581102881 -0.1238667698182491 0 -0.00012684235317440761 -0.1204046958944044 0 0.013285449581102881 -0.1238667698182491 0 0.0058311833923206848 -0.1093574381883157 0 0.013285449581102881 -0.1238667698182491 0 0.023934180789946469 -0.103572634778994 0 0.0058311833923206848 -0.1093574381883157 0 0.026926147766695451 -0.12679788292982369 0 0.023934180789946469 -0.103572634778994 0 0.039545671360825568 -0.1208474463642879 0 0.026926147766695451 -0.12679788292982369 0 0.013285449581102881 -0.1238667698182491 0 0.023934180789946469 -0.103572634778994 0 0.023934180789946469 -0.103572634778994 0 0.0083226902190740911 -0.086297823193694084 0 0.023934180789946469 -0.103572634778994 0 0.0057445421003686293 -0.096336282145828567 0 0.0083226902190740911 -0.086297823193694084 0 0.023934180789946469 -0.103572634778994 0 0.0058311833923206848 -0.1093574381883157 0 0.0057445421003686293 -0.096336282145828567 0 0.0057445421003686293 -0.096336282145828567 0 0.0042991764360200786 -0.08906099076694389 0 0.0083226902190740911 -0.086297823193694084 0 0.0042991764360200786 -0.08906099076694389 0 0.0083226902190740911 -0.086297823193694084 0 -0.0060818094859296486 -0.080207909247433554 0 0.0042991764360200786 -0.08906099076694389 0 0.0083226902190740911 -0.086297823193694084 0 0.0083226902190740911 -0.086297823193694084 0 0.022080720537452171 -0.076849429253125087 0 0.0083226902190740911 -0.086297823193694084 0 0.0090840813223258977 -0.066632195300643543 0 0.022080720537452171 -0.076849429253125087 0 -0.0091869844230865055 -0.066922586153411984 0 0.0083226902190740911 -0.086297823193694084 0 0.0090840813223258977 -0.066632195300643543 0 0.0090840813223258977 -0.066632195300643543 0 0.023250151722802991 -0.063559050664225139 0 0.022080720537452171 -0.076849429253125087 0 0.022080720537452171 -0.076849429253125087 0 0.035838750855830957 -0.067401035312557062 0 0.023250151722802991 -0.063559050664225139 0 0.022080720537452171 -0.076849429253125087 0 0.035838750855830957 -0.067401035312557062 0 0.023934180789946469 -0.103572634778994 0 0.022736121441317019 -0.087495082062461607 0 0.0358882965587424 -0.083369143357332129 0 0.023934180789946469 -0.103572634778994 0 0.0083226902190740911 -0.086297823193694084 0 0.022736121441317019 -0.087495082062461607 0 0.0083226902190740911 -0.086297823193694084 0 0.022080720537452171 -0.076849429253125087 0 0.022736121441317019 -0.087495082062461607 0 0.022080720537452171 -0.076849429253125087 0 0.022736121441317019 -0.087495082062461607 0 0.0358882965587424 -0.083369143357332129 0 0.0358882965587424 -0.083369143357332129 0 0.049245680152007858 -0.073819460578821688 0 0.050140154042260909 -0.092006551899471961 0 0.023934180789946469 -0.103572634778994 0 0.0358882965587424 -0.083369143357332129 0 0.050140154042260909 -0.092006551899471961 0 0.0358882965587424 -0.083369143357332129 0 0.035838750855830957 -0.067401035312557062 0 0.049245680152007858 -0.073819460578821688 0 0.035838750855830957 -0.067401035312557062 0 0.049245680152007858 -0.073819460578821688 0 0.045335077211833288 -0.05673501074576226 0 0.022080720537452171 -0.076849429253125087 0 0.0358882965587424 -0.083369143357332129 0 0.035838750855830957 -0.067401035312557062 0 0.049245680152007858 -0.073819460578821688 0 0.045335077211833288 -0.05673501074576226 0 0.060934155491303557 -0.061744066338947023 0 0.049245680152007858 -0.073819460578821688 0 0.060934155491303557 -0.061744066338947023 0 0.069491961466955743 -0.079443361673962334 0 0.049245680152007858 -0.073819460578821688 0 0.050140154042260909 -0.092006551899471961 0 0.069491961466955743 -0.079443361673962334 0 0.050140154042260909 -0.092006551899471961 0 0.053280752266021331 -0.1095177468905095 0 0.069179086491038572 -0.10150166889013711 0 0.063216714101410096 -0.12545088579149641 0 0.053280752266021331 -0.1095177468905095 0 0.039545671360825568 -0.1208474463642879 0 0.063216714101410096 -0.12545088579149641 0 0.053280752266021331 -0.1095177468905095 0 0.069179086491038572 -0.10150166889013711 0 0.023934180789946469 -0.103572634778994 0 0.053280752266021331 -0.1095177468905095 0 0.039545671360825568 -0.1208474463642879 0 0.023934180789946469 -0.103572634778994 0 0.039545671360825568 -0.1208474463642879 0 0.023934180789946469 -0.103572634778994 0 0.050140154042260909 -0.092006551899471961 0 0.053280752266021331 -0.1095177468905095 0 0.01730044290164329 0.0039874760215709648 0 0.029298886382164071 -0.014607363622740911 0 0.0035155241191154088 -0.01135911205853103 0 -0.010993489142553671 -0.026288231971040871 0 0.0035155241191154088 -0.01135911205853103 0 0.012826733239207111 -0.031570055299761972 0 0.029298886382164071 -0.014607363622740911 0 0.0035155241191154088 -0.01135911205853103 0 0.012826733239207111 -0.031570055299761972 0 0.029298886382164071 -0.014607363622740911 0 0.012826733239207111 -0.031570055299761972 0 0.035202155288277283 -0.039810629961937849 0 0.012826733239207111 -0.031570055299761972 0 0.01770627845846905 -0.051043819300227528 0 0.035202155288277283 -0.039810629961937849 0 -0.0025421594991624891 -0.047320972396905157 0 0.012826733239207111 -0.031570055299761972 0 0.01770627845846905 -0.051043819300227528 0 -0.0025421594991624891 -0.047320972396905157 0 0.0090840813223258977 -0.066632195300643543 0 0.01770627845846905 -0.051043819300227528 0 0.0090840813223258977 -0.066632195300643543 0 0.023250151722802991 -0.063559050664225139 0 0.01770627845846905 -0.051043819300227528 0 0.01770627845846905 -0.051043819300227528 0 0.031540927439936847 -0.05586877415457249 0 0.035202155288277283 -0.039810629961937849 0 0.023250151722802991 -0.063559050664225139 0 0.035838750855830957 -0.067401035312557062 0 0.031540927439936847 -0.05586877415457249 0 0.023250151722802991 -0.063559050664225139 0 0.01770627845846905 -0.051043819300227528 0 0.031540927439936847 -0.05586877415457249 0 0.031540927439936847 -0.05586877415457249 0 0.045335077211833288 -0.05673501074576226 0 0.035202155288277283 -0.039810629961937849 0 0.035838750855830957 -0.067401035312557062 0 0.031540927439936847 -0.05586877415457249 0 0.045335077211833288 -0.05673501074576226 0 0.045335077211833288 -0.05673501074576226 0 0.060934155491303557 -0.061744066338947023 0 0.060906275292466963 -0.042715155705143081 0 0.045335077211833288 -0.05673501074576226 0 0.060906275292466963 -0.042715155705143081 0 0.035202155288277283 -0.039810629961937849 0 0.060906275292466963 -0.042715155705143081 0 0.035202155288277283 -0.039810629961937849 0 0.050387455008682538 -0.02617854525201558 0 0.029298886382164071 -0.014607363622740911 0 0.035202155288277283 -0.039810629961937849 0 0.050387455008682538 -0.02617854525201558 0 0.029298886382164071 -0.014607363622740911 0 0.050387455008682538 -0.02617854525201558 0 0.050033275005384847 -0.0073253509782571016 0 0.050387455008682538 -0.02617854525201558 0 0.050033275005384847 -0.0073253509782571016 0 0.069509320086029766 -0.019850122411769401 0 0.060906275292466963 -0.042715155705143081 0 0.050387455008682538 -0.02617854525201558 0 0.069509320086029766 -0.019850122411769401 0 0.050033275005384847 -0.0073253509782571016 0 0.06772632412574682 -0.0022882636656376088 0 0.069509320086029766 -0.019850122411769401 0 0.035294585379250801 0.01136046176207898 0 0.029298886382164071 -0.014607363622740911 0 0.050033275005384847 -0.0073253509782571016 0 0.090607040008452835 0.010053896467221371 0 0.090218815314160872 -0.0094914044003041979 0 0.06772632412574682 -0.0022882636656376088 0 0.090218815314160872 -0.0094914044003041979 0 0.06772632412574682 -0.0022882636656376088 0 0.069509320086029766 -0.019850122411769401 0 0.090218815314160872 -0.0094914044003041979 0 0.069509320086029766 -0.019850122411769401 0 0.084189253780009202 -0.035424455006549838 0 0.090218815314160872 -0.0094914044003041979 0 0.084189253780009202 -0.035424455006549838 0 0.10615527464258551 -0.027034508350696582 0 0.060906275292466963 -0.042715155705143081 0 0.069509320086029766 -0.019850122411769401 0 0.084189253780009202 -0.035424455006549838 0 0.060906275292466963 -0.042715155705143081 0 0.084189253780009202 -0.035424455006549838 0 0.077833487542066745 -0.056599057286705889 0 0.060934155491303557 -0.061744066338947023 0 0.060906275292466963 -0.042715155705143081 0 0.077833487542066745 -0.056599057286705889 0 0.084189253780009202 -0.035424455006549838 0 0.077833487542066745 -0.056599057286705889 0 0.10102019708648011 -0.048949450363135152 0 0.077833487542066745 -0.056599057286705889 0 0.10102019708648011 -0.048949450363135152 0 0.091919811842847032 -0.07096002132937218 0 0.10102019708648011 -0.048949450363135152 0 0.11351263576223659 -0.062171986123890223 0 0.091919811842847032 -0.07096002132937218 0 0.10102019708648011 -0.048949450363135152 0 0.11351263576223659 -0.062171986123890223 0 0.12764565113404919 -0.050187314414747608 0 0.10102019708648011 -0.048949450363135152 0 0.10615527464258551 -0.027034508350696582 0 0.12764565113404919 -0.050187314414747608 0 0.10615527464258551 -0.027034508350696582 0 0.1289660912711251 -0.024913336843905079 0 0.12764565113404919 -0.050187314414747608 0 0.084189253780009202 -0.035424455006549838 0 0.10102019708648011 -0.048949450363135152 0 0.10615527464258551 -0.027034508350696582 0 0.090218815314160872 -0.0094914044003041979 0 0.10615527464258551 -0.027034508350696582 0 0.11466736765255039 -0.011390443917813501 0 0.10615527464258551 -0.027034508350696582 0 0.11466736765255039 -0.011390443917813501 0 0.1289660912711251 -0.024913336843905079 0 0.1118186485924335 0.0077199284828837469 0 0.11466736765255039 -0.011390443917813501 0 0.13269467940095861 -0.0063507146358696351 0 0.1118186485924335 0.0077199284828837469 0 0.090218815314160872 -0.0094914044003041979 0 0.11466736765255039 -0.011390443917813501 0 0.089938697557747138 -0.095778276395012046 0 0.0831592511500895 -0.11788073081077489 0 0.069179086491038572 -0.10150166889013711 0 0.063216714101410096 -0.12545088579149641 0 0.0831592511500895 -0.11788073081077489 0 0.069179086491038572 -0.10150166889013711 0 0.089938697557747138 -0.095778276395012046 0 0.069179086491038572 -0.10150166889013711 0 0.069491961466955743 -0.079443361673962334 0 0.050140154042260909 -0.092006551899471961 0 0.069179086491038572 -0.10150166889013711 0 0.069491961466955743 -0.079443361673962334 0 0.060934155491303557 -0.061744066338947023 0 0.077833487542066745 -0.056599057286705889 0 0.069491961466955743 -0.079443361673962334 0 0.077833487542066745 -0.056599057286705889 0 0.069491961466955743 -0.079443361673962334 0 0.091919811842847032 -0.07096002132937218 0 0.089938697557747138 -0.095778276395012046 0 0.069491961466955743 -0.079443361673962334 0 0.091919811842847032 -0.07096002132937218 0 0.089938697557747138 -0.095778276395012046 0 0.108135694757729 -0.080756876307523123 0 0.1091091333108226 -0.096703709605410831 0 0.089938697557747138 -0.095778276395012046 0 0.091919811842847032 -0.07096002132937218 0 0.108135694757729 -0.080756876307523123 0 0.11351263576223659 -0.062171986123890223 0 0.091919811842847032 -0.07096002132937218 0 0.108135694757729 -0.080756876307523123 0 0.11351263576223659 -0.062171986123890223 0 0.108135694757729 -0.080756876307523123 0 0.13561735191435961 -0.073599477158508481 0 0.108135694757729 -0.080756876307523123 0 0.1091091333108226 -0.096703709605410831 0 0.12511665025640131 -0.094838326293675196 0 0.108135694757729 -0.080756876307523123 0 0.12511665025640131 -0.094838326293675196 0 0.13561735191435961 -0.073599477158508481 0 0.1091091333108226 -0.096703709605410831 0 0.1132454906714129 -0.1154413594254329 0 0.12511665025640131 -0.094838326293675196 0 0.089938697557747138 -0.095778276395012046 0 0.1091091333108226 -0.096703709605410831 0 0.1132454906714129 -0.1154413594254329 0 0.1006937180466326 -0.13288431339828721 0 0.0831592511500895 -0.11788073081077489 0 0.1132454906714129 -0.1154413594254329 0 0.089938697557747138 -0.095778276395012046 0 0.0831592511500895 -0.11788073081077489 0 0.1132454906714129 -0.1154413594254329 0 0.13913875615923749 -0.1110513139320411 0 0.1302628723399378 -0.1285280644434712 0 0.14773110500887671 -0.12728287352192949 0 0.1132454906714129 -0.1154413594254329 0 0.13913875615923749 -0.1110513139320411 0 0.1302628723399378 -0.1285280644434712 0 0.13913875615923749 -0.1110513139320411 0 0.15981057916355099 -0.11100795110910169 0 0.14773110500887671 -0.12728287352192949 0 0.13913875615923749 -0.1110513139320411 0 0.15163906232494931 -0.09258399901785995 0 0.15981057916355099 -0.11100795110910169 0 0.1132454906714129 -0.1154413594254329 0 0.13913875615923749 -0.1110513139320411 0 0.12511665025640131 -0.094838326293675196 0 0.13913875615923749 -0.1110513139320411 0 0.12511665025640131 -0.094838326293675196 0 0.15163906232494931 -0.09258399901785995 0 0.12511665025640131 -0.094838326293675196 0 0.13561735191435961 -0.073599477158508481 0 0.15163906232494931 -0.09258399901785995 0 0.13561735191435961 -0.073599477158508481 0 0.1647029373794795 -0.075089183854413363 0 0.15521699843290451 -0.054519634394391239 0 0.13561735191435961 -0.073599477158508481 0 0.15163906232494931 -0.09258399901785995 0 0.1647029373794795 -0.075089183854413363 0 0.15163906232494931 -0.09258399901785995 0 0.1647029373794795 -0.075089183854413363 0 0.1783112126410589 -0.09085927503246638 0 0.1647029373794795 -0.075089183854413363 0 0.17763790884773659 -0.063220564893442743 0 0.15521699843290451 -0.054519634394391239 0 0.1647029373794795 -0.075089183854413363 0 0.17763790884773659 -0.063220564893442743 0 0.18830314575939969 -0.07561052211464192 0 0.1647029373794795 -0.075089183854413363 0 0.1783112126410589 -0.09085927503246638 0 0.18830314575939969 -0.07561052211464192 0 0.1783112126410589 -0.09085927503246638 0 0.17856210637341949 -0.1164175332809001 0 0.19457667398112771 -0.10498329668101811 0 0.1783112126410589 -0.09085927503246638 0 0.17856210637341949 -0.1164175332809001 0 0.15981057916355099 -0.11100795110910169 0 0.17856210637341949 -0.1164175332809001 0 0.15981057916355099 -0.11100795110910169 0 0.16416513798537019 -0.1294675040524185 0 0.15981057916355099 -0.11100795110910169 0 0.14773110500887671 -0.12728287352192949 0 0.16416513798537019 -0.1294675040524185 0 0.15163906232494931 -0.09258399901785995 0 0.1783112126410589 -0.09085927503246638 0 0.15981057916355099 -0.11100795110910169 0 0.15318218741943701 -0.0010446543047324449 0 0.13269467940095861 -0.0063507146358696351 0 0.1521000374722227 -0.02062710983568836 0 0.11466736765255039 -0.011390443917813501 0 0.13269467940095861 -0.0063507146358696351 0 0.1289660912711251 -0.024913336843905079 0 0.13269467940095861 -0.0063507146358696351 0 0.1289660912711251 -0.024913336843905079 0 0.1521000374722227 -0.02062710983568836 0 0.1289660912711251 -0.024913336843905079 0 0.1521000374722227 -0.02062710983568836 0 0.14405137796998371 -0.037625346869260508 0 0.1521000374722227 -0.02062710983568836 0 0.14405137796998371 -0.037625346869260508 0 0.16022954325724731 -0.037745739027564708 0 0.14405137796998371 -0.037625346869260508 0 0.15521699843290451 -0.054519634394391239 0 0.16022954325724731 -0.037745739027564708 0 0.1289660912711251 -0.024913336843905079 0 0.14405137796998371 -0.037625346869260508 0 0.12764565113404919 -0.050187314414747608 0 0.13561735191435961 -0.073599477158508481 0 0.12764565113404919 -0.050187314414747608 0 0.15521699843290451 -0.054519634394391239 0 0.11351263576223659 -0.062171986123890223 0 0.13561735191435961 -0.073599477158508481 0 0.12764565113404919 -0.050187314414747608 0 0.14405137796998371 -0.037625346869260508 0 0.12764565113404919 -0.050187314414747608 0 0.15521699843290451 -0.054519634394391239 0 0.17763790884773659 -0.063220564893442743 0 0.15521699843290451 -0.054519634394391239 0 0.17827873101737321 -0.044779319138147602 0 0.17763790884773659 -0.063220564893442743 0 0.17827873101737321 -0.044779319138147602 0 0.19962532046769621 -0.060319749710479209 0 0.17827873101737321 -0.044779319138147602 0 0.1776409201136033 -0.026275068136658541 0 0.1962550495348242 -0.038142142092213983 0 0.17827873101737321 -0.044779319138147602 0 0.16022954325724731 -0.037745739027564708 0 0.1776409201136033 -0.026275068136658541 0 0.15521699843290451 -0.054519634394391239 0 0.17827873101737321 -0.044779319138147602 0 0.16022954325724731 -0.037745739027564708 0 0.1521000374722227 -0.02062710983568836 0 0.1776409201136033 -0.026275068136658541 0 0.16937834613602371 -0.0094526671550858692 0 0.1521000374722227 -0.02062710983568836 0 0.16022954325724731 -0.037745739027564708 0 0.1776409201136033 -0.026275068136658541 0 0.1776409201136033 -0.026275068136658541 0 0.18592388442822891 -0.012707065590722931 0 0.16937834613602371 -0.0094526671550858692 0 0.18592388442822891 -0.012707065590722931 0 0.1838759129170939 -0.00020578767487325849 0 0.16937834613602371 -0.0094526671550858692 0 0.16943111426023069 0.0044822841073192208 0 0.1838759129170939 -0.00020578767487325849 0 0.16937834613602371 -0.0094526671550858692 0 0.16943111426023069 0.0044822841073192208 0 0.15318218741943701 -0.0010446543047324449 0 0.16937834613602371 -0.0094526671550858692 0 0.15318218741943701 -0.0010446543047324449 0 0.1521000374722227 -0.02062710983568836 0 0.16937834613602371 -0.0094526671550858692 0 0.20703547109322701 -0.0072914687850257074 0 0.21538417868652299 -0.026974326423712249 0 0.2230911027585212 -0.00300444849190212 0 0.20924513839579101 0.0066470635618813591 0 0.20703547109322701 -0.0072914687850257074 0 0.2230911027585212 -0.00300444849190212 0 0.19717399826065679 0.0040199428482687056 0 0.20703547109322701 -0.0072914687850257074 0 0.19549496065829541 -0.0063266600508158043 0 0.18592388442822891 -0.012707065590722931 0 0.1838759129170939 -0.00020578767487325849 0 0.19549496065829541 -0.0063266600508158043 0 0.19717399826065679 0.0040199428482687056 0 0.1838759129170939 -0.00020578767487325849 0 0.19549496065829541 -0.0063266600508158043 0 0.18592388442822891 -0.012707065590722931 0 0.19549496065829541 -0.0063266600508158043 0 0.19940110624435919 -0.020555818473720431 0 0.20703547109322701 -0.0072914687850257074 0 0.19549496065829541 -0.0063266600508158043 0 0.19940110624435919 -0.020555818473720431 0 0.1776409201136033 -0.026275068136658541 0 0.18592388442822891 -0.012707065590722931 0 0.19940110624435919 -0.020555818473720431 0 0.1776409201136033 -0.026275068136658541 0 0.19940110624435919 -0.020555818473720431 0 0.1962550495348242 -0.038142142092213983 0 0.20703547109322701 -0.0072914687850257074 0 0.19940110624435919 -0.020555818473720431 0 0.21538417868652299 -0.026974326423712249 0 0.19940110624435919 -0.020555818473720431 0 0.21538417868652299 -0.026974326423712249 0 0.1962550495348242 -0.038142142092213983 0 0.21538417868652299 -0.026974326423712249 0 0.21160965563447309 -0.044820219490207439 0 0.1962550495348242 -0.038142142092213983 0 0.21160965563447309 -0.044820219490207439 0 0.1962550495348242 -0.038142142092213983 0 0.19962532046769621 -0.060319749710479209 0 0.17827873101737321 -0.044779319138147602 0 0.1962550495348242 -0.038142142092213983 0 0.19962532046769621 -0.060319749710479209 0 0.21160965563447309 -0.044820219490207439 0 0.19962532046769621 -0.060319749710479209 0 0.22389584167461171 -0.057205565980881362 0 0.22389584167461171 -0.057205565980881362 0 0.2324422882866358 -0.039515635639960023 0 0.24323350190093851 -0.062751526388443779 0 0.21160965563447309 -0.044820219490207439 0 0.22389584167461171 -0.057205565980881362 0 0.2324422882866358 -0.039515635639960023 0 0.25078803597544019 -0.045203457516093407 0 0.2324422882866358 -0.039515635639960023 0 0.24323350190093851 -0.062751526388443779 0 0.25078803597544019 -0.045203457516093407 0 0.25003759031211548 -0.029589841427259629 0 0.2324422882866358 -0.039515635639960023 0 0.21538417868652299 -0.026974326423712249 0 0.21160965563447309 -0.044820219490207439 0 0.2324422882866358 -0.039515635639960023 0 0.21538417868652299 -0.026974326423712249 0 0.23631222780849201 -0.018950870427723771 0 0.2230911027585212 -0.00300444849190212 0 0.21538417868652299 -0.026974326423712249 0 0.2324422882866358 -0.039515635639960023 0 0.23631222780849201 -0.018950870427723771 0 0.25003759031211548 -0.029589841427259629 0 0.2324422882866358 -0.039515635639960023 0 0.23631222780849201 -0.018950870427723771 0 0.25003759031211548 -0.029589841427259629 0 0.25542177803258259 -0.013444791143500849 0 0.23631222780849201 -0.018950870427723771 0 0.25542177803258259 -0.013444791143500849 0 0.23631222780849201 -0.018950870427723771 0 0.24263170208881479 -0.00092825196113245905 0 0.23631222780849201 -0.018950870427723771 0 0.24263170208881479 -0.00092825196113245905 0 0.2230911027585212 -0.00300444849190212 0 0.214340400686717 -0.10727962869975891 0 0.19457667398112771 -0.10498329668101811 0 0.2043488030612689 -0.086584074815315451 0 0.214340400686717 -0.10727962869975891 0 0.22113675016285489 -0.13171667431789849 0 0.19665824559928041 -0.12653015761750941 0 0.214340400686717 -0.10727962869975891 0 0.19457667398112771 -0.10498329668101811 0 0.19665824559928041 -0.12653015761750941 0 0.17856210637341949 -0.1164175332809001 0 0.19457667398112771 -0.10498329668101811 0 0.19665824559928041 -0.12653015761750941 0 0.1783112126410589 -0.09085927503246638 0 0.19457667398112771 -0.10498329668101811 0 0.2043488030612689 -0.086584074815315451 0 0.1783112126410589 -0.09085927503246638 0 0.18830314575939969 -0.07561052211464192 0 0.2043488030612689 -0.086584074815315451 0 0.1783112126410589 -0.09085927503246638 0 0.2043488030612689 -0.086584074815315451 0 0.17763790884773659 -0.063220564893442743 0 0.19962532046769621 -0.060319749710479209 0 0.18830314575939969 -0.07561052211464192 0 0.19962532046769621 -0.060319749710479209 0 0.18830314575939969 -0.07561052211464192 0 0.2043488030612689 -0.086584074815315451 0 0.19962532046769621 -0.060319749710479209 0 0.22389584167461171 -0.057205565980881362 0 0.2043488030612689 -0.086584074815315451 0 0.214340400686717 -0.10727962869975891 0 0.2043488030612689 -0.086584074815315451 0 0.23038639348147871 -0.082308874598163939 0 0.2043488030612689 -0.086584074815315451 0 0.23038639348147871 -0.082308874598163939 0 0.22389584167461171 -0.057205565980881362 0 0.23038639348147871 -0.082308874598163939 0 0.22389584167461171 -0.057205565980881362 0 0.2043488030612689 -0.086584074815315451 0 0.23038639348147871 -0.082308874598163939 0 0.22389584167461171 -0.057205565980881362 0 0.23038639348147871 -0.082308874598163939 0 0.24323350190093851 -0.062751526388443779 0 0.25812046049279119 -0.077755124139857509 0 0.23038639348147871 -0.082308874598163939 0 0.24323350190093851 -0.062751526388443779 0 0.25935686379416828 -0.1013797141485 0 0.25812046049279119 -0.077755124139857509 0 0.23038639348147871 -0.082308874598163939 0 0.25812046049279119 -0.077755124139857509 0 0.23038639348147871 -0.082308874598163939 0 0.25935686379416828 -0.1013797141485 0 0.23038639348147871 -0.082308874598163939 0 0.23788436405943969 -0.11130854597012869 0 0.23038639348147871 -0.082308874598163939 0 0.23788436405943969 -0.11130854597012869 0 0.214340400686717 -0.10727962869975891 0 0.23038639348147871 -0.082308874598163939 0 0.23788436405943969 -0.11130854597012869 0 0.214340400686717 -0.10727962869975891 0 0.23788436405943969 -0.11130854597012869 0 0.22113675016285489 -0.13171667431789849 0 0.23788436405943969 -0.11130854597012869 0 0.24538233463740061 -0.14030821734209339 0 0.22113675016285489 -0.13171667431789849 0 0.23788436405943969 -0.11130854597012869 0 0.24538233463740061 -0.14030821734209339 0 0.25190291276486892 -0.16552765784078211 0 0.24538233463740061 -0.14030821734209339 0 0.24538233463740061 -0.14030821734209339 0 0.2235431147664598 -0.15657742622015561 0 0.25190291276486892 -0.16552765784078211 0 0.24538233463740061 -0.14030821734209339 0 0.2235431147664598 -0.15657742622015561 0 0.24538233463740061 -0.14030821734209339 0 0.22113675016285489 -0.13171667431789849 0 0.2235431147664598 -0.15657742622015561 0 0.22113675016285489 -0.13171667431789849 0 0.20272170086789121 -0.1499712892278007 0 0.19665824559928041 -0.12653015761750941 0 0.22113675016285489 -0.13171667431789849 0 0.20272170086789121 -0.1499712892278007 0 0.2235431147664598 -0.15657742622015561 0 0.20272170086789121 -0.1499712892278007 0 0.18536331385922941 -0.14575657086571911 0 0.18703581214763071 -0.1657914579329198 0 0.20272170086789121 -0.1499712892278007 0 0.19665824559928041 -0.12653015761750941 0 0.18536331385922941 -0.14575657086571911 0 0.20170389489551879 -0.17284663509821771 0 0.1798646750245779 -0.18911584397628001 0 0.18703581214763071 -0.1657914579329198 0 0.20170389489551879 -0.17284663509821771 0 0.1798646750245779 -0.18911584397628001 0 0.20170389489551879 -0.17284663509821771 0 0.20347072491333321 -0.18751004013221831 0 0.1798646750245779 -0.18911584397628001 0 0.20272170086789121 -0.1499712892278007 0 0.20170389489551879 -0.17284663509821771 0 0.18703581214763071 -0.1657914579329198 0 0.20272170086789121 -0.1499712892278007 0 0.20170389489551879 -0.17284663509821771 0 0.2235431147664598 -0.15657742622015561 0 0.20170389489551879 -0.17284663509821771 0 0.2235431147664598 -0.15657742622015561 0 0.20170389489551879 -0.17284663509821771 0 0.22540768128837199 -0.17769949167397689 0 0.2235431147664598 -0.15657742622015561 0 0.22540768128837199 -0.17769949167397689 0 0.22385281625141909 -0.19641839459379681 0 0.20347072491333321 -0.18751004013221831 0 0.20170389489551879 -0.17284663509821771 0 0.22540768128837199 -0.17769949167397689 0 0.20347072491333321 -0.18751004013221831 0 0.25190291276486892 -0.16552765784078211 0 0.22540768128837199 -0.17769949167397689 0 0.2235431147664598 -0.15657742622015561 0 0.25190291276486892 -0.16552765784078211 0 0.22540768128837199 -0.17769949167397689 0 0.2422856756366969 -0.19063257428894059 0 0.25243368126071952 -0.2058826908270244 0 0.2422856756366969 -0.19063257428894059 0 0.23306481101283949 -0.20865736900347939 0 0.25243368126071952 -0.2058826908270244 0 0.24374468319814849 -0.2157547622577331 0 0.23306481101283949 -0.20865736900347939 0 0.251392483024373 -0.21776015733053469 0 0.25243368126071952 -0.2058826908270244 0 0.24374468319814849 -0.2157547622577331 0 0.24374468319814849 -0.2157547622577331 0 0.23306481101283949 -0.20865736900347939 0 0.23755603678971751 -0.2213419903950947 0 0.23306481101283949 -0.20865736900347939 0 0.21898134210669259 -0.21329683085003531 0 0.22385281625141909 -0.19641839459379681 0 0.23306481101283949 -0.20865736900347939 0 0.23755603678971751 -0.2213419903950947 0 0.22704599675056039 -0.22195216764737219 0 0.23306481101283949 -0.20865736900347939 0 0.21898134210669259 -0.21329683085003531 0 0.22704599675056039 -0.22195216764737219 0 0.22540768128837199 -0.17769949167397689 0 0.2422856756366969 -0.19063257428894059 0 0.22385281625141909 -0.19641839459379681 0 0.2422856756366969 -0.19063257428894059 0 0.23306481101283949 -0.20865736900347939 0 0.22385281625141909 -0.19641839459379681 0 0.25474187865843811 -0.25527143246304812 0 0.23117875831394971 -0.23890858249388919 0 0.25474187865843811 -0.25527143246304812 0 0.2471401050683816 -0.24044568876157441 0 0.23117875831394971 -0.23890858249388919 0 0.2471401050683816 -0.24044568876157441 0 0.23715961260711091 -0.23458175130119341 0 0.23117875831394971 -0.23890858249388919 0 0.2471401050683816 -0.24044568876157441 0 0.23715961260711091 -0.23458175130119341 0 0.24334734723907009 -0.23394265558016131 0 0.2471401050683816 -0.24044568876157441 0 0.24334734723907009 -0.23394265558016131 0 0.24807986274914559 -0.23134654928405779 0 0.23715961260711091 -0.23458175130119341 0 0.23460474457187419 -0.2286966320301286 0 0.24100980853164239 -0.2293966329738194 0 0.23715961260711091 -0.23458175130119341 0 0.24100980853164239 -0.2293966329738194 0 0.24334734723907009 -0.23394265558016131 0 0.24100980853164239 -0.2293966329738194 0 0.24334734723907009 -0.23394265558016131 0 0.24807986274914559 -0.23134654928405779 0 0.25322099111116902 -0.2256082324152863 0 0.24807986274914559 -0.23134654928405779 0 0.24586617667324001 -0.2235943784580354 0 0.24100980853164239 -0.2293966329738194 0 0.24807986274914559 -0.23134654928405779 0 0.24586617667324001 -0.2235943784580354 0 0.24374468319814849 -0.2157547622577331 0 0.24586617667324001 -0.2235943784580354 0 0.23755603678971751 -0.2213419903950947 0 0.251392483024373 -0.21776015733053469 0 0.24374468319814849 -0.2157547622577331 0 0.24586617667324001 -0.2235943784580354 0 0.23460474457187419 -0.2286966320301286 0 0.24100980853164239 -0.2293966329738194 0 0.23755603678971751 -0.2213419903950947 0 0.24100980853164239 -0.2293966329738194 0 0.24586617667324001 -0.2235943784580354 0 0.23755603678971751 -0.2213419903950947 0 0.22704599675056039 -0.22195216764737219 0 0.23033183223936779 -0.23592222315028841 0 0.20876318808826561 -0.22334262148304959 0 0.23117875831394971 -0.23890858249388919 0 0.23033183223936779 -0.23592222315028841 0 0.20876318808826561 -0.22334262148304959 0 0.23117875831394971 -0.23890858249388919 0 0.20876318808826561 -0.22334262148304959 0 0.23460474457187419 -0.2286966320301286 0 0.23755603678971751 -0.2213419903950947 0 0.22704599675056039 -0.22195216764737219 0 0.23460474457187419 -0.2286966320301286 0 0.22704599675056039 -0.22195216764737219 0 0.23033183223936779 -0.23592222315028841 0 0.23715961260711091 -0.23458175130119341 0 0.23460474457187419 -0.2286966320301286 0 0.23033183223936779 -0.23592222315028841 0 0.2364052014137788 -0.25733762565763169 0 0.23117875831394971 -0.23890858249388919 0 0.212501698291124 -0.24270781522122761 0 0.2364052014137788 -0.25733762565763169 0 0.23117875831394971 -0.23890858249388919 0 0.23715961260711091 -0.23458175130119341 0 0.23117875831394971 -0.23890858249388919 0 0.23033183223936779 -0.23592222315028841 0 0.23117875831394971 -0.23890858249388919 0 0.23033183223936779 -0.23592222315028841 0 0.20876318808826561 -0.22334262148304959 0 0.19041510554842311 -0.24010009916004249 0 0.18634761786258169 -0.2077766604722098 0 0.23117875831394971 -0.23890858249388919 0 0.212501698291124 -0.24270781522122761 0 0.20876318808826561 -0.22334262148304959 0 0.21279727788146241 -0.26176508084666528 0 0.212501698291124 -0.24270781522122761 0 0.19041510554842311 -0.24010009916004249 0 0.212501698291124 -0.24270781522122761 0 0.20876318808826561 -0.22334262148304959 0 0.19041510554842311 -0.24010009916004249 0 0.21898134210669259 -0.21329683085003531 0 0.22704599675056039 -0.22195216764737219 0 0.20876318808826561 -0.22334262148304959 0 0.20347072491333321 -0.18751004013221831 0 0.2112303799605483 -0.2044276209456948 0 0.20025467299673561 -0.20192510674922551 0 0.22385281625141909 -0.19641839459379681 0 0.20347072491333321 -0.18751004013221831 0 0.2112303799605483 -0.2044276209456948 0 0.21898134210669259 -0.21329683085003531 0 0.22385281625141909 -0.19641839459379681 0 0.2112303799605483 -0.2044276209456948 0 0.21898134210669259 -0.21329683085003531 0 0.20876318808826561 -0.22334262148304959 0 0.2112303799605483 -0.2044276209456948 0 0.20876318808826561 -0.22334262148304959 0 0.2112303799605483 -0.2044276209456948 0 0.20025467299673561 -0.20192510674922551 0 0.20876318808826561 -0.22334262148304959 0 0.19107703156960201 -0.2083843528887048 0 0.18634761786258169 -0.2077766604722098 0 0.20876318808826561 -0.22334262148304959 0 0.18634761786258169 -0.2077766604722098 0 0.20876318808826561 -0.22334262148304959 0 0.19107703156960201 -0.2083843528887048 0 0.20025467299673561 -0.20192510674922551 0 0.19107703156960201 -0.2083843528887048 0 0.1902254471135556 -0.20107388776007951 0 0.20025467299673561 -0.20192510674922551 0 0.1902254471135556 -0.20107388776007951 0 0.1910509989419831 -0.19550300843564469 0 0.20025467299673561 -0.20192510674922551 0 0.20347072491333321 -0.18751004013221831 0 0.1910509989419831 -0.19550300843564469 0 0.1798646750245779 -0.18911584397628001 0 0.20347072491333321 -0.18751004013221831 0 0.1910509989419831 -0.19550300843564469 0 0.20025467299673561 -0.20192510674922551 0 0.18634761786258169 -0.2077766604722098 0 0.16393204763689881 -0.19221069946136829 0 0.1785190849459018 -0.19848308296674291 0 0.18634761786258169 -0.2077766604722098 0 0.16393204763689881 -0.19221069946136829 0 0.1910509989419831 -0.19550300843564469 0 0.1798646750245779 -0.18911584397628001 0 0.1785190849459018 -0.19848308296674291 0 0.1785190849459018 -0.19848308296674291 0 0.16596113832220211 -0.18858181304478039 0 0.1798646750245779 -0.18911584397628001 0 0.1785190849459018 -0.19848308296674291 0 0.16596113832220211 -0.18858181304478039 0 0.1902254471135556 -0.20107388776007951 0 0.1910509989419831 -0.19550300843564469 0 0.1785190849459018 -0.19848308296674291 0 0.19107703156960201 -0.2083843528887048 0 0.1902254471135556 -0.20107388776007951 0 0.1785190849459018 -0.19848308296674291 0 0.19107703156960201 -0.2083843528887048 0 0.1785190849459018 -0.19848308296674291 0 0.18634761786258169 -0.2077766604722098 0 0.16393204763689881 -0.19221069946136829 0 0.17055015248092339 -0.2200427393766726 0 0.19107703156960201 -0.2083843528887048 0 0.1785190849459018 -0.19848308296674291 0 0.18634761786258169 -0.2077766604722098 0 0.16393204763689881 -0.19221069946136829 0 0.17055015248092339 -0.2200427393766726 0 0.15120156657555289 -0.2149782722144036 0 0.16393204763689881 -0.19221069946136829 0 0.15120156657555289 -0.2149782722144036 0 0.15994597856902221 -0.18944266835297671 0 0.16393204763689881 -0.19221069946136829 0 0.14682925836875099 -0.1984236739996173 0 0.15994597856902221 -0.18944266835297671 0 0.16393204763689881 -0.19221069946136829 0 0.16596113832220211 -0.18858181304478039 0 0.15994597856902221 -0.18944266835297671 0 0.16393204763689881 -0.19221069946136829 0 0.1785190849459018 -0.19848308296674291 0 0.16393204763689881 -0.19221069946136829 0 0.16596113832220211 -0.18858181304478039 0 0.16393204763689881 -0.19221069946136829 0 0.16596113832220211 -0.18858181304478039 0 0.19041510554842311 -0.24010009916004249 0 0.18634761786258169 -0.2077766604722098 0 0.17055015248092339 -0.2200427393766726 0 0.16984189318766019 -0.25339206212148591 0 0.19041510554842311 -0.24010009916004249 0 0.16755337498486891 -0.236950446654382 0 0.19041510554842311 -0.24010009916004249 0 0.17055015248092339 -0.2200427393766726 0 0.16755337498486891 -0.236950446654382 0 0.17055015248092339 -0.2200427393766726 0 0.16755337498486891 -0.236950446654382 0 0.15120156657555289 -0.2149782722144036 0 0.16755337498486891 -0.236950446654382 0 0.1533096842193164 -0.24622324229544559 0 0.15120156657555289 -0.2149782722144036 0 0.16984189318766019 -0.25339206212148591 0 0.16755337498486891 -0.236950446654382 0 0.1533096842193164 -0.24622324229544559 0 0.1382339586381357 -0.25427139582214042 0 0.1533096842193164 -0.24622324229544559 0 0.13847108551420481 -0.2377458449674377 0 0.1533096842193164 -0.24622324229544559 0 0.13847108551420481 -0.2377458449674377 0 0.15120156657555289 -0.2149782722144036 0 0.13847108551420481 -0.2377458449674377 0 0.15120156657555289 -0.2149782722144036 0 0.13855610147205591 -0.23182101873826769 0 0.13847108551420481 -0.2377458449674377 0 0.15120156657555289 -0.2149782722144036 0 0.13855610147205591 -0.23182101873826769 0 0.13604155116299529 -0.24209089680253101 0 0.13148233906467871 -0.21676098932711141 0 0.127785320379038 -0.22972588517508291 0 0.13604155116299529 -0.24209089680253101 0 0.13148233906467871 -0.21676098932711141 0 0.13604155116299529 -0.24209089680253101 0 0.13148233906467871 -0.21676098932711141 0 0.13855610147205591 -0.23182101873826769 0 0.15120156657555289 -0.2149782722144036 0 0.13148233906467871 -0.21676098932711141 0 0.1200926945434784 -0.22690872377445159 0 0.127785320379038 -0.22972588517508291 0 0.13148233906467871 -0.21676098932711141 0 0.1382339586381357 -0.25427139582214042 0 0.13847108551420481 -0.2377458449674377 0 0.1382339586381357 -0.25427139582214042 0 0.13847108551420481 -0.2377458449674377 0 0.13604155116299529 -0.24209089680253101 0 0.13855610147205591 -0.23182101873826769 0 0.13847108551420481 -0.2377458449674377 0 0.13604155116299529 -0.24209089680253101 0 0.13855610147205591 -0.23182101873826769 0 0.13847108551420481 -0.2377458449674377 0 0.13847108551420481 -0.2377458449674377 0 0.13604155116299529 -0.24209089680253101 0 0.127785320379038 -0.22972588517508291 0 0.13604155116299529 -0.24209089680253101 0 0.12563083416654611 -0.23539860469462029 0 0.13604155116299529 -0.24209089680253101 0 0.12563083416654611 -0.23539860469462029 0 0.12653472001570881 -0.24118888798723179 0 0.13604155116299529 -0.24209089680253101 0 0.12653472001570881 -0.24118888798723179 0 0.13022627104755699 -0.24473291705311451 0 0.12653472001570881 -0.24118888798723179 0 0.13022627104755699 -0.24473291705311451 0 0.1260475031306488 -0.24683605874453271 0 0.12614567111574171 -0.25305400209924589 0 0.1260475031306488 -0.24683605874453271 0 0.13228130988087511 -0.2488158246781623 0 0.13022627104755699 -0.24473291705311451 0 0.1260475031306488 -0.24683605874453271 0 0.13228130988087511 -0.2488158246781623 0 0.1382339586381357 -0.25427139582214042 0 0.13604155116299529 -0.24209089680253101 0 0.1382339586381357 -0.25427139582214042 0 0.13604155116299529 -0.24209089680253101 0 0.13228130988087511 -0.2488158246781623 0 0.13604155116299529 -0.24209089680253101 0 0.13228130988087511 -0.2488158246781623 0 0.13604155116299529 -0.24209089680253101 0 0.13022627104755699 -0.24473291705311451 0 0.13228130988087511 -0.2488158246781623 0 0.16393204763689881 -0.19221069946136829 0 0.14682925836875099 -0.1984236739996173 0 0.15120156657555289 -0.2149782722144036 0 0.15994597856902221 -0.18944266835297671 0 0.14682925836875099 -0.1984236739996173 0 0.14230749884793881 -0.1859138610536652 0 0.14682925836875099 -0.1984236739996173 0 0.15120156657555289 -0.2149782722144036 0 0.13148233906467871 -0.21676098932711141 0 0.13148233906467871 -0.21676098932711141 0 0.12692312696636221 -0.19143108185169169 0 0.11670628205469979 -0.20101572358297989 0 0.13148233906467871 -0.21676098932711141 0 0.12692312696636221 -0.19143108185169169 0 0.14682925836875099 -0.1984236739996173 0 0.13148233906467871 -0.21676098932711141 0 0.12692312696636221 -0.19143108185169169 0 0.14682925836875099 -0.1984236739996173 0 0.12692312696636221 -0.19143108185169169 0 0.14230749884793881 -0.1859138610536652 0 0.12692312696636221 -0.19143108185169169 0 0.1327002825270942 -0.17465816069790349 0 0.14230749884793881 -0.1859138610536652 0 0.12236391486804581 -0.16610117437627209 0 0.12692312696636221 -0.19143108185169169 0 0.1327002825270942 -0.17465816069790349 0 0.1327002825270942 -0.17465816069790349 0 0.14230749884793881 -0.1859138610536652 0 0.1459560034251085 -0.17280883308422329 0 0.15994597856902221 -0.18944266835297671 0 0.14230749884793881 -0.1859138610536652 0 0.1459560034251085 -0.17280883308422329 0 0.16596113832220211 -0.18858181304478039 0 0.1459560034251085 -0.17280883308422329 0 0.1459560034251085 -0.17280883308422329 0 0.16271668798454739 -0.1718943906649292 0 0.15771977880477889 -0.15870918640092149 0 0.1459560034251085 -0.17280883308422329 0 0.14269099955869821 -0.1563769782663916 0 0.15771977880477889 -0.15870918640092149 0 0.1327002825270942 -0.17465816069790349 0 0.1459560034251085 -0.17280883308422329 0 0.12595086852801551 -0.1570358531236655 0 0.12236391486804581 -0.16610117437627209 0 0.1327002825270942 -0.17465816069790349 0 0.12595086852801551 -0.1570358531236655 0 0.1459560034251085 -0.17280883308422329 0 0.12595086852801551 -0.1570358531236655 0 0.1459560034251085 -0.17280883308422329 0 0.14269099955869821 -0.1563769782663916 0 0.12595086852801551 -0.1570358531236655 0 0.14269099955869821 -0.1563769782663916 0 0.1290884801471891 -0.14529206250405541 0 0.14001881890068901 -0.13946509925410719 0 0.14269099955869821 -0.1563769782663916 0 0.12595086852801551 -0.1570358531236655 0 0.1290884801471891 -0.14529206250405541 0 0.1290884801471891 -0.14529206250405541 0 0.1302628723399378 -0.1285280644434712 0 0.14001881890068901 -0.13946509925410719 0 0.11780470276972931 -0.14077126690085251 0 0.1290884801471891 -0.14529206250405541 0 0.1302628723399378 -0.1285280644434712 0 0.1302628723399378 -0.1285280644434712 0 0.14001881890068901 -0.13946509925410719 0 0.14773110500887671 -0.12728287352192949 0 0.14001881890068901 -0.13946509925410719 0 0.14773110500887671 -0.12728287352192949 0 0.15299046550447501 -0.1441773083404371 0 0.14773110500887671 -0.12728287352192949 0 0.15299046550447501 -0.1441773083404371 0 0.16416513798537019 -0.1294675040524185 0 0.14269099955869821 -0.1563769782663916 0 0.14001881890068901 -0.13946509925410719 0 0.15299046550447501 -0.1441773083404371 0 0.14269099955869821 -0.1563769782663916 0 0.15299046550447501 -0.1441773083404371 0 0.15771977880477889 -0.15870918640092149 0 0.15299046550447501 -0.1441773083404371 0 0.16919245594576679 -0.1448037840858413 0 0.15771977880477889 -0.15870918640092149 0 0.16919245594576679 -0.1448037840858413 0 0.17300649121948619 -0.1601224705325266 0 0.15771977880477889 -0.15870918640092149 0 0.15299046550447501 -0.1441773083404371 0 0.16919245594576679 -0.1448037840858413 0 0.16416513798537019 -0.1294675040524185 0 0.16919245594576679 -0.1448037840858413 0 0.16416513798537019 -0.1294675040524185 0 0.17794613416827509 -0.13207893119092179 0 0.17856210637341949 -0.1164175332809001 0 0.16416513798537019 -0.1294675040524185 0 0.17794613416827509 -0.13207893119092179 0 0.19665824559928041 -0.12653015761750941 0 0.17794613416827509 -0.13207893119092179 0 0.18536331385922941 -0.14575657086571911 0 0.17856210637341949 -0.1164175332809001 0 0.19665824559928041 -0.12653015761750941 0 0.17794613416827509 -0.13207893119092179 0 0.16919245594576679 -0.1448037840858413 0 0.17794613416827509 -0.13207893119092179 0 0.18536331385922941 -0.14575657086571911 0 0.16919245594576679 -0.1448037840858413 0 0.18536331385922941 -0.14575657086571911 0 0.17300649121948619 -0.1601224705325266 0 0.18536331385922941 -0.14575657086571911 0 0.17300649121948619 -0.1601224705325266 0 0.18703581214763071 -0.1657914579329198 0 0.17300649121948619 -0.1601224705325266 0 0.18703581214763071 -0.1657914579329198 0 0.17443373206716939 -0.17342917320612089 0 0.1798646750245779 -0.18911584397628001 0 0.16596113832220211 -0.18858181304478039 0 0.17443373206716939 -0.17342917320612089 0 0.1798646750245779 -0.18911584397628001 0 0.18703581214763071 -0.1657914579329198 0 0.17443373206716939 -0.17342917320612089 0 0.15994597856902221 -0.18944266835297671 0 0.16596113832220211 -0.18858181304478039 0 0.1459560034251085 -0.17280883308422329 0 0.16596113832220211 -0.18858181304478039 0 0.1459560034251085 -0.17280883308422329 0 0.16271668798454739 -0.1718943906649292 0 0.16596113832220211 -0.18858181304478039 0 0.17443373206716939 -0.17342917320612089 0 0.16271668798454739 -0.1718943906649292 0 0.16596113832220211 -0.18858181304478039 0 0.17443373206716939 -0.17342917320612089 0 0.17300649121948619 -0.1601224705325266 0 0.16271668798454739 -0.1718943906649292 0 0.15771977880477889 -0.15870918640092149 0 0.17300649121948619 -0.1601224705325266 0 0.17443373206716939 -0.17342917320612089 0 0.16271668798454739 -0.1718943906649292 0 
</DataArray>
</Points>
<Cells>
<DataArray type="UInt32" Name="connectivity" format="ascii">
0 1 2 3 4 5 6 7 8 9 10 11 12 13 14 15 16 17 18 19 20 21 22 23 24 25 26 27 28 29 30 31 32 33 34 35 36 37 38 39 40 41 42 43 44 45 46 47 48 49 50 51 52 53 54 55 56 57 58 59 60 61 62 63 64 65 66 67 68 69 70 71 72 73 74 75 76 77 78 79 80 81 82 83 84 85 86 87 88 89 90 91 92 93 94 95 96 97 98 99 100 101 102 103 104 105 106 107 108 109 110 111 112 113 114 115 116 117 118 119 120 121 122 123 124 125 126 127 128 129 130 131 132 133 134 135 136 137 138 139 140 141 142 143 144 145 146 147 148 149 150 151 152 153 154 155 156 157 158 159 160 161 162 163 164 165 166 167 168 169 170 171 172 173 174 175 176 177 178 179 180 181 182 183 184 185 186 187 188 189 190 191 192 193 194 195 196 197 198 199 200 201 202 203 204 205 206 207 208 209 210 211 212 213 214 215 216 217 218 219 220 221 222 223 224 225 226 227 228 229 230 231 232 233 234 235 236 237 238 239 240 241 242 243 244 245 246 247 248 249 250 251 252 253 254 255 256 257 258 259 260 261 262 263 264 265 266 267 268 269 270 271 272 273 274 275 276 277 278 279 280 281 282 283 284 285 286 287 288 289 290 291 292 293 294 295 296 297 298 299 300 301 302 303 304 305 306 307 308 309 310 311 312 313 314 315 316 317 318 319 320 321 322 323 324 325 326 327 328 329 330 331 332 333 334 335 336 337 338 339 340 341 342 343 344 345 346 347 348 349 350 351 352 353 354 355 356 357 358 359 360 361 362 363 364 365 366 367 368 369 370 371 372 373 374 375 376 377 378 379 380 381 382 383 384 385 386 387 388 389 390 391 392 393 394 395 396 397 398 399 400 401 402 403 404 405 406 407 408 409 410 411 412 413 414 415 416 417 418 419 420 421 422 423 424 425 426 427 428 429 430 431 432 433 434 435 436 437 438 439 440 441 442 443 444 445 446 447 448 449 450 451 452 453 454 455 456 457 458 459 460 461 462 463 464 465 466 467 468 469 470 471 472 473 474 475 476 477 478 479 480 481 482 483 484 485 486 487 488 489 490 491 492 493 494 495 496 497 498 499 500 501 502 503 504 505 506 507 508 509 510 511 512 513 514 515 516 517 518 519 520 521 522 523 524 525 526 527 528 529 530 531 532 533 534 535 536 537 538 539 540 541 542 543 544 545 546 547 548 549 550 551 552 553 554 555 556 557 558 559 560 561 562 563 564 565 566 567 568 569 570 571 572 573 574 575 576 577 578 579 580 581 582 583 584 585 586 587 588 589 590 591 592 593 594 595 596 597 598 599 600 601 602 603 604 605 606 607 608 609 610 611 612 613 614 615 616 617 618 619 620 621 622 623 624 625 626 627 628 629 630 631 632 633 634 635 636 637 638 639 640 641 642 643 644 645 646 647 648 649 650 651 652 653 654 655 656 657 658 659 660 661 662 663 664 665 666 667 668 669 670 671 672 673 674 675 676 677 678 679 680 681 682 683 684 685 686 687 688 689 690 691 692 693 694 695 696 697 698 699 700 701 702 703 704 705 706 707 708 709 710 711 712 713 714 715 716 717 718 719 720 721 722 723 724 725 726 727 728 729 730 731 732 733 734 735 736 737 738 739 740 741 742 743 744 745 746 747 748 749 750 751 752 753 754 755 756 757 758 759 760 761 762 763 764 765 766 767 768 769 770 771 772 773 774 775 776 777 778 779 780 781 782 783 784 785 786 787 788 789 790 791 792 793 794 795 796 797 798 799 800 801 802 803 804 805 806 807 808 809 810 811 812 813 814 815 816 817 818 819 820 821 822 823 824 825 826 827 828 829 830 831 832 833 834 835 836 837 838 839 840 841 842 843 844 845 846 847 848 849 850 851 852 853 854 855 856 857 858 859 860 861 862 863 864 865 866 867 868 869 870 871 872 873 874 875 876 877 878 879 880 881 882 883 884 885 886 887 888 889 890 891 892 893 894 895 896 897 898 899 900 901 902 903 904 905 906 907 908 909 910 911 912 913 914 915 916 917 918 919 920 921 922 923 924 925 926 927 928 929 930 931 932 933 934 935 936 937 938 939 940 941 942 943 944 945 946 947 948 949 950 951 952 953 954 955 956 957 958 959 960 961 962 963 964 965 966 967 968 969 970 971 972 973 974 975 976 977 978 979 980 981 982 983 984 985 986 987 988 989 990 991 992 993 994 995 996 997 998 999 1000 1001 1002 1003 1004 1005 1006 1007 1008 1009 1010 1011 1012 1013 1014 1015 1016 1017 1018 1019 1020 1021 1022 1023 1024 1025 1026 1027 1028 1029 1030 1031 1032 1033 1034 1035 1036 1037 1038 1039 1040 1041 1042 1043 1044 1045 1046 1047 1048 1049 1050 1051 1052 1053 1054 1055 1056 1057 1058 1059 1060 1061 1062 1063 1064 1065 1066 1067 1068 1069 1070 1071 1072 1073 1074 1075 1076 1077 1078 1079 1080 1081 1082 1083 1084 1085 1086 1087 1088 1089 1090 1091 1092 1093 1094 1095 1096 1097 1098 1099 1100 1101 1102 1103 1104 1105 1106 1107 1108 1109 1110 1111 1112 1113 1114 1115 1116 1117 1118 1119 1120 1121 1122 1123 1124 1125 1126 1127 1128 1129 1130 1131 1132 1133 1134 1135 1136 1137 1138 1139 1140 1141 1142 1143 1144 1145 1146 1147 1148 1149 1150 1151 1152 1153 1154 1155 1156 1157 1158 1159 1160 1161 1162 1163 1164 1165 1166 1167 1168 1169 1170 1171 1172 1173 1174 1175 1176 1177 1178 1179 1180 1181 1182 1183 1184 1185 1186 1187 1188 1189 1190 1191 1192 1193 1194 1195 1196 1197 1198 1199 1200 1201 1202 1203 1204 1205 1206 1207 1208 1209 1210 1211 1212 1213 1214 1215 1216 1217 1218 1219 1220 1221 1222 1223 1224 1225 1226 1227 1228 1229 1230 1231 1232 1233 1234 1235 1236 1237 1238 1239 1240 1241 1242 1243 1244 1245 1246 1247 1248 1249 1250 1251 1252 1253 1254 1255 1256 1257 1258 1259 1260 1261 1262 1263 1264 1265 1266 1267 1268 1269 1270 1271 1272 1273 1274 1275 1276 1277 1278 1279 1280 1281 1282 1283 1284 1285 1286 1287 1288 1289 1290 1291 1292 1293 1294 1295 1296 1297 1298 1299 1300 1301 1302 1303 1304 1305 1306 1307 1308 1309 1310 1311 1312 1313 1314 1315 1316 1317 1318 1319 1320 1321 1322 1323 1324 1325 1326 1327 1328 1329 1330 1331 1332 1333 1334 1335 1336 1337 1338 1339 1340 1341 1342 1343 1344 1345 1346 1347 1348 1349 1350 1351 1352 1353 1354 1355 1356 1357 1358 1359 1360 1361 1362 1363 1364 1365 1366 1367 1368 1369 1370 1371 1372 1373 1374 1375 1376 1377 1378 1379 1380 1381 1382 1383 1384 1385 1386 1387 1388 1389 1390 1391 1392 1393 1394 1395 1396 1397 1398 1399 1400 1401 1402 1403 1404 1405 1406 1407 1408 1409 1410 1411 1412 1413 1414 1415 1416 1417 1418 1419 1420 1421 1422 1423 1424 1425 1426 1427 1428 1429 1430 1431 1432 1433 1434 1435 1436 1437 1438 1439 1440 1441 1442 1443 1444 1445 1446 1447 1448 1449 1450 1451 1452 1453 1454 1455 1456 1457 1458 1459 1460 1461 1462 1463 1464 1465 1466 1467 1468 1469 1470 1471 1472 1473 1474 1475 1476 1477 1478 1479 1480 1481 1482 1483 1484 1485 1486 1487 1488 1489 1490 1491 1492 1493 1494 1495 1496 1497 1498 1499 1500 1501 1502 1503 1504 1505 1506 1507 1508 1509 1510 1511 1512 1513 1514 1515 1516 1517 1518 1519 1520 1521 1522 1523 1524 1525 1526 1527 1528 1529 1530 1531 1532 1533 1534 1535 1536 1537 1538 1539 1540 1541 1542 1543 1544 1545 1546 1547 1548 1549 1550 1551 1552 1553 1554 1555 1556 1557 1558 1559 1560 1561 1562 1563 1564 1565 1566 1567 1568 1569 1570 1571 1572 1573 1574 1575 1576 1577 1578 1579 1580 1581 1582 1583 1584 1585 1586 1587 1588 1589 1590 1591 1592 1593 1594 1595 1596 1597 1598 1599 1600 1601 1602 1603 1604 1605 1606 1607 1608 1609 1610 1611 1612 1613 1614 1615 1616 1617 1618 1619 1620 1621 1622 1623 1624 1625 1626 1627 1628 1629 1630 1631 1632 1633 1634 1635 1636 1637 1638 1639 1640 1641 1642 1643 1644 1645 1646 1647 1648 1649 1650 1651 1652 1653 1654 1655 1656 1657 1658 1659 1660 1661 1662 1663 1664 1665 1666 1667 1668 1669 1670 1671 1672 1673 1674 1675 1676 1677 1678 1679 1680 1681 1682 1683 1684 1685 1686 1687 1688 1689 1690 1691 1692 1693 1694 1695 1696 1697 1698 1699 1700 1701 1702 1703 1704 1705 1706 1707 1708 1709 1710 1711 1712 1713 1714 1715 1716 1717 1718 1719 1720 1721 1722 1723 1724 1725 1726 1727 1728 1729 1730 1731 1732 1733 1734 1735 1736 1737 1738 1739 1740 1741 1742 1743 1744 1745 1746 1747 1748 1749 1750 1751 1752 1753 1754 1755 1756 1757 1758 1759 1760 1761 1762 1763 1764 1765 1766 1767 1768 1769 1770 1771 1772 1773 1774 1775 1776 1777 1778 1779 1780 1781 1782 1783 1784 1785 1786 1787 1788 1789 1790 1791 1792 1793 1794 1795 1796 1797 1798 1799 1800 1801 1802 1803 1804 1805 1806 1807 1808 1809 1810 1811 1812 1813 1814 1815 1816 1817 1818 1819 1820 1821 1822 1823 1824 1825 1826 1827 1828 1829 1830 1831 1832 1833 1834 1835 1836 1837 1838 1839 1840 1841 1842 1843 1844 1845 1846 1847 1848 1849 1850 1851 1852 1853 1854 1855 1856 1857 1858 1859 1860 1861 1862 1863 1864 1865 1866 1867 1868 1869 1870 1871 1872 1873 1874 1875 1876 1877 1878 1879 1880 1881 1882 1883 1884 1885 1886 1887 1888 1889 1890 1891 1892 1893 1894 1895 1896 1897 1898 1899 1900 1901 1902 1903 1904 1905 1906 1907 1908 1909 1910 1911 1912 1913 1914 1915 1916 1917 1918 1919 1920 1921 1922 1923 1924 1925 1926 1927 1928 1929 1930 1931 1932 1933 1934 1935 1936 1937 1938 1939 1940 1941 1942 1943 1944 1945 1946 1947 1948 1949 1950 1951 1952 1953 1954 1955 1956 1957 1958 1959 1960 1961 1962 1963 1964 1965 1966 1967 1968 1969 1970 1971 1972 1973 1974 1975 1976 1977 1978 1979 1980 1981 1982 1983 1984 1985 1986 1987 1988 1989 1990 1991 1992 1993 1994 1995 1996 1997 1998 1999 2000 2001 2002 2003 2004 2005 2006 2007 2008 2009 2010 2011 2012 2013 2014 2015 2016 2017 2018 2019 2020 2021 2022 2023 2024 2025 2026 2027 2028 2029 2030 2031 2032 2033 2034 2035 2036 2037 2038 2039 2040 2041 2042 2043 2044 2045 2046 2047 2048 2049 2050 2051 2052 2053 2054 2055 2056 2057 2058 2059 2060 2061 2062 2063 2064 2065 2066 2067 2068 2069 2070 2071 2072 2073 2074 2075 2076 2077 2078 2079 2080 2081 2082 2083 2084 2085 2086 2087 2088 2089 2090 2091 2092 2093 2094 2095 2096 2097 2098 2099 2100 2101 2102 2103 2104 2105 2106 2107 2108 2109 2110 2111 2112 2113 2114 2115 2116 2117 2118 2119 2120 2121 2122 2123 2124 2125 2126 2127 2128 2129 2130 2131 2132 2133 2134 2135 2136 2137 2138 2139 2140 2141 2142 2143 2144 2145 2146 2147 2148 2149 2150 2151 2152 2153 2154 2155 2156 2157 2158 2159 2160 2161 2162 2163 2164 2165 2166 2167 2168 2169 2170 2171 2172 2173 2174 2175 2176 2177 2178 2179 2180 2181 2182 2183 2184 2185 2186 2187 2188 2189 2190 2191 2192 2193 2194 2195 2196 2197 2198 2199 2200 2201 2202 2203 2204 2205 2206 2207 2208 2209 2210 2211 2212 2213 2214 2215 2216 2217 2218 2219 2220 2221 2222 2223 2224 2225 2226 2227 2228 2229 2230 2231 2232 2233 2234 2235 2236 2237 2238 2239 2240 2241 2242 2243 2244 2245 2246 2247 2248 2249 2250 2251 2252 2253 2254 2255 2256 2257 2258 2259 2260 2261 2262 2263 2264 2265 2266 2267 2268 2269 2270 2271 2272 2273 2274 2275 2276 2277 2278 2279 2280 2281 2282 2283 2284 2285 2286 2287 2288 2289 2290 2291 2292 2293 2294 2295 2296 2297 2298 2299 2300 2301 2302 2303 2304 2305 2306 2307 2308 2309 2310 2311 2312 2313 2314 2315 2316 2317 2318 2319 2320 2321 2322 2323 2324 2325 2326 2327 2328 2329 2330 2331 2332 2333 2334 2335 2336 2337 2338 2339 2340 2341 2342 2343 2344 2345 2346 2347 2348 2349 2350 2351 2352 2353 2354 2355 2356 2357 2358 2359 2360 2361 2362 2363 2364 2365 2366 2367 2368 2369 2370 2371 2372 2373 2374 2375 2376 2377 2378 2379 2380 2381 2382 2383 2384 2385 2386 2387 2388 2389 2390 2391 2392 2393 2394 2395 2396 2397 2398 2399 2400 2401 2402 2403 2404 2405 2406 2407 2408 2409 2410 2411 2412 2413 2414 2415 2416 2417 2418 2419 2420 2421 2422 2423 2424 2425 2426 2427 2428 2429 2430 2431 2432 2433 2434 2435 2436 2437 2438 2439 2440 2441 2442 2443 2444 2445 2446 2447 2448 2449 2450 2451 2452 2453 2454 2455 2456 2457 2458 2459 2460 2461 2462 2463 2464 2465 2466 2467 2468 2469 2470 2471 2472 2473 2474 2475 2476 2477 2478 2479 2480 2481 2482 2483 2484 2485 2486 2487 2488 2489 2490 2491 2492 2493 2494 2495 2496 2497 2498 2499 2500 2501 2502 2503 2504 2505 2506 2507 2508 2509 2510 2511 2512 2513 2514 2515 2516 2517 2518 2519 2520 2521 2522 2523 2524 2525 2526 2527 2528 2529 2530 2531 2532 2533 2534 2535 2536 2537 2538 2539 2540 2541 2542 2543 2544 2545 2546 2547 2548 2549 2550 2551 2552 2553 2554 2555 2556 2557 2558 2559 2560 2561 2562 2563 2564 2565 2566 2567 2568 2569 2570 2571 2572 2573 2574 2575 2576 2577 2578 2579 2580 2581 2582 2583 2584 2585 2586 2587 2588 2589 2590 2591 2592 2593 2594 2595 2596 2597 2598 2599 2600 2601 2602 2603 2604 2605 2606 2607 2608 2609 2610 2611 2612 2613 2614 2615 2616 2617 2618 2619 2620 2621 2622 2623 2624 2625 2626 2627 2628 2629 2630 2631 2632 2633 2634 2635 2636 2637 2638 2639 2640 2641 2642 2643 2644 2645 2646 2647 2648 2649 2650 2651 2652 2653 2654 2655 2656 2657 2658 2659 2660 2661 2662 2663 2664 2665 2666 2667 2668 2669 2670 2671 2672 2673 2674 2675 2676 2677 2678 2679 2680 2681 2682 2683 2684 2685 2686 2687 2688 2689 2690 2691 2692 2693 2694 2695 2696 2697 2698 2699 2700 2701 2702 2703 2704 2705 2706 2707 2708 2709 2710 2711 2712 2713 2714 2715 2716 2717 2718 2719 2720 2721 2722 2723 2724 2725 2726 2727 2728 2729 2730 2731 2732 2733 2734 2735 2736 2737 2738 2739 2740 2741 2742 2743 2744 2745 2746 2747 2748 2749 2750 2751 2752 2753 2754 2755 2756 2757 2758 2759 2760 2761 2762 2763 2764 2765 2766 2767 2768 2769 2770 2771 2772 2773 2774 2775 2776 2777 2778 2779 2780 2781 2782 2783 2784 2785 2786 2787 2788 2789 2790 2791 2792 2793 2794 2795 2796 2797 2798 2799 2800 2801 2802 2803 2804 2805 2806 2807 2808 2809 2810 2811 2812 2813 2814 2815 2816 2817 2818 2819 2820 2821 2822 2823 2824 2825 2826 2827 2828 2829 2830 2831 2832 2833 2834 2835 2836 2837 2838 2839 2840 2841 2842 2843 2844 2845 2846 2847 2848 2849 2850 2851 2852 2853 2854 2855 2856 2857 2858 2859 2860 2861 2862 2863 2864 2865 2866 2867 2868 2869 2870 2871 2872 2873 2874 2875 2876 2877 2878 2879 2880 2881 2882 2883 2884 2885 2886 2887 2888 2889 2890 2891 2892 2893 2894 2895 2896 2897 2898 2899 2900 2901 2902 2903 2904 2905 2906 2907 2908 2909 2910 2911 2912 2913 2914 2915 2916 2917 2918 2919 2920 2921 2922 2923 2924 2925 2926 2927 2928 2929 2930 2931 2932 2933 2934 2935 2936 2937 2938 2939 2940 2941 2942 2943 2944 2945 2946 2947 2948 2949 2950 2951 2952 2953 2954 2955 2956 2957 2958 2959 2960 2961 2962 2963 2964 2965 2966 2967 2968 2969 2970 2971 2972 2973 2974 2975 2976 2977 2978 2979 2980 2981 2982 2983 2984 2985 2986 2987 2988 2989 2990 2991 2992 2993 2994 2995 2996 2997 2998 2999 3000 3001 3002 3003 3004 3005 3006 3007 3008 3009 3010 3011 3012 3013 3014 3015 3016 3017 3018 3019 3020 3021 3022 3023 3024 3025 3026 3027 3028 3029 3030 3031 3032 3033 3034 3035 3036 3037 3038 3039 3040 3041 3042 3043 3044 3045 3046 3047 3048 3049 3050 3051 3052 3053 3054 3055 3056 3057 3058 3059 3060 3061 3062 3063 3064 3065 3066 3067 3068 3069 3070 3071 3072 3073 3074 3075 3076 3077 3078 3079 3080 3081 3082 3083 3084 3085 3086 3087 3088 3089 3090 3091 3092 3093 3094 3095 3096 3097 3098 3099 3100 3101 3102 3103 3104 3105 3106 3107 3108 3109 3110 3111 3112 3113 3114 3115 3116 3117 3118 3119 3120 3121 3122 3123 3124 3125 3126 3127 3128 3129 3130 3131 3132 3133 3134 3135 3136 3137 3138 3139 3140 3141 3142 3143 3144 3145 3146 3147 3148 3149 3150 3151 3152 3153 3154 3155 3156 3157 3158 3159 3160 3161 3162 3163 3164 3165 3166 3167 3168 3169 3170 3171 3172 3173 3174 3175 3176 3177 3178 3179 3180 3181 3182 3183 3184 3185 3186 3187 3188 3189 3190 3191 3192 3193 3194 3195 3196 3197 3198 3199 3200 3201 3202 3203 3204 3205 3206 3207 3208 3209 3210 3211 3212 3213 3214 3215 3216 3217 3218 3219 3220 3221 3222 3223 3224 3225 3226 3227 3228 3229 3230 3231 3232 3233 3234 3235 3236 3237 3238 3239 3240 3241 3242 3243 3244 3245 3246 3247 3248 3249 3250 3251 3252 3253 3254 3255 3256 3257 3258 3259 3260 3261 3262 3263 3264 3265 3266 3267 3268 3269 3270 3271 3272 3273 3274 3275 3276 3277 3278 3279 3280 3281 3282 3283 3284 3285 3286 3287 3288 3289 3290 3291 3292 3293 3294 3295 3296 3297 3298 3299 3300 3301 3302 3303 3304 3305 3306 3307 3308 3309 3310 3311 3312 3313 3314 3315 3316 3317 3318 3319 3320 3321 3322 3323 3324 3325 3326 3327 3328 3329 3330 3331 3332 3333 3334 3335 3336 3337 3338 3339 3340 3341 3342 3343 3344 3345 3346 3347 3348 3349 3350 3351 3352 3353 3354 3355 3356 3357 3358 3359 3360 3361 3362 3363 3364 3365 3366 3367 3368 3369 3370 3371 3372 3373 3374 3375 3376 3377 3378 3379 3380 3381 3382 3383 3384 3385 3386 3387 3388 3389 3390 3391 3392 3393 3394 3395 3396 3397 3398 3399 3400 3401 3402 3403 3404 3405 3406 3407 3408 3409 3410 3411 3412 3413 3414 3415 3416 3417 3418 3419 3420 3421 3422 3423 3424 3425 3426 3427 3428 3429 3430 3431 3432 3433 3434 3435 3436 3437 3438 3439 3440 3441 3442 3443 3444 3445 3446 3447 3448 3449 3450 3451 3452 3453 3454 3455 3456 3457 3458 3459 3460 3461 3462 3463 3464 3465 3466 3467 3468 3469 3470 3471 3472 3473 3474 3475 3476 3477 3478 3479 3480 3481 3482 3483 3484 3485 3486 3487 3488 3489 3490 3491 3492 3493 3494 3495 3496 3497 3498 3499 3500 3501 3502 3503 3504 3505 3506 3507 3508 3509 3510 3511 3512 3513 3514 3515 3516 3517 3518 3519 3520 3521 3522 3523 3524 3525 3526 3527 3528 3529 3530 3531 3532 3533 3534 3535 3536 3537 3538 3539 3540 3541 3542 3543 3544 3545 3546 3547 3548 3549 3550 3551 3552 3553 3554 3555 3556 3557 3558 3559 3560 3561 3562 3563 3564 3565 3566 3567 3568 3569 3570 3571 3572 3573 3574 3575 3576 3577 3578 3579 3580 3581 3582 3583 3584 3585 3586 3587 3588 3589 3590 3591 3592 3593 3594 3595 3596 3597 3598 3599 3600 3601 3602 3603 3604 3605 3606 3607 3608 3609 3610 3611 3612 3613 3614 3615 3616 3617 3618 3619 3620 3621 3622 3623 3624 3625 3626 3627 3628 3629 3630 3631 3632 3633 3634 3635 3636 3637 3638 3639 3640 3641 3642 3643 3644 3645 3646 3647 3648 3649 3650 3651 3652 3653 3654 3655 3656 3657 3658 3659 3660 3661 3662 3663 3664 3665 3666 3667 3668 3669 3670 3671 3672 3673 3674 3675 3676 3677 3678 3679 3680 3681 3682 3683 3684 3685 3686 3687 3688 3689 3690 3691 3692 3693 3694 3695 3696 3697 3698 3699 3700 3701 3702 3703 3704 3705 3706 3707 3708 3709 3710 3711 3712 3713 3714 3715 3716 3717 3718 3719 3720 3721 3722 3723 3724 3725 3726 3727 3728 3729 3730 3731 3732 3733 3734 3735 3736 3737 3738 3739 3740 3741 3742 3743 3744 3745 3746 3747 3748 3749 3750 3751 3752 3753 3754 3755 3756 3757 3758 3759 3760 3761 3762 3763 3764 3765 3766 3767 3768 3769 3770 3771 3772 3773 3774 3775 3776 3777 3778 3779 3780 3781 3782 3783 3784 3785 3786 3787 3788 3789 3790 3791 3792 3793 3794 3795 3796 3797 3798 3799 3800 3801 3802 3803 3804 3805 3806 3807 3808 3809 3810 3811 3812 3813 3814 3815 3816 3817 3818 3819 3820 3821 3822 3823 3824 3825 3826 3827 3828 3829 3830 3831 3832 3833 3834 3835 3836 3837 3838 3839 3840 3841 3842 3843 3844 3845 3846 3847 3848 3849 3850 3851 3852 3853 3854 3855 3856 3857 3858 3859 3860 3861 3862 3863 3864 3865 3866 3867 3868 3869 3870 3871 3872 3873 3874 3875 3876 3877 3878 3879 3880 3881 3882 3883 3884 3885 3886 3887 3888 3889 3890 3891 3892 3893 3894 3895 3896 3897 3898 3899 3900 3901 3902 3903 3904 3905 3906 3907 3908 3909 3910 3911 3912 3913 3914 3915 3916 3917 3918 3919 3920 3921 3922 3923 3924 3925 3926 3927 3928 3929 3930 3931 3932 3933 3934 3935 3936 3937 3938 3939 3940 3941 3942 3943 3944 3945 3946 3947 3948 3949 3950 3951 3952 3953 3954 3955 3956 3957 3958 3959 3960 3961 3962 3963 3964 3965 3966 3967 3968 3969 3970 3971 3972 3973 3974 3975 3976 3977 3978 3979 3980 3981 3982 3983 3984 3985 3986 3987 3988 3989 3990 3991 3992 3993 3994 3995 3996 3997 3998 3999 4000 4001 4002 4003 4004 4005 4006 4007 4008 4009 4010 4011 4012 4013 4014 4015 4016 4017 4018 4019 4020 4021 4022 4023 4024 4025 4026 4027 4028 4029 4030 4031 4032 4033 4034 4035 4036 4037 4038 4039 4040 4041 4042 4043 4044 4045 4046 4047 4048 4049 4050 4051 4052 4053 4054 4055 4056 4057 4058 4059 4060 4061 4062 4063 4064 4065 4066 4067 4068 4069 4070 4071 4072 4073 4074 4075 4076 4077 4078 4079 4080 4081 4082 4083 4084 4085 4086 4087 4088 4089 4090 4091 4092 4093 4094 4095 4096 4097 4098 4099 4100 4101 4102 4103 4104 4105 4106 4107 4108 4109 4110 4111 4112 4113 4114 4115 4116 4117 4118 4119 4120 4121 4122 4123 4124 4125 4126 4127 4128 4129 4130 4131 4132 4133 4134 4135 4136 4137 4138 4139 4140 4141 4142 4143 4144 4145 4146 4147 4148 4149 4150 4151 4152 4153 4154 4155 4156 4157 4158 4159 4160 4161 4162 4163 4164 4165 4166 4167 4168 4169 4170 4171 4172 4173 4174 4175 4176 4177 4178 4179 4180 4181 4182 4183 4184 4185 4186 4187 4188 4189 4190 4191 4192 4193 4194 4195 4196 4197 4198 4199 4200 4201 4202 4203 4204 4205 4206 4207 4208 4209 4210 4211 4212 4213 4214 4215 4216 4217 4218 4219 4220 4221 4222 4223 4224 4225 4226 4227 4228 4229 4230 4231 4232 4233 4234 4235 4236 4237 4238 4239 4240 4241 4242 4243 4244 4245 4246 4247 4248 4249 4250 4251 4252 4253 4254 4255 4256 4257 4258 4259 4260 4261 4262 4263 4264 4265 4266 4267 4268 4269 4270 4271 4272 4273 4274 4275 4276 4277 4278 4279 4280 4281 4282 4283 4284 4285 4286 4287 4288 4289 4290 4291 4292 4293 4294 4295 4296 4297 4298 4299 4300 4301 4302 4303 4304 4305 4306 4307 4308 4309 4310 4311 4312 4313 4314 4315 4316 4317 4318 4319 4320 4321 4322 4323 4324 4325 4326 4327 4328 4329 4330 4331 4332 4333 4334 4335 4336 4337 4338 4339 4340 4341 4342 4343 4344 4345 4346 4347 4348 4349 4350 4351 4352 4353 4354 4355 4356 4357 4358 4359 4360 4361 4362 4363 4364 4365 4366 4367 4368 4369 4370 4371 4372 4373 4374 4375 4376 4377 4378 4379 4380 4381 4382 4383 4384 4385 4386 4387 4388 4389 4390 4391 4392 4393 4394 4395 4396 4397 4398 4399 4400 4401 4402 4403 4404 4405 4406 4407 4408 4409 4410 4411 4412 4413 4414 4415 4416 4417 4418 4419 4420 4421 4422 4423 4424 4425 4426 4427 4428 4429 4430 4431 4432 4433 4434 4435 4436 4437 4438 4439 4440 4441 4442 4443 4444 4445 4446 4447 4448 4449 4450 4451 4452 4453 4454 4455 4456 4457 4458 4459 4460 4461 4462 4463 4464 4465 4466 4467 4468 4469 4470 4471 4472 4473 4474 4475 4476 4477 4478 4479 4480 4481 4482 4483 4484 4485 4486 4487 4488 4489 4490 4491 4492 4493 4494 4495 4496 4497 4498 4499 4500 4501 4502 4503 4504 4505 4506 4507 4508 4509 4510 4511 4512 4513 4514 4515 4516 4517 4518 4519 4520 4521 4522 4523 4524 4525 4526 4527 4528 4529 4530 4531 4532 4533 4534 4535 4536 4537 4538 4539 4540 4541 4542 4543 4544 4545 4546 4547 4548 4549 4550 4551 4552 4553 4554 4555 4556 4557 4558 4559 4560 4561 4562 4563 4564 4565 4566 4567 4568 4569 4570 4571 4572 4573 4574 4575 4576 4577 4578 4579 4580 4581 4582 4583 4584 4585 4586 4587 4588 4589 4590 4591 4592 4593 4594 4595 4596 4597 4598 4599 4600 4601 4602 4603 4604 4605 4606 4607 4608 4609 4610 4611 4612 4613 4614 4615 4616 4617 4618 4619 4620 4621 4622 4623 4624 4625 4626 4627 4628 4629 4630 4631 4632 4633 4634 4635 4636 4637 4638 4639 4640 4641 4642 4643 4644 4645 4646 4647 4648 4649 4650 4651 4652 4653 4654 4655 4656 4657 4658 4659 4660 4661 4662 4663 4664 4665 4666 4667 4668 4669 4670 4671 4672 4673 4674 4675 4676 4677 4678 4679 4680 4681 4682 4683 4684 4685 4686 4687 4688 4689 4690 4691 4692 4693 4694 4695 4696 4697 4698 4699 4700 4701 4702 4703 4704 4705 4706 4707 4708 4709 4710 4711 4712 4713 4714 4715 4716 4717 4718 4719 4720 4721 4722 4723 4724 4725 4726 4727 4728 4729 4730 4731 4732 4733 4734 4735 4736 4737 4738 4739 4740 4741 4742 4743 4744 4745 4746 4747 4748 4749 4750 4751 4752 4753 4754 4755 4756 4757 4758 4759 4760 4761 4762 4763 4764 4765 4766 4767 4768 4769 4770 4771 4772 4773 4774 4775 4776 4777 4778 4779 4780 4781 4782 4783 4784 4785 4786 4787 4788 4789 4790 4791 4792 4793 4794 4795 4796 4797 4798 4799 4800 4801 4802 4803 4804 4805 4806 4807 4808 4809 4810 4811 4812 4813 4814 4815 4816 4817 4818 4819 4820 4821 4822 4823 4824 4825 4826 4827 4828 4829 4830 4831 4832 4833 4834 4835 4836 4837 4838 4839 4840 4841 4842 4843 4844 4845 4846 4847 4848 4849 4850 4851 4852 4853 4854 4855 4856 4857 4858 4859 4860 4861 4862 4863 4864 4865 4866 4867 4868 4869 4870 4871 4872 4873 4874 4875 4876 4877 4878 4879 4880 4881 4882 4883 4884 4885 4886 4887 4888 4889 4890 4891 4892 4893 4894 4895 4896 4897 4898 4899 4900 4901 4902 4903 4904 4905 4906 4907 4908 4909 4910 4911 4912 4913 4914 4915 4916 4917 4918 4919 4920 4921 4922 4923 4924 4925 4926 4927 4928 4929 4930 4931 4932 4933 4934 4935 4936 4937 4938 4939 4940 4941 4942 4943 4944 4945 4946 4947 4948 4949 4950 4951 4952 4953 4954 4955 4956 4957 4958 4959 4960 4961 4962 4963 4964 4965 4966 4967 4968 4969 4970 4971 4972 4973 4974 4975 4976 4977 4978 4979 4980 4981 4982 4983 4984 4985 4986 4987 4988 4989 4990 4991 4992 4993 4994 4995 4996 4997 4998 4999 5000 5001 5002 5003 5004 5005 5006 5007 5008 5009 5010 5011 5012 5013 5014 5015 5016 5017 5018 5019 5020 5021 5022 5023 5024 5025 5026 5027 5028 5029 5030 5031 5032 5033 5034 5035 5036 5037 5038 5039 5040 5041 5042 5043 5044 5045 5046 5047 5048 5049 5050 5051 5052 5053 5054 5055 5056 5057 5058 5059 5060 5061 5062 5063 5064 5065 5066 5067 5068 5069 5070 5071 5072 5073 5074 5075 5076 5077 5078 5079 5080 5081 5082 5083 5084 5085 5086 5087 5088 5089 5090 5091 5092 5093 5094 5095 5096 5097 5098 5099 5100 5101 5102 5103 5104 5105 5106 5107 5108 5109 5110 5111 5112 5113 5114 5115 5116 5117 5118 5119 5120 5121 5122 5123 5124 5125 5126 5127 5128 5129 5130 5131 5132 5133 5134 5135 5136 5137 5138 5139 5140 5141 5142 5143 5144 5145 5146 5147 5148 5149 5150 5151 5152 5153 5154 5155 5156 5157 5158 5159 5160 5161 5162 5163 5164 5165 5166 5167 5168 5169 5170 5171 5172 5173 5174 5175 5176 5177 5178 5179 5180 5181 5182 5183 5184 5185 5186 5187 5188 5189 5190 5191 5192 5193 5194 5195 5196 5197 5198 5199 5200 5201 5202 5203 5204 5205 5206 5207 5208 5209 5210 5211 5212 5213 5214 5215 5216 5217 5218 5219 5220 5221 5222 5223 5224 5225 5226 5227 5228 5229 5230 5231 5232 5233 5234 5235 5236 5237 5238 5239 5240 5241 5242 5243 5244 5245 5246 5247 5248 5249 5250 5251 5252 5253 5254 5255 5256 5257 5258 5259 5260 5261 5262 5263 5264 5265 5266 5267 5268 5269 5270 5271 5272 5273 5274 5275 5276 5277 5278 5279 5280 5281 5282 5283 5284 5285 5286 5287 5288 5289 5290 5291 5292 5293 5294 5295 5296 5297 5298 5299 5300 5301 5302 5303 5304 5305 5306 5307 5308 5309 5310 5311 5312 5313 5314 5315 5316 5317 5318 5319 5320 5321 5322 5323 5324 5325 5326 5327 5328 5329 5330 5331 5332 5333 5334 5335 5336 5337 5338 5339 5340 5341 5342 5343 5344 5345 5346 5347 5348 5349 5350 5351 5352 5353 5354 5355 5356 5357 5358 5359 5360 5361 5362 5363 5364 5365 5366 5367 5368 5369 5370 5371 5372 5373 5374 5375 5376 5377 5378 5379 5380 5381 5382 5383 5384 5385 5386 5387 5388 5389 5390 5391 5392 5393 5394 5395 5396 5397 5398 5399 5400 5401 5402 5403 5404 5405 5406 5407 5408 5409 5410 5411 5412 5413 5414 5415 5416 5417 5418 5419 5420 5421 5422 5423 5424 5425 5426 5427 5428 5429 5430 5431 5432 5433 5434 5435 5436 5437 5438 5439 5440 5441 5442 5443 5444 5445 5446 5447 5448 5449 5450 5451 5452 5453 5454 5455 5456 5457 5458 5459 5460 5461 5462 5463 5464 5465 5466 5467 5468 5469 5470 5471 5472 5473 5474 5475 5476 5477 5478 5479 5480 5481 5482 5483 5484 5485 5486 5487 5488 5489 5490 5491 5492 5493 5494 5495 5496 5497 5498 5499 5500 5501 5502 5503 5504 5505 5506 5507 5508 5509 5510 5511 5512 5513 5514 5515 5516 5517 5518 5519 5520 5521 5522 5523 5524 5525 5526 5527 5528 5529 5530 5531 5532 5533 5534 5535 5536 5537 5538 5539 5540 5541 5542 5543 5544 5545 5546 5547 5548 5549 5550 5551 5552 5553 5554 5555 5556 5557 5558 5559 5560 5561 5562 5563 5564 5565 5566 5567 5568 5569 5570 5571 5572 5573 5574 5575 5576 5577 5578 5579 5580 5581 5582 5583 5584 5585 5586 5587 5588 5589 5590 5591 5592 5593 5594 5595 5596 5597 5598 5599 5600 5601 5602 5603 5604 5605 5606 5607 5608 5609 5610 5611 5612 5613 5614 5615 5616 5617 5618 5619 5620 5621 5622 5623 5624 5625 5626 5627 5628 5629 5630 5631 5632 5633 5634 5635 5636 5637 5638 5639 5640 5641 5642 5643 5644 5645 5646 5647 5648 5649 5650 5651 5652 5653 5654 5655 5656 5657 5658 5659 5660 5661 5662 5663 5664 5665 5666 5667 5668 5669 5670 5671 5672 5673 5674 5675 5676 5677 5678 5679 5680 5681 5682 5683 5684 5685 5686 5687 5688 5689 5690 5691 5692 5693 5694 5695 5696 5697 5698 5699 5700 5701 5702 5703 5704 5705 5706 5707 5708 5709 5710 5711 5712 5713 5714 5715 5716 5717 5718 5719 5720 5721 5722 5723 5724 5725 5726 5727 5728 5729 5730 5731 5732 5733 5734 5735 5736 5737 5738 5739 5740 5741 5742 5743 5744 5745 5746 5747 5748 5749 5750 5751 5752 5753 5754 5755 5756 5757 5758 5759 5760 5761 5762 5763 5764 5765 5766 5767 5768 5769 5770 5771 5772 5773 5774 5775 5776 5777 5778 5779 5780 5781 5782 5783 5784 5785 5786 5787 5788 5789 5790 5791 5792 5793 5794 5795 5796 5797 5798 5799 5800 5801 5802 5803 5804 5805 5806 5807 5808 5809 5810 5811 5812 5813 5814 5815 5816 5817 5818 5819 5820 5821 5822 5823 5824 5825 5826 5827 5828 5829 5830 5831 5832 5833 5834 5835 5836 5837 5838 5839 5840 5841 5842 5843 5844 5845 5846 5847 5848 5849 5850 5851 5852 5853 5854 5855 5856 5857 5858 5859 5860 5861 5862 5863 5864 5865 5866 5867 5868 5869 5870 5871 5872 5873 5874 5875 5876 5877 5878 5879 5880 5881 5882 5883 5884 5885 5886 5887 5888 5889 5890 5891 5892 5893 5894 5895 5896 5897 5898 5899 5900 5901 5902 5903 5904 5905 5906 5907 5908 5909 5910 5911 5912 5913 5914 5915 5916 5917 5918 5919 5920 5921 5922 5923 5924 5925 5926 5927 5928 5929 5930 5931 5932 5933 5934 5935 5936 5937 5938 5939 5940 5941 5942 5943 5944 5945 5946 5947 5948 5949 5950 5951 5952 5953 5954 5955 5956 5957 5958 5959 5960 5961 5962 5963 5964 5965 5966 5967 5968 5969 5970 5971 5972 5973 5974 5975 5976 5977 5978 5979 5980 5981 5982 5983 5984 5985 5986 5987 5988 5989 5990 5991 5992 5993 5994 5995 5996 5997 5998 5999 6000 6001 6002 6003 6004 6005 6006 6007 6008 6009 6010 6011 6012 6013 6014 6015 6016 6017 6018 6019 6020 6021 6022 6023 6024 6025 6026 6027 6028 6029 6030 6031 6032 6033 6034 6035 6036 6037 6038 6039 6040 6041 6042 6043 6044 6045 6046 6047 6048 6049 6050 6051 6052 6053 6054 6055 6056 6057 6058 6059 6060 6061 6062 6063 6064 6065 6066 6067 6068 6069 6070 6071 6072 6073 6074 6075 6076 6077 6078 6079 6080 6081 6082 6083 6084 6085 6086 6087 6088 6089 6090 6091 6092 6093 6094 6095 6096 6097 6098 6099 6100 6101 6102 6103 6104 6105 6106 6107 6108 6109 6110 6111 6112 6113 6114 6115 6116 6117 6118 6119 6120 6121 6122 6123 6124 6125 6126 6127 6128 6129 6130 6131 6132 6133 6134 6135 6136 6137 6138 6139 6140 6141 6142 6143 6144 6145 6146 6147 6148 6149 6150 6151 6152 6153 6154 6155 6156 6157 6158 6159 6160 6161 6162 6163 6164 6165 6166 6167 6168 6169 6170 6171 6172 6173 6174 6175 6176 6177 6178 6179 6180 6181 6182 6183 6184 6185 6186 6187 6188 6189 6190 6191 6192 6193 6194 6195 6196 6197 6198 6199 6200 6201 6202 6203 6204 6205 6206 6207 6208 6209 6210 6211 6212 6213 6214 6215 6216 6217 6218 6219 6220 6221 6222 6223 6224 6225 6226 6227 6228 6229 6230 6231 6232 6233 6234 6235 6236 6237 6238 6239 6240 6241 6242 6243 6244 6245 6246 6247 6248 6249 6250 6251 6252 6253 6254 6255 6256 6257 6258 6259 6260 6261 6262 6263 6264 6265 6266 6267 6268 6269 6270 6271 6272 6273 6274 6275 6276 6277 6278 6279 6280 6281 6282 6283 6284 6285 6286 6287 6288 6289 6290 6291 6292 6293 6294 6295 6296 6297 6298 6299 6300 6301 6302 6303 6304 6305 6306 6307 6308 6309 6310 6311 6312 6313 6314 6315 6316 6317 6318 6319 6320 6321 6322 6323 6324 6325 6326 6327 6328 6329 6330 6331 6332 6333 6334 6335 6336 6337 6338 6339 6340 6341 6342 6343 6344 6345 6346 6347 6348 6349 6350 6351 6352 6353 6354 6355 6356 6357 6358 6359 6360 6361 6362 6363 6364 6365 6366 6367 6368 6369 6370 6371 6372 6373 6374 6375 6376 6377 6378 6379 6380 6381 6382 6383 6384 6385 6386 6387 6388 6389 6390 6391 6392 6393 6394 6395 6396 6397 6398 6399 6400 6401 6402 6403 6404 6405 6406 6407 6408 6409 6410 6411 6412 6413 6414 6415 6416 6417 6418 6419 6420 6421 6422 6423 6424 6425 6426 6427 6428 6429 6430 6431 6432 6433 6434 6435 6436 6437 6438 6439 6440 6441 6442 6443 6444 6445 6446 6447 6448 6449 6450 6451 6452 6453 6454 6455 6456 6457 6458 6459 6460 6461 6462 6463 6464 6465 6466 6467 6468 6469 6470 6471 6472 6473 6474 6475 6476 6477 6478 6479 6480 6481 6482 6483 6484 6485 6486 6487 6488 6489 6490 6491 6492 6493 6494 6495 6496 6497 6498 6499 6500 6501 6502 6503 6504 6505 6506 6507 6508 6509 6510 6511 6512 6513 6514 6515 6516 6517 6518 6519 6520 6521 6522 6523 6524 6525 6526 6527 6528 6529 6530 6531 6532 6533 6534 6535 6536 6537 6538 6539 6540 6541 6542 6543 6544 6545 6546 6547 6548 6549 6550 6551 6552 6553 6554 6555 6556 6557 6558 6559 6560 6561 6562 6563 6564 6565 6566 6567 6568 6569 6570 6571 6572 6573 6574 6575 6576 6577 6578 6579 6580 6581 6582 6583 6584 6585 6586 6587 6588 6589 6590 6591 6592 6593 6594 6595 6596 6597 6598 6599 6600 6601 6602 6603 6604 6605 6606 6607 6608 6609 6610 6611 6612 6613 6614 6615 6616 6617 6618 6619 6620 6621 6622 6623 6624 6625 6626 6627 6628 6629 6630 6631 6632 6633 6634 6635 6636 6637 6638 6639 6640 6641 6642 6643 6644 6645 6646 6647 6648 6649 6650 6651 6652 6653 6654 6655 6656 6657 6658 6659 6660 6661 6662 6663 6664 6665 6666 6667 6668 6669 6670 6671 6672 6673 6674 6675 6676 6677 6678 6679 6680 6681 6682 6683 6684 6685 6686 6687 6688 6689 6690 6691 6692 6693 6694 6695 6696 6697 6698 6699 6700 6701 6702 6703 6704 6705 6706 6707 6708 6709 6710 6711 6712 6713 6714 6715 6716 6717 6718 6719 6720 6721 6722 6723 6724 6725 6726 6727 6728 6729 6730 6731 6732 6733 6734 6735 6736 6737 6738 6739 6740 6741 6742 6743 6744 6745 6746 6747 6748 6749 6750 6751 6752 6753 6754 6755 6756 6757 6758 6759 6760 6761 6762 6763 6764 6765 6766 6767 6768 6769 6770 6771 6772 6773 6774 6775 6776 6777 6778 6779 6780 6781 6782 6783 6784 6785 6786 6787 6788 6789 6790 6791 6792 6793 6794 6795 6796 6797 6798 6799 6800 6801 6802 6803 6804 6805 6806 6807 6808 6809 6810 6811 6812 6813 6814 6815 6816 6817 6818 6819 6820 6821 6822 6823 6824 6825 6826 6827 6828 6829 6830 6831 6832 6833 6834 6835 6836 6837 6838 6839 6840 6841 6842 6843 6844 6845 6846 6847 6848 6849 6850 6851 6852 6853 6854 6855 6856 6857 6858 6859 6860 6861 6862 6863 6864 6865 6866 6867 6868 6869 6870 6871 6872 6873 6874 6875 6876 6877 6878 6879 6880 6881 6882 6883 6884 6885 6886 6887 6888 6889 6890 6891 6892 6893 6894 6895 6896 6897 6898 6899 6900 6901 6902 6903 6904 6905 6906 6907 6908 6909 6910 6911 6912 6913 6914 6915 6916 6917 6918 6919 6920 6921 6922 6923 6924 6925 6926 6927 6928 6929 6930 6931 6932 6933 6934 6935 6936 6937 6938 6939 6940 6941 6942 6943 6944 6945 6946 6947 6948 6949 6950 6951 6952 6953 6954 6955 6956 6957 6958 6959 6960 6961 6962 6963 6964 6965 6966 6967 6968 6969 6970 6971 6972 6973 6974 6975 6976 6977 6978 6979 6980 6981 6982 6983 6984 6985 6986 6987 6988 6989 6990 6991 6992 6993 6994 6995 6996 6997 6998 6999 7000 7001 7002 7003 7004 7005 7006 7007 7008 7009 7010 7011 7012 7013 7014 7015 7016 7017 7018 7019 7020 7021 7022 7023 7024 7025 7026 7027 7028 7029 7030 7031 7032 7033 7034 7035 7036 7037 7038 7039 7040 7041 7042 7043 7044 7045 7046 7047 7048 7049 7050 7051 7052 7053 7054 7055 7056 7057 7058 7059 7060 7061 7062 7063 7064 7065 7066 7067 7068 7069 7070 7071 7072 7073 7074 7075 7076 7077 7078 7079 7080 7081 7082 7083 7084 7085 7086 7087 7088 7089 7090 7091 7092 7093 7094 7095 7096 7097 7098 7099 7100 7101 7102 7103 7104 7105 7106 7107 7108 7109 7110 7111 7112 7113 7114 7115 7116 7117 7118 7119 7120 7121 7122 7123 7124 7125 7126 7127 7128 7129 7130 7131 7132 7133 7134 7135 7136 7137 7138 7139 7140 7141 7142 7143 7144 7145 7146 7147 7148 7149 7150 7151 7152 7153 7154 7155 7156 7157 7158 7159 7160 7161 7162 7163 7164 7165 7166 7167 7168 7169 7170 7171 7172 7173 7174 7175 7176 7177 7178 7179 7180 7181 7182 7183 7184 7185 7186 7187 7188 7189 7190 7191 7192 7193 7194 7195 7196 7197 7198 7199 7200 7201 7202 7203 7204 7205 7206 7207 7208 7209 7210 7211 7212 7213 7214 7215 7216 7217 7218 7219 7220 7221 7222 7223 7224 7225 7226 7227 7228 7229 7230 7231 7232 7233 7234 7235 7236 7237 7238 7239 7240 7241 7242 7243 7244 7245 7246 7247 7248 7249 7250 7251 7252 7253 7254 7255 7256 7257 7258 7259 7260 7261 7262 7263 7264 7265 7266 7267 7268 7269 7270 7271 7272 7273 7274 7275 7276 7277 7278 7279 7280 7281 7282 7283 7284 7285 7286 7287 7288 7289 7290 7291 7292 7293 7294 7295 7296 7297 7298 7299 7300 7301 7302 7303 7304 7305 7306 7307 7308 7309 7310 7311 7312 7313 7314 7315 7316 7317 7318 7319 7320 7321 7322 7323 7324 7325 7326 7327 7328 7329 7330 7331 7332 7333 7334 7335 7336 7337 7338 7339 7340 7341 7342 7343 7344 7345 7346 7347 7348 7349 7350 7351 7352 7353 7354 7355 7356 7357 7358 7359 7360 7361 7362 7363 7364 7365 7366 7367 7368 7369 7370 7371 7372 7373 7374 7375 7376 7377 7378 7379 7380 7381 7382 7383 7384 7385 7386 7387 7388 7389 7390 7391 7392 7393 7394 7395 7396 7397 7398 7399 7400 7401 7402 7403 7404 7405 7406 7407 7408 7409 7410 7411 7412 7413 7414 7415 7416 7417 7418 7419 7420 7421 7422 7423 7424 7425 7426 7427 7428 7429 7430 7431 7432 7433 7434 7435 7436 7437 7438 7439 7440 7441 7442 7443 7444 7445 7446 7447 7448 7449 7450 7451 7452 7453 7454 7455 7456 7457 7458 7459 7460 7461 7462 7463 7464 7465 7466 7467 7468 7469 7470 7471 7472 7473 7474 7475 7476 7477 7478 7479 7480 7481 7482 7483 7484 7485 7486 7487 7488 7489 7490 7491 7492 7493 7494 7495 7496 7497 7498 7499 7500 7501 7502 7503 7504 7505 7506 7507 7508 7509 7510 7511 7512 7513 7514 7515 7516 7517 7518 7519 7520 7521 7522 7523 7524 7525 7526 7527 7528 7529 7530 7531 7532 7533 7534 7535 7536 7537 7538 7539 7540 7541 7542 7543 7544 7545 7546 7547 7548 7549 7550 7551 7552 7553 7554 7555 7556 7557 7558 7559 7560 7561 7562 7563 7564 7565 7566 7567 7568 7569 7570 7571 7572 7573 7574 7575 7576 7577 7578 7579 7580 7581 7582 7583 7584 7585 7586 7587 7588 7589 7590 7591 7592 7593 7594 7595 7596 7597 7598 7599 7600 7601 7602 7603 7604 7605 7606 7607 7608 7609 7610 7611 7612 7613 7614 7615 7616 7617 7618 7619 7620 7621 7622 7623 7624 7625 7626 7627 7628 7629 7630 7631 7632 7633 7634 7635 7636 7637 7638 7639 7640 7641 7642 7643 7644 7645 7646 7647 7648 7649 7650 7651 7652 7653 7654 7655 7656 7657 7658 7659 7660 7661 7662 7663 7664 7665 7666 7667 7668 7669 7670 7671 7672 7673 7674 7675 7676 7677 7678 7679 7680 7681 7682 7683 7684 7685 7686 7687 7688 7689 7690 7691 7692 7693 7694 7695 7696 7697 7698 7699 7700 7701 7702 7703 7704 7705 7706 7707 7708 7709 7710 7711 7712 7713 7714 7715 7716 7717 7718 7719 7720 7721 7722 7723 7724 7725 7726 7727 7728 7729 7730 7731 7732 7733 7734 7735 7736 7737 7738 7739 7740 7741 7742 7743 7744 7745 7746 7747 7748 7749 7750 7751 7752 7753 7754 7755 7756 7757 7758 7759 7760 7761 7762 7763 7764 7765 7766 7767 7768 7769 7770 7771 7772 7773 7774 7775 7776 7777 7778 7779 7780 7781 7782 7783 7784 7785 7786 7787 7788 7789 7790 7791 7792 7793 7794 7795 7796 7797 7798 7799 7800 7801 7802 7803 7804 7805 7806 7807 7808 7809 7810 7811 7812 7813 7814 7815 7816 7817 7818 7819 7820 7821 7822 7823 7824 7825 7826 7827 7828 7829 7830 7831 7832 7833 7834 7835 7836 7837 7838 7839 7840 7841 7842 7843 7844 7845 7846 7847 7848 7849 7850 7851 7852 7853 7854 7855 7856 7857 7858 7859 7860 7861 7862 7863 7864 7865 7866 7867 7868 7869 7870 7871 7872 7873 7874 7875 7876 7877 7878 7879 7880 7881 7882 7883 7884 7885 7886 7887 7888 7889 7890 7891 7892 7893 7894 7895 7896 7897 7898 7899 7900 7901 7902 7903 7904 7905 7906 7907 7908 7909 7910 7911 7912 7913 7914 7915 7916 7917 7918 7919 7920 7921 7922 7923 7924 7925 7926 7927 7928 7929 7930 7931 7932 7933 7934 7935 7936 7937 7938 7939 7940 7941 7942 7943 7944 7945 7946 7947 7948 7949 7950 7951 7952 7953 7954 7955 7956 7957 7958 7959 7960 7961 7962 7963 7964 7965 7966 7967 7968 7969 7970 7971 7972 7973 7974 7975 7976 7977 7978 7979 7980 7981 7982 7983 7984 7985 7986 7987 7988 7989 7990 7991 7992 7993 7994 7995 7996 7997 7998 7999 8000 8001 8002 8003 8004 8005 8006 8007 8008 8009 8010 8011 8012 8013 8014 8015 8016 8017 8018 8019 8020 8021 8022 8023 8024 8025 8026 8027 8028 8029 8030 8031 8032 8033 8034 8035 8036 8037 8038 8039 8040 8041 8042 8043 8044 8045 8046 8047 8048 8049 8050 8051 8052 8053 8054 8055 8056 8057 8058 8059 8060 8061 8062 8063 8064 8065 8066 8067 8068 8069 8070 8071 8072 8073 8074 8075 8076 8077 8078 8079 8080 8081 8082 8083 8084 8085 8086 8087 8088 8089 8090 8091 8092 8093 8094 8095 8096 8097 8098 8099 8100 8101 8102 8103 8104 8105 8106 8107 8108 8109 8110 8111 8112 8113 8114 8115 8116 8117 8118 8119 8120 8121 8122 8123 8124 8125 8126 8127 8128 8129 8130 8131 8132 8133 8134 8135 8136 8137 8138 8139 8140 8141 8142 8143 8144 8145 8146 8147 8148 8149 8150 8151 8152 8153 8154 8155 8156 8157 8158 8159 8160 8161 8162 8163 8164 8165 8166 8167 8168 8169 8170 8171 8172 8173 8174 8175 8176 8177 8178 8179 8180 8181 8182 8183 8184 8185 8186 8187 8188 8189 8190 8191 8192 8193 8194 8195 8196 8197 8198 8199 8200 8201 8202 8203 8204 8205 8206 8207 8208 8209 8210 8211 8212 8213 8214 8215 8216 8217 8218 8219 8220 8221 8222 8223 8224 8225 8226 8227 8228 8229 8230 8231 8232 8233 8234 8235 8236 8237 8238 8239 8240 8241 8242 8243 8244 8245 8246 8247 8248 8249 8250 8251 8252 8253 8254 8255 8256 8257 8258 8259 8260 8261 8262 8263 8264 8265 8266 8267 8268 8269 8270 8271 8272 8273 8274 8275 8276 8277 8278 8279 8280 8281 8282 8283 8284 8285 8286 8287 8288 8289 8290 8291 8292 8293 8294 8295 8296 8297 8298 8299 8300 8301 8302 8303 8304 8305 8306 8307 8308 8309 8310 8311 8312 8313 8314 8315 8316 8317 8318 8319 8320 8321 8322 8323 8324 8325 8326 8327 8328 8329 8330 8331 8332 8333 8334 8335 8336 8337 8338 8339 8340 8341 8342 8343 8344 8345 8346 8347 8348 8349 8350 8351 8352 8353 8354 8355 8356 8357 8358 8359 8360 8361 8362 8363 8364 8365 8366 8367 8368 8369 8370 8371 8372 8373 8374 8375 8376 8377 8378 8379 8380 8381 8382 8383 8384 8385 8386 8387 8388 8389 8390 8391 8392 8393 8394 8395 8396 8397 8398 8399 8400 8401 8402 8403 8404 8405 8406 8407 8408 8409 8410 8411 8412 8413 8414 8415 8416 8417 8418 8419 8420 8421 8422 8423 8424 8425 8426 8427 8428 8429 8430 8431 8432 8433 8434 8435 8436 8437 8438 8439 8440 8441 8442 8443 8444 8445 8446 8447 8448 8449 8450 8451 8452 8453 8454 8455 8456 8457 8458 8459 8460 8461 8462 8463 8464 8465 8466 8467 8468 8469 8470 8471 8472 8473 8474 8475 8476 8477 8478 8479 8480 8481 8482 8483 8484 8485 8486 8487 8488 8489 8490 8491 8492 8493 8494 8495 8496 8497 8498 8499 8500 8501 8502 8503 8504 8505 8506 8507 8508 8509 8510 8511 8512 8513 8514 8515 8516 8517 8518 8519 8520 8521 8522 8523 8524 8525 8526 8527 8528 8529 8530 8531 8532 8533 8534 8535 8536 8537 8538 8539 8540 8541 8542 8543 8544 8545 8546 8547 8548 8549 8550 8551 8552 8553 8554 8555 8556 8557 8558 8559 8560 8561 8562 8563 8564 8565 8566 8567 8568 8569 8570 8571 8572 8573 8574 8575 8576 8577 8578 8579 8580 8581 8582 8583 8584 8585 8586 8587 8588 8589 8590 8591 8592 8593 8594 8595 8596 8597 8598 8599 8600 8601 8602 8603 8604 8605 8606 8607 8608 8609 8610 8611 8612 8613 8614 8615 8616 8617 8618 8619 8620 8621 8622 8623 8624 8625 8626 8627 8628 8629 8630 8631 8632 8633 8634 8635 8636 8637 8638 8639 8640 8641 8642 8643 8644 8645 8646 8647 8648 8649 8650 8651 8652 8653 8654 8655 8656 8657 8658 8659 8660 8661 8662 8663 8664 8665 8666 8667 8668 8669 8670 8671 8672 8673 8674 8675 8676 8677 8678 8679 8680 8681 8682 8683 8684 8685 8686 8687 8688 8689 8690 8691 8692 8693 8694 8695 8696 8697 8698 8699 8700 8701 8702 8703 8704 8705 8706 8707 8708 8709 8710 8711 8712 8713 8714 8715 8716 8717 8718 8719 8720 8721 8722 8723 8724 8725 8726 8727 8728 8729 8730 8731 8732 8733 8734 8735 8736 8737 8738 8739 8740 8741 8742 8743 8744 8745 8746 8747 8748 8749 8750 8751 8752 8753 8754 8755 8756 8757 8758 8759 8760 8761 8762 8763 8764 8765 8766 8767 8768 8769 8770 8771 8772 8773 8774 8775 8776 8777 8778 8779 8780 8781 8782 8783 8784 8785 8786 8787 8788 8789 8790 8791 8792 8793 8794 8795 8796 8797 8798 8799 8800 8801 8802 8803 8804 8805 8806 8807 8808 8809 8810 8811 8812 8813 8814 8815 8816 8817 8818 8819 8820 8821 8822 8823 8824 8825 8826 8827 8828 8829 8830 8831 8832 8833 8834 8835 8836 8837 8838 8839 8840 8841 8842 8843 8844 8845 8846 8847 8848 8849 8850 8851 8852 8853 8854 8855 8856 8857 8858 8859 8860 8861 8862 8863 8864 8865 8866 8867 8868 8869 8870 8871 8872 8873 8874 8875 8876 8877 8878 8879 8880 8881 8882 8883 8884 8885 8886 8887 8888 8889 8890 8891 8892 8893 8894 8895 8896 8897 8898 8899 8900 8901 8902 8903 8904 8905 8906 8907 8908 8909 8910 8911 8912 8913 8914 8915 8916 8917 8918 8919 8920 8921 8922 8923 8924 8925 8926 8927 8928 8929 8930 8931 8932 8933 8934 8935 8936 8937 8938 8939 8940 8941 8942 8943 8944 8945 8946 8947 8948 8949 8950 8951 8952 8953 8954 8955 8956 8957 8958 8959 8960 8961 8962 8963 8964 8965 8966 8967 8968 8969 8970 8971 8972 8973 8974 8975 8976 8977 8978 8979 8980 8981 8982 8983 8984 8985 8986 8987 8988 8989 8990 8991 8992 8993 8994 8995 8996 8997 8998 8999 9000 9001 9002 9003 9004 9005 9006 9007 9008 9009 9010 9011 9012 9013 9014 9015 9016 9017 9018 9019 9020 9021 9022 9023 9024 9025 9026 9027 9028 9029 9030 9031 9032 9033 9034 9035 9036 9037 9038 9039 9040 9041 9042 9043 9044 9045 9046 9047 9048 9049 9050 9051 9052 9053 9054 9055 9056 9057 9058 9059 9060 9061 9062 9063 9064 9065 9066 9067 9068 9069 9070 9071 9072 9073 9074 9075 9076 9077 9078 9079 9080 9081 9082 9083 9084 9085 9086 9087 9088 9089 9090 9091 9092 9093 9094 9095 9096 9097 9098 9099 9100 9101 9102 9103 9104 9105 9106 9107 9108 9109 9110 9111 9112 9113 9114 9115 9116 9117 9118 9119 9120 9121 9122 9123 9124 9125 9126 9127 9128 9129 9130 9131 9132 9133 9134 9135 9136 9137 9138 9139 9140 9141 9142 9143 9144 9145 9146 9147 9148 9149 9150 9151 9152 9153 9154 9155 9156 9157 9158 9159 9160 9161 9162 9163 9164 9165 9166 9167 9168 9169 9170 9171 9172 9173 9174 9175 9176 9177 9178 9179 9180 9181 9182 9183 9184 9185 9186 9187 9188 9189 9190 9191 9192 9193 9194 9195 9196 9197 9198 9199 9200 9201 9202 9203 9204 9205 9206 9207 9208 9209 9210 9211 9212 9213 9214 9215 9216 9217 9218 9219 9220 9221 9222 9223 9224 9225 9226 9227 9228 9229 9230 9231 9232 9233 9234 9235 9236 9237 9238 9239 9240 9241 9242 9243 9244 9245 9246 9247 9248 9249 9250 9251 9252 9253 9254 9255 9256 9257 9258 9259 9260 9261 9262 9263 9264 9265 9266 9267 9268 9269 9270 9271 9272 9273 9274 9275 9276 9277 9278 9279 9280 9281 9282 9283 9284 9285 9286 9287 9288 9289 9290 9291 9292 9293 9294 9295 9296 9297 9298 9299 9300 9301 9302 9303 9304 9305 9306 9307 9308 9309 9310 9311 9312 9313 9314 9315 9316 9317 9318 9319 9320 9321 9322 9323 9324 9325 9326 9327 9328 9329 9330 9331 9332 9333 9334 9335 9336 9337 9338 9339 9340 9341 9342 9343 9344 9345 9346 9347 9348 9349 9350 9351 9352 9353 9354 9355 9356 9357 9358 9359 9360 9361 9362 9363 9364 9365 9366 9367 9368 9369 9370 9371 9372 9373 9374 9375 9376 9377 9378 9379 9380 9381 9382 9383 9384 9385 9386 9387 9388 9389 9390 9391 9392 9393 9394 9395 9396 9397 9398 9399 9400 9401 9402 9403 9404 9405 9406 9407 9408 9409 9410 9411 9412 9413 9414 9415 9416 9417 9418 9419 9420 9421 9422 9423 9424 9425 9426 9427 9428 9429 9430 9431 9432 9433 9434 9435 9436 9437 9438 9439 9440 9441 9442 9443 9444 9445 9446 9447 9448 9449 9450 9451 9452 9453 9454 9455 9456 9457 9458 9459 9460 9461 9462 9463 9464 9465 9466 9467 9468 9469 9470 9471 9472 9473 9474 9475 9476 9477 9478 9479 9480 9481 9482 9483 9484 9485 9486 9487 9488 9489 9490 9491 9492 9493 9494 9495 9496 9497 9498 9499 9500 9501 9502 9503 9504 9505 9506 9507 9508 9509 9510 9511 9512 9513 9514 9515 9516 9517 9518 9519 9520 9521 9522 9523 9524 9525 9526 9527 9528 9529 9530 9531 9532 9533 9534 9535 9536 9537 9538 9539 9540 9541 9542 9543 9544 9545 9546 9547 9548 9549 9550 9551 9552 9553 9554 9555 9556 9557 9558 9559 9560 9561 9562 9563 9564 9565 9566 9567 9568 9569 9570 9571 9572 9573 9574 9575 9576 9577 9578 9579 9580 9581 9582 9583 9584 9585 9586 9587 9588 9589 9590 9591 9592 9593 9594 9595 9596 9597 9598 9599 9600 9601 9602 9603 9604 9605 9606 9607 9608 9609 9610 9611 9612 9613 9614 9615 9616 9617 9618 9619 9620 9621 9622 9623 9624 9625 9626 9627 9628 9629 9630 9631 9632 9633 9634 9635 9636 9637 9638 9639 9640 9641 9642 9643 9644 9645 9646 9647 9648 9649 9650 9651 9652 9653 9654 9655 9656 9657 9658 9659 9660 9661 9662 9663 9664 9665 9666 9667 9668 9669 9670 9671 9672 9673 9674 9675 9676 9677 9678 9679 9680 9681 9682 9683 9684 9685 9686 9687 9688 9689 9690 9691 9692 9693 9694 9695 9696 9697 9698 9699 9700 9701 9702 9703 9704 9705 9706 9707 9708 9709 9710 9711 9712 9713 9714 9715 9716 9717 9718 9719 9720 9721 9722 9723 9724 9725 9726 9727 9728 9729 9730 9731 9732 9733 9734 9735 9736 9737 9738 9739 9740 9741 9742 9743 9744 9745 9746 9747 9748 9749 9750 9751 9752 9753 9754 9755 9756 9757 9758 9759 9760 9761 9762 9763 9764 9765 9766 9767 9768 9769 9770 9771 9772 9773 9774 9775 9776 9777 9778 9779 9780 9781 9782 9783 9784 9785 9786 9787 9788 9789 9790 9791 9792 9793 9794 9795 9796 9797 9798 9799 9800 9801 9802 9803 9804 9805 9806 9807 9808 9809 9810 9811 9812 9813 9814 9815 9816 9817 9818 9819 9820 9821 9822 9823 9824 9825 9826 9827 9828 9829 9830 9831 9832 9833 9834 9835 9836 9837 9838 9839 9840 9841 9842 9843 9844 9845 9846 9847 9848 9849 9850 9851 9852 9853 9854 9855 9856 9857 9858 9859 9860 9861 9862 9863 9864 9865 9866 9867 9868 9869 9870 9871 9872 9873 9874 9875 9876 9877 9878 9879 9880 9881 9882 9883 9884 9885 9886 9887 9888 9889 9890 9891 9892 9893 9894 9895 9896 9897 9898 9899 9900 9901 9902 9903 9904 9905 9906 9907 9908 9909 9910 9911 9912 9913 9914 9915 9916 9917 9918 9919 9920 9921 9922 9923 9924 9925 9926 9927 9928 9929 9930 9931 9932 9933 9934 9935 9936 9937 9938 9939 9940 9941 9942 9943 9944 9945 9946 9947 9948 9949 9950 9951 9952 9953 9954 9955 9956 9957 9958 9959 9960 9961 9962 9963 9964 9965 9966 9967 9968 9969 9970 9971 9972 9973 9974 9975 9976 9977 9978 9979 9980 9981 9982 9983 9984 9985 9986 9987 9988 9989 9990 9991 9992 9993 9994 9995 9996 9997 9998 9999 10000 10001 10002 10003 10004 10005 10006 10007 10008 10009 10010 10011 10012 10013 10014 10015 10016 10017 10018 10019 10020 10021 10022 10023 10024 10025 10026 10027 10028 10029 10030 10031 10032 10033 10034 10035 10036 10037 10038 10039 10040 10041 10042 10043 10044 10045 10046 10047 10048 10049 10050 10051 10052 10053 10054 10055 10056 10057 10058 10059 10060 10061 10062 10063 10064 10065 10066 10067 10068 10069 10070 10071 10072 10073 10074 10075 10076 10077 10078 10079 10080 10081 10082 10083 10084 10085 10086 10087 10088 10089 10090 10091 10092 10093 10094 10095 10096 10097 10098 10099 10100 10101 10102 10103 10104 10105 10106 10107 10108 10109 10110 10111 10112 10113 10114 10115 10116 10117 10118 10119 10120 10121 10122 10123 10124 10125 10126 10127 10128 10129 10130 10131 10132 10133 10134 10135 10136 10137 10138 10139 10140 10141 10142 10143 10144 10145 10146 10147 10148 10149 10150 10151 10152 10153 10154 10155 10156 10157 10158 10159 10160 10161 10162 10163 10164 10165 10166 10167 10168 10169 10170 10171 10172 10173 10174 10175 10176 10177 10178 10179 10180 10181 10182 10183 10184 10185 10186 10187 10188 10189 10190 10191 10192 10193 10194 10195 10196 10197 10198 10199 10200 10201 10202 10203 10204 10205 10206 10207 10208 10209 10210 10211 10212 10213 10214 10215 10216 10217 10218 10219 10220 10221 10222 10223 10224 10225 10226 10227 10228 10229 10230 10231 10232 10233 10234 10235 10236 10237 10238 10239 10240 10241 10242 10243 10244 10245 10246 10247 10248 10249 10250 10251 10252 10253 10254 10255 10256 10257 10258 10259 10260 10261 10262 10263 10264 10265 10266 10267 10268 10269 10270 10271 10272 10273 10274 10275 10276 10277 10278 10279 10280 10281 10282 10283 10284 10285 10286 10287 10288 10289 10290 10291 10292 10293 10294 10295 10296 10297 10298 10299 10300 10301 10302 10303 10304 10305 10306 10307 10308 10309 10310 10311 10312 10313 10314 10315 10316 10317 10318 10319 10320 10321 10322 10323 10324 10325 10326 10327 10328 10329 10330 10331 10332 10333 10334 10335 10336 10337 10338 10339 10340 10341 10342 10343 10344 10345 10346 10347 10348 10349 10350 10351 10352 10353 10354 10355 10356 10357 10358 10359 10360 10361 10362 10363 10364 10365 10366 10367 10368 10369 10370 10371 10372 10373 10374 10375 10376 10377 10378 10379 10380 10381 10382 10383 10384 10385 10386 10387 10388 10389 10390 10391 10392 10393 10394 10395 10396 10397 10398 10399 10400 10401 10402 10403 10404 10405 10406 10407 10408 10409 10410 10411 10412 10413 10414 10415 10416 10417 10418 10419 10420 10421 10422 10423 10424 10425 10426 10427 10428 10429 10430 10431 10432 10433 10434 10435 10436 10437 10438 10439 10440 10441 10442 10443 10444 10445 10446 10447 10448 10449 10450 10451 10452 10453 10454 10455 10456 10457 10458 10459 10460 10461 10462 10463 10464 10465 10466 10467 10468 10469 10470 10471 10472 10473 10474 10475 10476 10477 10478 10479 10480 10481 10482 10483 10484 10485 10486 10487 10488 10489 10490 10491 10492 10493 10494 10495 10496 10497 10498 10499 10500 10501 10502 10503 10504 10505 10506 10507 10508 10509 10510 10511 10512 10513 10514 10515 10516 10517 10518 10519 10520 10521 10522 10523 10524 10525 10526 10527 10528 10529 10530 10531 10532 10533 10534 10535 10536 10537 10538 10539 10540 10541 10542 10543 10544 10545 10546 10547 10548 10549 10550 10551 10552 10553 10554 10555 10556 10557 10558 10559 10560 10561 10562 10563 10564 10565 10566 10567 10568 10569 10570 10571 10572 10573 10574 10575 10576 10577 10578 10579 10580 10581 10582 10583 10584 10585 10586 10587 10588 10589 10590 10591 10592 10593 10594 10595 10596 10597 10598 10599 10600 10601 10602 10603 10604 10605 10606 10607 10608 10609 10610 10611 10612 10613 10614 10615 10616 10617 10618 10619 10620 10621 10622 10623 10624 10625 10626 10627 10628 10629 10630 10631 10632 10633 10634 10635 10636 10637 10638 10639 10640 10641 10642 10643 10644 10645 10646 10647 10648 10649 10650 10651 10652 10653 10654 10655 10656 10657 10658 10659 10660 10661 10662 10663 10664 10665 10666 10667 10668 10669 10670 10671 10672 10673 10674 10675 10676 10677 10678 10679 10680 10681 10682 10683 10684 10685 10686 10687 10688 10689 10690 10691 10692 10693 10694 10695 10696 10697 10698 10699 10700 10701 10702 10703 10704 10705 10706 10707 10708 10709 10710 10711 10712 10713 10714 10715 10716 10717 10718 10719 10720 10721 10722 10723 10724 10725 10726 10727 10728 10729 10730 10731 10732 10733 10734 10735 10736 10737 10738 10739 10740 10741 10742 10743 10744 10745 10746 10747 10748 10749 10750 10751 10752 10753 10754 10755 10756 10757 10758 10759 10760 10761 10762 10763 10764 10765 10766 10767 10768 10769 10770 10771 10772 10773 10774 10775 10776 10777 10778 10779 10780 10781 10782 10783 10784 10785 10786 10787 10788 10789 10790 10791 10792 10793 10794 10795 10796 10797 10798 10799 10800 10801 10802 10803 10804 10805 10806 10807 10808 10809 10810 10811 10812 10813 10814 10815 10816 10817 10818 10819 10820 10821 10822 10823 10824 10825 10826 10827 10828 10829 10830 10831 10832 10833 10834 10835 10836 10837 10838 10839 10840 10841 10842 10843 10844 10845 10846 10847 10848 10849 10850 10851 10852 10853 10854 10855 10856 10857 10858 10859 10860 10861 10862 10863 10864 10865 10866 10867 10868 10869 10870 10871 10872 10873 10874 10875 10876 10877 10878 10879 10880 10881 10882 10883 10884 10885 10886 10887 10888 10889 10890 10891 10892 10893 10894 10895 10896 10897 10898 10899 10900 10901 10902 10903 10904 10905 10906 10907 10908 10909 10910 10911 10912 10913 10914 10915 10916 10917 10918 10919 10920 10921 10922 10923 10924 10925 10926 10927 10928 10929 10930 10931 10932 10933 10934 10935 10936 10937 10938 10939 10940 10941 10942 10943 10944 10945 10946 10947 10948 10949 10950 10951 10952 10953 10954 10955 10956 10957 10958 10959 10960 10961 10962 10963 10964 10965 10966 10967 10968 10969 10970 10971 10972 10973 10974 10975 10976 10977 10978 10979 10980 10981 10982 10983 10984 10985 10986 10987 10988 10989 10990 10991 10992 10993 10994 10995 10996 10997 10998 10999 11000 11001 11002 11003 11004 11005 11006 11007 11008 11009 11010 11011 11012 11013 11014 11015 11016 11017 11018 11019 11020 11021 11022 11023 11024 11025 11026 11027 11028 11029 11030 11031 11032 11033 11034 11035 11036 11037 11038 11039 11040 11041 11042 11043 11044 11045 11046 11047 11048 11049 11050 11051 11052 11053 11054 11055 11056 11057 11058 11059 11060 11061 11062 11063 11064 11065 11066 11067 11068 11069 11070 11071 11072 11073 11074 11075 11076 11077 11078 11079 11080 11081 11082 11083 11084 11085 11086 11087 11088 11089 11090 11091 11092 11093 11094 11095 11096 11097 11098 11099 11100 11101 11102 11103 11104 11105 11106 11107 11108 11109 11110 11111 11112 11113 11114 11115 11116 11117 11118 11119 11120 11121 11122 11123 11124 11125 11126 11127 11128 11129 11130 11131 11132 11133 11134 11135 11136 11137 11138 11139 11140 11141 11142 11143 11144 11145 11146 11147 11148 11149 11150 11151 11152 11153 11154 11155 11156 11157 11158 11159 11160 11161 11162 11163 11164 11165 11166 11167 11168 11169 11170 11171 11172 11173 11174 11175 11176 11177 11178 11179 11180 11181 11182 11183 11184 11185 11186 11187 11188 11189 11190 11191 11192 11193 11194 11195 11196 11197 11198 11199 11200 11201 11202 11203 11204 11205 11206 11207 11208 11209 11210 11211 11212 11213 11214 11215 11216 11217 11218 11219 11220 11221 11222 11223 11224 11225 11226 11227 11228 11229 11230 11231 11232 11233 11234 11235 11236 11237 11238 11239 11240 11241 11242 11243 11244 11245 11246 11247 11248 11249 11250 11251 11252 11253 11254 11255 11256 11257 11258 11259 11260 11261 11262 11263 11264 11265 11266 11267 11268 11269 11270 11271 11272 11273 11274 11275 11276 11277 11278 11279 11280 11281 11282 11283 11284 11285 11286 11287 11288 11289 11290 11291 11292 11293 11294 11295 11296 11297 11298 11299 11300 11301 11302 11303 11304 11305 11306 11307 11308 11309 11310 11311 11312 11313 11314 11315 11316 11317 11318 11319 11320 11321 11322 11323 11324 11325 11326 11327 11328 11329 11330 11331 11332 11333 11334 11335 11336 11337 11338 11339 11340 11341 11342 11343 11344 11345 11346 11347 11348 11349 11350 11351 11352 11353 11354 11355 11356 11357 11358 11359 11360 11361 11362 11363 11364 11365 11366 11367 11368 11369 11370 11371 11372 11373 11374 11375 11376 11377 11378 11379 11380 11381 11382 11383 11384 11385 11386 11387 11388 11389 11390 11391 11392 11393 11394 11395 11396 11397 11398 11399 11400 11401 11402 11403 11404 11405 11406 11407 11408 11409 11410 11411 11412 11413 11414 11415 11416 11417 11418 11419 11420 11421 11422 11423 11424 11425 11426 11427 11428 11429 11430 11431 11432 11433 11434 11435 11436 11437 11438 11439 11440 11441 11442 11443 11444 11445 11446 11447 11448 11449 11450 11451 11452 11453 11454 11455 11456 11457 11458 11459 11460 11461 11462 11463 11464 11465 11466 11467 11468 11469 11470 11471 11472 11473 11474 11475 11476 11477 11478 11479 11480 11481 11482 11483 11484 11485 11486 11487 11488 11489 11490 11491 11492 11493 11494 11495 11496 11497 11498 11499 11500 11501 11502 11503 11504 11505 11506 11507 11508 11509 11510 11511 11512 11513 11514 11515 11516 11517 11518 11519 11520 11521 11522 11523 11524 11525 11526 11527 11528 11529 11530 11531 11532 11533 11534 11535 11536 11537 11538 11539 11540 11541 11542 11543 11544 11545 11546 11547 11548 11549 11550 11551 11552 11553 11554 11555 11556 11557 11558 11559 11560 11561 11562 11563 11564 11565 11566 11567 11568 11569 11570 11571 11572 11573 11574 11575 11576 11577 11578 11579 11580 11581 11582 11583 11584 11585 11586 11587 11588 11589 11590 11591 11592 11593 11594 11595 11596 11597 11598 11599 11600 11601 11602 11603 11604 11605 11606 11607 11608 11609 11610 11611 11612 11613 11614 11615 11616 11617 11618 11619 11620 11621 11622 11623 11624 11625 11626 11627 11628 11629 11630 11631 11632 11633 11634 11635 11636 11637 11638 11639 11640 11641 11642 11643 11644 11645 11646 11647 11648 11649 11650 11651 11652 11653 11654 11655 11656 11657 11658 11659 11660 11661 11662 11663 11664 11665 11666 11667 11668 11669 11670 11671 11672 11673 11674 11675 11676 11677 11678 11679 11680 11681 11682 11683 11684 11685 11686 11687 11688 11689 11690 11691 11692 11693 11694 11695 11696 11697 11698 11699 11700 11701 11702 11703 11704 11705 11706 11707 11708 11709 11710 11711 11712 11713 11714 11715 11716 11717 11718 11719 11720 11721 11722 11723 11724 11725 11726 11727 11728 11729 11730 11731 11732 11733 11734 11735 11736 11737 11738 11739 11740 11741 11742 11743 11744 11745 11746 11747 11748 11749 11750 11751 11752 11753 11754 11755 11756 11757 11758 11759 11760 11761 11762 11763 11764 11765 11766 11767 11768 11769 11770 11771 11772 11773 11774 11775 11776 11777 11778 11779 11780 11781 11782 11783 11784 11785 11786 11787 11788 11789 11790 11791 11792 11793 11794 11795 11796 11797 11798 11799 11800 11801 11802 11803 11804 11805 11806 11807 11808 11809 11810 11811 11812 11813 11814 11815 11816 11817 11818 11819 11820 11821 11822 11823 11824 11825 11826 11827 11828 11829 11830 11831 11832 11833 11834 11835 11836 11837 11838 11839 11840 11841 11842 11843 11844 11845 11846 11847 11848 11849 11850 11851 11852 11853 11854 11855 11856 11857 11858 11859 11860 11861 11862 11863 11864 11865 11866 11867 11868 11869 11870 11871 11872 11873 11874 11875 11876 11877 11878 11879 11880 11881 11882 11883 11884 11885 11886 11887 11888 11889 11890 11891 11892 11893 11894 11895 11896 11897 11898 11899 11900 11901 11902 11903 11904 11905 11906 11907 11908 11909 11910 11911 11912 11913 11914 11915 11916 11917 11918 11919 11920 11921 11922 11923 11924 11925 11926 11927 11928 11929 11930 11931 11932 11933 11934 11935 11936 11937 11938 11939 11940 11941 11942 11943 11944 11945 11946 11947 11948 11949 11950 11951 11952 11953 11954 11955 11956 11957 11958 11959 11960 11961 11962 11963 11964 11965 11966 11967 11968 11969 11970 11971 11972 11973 11974 11975 11976 11977 11978 11979 11980 11981 11982 11983 11984 11985 11986 11987 11988 11989 11990 11991 11992 11993 11994 11995 11996 11997 11998 11999 12000 12001 12002 12003 12004 12005 12006 12007 12008 12009 12010 12011 12012 12013 12014 12015 12016 12017 12018 12019 12020 12021 12022 12023 12024 12025 12026 12027 12028 12029 12030 12031 12032 12033 12034 12035 12036 12037 12038 12039 12040 12041 12042 12043 12044 12045 12046 12047 12048 12049 12050 12051 12052 12053 12054 12055 12056 12057 12058 12059 12060 12061 12062 12063 12064 12065 12066 12067 12068 12069 12070 12071 12072 12073 12074 12075 12076 12077 12078 12079 12080 12081 12082 12083 12084 12085 12086 12087 12088 12089 12090 12091 12092 12093 12094 12095 12096 12097 12098 12099 12100 12101 12102 12103 12104 12105 12106 12107 12108 12109 12110 12111 12112 12113 12114 12115 12116 12117 12118 12119 12120 12121 12122 12123 12124 12125 12126 12127 12128 12129 12130 12131 12132 12133 12134 12135 12136 12137 12138 12139 12140 12141 12142 12143 12144 12145 12146 12147 12148 12149 12150 12151 12152 12153 12154 12155 12156 12157 12158 12159 12160 12161 12162 12163 12164 12165 12166 12167 12168 12169 12170 12171 12172 12173 12174 12175 12176 12177 12178 12179 12180 12181 12182 12183 12184 12185 12186 12187 12188 12189 12190 12191 12192 12193 12194 12195 12196 12197 12198 12199 12200 12201 12202 12203 12204 12205 12206 12207 12208 12209 12210 12211 12212 12213 12214 12215 12216 12217 12218 12219 12220 12221 12222 12223 12224 12225 12226 12227 12228 12229 12230 12231 12232 12233 12234 12235 12236 12237 12238 12239 12240 12241 12242 12243 12244 12245 12246 12247 12248 12249 12250 12251 12252 12253 12254 12255 12256 12257 12258 12259 12260 12261 12262 12263 12264 12265 12266 12267 12268 12269 12270 12271 12272 12273 12274 12275 12276 12277 12278 12279 12280 12281 12282 12283 12284 12285 12286 12287 12288 12289 12290 12291 12292 12293 12294 12295 12296 12297 12298 12299 12300 12301 12302 12303 12304 12305 12306 12307 12308 12309 12310 12311 12312 12313 12314 12315 12316 12317 12318 12319 12320 12321 12322 12323 12324 12325 12326 12327 12328 12329 12330 12331 12332 12333 12334 12335 12336 12337 12338 12339 12340 12341 12342 12343 12344 12345 12346 12347 12348 12349 12350 12351 12352 12353 12354 12355 12356 12357 12358 12359 12360 12361 12362 12363 12364 12365 12366 12367 12368 12369 12370 12371 12372 12373 12374 12375 12376 12377 12378 12379 12380 12381 12382 12383 12384 12385 12386 12387 12388 12389 12390 12391 12392 12393 12394 12395 12396 12397 12398 12399 12400 12401 12402 12403 12404 12405 12406 12407 12408 12409 12410 12411 12412 12413 12414 12415 12416 12417 12418 12419 12420 12421 12422 12423 12424 12425 12426 12427 12428 12429 12430 12431 12432 12433 12434 12435 12436 12437 12438 12439 12440 12441 12442 12443 12444 12445 12446 12447 12448 12449 12450 12451 12452 12453 12454 12455 12456 12457 12458 12459 12460 12461 12462 12463 12464 12465 12466 12467 12468 12469 12470 12471 12472 12473 12474 12475 12476 12477 12478 12479 12480 12481 12482 12483 12484 12485 12486 12487 12488 12489 12490 12491 12492 12493 12494 12495 12496 12497 12498 12499 12500 12501 12502 12503 12504 12505 12506 12507 12508 12509 12510 12511 12512 12513 12514 12515 12516 12517 12518 12519 12520 12521 12522 12523 12524 12525 12526 12527 12528 12529 12530 12531 12532 12533 12534 12535 12536 12537 12538 12539 12540 12541 12542 12543 12544 12545 12546 12547 12548 12549 12550 12551 12552 12553 12554 12555 12556 12557 12558 12559 12560 12561 12562 12563 12564 12565 12566 12567 12568 12569 12570 12571 12572 12573 12574 12575 12576 12577 12578 12579 12580 12581 12582 12583 12584 12585 12586 12587 12588 12589 12590 12591 12592 12593 12594 12595 12596 12597 12598 12599 12600 12601 12602 12603 12604 12605 12606 12607 12608 12609 12610 12611 12612 12613 12614 12615 12616 12617 12618 12619 12620 12621 12622 12623 12624 12625 12626 12627 12628 12629 12630 12631 12632 12633 12634 12635 12636 12637 12638 12639 12640 12641 12642 12643 12644 12645 12646 12647 12648 12649 12650 12651 12652 12653 12654 12655 12656 12657 12658 12659 12660 12661 12662 12663 12664 12665 12666 12667 12668 12669 12670 12671 12672 12673 12674 12675 12676 12677 12678 12679 12680 12681 12682 12683 12684 12685 12686 12687 12688 12689 12690 12691 12692 12693 12694 12695 12696 12697 12698 12699 12700 12701 12702 12703 12704 12705 12706 12707 12708 12709 12710 12711 12712 12713 12714 12715 12716 12717 12718 12719 12720 12721 12722 12723 12724 12725 12726 12727 12728 12729 12730 12731 12732 12733 12734 12735 12736 12737 12738 12739 12740 12741 12742 12743 12744 12745 12746 12747 12748 12749 12750 12751 12752 12753 12754 12755 12756 12757 12758 12759 12760 12761 12762 12763 12764 12765 12766 12767 12768 12769 12770 12771 12772 12773 12774 12775 12776 12777 12778 12779 12780 12781 12782 12783 12784 12785 12786 12787 12788 12789 12790 12791 12792 12793 12794 12795 12796 12797 12798 12799 12800 12801 12802 12803 12804 12805 12806 12807 12808 12809 12810 12811 12812 12813 12814 12815 12816 12817 12818 12819 12820 12821 12822 12823 12824 12825 12826 12827 12828 12829 12830 12831 12832 12833 12834 12835 12836 12837 12838 12839 12840 12841 12842 12843 12844 12845 12846 12847 12848 12849 12850 12851 12852 12853 12854 12855 12856 12857 12858 12859 12860 12861 12862 12863 12864 12865 12866 12867 12868 12869 12870 12871 12872 12873 12874 12875 12876 12877 12878 12879 12880 12881 12882 12883 12884 12885 12886 12887 12888 12889 12890 12891 12892 12893 12894 12895 12896 12897 12898 12899 12900 12901 12902 12903 12904 12905 12906 12907 12908 12909 12910 12911 12912 12913 12914 12915 12916 12917 12918 12919 12920 12921 12922 12923 12924 12925 12926 12927 12928 12929 12930 12931 12932 12933 12934 12935 12936 12937 12938 12939 12940 12941 12942 12943 12944 12945 12946 12947 12948 12949 12950 12951 12952 12953 12954 12955 12956 12957 12958 12959 12960 12961 12962 12963 12964 12965 12966 12967 12968 12969 12970 12971 12972 12973 12974 12975 12976 12977 12978 12979 12980 12981 12982 12983 12984 12985 12986 12987 12988 12989 12990 12991 12992 12993 12994 12995 12996 12997 12998 12999 13000 13001 13002 13003 13004 13005 13006 13007 13008 13009 13010 13011 13012 13013 13014 13015 13016 13017 13018 13019 13020 13021 13022 13023 13024 13025 13026 13027 13028 13029 13030 13031 13032 13033 13034 13035 13036 13037 13038 13039 13040 13041 13042 13043 13044 13045 13046 13047 13048 13049 13050 13051 13052 13053 13054 13055 13056 13057 13058 13059 13060 13061 13062 13063 13064 13065 13066 13067 13068 13069 13070 13071 13072 13073 13074 13075 13076 13077 13078 13079 13080 13081 13082 13083 13084 13085 13086 13087 13088 13089 13090 13091 13092 13093 13094 13095 13096 13097 13098 13099 13100 13101 13102 13103 13104 13105 13106 13107 13108 13109 13110 13111 13112 13113 13114 13115 13116 13117 13118 13119 13120 13121 13122 13123 13124 13125 13126 13127 13128 13129 13130 13131 13132 13133 13134 13135 13136 13137 13138 13139 13140 13141 13142 13143 13144 13145 13146 13147 13148 13149 13150 13151 13152 13153 13154 13155 13156 13157 13158 13159 13160 13161 13162 13163 13164 13165 13166 13167 13168 13169 13170 13171 13172 13173 13174 13175 13176 13177 13178 13179 13180 13181 13182 13183 13184 13185 13186 13187 13188 13189 13190 13191 13192 13193 13194 13195 13196 13197 13198 13199 13200 13201 13202 13203 13204 13205 13206 13207 13208 13209 13210 13211 13212 13213 13214 13215 13216 13217 13218 13219 13220 13221 13222 13223 13224 13225 13226 13227 13228 13229 13230 13231 13232 13233 13234 13235 13236 13237 13238 13239 13240 13241 13242 13243 13244 13245 13246 13247 13248 13249 13250 13251 13252 13253 13254 13255 13256 13257 13258 13259 13260 13261 13262 13263 13264 13265 13266 13267 13268 13269 13270 13271 13272 13273 13274 13275 13276 13277 13278 13279 13280 13281 13282 13283 13284 13285 13286 13287 13288 13289 13290 13291 13292 13293 13294 13295 13296 13297 13298 13299 13300 13301 13302 13303 13304 13305 13306 13307 13308 13309 13310 13311 13312 13313 13314 13315 13316 13317 13318 13319 13320 13321 13322 13323 13324 13325 13326 13327 13328 13329 13330 13331 13332 13333 13334 13335 13336 13337 13338 13339 13340 13341 13342 13343 13344 13345 13346 13347 13348 13349 13350 13351 13352 13353 13354 13355 13356 13357 13358 13359 13360 13361 13362 13363 13364 13365 13366 13367 13368 13369 13370 13371 13372 13373 13374 13375 13376 13377 13378 13379 13380 13381 13382 13383 13384 13385 13386 13387 13388 13389 13390 13391 13392 13393 13394 13395 13396 13397 13398 13399 13400 13401 13402 13403 13404 13405 13406 13407 13408 13409 13410 13411 13412 13413 13414 13415 13416 13417 13418 13419 13420 13421 13422 13423 13424 13425 13426 13427 13428 13429 13430 13431 13432 13433 13434 13435 13436 13437 13438 13439 13440 13441 13442 13443 13444 13445 13446 13447 13448 13449 13450 13451 13452 13453 13454 13455 13456 13457 13458 13459 13460 13461 13462 13463 13464 13465 13466 13467 13468 13469 13470 13471 13472 13473 13474 13475 13476 13477 13478 13479 13480 13481 13482 13483 13484 13485 13486 13487 13488 13489 13490 13491 13492 13493 13494 13495 13496 13497 13498 13499 13500 13501 13502 13503 13504 13505 13506 13507 13508 13509 13510 13511 13512 13513 13514 13515 13516 13517 13518 13519 13520 13521 13522 13523 13524 13525 13526 13527 13528 13529 13530 13531 13532 13533 13534 13535 13536 13537 13538 13539 13540 13541 13542 13543 13544 13545 13546 13547 13548 13549 13550 13551 13552 13553 13554 13555 13556 13557 13558 13559 13560 13561 13562 13563 13564 13565 13566 13567 13568 13569 13570 13571 13572 13573 13574 13575 13576 13577 13578 13579 13580 13581 13582 13583 13584 13585 13586 13587 13588 13589 13590 13591 13592 13593 13594 13595 13596 13597 13598 13599 13600 13601 13602 13603 13604 13605 13606 13607 13608 13609 13610 13611 13612 13613 13614 13615 13616 13617 13618 13619 13620 13621 13622 13623 13624 13625 13626 13627 13628 13629 13630 13631 13632 13633 13634 13635 13636 13637 13638 13639 13640 13641 13642 13643 13644 13645 13646 13647 13648 13649 13650 13651 13652 13653 13654 13655 13656 13657 13658 13659 13660 13661 13662 13663 13664 13665 13666 13667 13668 13669 13670 13671 13672 13673 13674 13675 13676 13677 13678 13679 13680 13681 13682 13683 13684 13685 13686 13687 13688 13689 13690 13691 13692 13693 13694 13695 13696 13697 13698 13699 13700 13701 13702 13703 13704 13705 13706 13707 13708 13709 13710 13711 13712 13713 13714 13715 13716 13717 13718 13719 13720 13721 13722 13723 13724 13725 13726 13727 13728 13729 13730 13731 13732 13733 13734 13735 13736 13737 13738 13739 13740 13741 13742 13743 13744 13745 13746 13747 13748 13749 13750 13751 13752 13753 13754 13755 13756 13757 13758 13759 13760 13761 13762 13763 13764 13765 13766 13767 13768 13769 13770 13771 13772 13773 13774 13775 13776 13777 13778 13779 13780 13781 13782 13783 13784 13785 13786 13787 13788 13789 13790 13791 13792 13793 13794 13795 13796 13797 13798 13799 13800 13801 13802 13803 13804 13805 13806 13807 13808 13809 13810 13811 13812 13813 13814 13815 13816 13817 13818 13819 13820 13821 13822 13823 13824 13825 13826 13827 13828 13829 13830 13831 13832 13833 13834 13835 13836 13837 13838 13839 13840 13841 13842 13843 13844 13845 13846 13847 13848 13849 13850 13851 13852 13853 13854 13855 13856 13857 13858 13859 13860 13861 13862 13863 13864 13865 13866 13867 13868 13869 13870 13871 13872 13873 13874 13875 13876 13877 13878 13879 13880 13881 13882 13883 13884 13885 13886 13887 13888 13889 13890 13891 13892 13893 13894 13895 13896 13897 13898 13899 13900 13901 13902 13903 13904 13905 13906 13907 13908 13909 13910 13911 13912 13913 13914 13915 13916 13917 13918 13919 13920 13921 13922 13923 13924 13925 13926 13927 13928 13929 13930 13931 13932 13933 13934 13935 13936 13937 13938 13939 13940 13941 13942 13943 13944 13945 13946 13947 13948 13949 13950 13951 13952 13953 13954 13955 13956 13957 13958 13959 13960 13961 13962 13963 13964 13965 13966 13967 13968 13969 13970 13971 13972 13973 13974 13975 13976 13977 13978 13979 13980 13981 13982 13983 13984 13985 13986 13987 13988 13989 13990 13991 13992 13993 13994 13995 13996 13997 13998 13999 14000 14001 14002 14003 14004 14005 14006 14007 14008 14009 14010 14011 14012 14013 14014 14015 14016 14017 14018 14019 14020 14021 14022 14023 14024 14025 14026 14027 14028 14029 14030 14031 14032 14033 14034 14035 14036 14037 14038 14039 14040 14041 14042 14043 14044 14045 14046 14047 14048 14049 14050 14051 14052 14053 14054 14055 14056 14057 14058 14059 14060 14061 14062 14063 14064 14065 14066 14067 14068 14069 14070 14071 14072 14073 14074 14075 14076 14077 14078 14079 14080 14081 14082 14083 14084 14085 14086 14087 14088 14089 14090 14091 14092 14093 14094 14095 14096 14097 14098 14099 14100 14101 14102 14103 14104 14105 14106 14107 14108 14109 14110 14111 14112 14113 14114 14115 14116 14117 14118 14119 14120 14121 14122 14123 14124 14125 14126 14127 14128 14129 14130 14131 14132 14133 14134 14135 14136 14137 14138 14139 14140 14141 14142 14143 14144 14145 14146 14147 14148 14149 14150 14151 14152 14153 14154 14155 14156 14157 14158 14159 14160 14161 14162 14163 14164 14165 14166 14167 14168 14169 14170 14171 14172 14173 14174 14175 14176 14177 14178 14179 14180 14181 14182 14183 14184 14185 14186 14187 14188 14189 14190 14191 14192 14193 14194 14195 14196 14197 14198 14199 14200 14201 14202 14203 14204 14205 14206 14207 14208 14209 14210 14211 14212 14213 14214 14215 14216 14217 14218 14219 14220 14221 14222 14223 14224 14225 14226 14227 14228 14229 14230 14231 14232 14233 14234 14235 14236 14237 14238 14239 14240 14241 14242 14243 14244 14245 14246 14247 14248 14249 14250 14251 14252 14253 14254 14255 14256 14257 14258 14259 14260 14261 14262 14263 14264 14265 14266 14267 14268 14269 14270 14271 14272 14273 14274 14275 14276 14277 14278 14279 14280 14281 14282 14283 14284 14285 14286 14287 14288 14289 14290 14291 14292 14293 14294 14295 14296 14297 14298 14299 14300 14301 14302 14303 14304 14305 14306 14307 14308 14309 14310 14311 14312 14313 14314 14315 14316 14317 14318 14319 14320 14321 14322 14323 14324 14325 14326 14327 14328 14329 14330 14331 14332 14333 14334 14335 14336 14337 14338 14339 14340 14341 14342 14343 14344 14345 14346 14347 14348 14349 14350 14351 14352 14353 14354 14355 14356 14357 14358 14359 14360 14361 14362 14363 14364 14365 14366 14367 14368 14369 14370 14371 14372 14373 14374 14375 14376 14377 14378 14379 14380 14381 14382 14383 14384 14385 14386 14387 14388 14389 14390 14391 14392 14393 14394 14395 14396 14397 14398 14399 14400 14401 14402 14403 14404 14405 14406 14407 14408 14409 14410 14411 14412 14413 14414 14415 14416 14417 14418 14419 14420 14421 14422 14423 14424 14425 14426 14427 14428 14429 14430 14431 14432 14433 14434 14435 14436 14437 14438 14439 14440 14441 14442 14443 14444 14445 14446 14447 14448 14449 14450 14451 14452 14453 14454 14455 14456 14457 14458 14459 14460 14461 14462 14463 14464 14465 14466 14467 14468 14469 14470 14471 14472 14473 14474 14475 14476 14477 14478 14479 14480 14481 14482 14483 14484 14485 14486 14487 14488 14489 14490 14491 14492 14493 14494 14495 14496 14497 14498 14499 14500 14501 14502 14503 14504 14505 14506 14507 14508 14509 14510 14511 14512 14513 14514 14515 14516 14517 14518 14519 14520 14521 14522 14523 14524 14525 14526 14527 14528 14529 14530 14531 14532 14533 14534 14535 14536 14537 14538 14539 14540 14541 14542 14543 14544 14545 14546 14547 14548 14549 14550 14551 14552 14553 14554 14555 14556 14557 14558 14559 14560 14561 14562 14563 14564 14565 14566 14567 14568 14569 14570 14571 14572 14573 14574 14575 14576 14577 14578 14579 14580 14581 14582 14583 14584 14585 14586 14587 14588 14589 14590 14591 14592 14593 14594 14595 14596 14597 14598 14599 14600 14601 14602 14603 14604 14605 14606 14607 14608 14609 14610 14611 14612 14613 14614 14615 14616 14617 14618 14619 14620 14621 14622 14623 14624 14625 14626 14627 14628 14629 14630 14631 14632 14633 14634 14635 14636 14637 14638 14639 14640 14641 14642 14643 14644 14645 14646 14647 14648 14649 14650 14651 14652 14653 14654 14655 14656 14657 14658 14659 14660 14661 14662 14663 14664 14665 14666 14667 14668 14669 14670 14671 14672 14673 14674 14675 14676 14677 14678 14679 14680 14681 14682 14683 14684 14685 14686 14687 14688 14689 14690 14691 14692 14693 14694 14695 14696 14697 14698 14699 14700 14701 14702 14703 14704 14705 14706 14707 14708 14709 14710 14711 14712 14713 14714 14715 14716 14717 14718 14719 14720 14721 14722 14723 14724 14725 14726 14727 14728 14729 14730 14731 14732 14733 14734 14735 14736 14737 14738 14739 14740 14741 14742 14743 14744 14745 14746 14747 14748 14749 14750 14751 14752 14753 14754 14755 14756 14757 14758 14759 14760 14761 14762 14763 14764 14765 14766 14767 14768 14769 14770 14771 14772 14773 14774 14775 14776 14777 14778 14779 14780 14781 14782 14783 14784 14785 14786 14787 14788 14789 14790 14791 14792 14793 14794 14795 14796 14797 14798 14799 14800 14801 14802 14803 14804 14805 14806 14807 14808 14809 14810 14811 14812 14813 14814 14815 14816 14817 14818 14819 14820 14821 14822 14823 14824 14825 14826 14827 14828 14829 14830 14831 14832 14833 14834 14835 14836 14837 14838 14839 14840 14841 14842 14843 14844 14845 14846 14847 14848 14849 14850 14851 14852 14853 14854 14855 14856 14857 14858 14859 14860 14861 14862 14863 14864 14865 14866 14867 14868 14869 14870 14871 14872 14873 14874 14875 14876 14877 14878 14879 14880 14881 14882 14883 14884 14885 14886 14887 14888 14889 14890 14891 14892 14893 14894 14895 14896 14897 14898 14899 14900 14901 14902 14903 14904 14905 14906 14907 14908 14909 14910 14911 14912 14913 14914 14915 14916 14917 14918 14919 14920 14921 14922 14923 14924 14925 14926 14927 14928 14929 14930 14931 14932 14933 14934 14935 14936 14937 14938 14939 14940 14941 14942 14943 14944 14945 14946 14947 14948 14949 14950 14951 14952 14953 14954 14955 14956 14957 14958 14959 14960 14961 14962 14963 14964 14965 14966 14967 14968 14969 14970 14971 14972 14973 14974 14975 14976 14977 14978 14979 14980 14981 14982 14983 14984 14985 14986 14987 14988 14989 14990 14991 14992 14993 14994 14995 14996 14997 14998 14999 15000 15001 15002 15003 15004 15005 15006 15007 15008 15009 15010 15011 15012 15013 15014 15015 15016 15017 15018 15019 15020 15021 15022 15023 15024 15025 15026 15027 15028 15029 15030 15031 15032 15033 15034 15035 15036 15037 15038 15039 15040 15041 15042 15043 15044 15045 15046 15047 15048 15049 15050 15051 15052 15053 15054 15055 15056 15057 15058 15059 15060 15061 15062 15063 15064 15065 15066 15067 15068 15069 15070 15071 15072 15073 15074 15075 15076 15077 15078 15079 15080 15081 15082 15083 15084 15085 15086 15087 15088 15089 15090 15091 15092 15093 15094 15095 15096 15097 15098 15099 15100 15101 15102 15103 15104 15105 15106 15107 15108 15109 15110 15111 15112 15113 15114 15115 15116 15117 15118 15119 15120 15121 15122 15123 15124 15125 15126 15127 15128 15129 15130 15131 15132 15133 15134 15135 15136 15137 15138 15139 15140 15141 15142 15143 15144 15145 15146 15147 15148 15149 15150 15151 15152 15153 15154 15155 15156 15157 15158 15159 15160 15161 15162 15163 15164 15165 15166 15167 15168 15169 15170 15171 15172 15173 15174 15175 15176 15177 15178 15179 15180 15181 15182 15183 15184 15185 15186 15187 15188 15189 15190 15191 15192 15193 15194 15195 15196 15197 15198 15199 15200 15201 15202 15203 15204 15205 15206 15207 15208 15209 15210 15211 15212 15213 15214 15215 15216 15217 15218 15219 15220 15221 15222 15223 15224 15225 15226 15227 15228 15229 15230 15231 15232 15233 15234 15235 15236 15237 15238 15239 15240 15241 15242 15243 15244 15245 15246 15247 15248 15249 15250 15251 15252 15253 15254 15255 15256 15257 15258 15259 15260 15261 15262 15263 15264 15265 15266 15267 15268 15269 15270 15271 15272 15273 15274 15275 15276 15277 15278 15279 15280 15281 15282 15283 15284 15285 15286 15287 15288 15289 15290 15291 15292 15293 15294 15295 15296 15297 15298 15299 15300 15301 15302 15303 15304 15305 15306 15307 15308 15309 15310 15311 15312 15313 15314 15315 15316 15317 15318 15319 15320 15321 15322 15323 15324 15325 15326 15327 15328 15329 15330 15331 15332 15333 15334 15335 15336 15337 15338 15339 15340 15341 15342 15343 15344 15345 15346 15347 15348 15349 15350 15351 15352 15353 15354 15355 15356 15357 15358 15359 15360 15361 15362 15363 15364 15365 15366 15367 15368 15369 15370 15371 15372 15373 15374 15375 15376 15377 15378 15379 15380 15381 15382 15383 15384 15385 15386 15387 15388 15389 15390 15391 15392 15393 15394 15395 15396 15397 15398 15399 15400 15401 15402 15403 15404 15405 15406 15407 15408 15409 15410 15411 15412 15413 15414 15415 15416 15417 15418 15419 15420 15421 15422 15423 15424 15425 15426 15427 15428 15429 15430 15431 15432 15433 15434 15435 15436 15437 15438 15439 15440 15441 15442 15443 15444 15445 15446 15447 15448 15449 15450 15451 15452 15453 15454 15455 15456 15457 15458 15459 15460 15461 15462 15463 15464 15465 15466 15467 15468 15469 15470 15471 15472 15473 15474 15475 15476 15477 15478 15479 15480 15481 15482 15483 15484 15485 15486 15487 15488 15489 15490 15491 15492 15493 15494 15495 15496 15497 15498 15499 15500 15501 15502 15503 15504 15505 15506 15507 15508 15509 15510 15511 15512 15513 15514 15515 15516 15517 15518 15519 15520 15521 15522 15523 15524 15525 15526 15527 15528 15529 15530 15531 15532 15533 15534 15535 15536 15537 15538 15539 15540 15541 15542 15543 15544 15545 15546 15547 15548 15549 15550 15551 15552 15553 15554 15555 15556 15557 15558 15559 15560 15561 15562 15563 15564 15565 15566 15567 15568 15569 15570 15571 15572 15573 15574 15575 15576 15577 15578 15579 15580 15581 15582 15583 15584 15585 15586 15587 15588 15589 15590 15591 15592 15593 15594 15595 15596 15597 15598 15599 15600 15601 15602 15603 15604 15605 15606 15607 15608 15609 15610 15611 15612 15613 15614 15615 15616 15617 15618 15619 15620 15621 15622 15623 15624 15625 15626 15627 15628 15629 15630 15631 15632 15633 15634 15635 15636 15637 15638 15639 15640 15641 15642 15643 15644 15645 15646 15647 15648 15649 15650 15651 15652 15653 15654 15655 15656 15657 15658 15659 15660 15661 15662 15663 15664 15665 15666 15667 15668 15669 15670 15671 15672 15673 15674 15675 15676 15677 15678 15679 15680 15681 15682 15683 15684 15685 15686 15687 15688 15689 15690 15691 15692 15693 15694 15695 15696 15697 15698 15699 15700 15701 15702 15703 15704 15705 15706 15707 15708 15709 15710 15711 15712 15713 15714 15715 15716 15717 15718 15719 15720 15721 15722 15723 15724 15725 15726 15727 15728 15729 15730 15731 15732 15733 15734 15735 15736 15737 15738 15739 15740 15741 15742 15743 15744 15745 15746 15747 15748 15749 15750 15751 15752 15753 15754 15755 15756 15757 15758 15759 15760 15761 15762 15763 15764 15765 15766 15767 15768 15769 15770 15771 15772 15773 15774 15775 15776 15777 15778 15779 15780 15781 15782 15783 15784 15785 15786 15787 15788 15789 15790 15791 15792 15793 15794 15795 15796 15797 15798 15799 15800 15801 15802 15803 15804 15805 15806 15807 15808 15809 15810 15811 15812 15813 15814 15815 15816 15817 15818 15819 15820 15821 15822 15823 15824 15825 15826 15827 15828 15829 15830 15831 15832 15833 15834 15835 15836 15837 15838 15839 15840 15841 15842 15843 15844 15845 15846 15847 15848 15849 15850 15851 15852 15853 15854 15855 15856 15857 15858 15859 15860 15861 15862 15863 15864 15865 15866 15867 15868 15869 15870 15871 15872 15873 15874 15875 15876 15877 15878 15879 15880 15881 15882 15883 15884 15885 15886 15887 15888 15889 15890 15891 15892 15893 15894 15895 15896 15897 15898 15899 15900 15901 15902 15903 15904 15905 15906 15907 15908 15909 15910 15911 15912 15913 15914 15915 15916 15917 15918 15919 15920 15921 15922 15923 15924 15925 15926 15927 15928 15929 15930 15931 15932 15933 15934 15935 15936 15937 15938 15939 15940 15941 15942 15943 15944 15945 15946 15947 15948 15949 15950 15951 15952 15953 15954 15955 15956 15957 15958 15959 15960 15961 15962 15963 15964 15965 15966 15967 15968 15969 15970 15971 15972 15973 15974 15975 15976 15977 15978 15979 15980 15981 15982 15983 15984 15985 15986 15987 15988 15989 15990 15991 15992 15993 15994 15995 15996 15997 15998 15999 16000 16001 16002 16003 16004 16005 16006 16007 16008 16009 16010 16011 16012 16013 16014 16015 16016 16017 16018 16019 16020 16021 16022 16023 16024 16025 16026 16027 16028 16029 16030 16031 16032 16033 16034 16035 16036 16037 16038 16039 16040 16041 16042 16043 16044 16045 16046 16047 16048 16049 16050 16051 16052 16053 16054 16055 16056 16057 16058 16059 16060 16061 16062 16063 16064 16065 16066 16067 16068 16069 16070 16071 16072 16073 16074 16075 16076 16077 16078 16079 16080 16081 16082 16083 16084 16085 16086 16087 16088 16089 16090 16091 16092 16093 16094 16095 16096 16097 16098 16099 16100 16101 16102 16103 16104 16105 16106 16107 16108 16109 16110 16111 16112 16113 16114 16115 16116 16117 16118 16119 16120 16121 16122 16123 16124 16125 16126 16127 16128 16129 16130 16131 16132 16133 16134 16135 16136 16137 16138 16139 16140 16141 16142 16143 16144 16145 16146 16147 16148 16149 16150 16151 16152 16153 16154 16155 16156 16157 16158 16159 16160 16161 16162 16163 16164 16165 16166 16167 16168 16169 16170 16171 16172 16173 16174 16175 16176 16177 16178 16179 16180 16181 16182 16183 16184 16185 16186 16187 16188 16189 16190 16191 16192 16193 16194 16195 16196 16197 16198 16199 16200 16201 16202 16203 16204 16205 16206 16207 16208 16209 16210 16211 16212 16213 16214 16215 16216 16217 16218 16219 16220 16221 16222 16223 16224 16225 16226 16227 16228 16229 16230 16231 16232 16233 16234 16235 16236 16237 16238 16239 16240 16241 16242 16243 16244 16245 16246 16247 16248 16249 16250 16251 16252 16253 16254 16255 16256 16257 16258 16259 16260 16261 16262 16263 16264 16265 16266 16267 16268 16269 16270 16271 16272 16273 16274 16275 16276 16277 16278 16279 16280 16281 16282 16283 16284 16285 16286 16287 16288 16289 16290 16291 16292 16293 16294 16295 16296 16297 16298 16299 16300 16301 16302 16303 16304 16305 16306 16307 16308 16309 16310 16311 16312 16313 16314 16315 16316 16317 16318 16319 16320 16321 16322 16323 16324 16325 16326 16327 16328 16329 16330 16331 16332 16333 16334 16335 16336 16337 16338 16339 16340 16341 16342 16343 16344 16345 16346 16347 16348 16349 16350 16351 16352 16353 16354 16355 16356 16357 16358 16359 16360 16361 16362 16363 16364 16365 16366 16367 16368 16369 16370 16371 16372 16373 16374 16375 16376 16377 16378 16379 16380 16381 16382 16383 16384 16385 16386 16387 16388 16389 16390 16391 16392 16393 16394 16395 16396 16397 16398 16399 16400 16401 16402 16403 16404 16405 16406 16407 16408 16409 16410 16411 16412 16413 16414 16415 16416 16417 16418 16419 16420 16421 16422 16423 16424 16425 16426 16427 16428 16429 16430 16431 16432 16433 16434 16435 16436 16437 16438 16439 16440 16441 16442 16443 16444 16445 16446 16447 16448 16449 16450 16451 16452 16453 16454 16455 16456 16457 16458 16459 16460 16461 16462 16463 16464 16465 16466 16467 16468 16469 16470 16471 16472 16473 16474 16475 16476 16477 16478 16479 16480 16481 16482 16483 16484 16485 16486 16487 16488 16489 16490 16491 16492 16493 16494 16495 16496 16497 16498 16499 16500 16501 16502 16503 16504 16505 16506 16507 16508 16509 16510 16511 16512 16513 16514 16515 16516 16517 16518 16519 16520 16521 16522 16523 16524 16525 16526 16527 16528 16529 16530 16531 16532 16533 16534 16535 16536 16537 16538 16539 16540 16541 16542 16543 16544 16545 16546 16547 16548 16549 16550 16551 16552 16553 16554 16555 16556 16557 16558 16559 16560 16561 16562 16563 16564 16565 16566 16567 16568 16569 16570 16571 16572 16573 16574 16575 16576 16577 16578 16579 16580 16581 16582 16583 16584 16585 16586 16587 16588 16589 16590 16591 16592 16593 16594 16595 16596 16597 16598 16599 16600 16601 16602 16603 16604 16605 16606 16607 16608 16609 16610 16611 16612 16613 16614 16615 16616 16617 16618 16619 16620 16621 16622 16623 16624 16625 16626 16627 16628 16629 16630 16631 16632 16633 16634 16635 16636 16637 16638 16639 16640 16641 16642 16643 16644 16645 16646 16647 16648 16649 16650 16651 16652 16653 16654 16655 16656 16657 16658 16659 16660 16661 16662 16663 16664 16665 16666 16667 16668 16669 16670 16671 16672 16673 16674 16675 16676 16677 16678 16679 16680 16681 16682 16683 16684 16685 16686 16687 16688 16689 16690 16691 16692 16693 16694 16695 16696 16697 16698 16699 16700 16701 16702 16703 16704 16705 16706 16707 16708 16709 16710 16711 16712 16713 16714 16715 16716 16717 16718 16719 16720 16721 16722 16723 16724 16725 16726 16727 16728 16729 16730 16731 16732 16733 16734 16735 16736 16737 16738 16739 16740 16741 16742 16743 16744 16745 16746 16747 16748 16749 16750 16751 16752 16753 16754 16755 16756 16757 16758 16759 16760 16761 16762 16763 16764 16765 16766 16767 16768 16769 16770 16771 16772 16773 16774 16775 16776 16777 16778 16779 16780 16781 16782 16783 16784 16785 16786 16787 16788 16789 16790 16791 16792 16793 16794 16795 16796 16797 16798 16799 16800 16801 16802 16803 16804 16805 16806 16807 16808 16809 16810 16811 16812 16813 16814 16815 16816 16817 16818 16819 16820 16821 16822 16823 16824 16825 16826 16827 16828 16829 16830 16831 16832 16833 16834 16835 16836 16837 16838 16839 16840 16841 16842 16843 16844 16845 16846 16847 16848 16849 16850 16851 16852 16853 16854 16855 16856 16857 16858 16859 16860 16861 16862 16863 16864 16865 16866 16867 16868 16869 16870 16871 16872 16873 16874 16875 16876 16877 16878 16879 16880 16881 16882 16883 16884 16885 16886 16887 16888 16889 16890 16891 16892 16893 16894 16895 16896 16897 16898 16899 16900 16901 16902 16903 16904 16905 16906 16907 16908 16909 16910 16911 16912 16913 16914 16915 16916 16917 16918 16919 16920 16921 16922 16923 16924 16925 16926 16927 16928 16929 16930 16931 16932 16933 16934 16935 16936 16937 16938 16939 16940 16941 16942 16943 16944 16945 16946 16947 16948 16949 16950 16951 16952 16953 16954 16955 16956 16957 16958 16959 16960 16961 16962 16963 16964 16965 16966 16967 16968 16969 16970 16971 16972 16973 16974 16975 16976 16977 16978 16979 16980 16981 16982 16983 16984 16985 16986 16987 16988 16989 16990 16991 16992 16993 16994 16995 16996 16997 16998 16999 17000 17001 17002 17003 17004 17005 17006 17007 17008 17009 17010 17011 17012 17013 17014 17015 17016 17017 17018 17019 17020 17021 17022 17023 17024 17025 17026 17027 17028 17029 17030 17031 17032 17033 17034 17035 17036 17037 17038 17039 17040 17041 17042 17043 17044 17045 17046 17047 17048 17049 17050 17051 17052 17053 17054 17055 17056 17057 17058 17059 17060 17061 17062 17063 17064 17065 17066 17067 17068 17069 17070 17071 17072 17073 17074 17075 17076 17077 17078 17079 17080 17081 17082 17083 17084 17085 17086 17087 17088 17089 17090 17091 17092 17093 17094 17095 17096 17097 17098 17099 17100 17101 17102 17103 17104 17105 17106 17107 17108 17109 17110 17111 17112 17113 17114 17115 17116 17117 17118 17119 17120 17121 17122 17123 17124 17125 17126 17127 17128 17129 17130 17131 17132 17133 17134 17135 17136 17137 17138 17139 17140 17141 17142 17143 17144 17145 17146 17147 17148 17149 17150 17151 17152 17153 17154 17155 17156 17157 17158 17159 17160 17161 17162 17163 17164 17165 17166 17167 17168 17169 17170 17171 17172 17173 17174 17175 17176 17177 17178 17179 17180 17181 17182 17183 17184 17185 17186 17187 17188 17189 17190 17191 17192 17193 17194 17195 17196 17197 17198 17199 17200 17201 17202 17203 17204 17205 17206 17207 17208 17209 17210 17211 17212 17213 17214 17215 17216 17217 17218 17219 17220 17221 17222 17223 17224 17225 17226 17227 17228 17229 17230 17231 17232 17233 17234 17235 17236 17237 17238 17239 17240 17241 17242 17243 17244 17245 17246 17247 17248 17249 17250 17251 17252 17253 17254 17255 17256 17257 17258 17259 17260 17261 17262 17263 17264 17265 17266 17267 17268 17269 17270 17271 17272 17273 17274 17275 17276 17277 17278 17279 17280 17281 17282 17283 17284 17285 17286 17287 17288 17289 17290 17291 17292 17293 17294 17295 17296 17297 17298 17299 17300 17301 17302 17303 17304 17305 17306 17307 17308 17309 17310 17311 17312 17313 17314 17315 17316 17317 17318 17319 17320 17321 17322 17323 17324 17325 17326 17327 17328 17329 17330 17331 17332 17333 17334 17335 17336 17337 17338 17339 17340 17341 17342 17343 17344 17345 17346 17347 17348 17349 17350 17351 17352 17353 17354 17355 17356 17357 17358 17359 17360 17361 17362 17363 17364 17365 17366 17367 17368 17369 17370 17371 17372 17373 17374 17375 17376 17377 17378 17379 17380 17381 17382 17383 17384 17385 17386 17387 17388 17389 17390 17391 17392 17393 17394 17395 17396 17397 17398 17399 17400 17401 17402 17403 17404 17405 17406 17407 17408 17409 17410 17411 17412 17413 17414 17415 17416 17417 17418 17419 17420 17421 17422 17423 17424 17425 17426 17427 17428 17429 17430 17431 17432 17433 17434 17435 17436 17437 17438 17439 17440 17441 17442 17443 17444 17445 17446 17447 17448 17449 17450 17451 17452 17453 17454 17455 17456 17457 17458 17459 17460 17461 17462 17463 17464 17465 17466 17467 17468 17469 17470 17471 17472 17473 17474 17475 17476 17477 17478 17479 17480 17481 17482 17483 17484 17485 17486 17487 17488 17489 17490 17491 17492 17493 17494 17495 17496 17497 17498 17499 17500 17501 17502 17503 17504 17505 17506 17507 17508 17509 17510 17511 17512 17513 17514 17515 17516 17517 17518 17519 17520 17521 17522 17523 17524 17525 17526 17527 17528 17529 17530 17531 17532 17533 17534 17535 17536 17537 17538 17539 17540 17541 17542 17543 17544 17545 17546 17547 17548 17549 17550 17551 17552 17553 17554 17555 17556 17557 17558 17559 17560 17561 17562 17563 17564 17565 17566 17567 17568 17569 17570 17571 17572 17573 17574 17575 17576 17577 17578 17579 17580 17581 17582 17583 17584 17585 17586 17587 17588 17589 17590 17591 17592 17593 17594 17595 17596 17597 17598 17599 17600 17601 17602 17603 17604 17605 17606 17607 17608 17609 17610 17611 17612 17613 17614 17615 17616 17617 17618 17619 17620 17621 17622 17623 17624 17625 17626 17627 17628 17629 17630 17631 17632 17633 17634 17635 17636 17637 17638 17639 17640 17641 17642 17643 17644 17645 17646 17647 17648 17649 17650 17651 17652 17653 17654 17655 17656 17657 17658 17659 17660 17661 17662 17663 17664 17665 17666 17667 17668 17669 17670 17671 17672 17673 17674 17675 17676 17677 17678 17679 17680 17681 17682 17683 17684 17685 17686 17687 17688 17689 17690 17691 17692 17693 17694 17695 17696 17697 17698 17699 17700 17701 17702 17703 17704 17705 17706 17707 17708 17709 17710 17711 17712 17713 17714 17715 17716 17717 17718 17719 17720 17721 17722 17723 17724 17725 17726 17727 17728 17729 17730 17731 17732 17733 17734 17735 17736 17737 17738 17739 17740 17741 17742 17743 17744 17745 17746 17747 17748 17749 17750 17751 17752 17753 17754 17755 17756 17757 17758 17759 17760 17761 17762 17763 17764 17765 17766 17767 17768 17769 17770 17771 17772 17773 17774 17775 17776 17777 17778 17779 17780 17781 17782 17783 17784 17785 17786 17787 17788 17789 17790 17791 17792 17793 17794 17795 17796 17797 17798 17799 17800 17801 17802 17803 17804 17805 17806 17807 17808 17809 17810 17811 17812 17813 17814 17815 17816 17817 17818 17819 17820 17821 17822 17823 17824 17825 17826 17827 17828 17829 17830 17831 17832 17833 17834 17835 17836 17837 17838 17839 17840 17841 17842 17843 17844 17845 17846 17847 17848 17849 17850 17851 17852 17853 17854 17855 17856 17857 17858 17859 17860 17861 17862 17863 17864 17865 17866 17867 17868 17869 17870 17871 17872 17873 17874 17875 17876 17877 17878 17879 17880 17881 17882 17883 17884 17885 17886 17887 17888 17889 17890 17891 17892 17893 17894 17895 17896 17897 17898 17899 17900 17901 17902 17903 17904 17905 17906 17907 17908 17909 17910 17911 17912 17913 17914 17915 17916 17917 17918 17919 17920 17921 17922 17923 17924 17925 17926 17927 17928 17929 17930 17931 17932 17933 17934 17935 17936 17937 17938 17939 17940 17941 17942 17943 17944 17945 17946 17947 17948 17949 17950 17951 17952 17953 17954 17955 17956 17957 17958 17959 17960 17961 17962 17963 17964 17965 17966 17967 17968 17969 17970 17971 17972 17973 17974 17975 17976 17977 17978 17979 17980 17981 17982 17983 17984 17985 17986 17987 17988 17989 17990 17991 17992 17993 17994 17995 17996 17997 17998 17999 18000 18001 18002 18003 18004 18005 18006 18007 18008 18009 18010 18011 18012 18013 18014 18015 18016 18017 18018 18019 18020 18021 18022 18023 18024 18025 18026 18027 18028 18029 18030 18031 18032 18033 18034 18035 18036 18037 18038 18039 18040 18041 18042 18043 18044 18045 18046 18047 18048 18049 18050 18051 18052 18053 18054 18055 18056 18057 18058 18059 18060 18061 18062 18063 18064 18065 18066 18067 18068 18069 18070 18071 18072 18073 18074 18075 18076 18077 18078 18079 18080 18081 18082 18083 18084 18085 18086 18087 18088 18089 18090 18091 18092 18093 18094 18095 18096 18097 18098 18099 18100 18101 18102 18103 18104 18105 18106 18107 18108 18109 18110 18111 18112 18113 18114 18115 18116 18117 18118 18119 18120 18121 18122 18123 18124 18125 18126 18127 18128 18129 18130 18131 18132 18133 18134 18135 18136 18137 18138 18139 18140 18141 18142 18143 18144 18145 18146 18147 18148 18149 18150 18151 18152 18153 18154 18155 18156 18157 18158 18159 18160 18161 18162 18163 18164 18165 18166 18167 18168 18169 18170 18171 18172 18173 18174 18175 18176 18177 18178 18179 18180 18181 18182 18183 18184 18185 18186 18187 18188 18189 18190 18191 18192 18193 18194 18195 18196 18197 18198 18199 18200 18201 18202 18203 18204 18205 18206 18207 18208 18209 18210 18211 18212 18213 18214 18215 18216 18217 18218 18219 18220 18221 18222 18223 18224 18225 18226 18227 18228 18229 18230 18231 18232 18233 18234 18235 18236 18237 18238 18239 18240 18241 18242 18243 18244 18245 18246 18247 18248 18249 18250 18251 18252 18253 18254 18255 18256 18257 18258 18259 18260 18261 18262 18263 18264 18265 18266 18267 18268 18269 18270 18271 18272 18273 18274 18275 18276 18277 18278 18279 18280 18281 18282 18283 18284 18285 18286 18287 18288 18289 18290 18291 18292 18293 18294 18295 18296 18297 18298 18299 18300 18301 18302 18303 18304 18305 18306 18307 18308 18309 18310 18311 18312 18313 18314 18315 18316 18317 18318 18319 18320 18321 18322 18323 18324 18325 18326 18327 18328 18329 18330 18331 18332 18333 18334 18335 18336 18337 18338 18339 18340 18341 18342 18343 18344 18345 18346 18347 18348 18349 18350 18351 18352 18353 18354 18355 18356 18357 18358 18359 18360 18361 18362 18363 18364 18365 18366 18367 18368 18369 18370 18371 18372 18373 18374 18375 18376 18377 18378 18379 18380 18381 18382 18383 18384 18385 18386 18387 18388 18389 18390 18391 18392 18393 18394 18395 18396 18397 18398 18399 18400 18401 18402 18403 18404 18405 18406 18407 18408 18409 18410 18411 18412 18413 18414 18415 18416 18417 18418 18419 18420 18421 18422 18423 18424 18425 18426 18427 18428 18429 18430 18431 18432 18433 18434 18435 18436 18437 18438 18439 18440 18441 18442 18443 18444 18445 18446 18447 18448 18449 18450 18451 18452 18453 18454 18455 18456 18457 18458 18459 18460 18461 18462 18463 18464 18465 18466 18467 18468 18469 18470 18471 18472 18473 18474 18475 18476 18477 18478 18479 18480 18481 18482 18483 18484 18485 18486 18487 18488 18489 18490 18491 18492 18493 18494 18495 18496 18497 18498 18499 18500 18501 18502 18503 18504 18505 18506 18507 18508 18509 18510 18511 18512 18513 18514 18515 18516 18517 18518 18519 18520 18521 18522 18523 18524 18525 18526 18527 18528 18529 18530 18531 18532 18533 18534 18535 18536 18537 18538 18539 18540 18541 18542 18543 18544 18545 18546 18547 18548 18549 18550 18551 18552 18553 18554 18555 18556 18557 18558 18559 18560 18561 18562 18563 18564 18565 18566 18567 18568 18569 18570 18571 18572 18573 18574 18575 18576 18577 18578 18579 18580 18581 18582 18583 18584 18585 18586 18587 18588 18589 18590 18591 18592 18593 18594 18595 18596 18597 18598 18599 18600 18601 18602 18603 18604 18605 18606 18607 18608 18609 18610 18611 18612 18613 18614 18615 18616 18617 18618 18619 18620 18621 18622 18623 18624 18625 18626 18627 18628 18629 18630 18631 18632 18633 18634 18635 18636 18637 18638 18639 18640 18641 18642 18643 18644 18645 18646 18647 18648 18649 18650 18651 18652 18653 18654 18655 18656 18657 18658 18659 18660 18661 18662 18663 18664 18665 18666 18667 18668 18669 18670 18671 18672 18673 18674 18675 18676 18677 18678 18679 18680 18681 18682 18683 18684 18685 18686 18687 18688 18689 18690 18691 18692 18693 18694 18695 18696 18697 18698 18699 18700 18701 18702 18703 18704 18705 18706 18707 18708 18709 18710 18711 18712 18713 18714 18715 18716 18717 18718 18719 18720 18721 18722 18723 18724 18725 18726 18727 18728 18729 18730 18731 18732 18733 18734 18735 18736 18737 18738 18739 18740 18741 18742 18743 18744 18745 18746 18747 18748 18749 18750 18751 18752 18753 18754 18755 18756 18757 18758 18759 18760 18761 18762 18763 18764 18765 18766 18767 18768 18769 18770 18771 18772 18773 18774 18775 18776 18777 18778 18779 18780 18781 18782 18783 18784 18785 18786 18787 18788 18789 18790 18791 18792 18793 18794 18795 18796 18797 18798 18799 18800 18801 18802 18803 18804 18805 18806 18807 18808 18809 18810 18811 18812 18813 18814 18815 18816 18817 18818 18819 18820 18821 18822 18823 18824 18825 18826 18827 18828 18829 18830 18831 18832 18833 18834 18835 18836 18837 18838 18839 18840 18841 18842 18843 18844 18845 18846 18847 18848 18849 18850 18851 18852 18853 18854 18855 18856 18857 18858 18859 18860 18861 18862 18863 18864 18865 18866 18867 18868 18869 18870 18871 18872 18873 18874 18875 18876 18877 18878 18879 18880 18881 18882 18883 18884 18885 18886 18887 18888 18889 18890 18891 18892 18893 18894 18895 18896 18897 18898 18899 18900 18901 18902 18903 18904 18905 18906 18907 18908 18909 18910 18911 18912 18913 18914 18915 18916 18917 18918 18919 18920 18921 18922 18923 18924 18925 18926 18927 18928 18929 18930 18931 18932 18933 18934 18935 18936 18937 18938 18939 18940 18941 18942 18943 18944 18945 18946 18947 18948 18949 18950 18951 18952 18953 18954 18955 18956 18957 18958 18959 18960 18961 18962 18963 18964 18965 18966 18967 18968 18969 18970 18971 18972 18973 18974 18975 18976 18977 18978 18979 18980 18981 18982 18983 18984 18985 18986 18987 18988 18989 18990 18991 18992 18993 18994 18995 18996 18997 18998 18999 19000 19001 19002 19003 19004 19005 19006 19007 19008 19009 19010 19011 19012 19013 19014 19015 19016 19017 19018 19019 19020 19021 19022 19023 19024 19025 19026 19027 19028 19029 19030 19031 19032 19033 19034 19035 19036 19037 19038 19039 19040 19041 19042 19043 19044 19045 19046 19047 19048 19049 19050 19051 19052 19053 19054 19055 19056 19057 19058 19059 19060 19061 19062 19063 19064 19065 19066 19067 19068 19069 19070 19071 19072 19073 19074 19075 19076 19077 19078 19079 19080 19081 19082 19083 19084 19085 19086 19087 19088 19089 19090 19091 19092 19093 19094 19095 19096 19097 19098 19099 19100 19101 19102 19103 19104 19105 19106 19107 19108 19109 19110 19111 19112 19113 19114 19115 19116 19117 19118 19119 19120 19121 19122 19123 19124 19125 19126 19127 19128 19129 19130 19131 19132 19133 19134 19135 19136 19137 19138 19139 19140 19141 19142 19143 19144 19145 19146 19147 19148 19149 19150 19151 19152 19153 19154 19155 19156 19157 19158 19159 19160 19161 19162 19163 19164 19165 19166 19167 19168 19169 19170 19171 19172 19173 19174 19175 19176 19177 19178 19179 19180 19181 19182 19183 19184 19185 19186 19187 19188 19189 19190 19191 19192 19193 19194 19195 19196 19197 19198 19199 19200 19201 19202 19203 19204 19205 19206 19207 19208 19209 19210 19211 19212 19213 19214 19215 19216 19217 19218 19219 19220 19221 19222 19223 19224 19225 19226 19227 19228 19229 19230 19231 19232 19233 19234 19235 19236 19237 19238 19239 19240 19241 19242 19243 19244 19245 19246 19247 19248 19249 19250 19251 19252 19253 19254 19255 19256 19257 19258 19259 19260 19261 19262 19263 19264 19265 19266 19267 19268 19269 19270 19271 19272 19273 19274 19275 19276 19277 19278 19279 19280 19281 19282 19283 19284 19285 19286 19287 19288 19289 19290 19291 19292 19293 19294 19295 19296 19297 19298 19299 19300 19301 19302 19303 19304 19305 19306 19307 19308 19309 19310 19311 19312 19313 19314 19315 19316 19317 19318 19319 19320 19321 19322 19323 19324 19325 19326 19327 19328 19329 19330 19331 19332 19333 19334 19335 19336 19337 19338 19339 19340 19341 19342 19343 19344 19345 19346 19347 19348 19349 19350 19351 19352 19353 19354 19355 19356 19357 19358 19359 19360 19361 19362 19363 19364 19365 19366 19367 19368 19369 19370 19371 19372 19373 19374 19375 19376 19377 19378 19379 19380 19381 19382 19383 19384 19385 19386 19387 19388 19389 19390 19391 19392 19393 19394 19395 19396 19397 19398 19399 19400 19401 19402 19403 19404 19405 19406 19407 19408 19409 19410 19411 19412 19413 19414 19415 19416 19417 19418 19419 19420 19421 19422 19423 19424 19425 19426 19427 19428 19429 19430 19431 19432 19433 19434 19435 19436 19437 19438 19439 19440 19441 19442 19443 19444 19445 19446 19447 19448 19449 19450 19451 19452 19453 19454 19455 19456 19457 19458 19459 19460 19461 19462 19463 19464 19465 19466 19467 19468 19469 19470 19471 19472 19473 19474 19475 19476 19477 19478 19479 19480 19481 19482 19483 19484 19485 19486 19487 19488 19489 19490 19491 19492 19493 19494 19495 19496 19497 19498 19499 19500 19501 19502 19503 19504 19505 19506 19507 19508 19509 19510 19511 19512 19513 19514 19515 19516 19517 19518 19519 19520 19521 19522 19523 19524 19525 19526 19527 19528 19529 19530 19531 19532 19533 19534 19535 19536 19537 19538 19539 19540 19541 19542 19543 19544 19545 19546 19547 19548 19549 19550 19551 19552 19553 19554 19555 19556 19557 19558 19559 19560 19561 19562 19563 19564 19565 19566 19567 19568 19569 19570 19571 19572 19573 19574 19575 19576 19577 19578 19579 19580 19581 19582 19583 19584 19585 19586 19587 19588 19589 19590 19591 19592 19593 19594 19595 19596 19597 19598 19599 19600 19601 19602 19603 19604 19605 19606 19607 19608 19609 19610 19611 19612 19613 19614 19615 19616 19617 19618 19619 19620 19621 19622 19623 19624 19625 19626 19627 19628 19629 19630 19631 19632 19633 19634 19635 19636 19637 19638 19639 19640 19641 19642 19643 19644 19645 19646 19647 19648 19649 19650 19651 19652 19653 19654 19655 19656 19657 19658 19659 19660 19661 19662 19663 19664 19665 19666 19667 19668 19669 19670 19671 19672 19673 19674 19675 19676 19677 19678 19679 19680 19681 19682 19683 19684 19685 19686 19687 19688 19689 19690 19691 19692 19693 19694 19695 19696 19697 19698 19699 19700 19701 19702 19703 19704 19705 19706 19707 19708 19709 19710 19711 19712 19713 19714 19715 19716 19717 19718 19719 19720 19721 19722 19723 19724 19725 19726 19727 19728 19729 19730 19731 19732 19733 19734 19735 19736 19737 19738 19739 19740 19741 19742 19743 19744 19745 19746 19747 19748 19749 19750 19751 19752 19753 19754 19755 19756 19757 19758 19759 19760 19761 19762 19763 19764 19765 19766 19767 19768 19769 19770 19771 19772 19773 19774 19775 19776 19777 19778 19779 19780 19781 19782 19783 19784 19785 19786 19787 19788 19789 19790 19791 19792 19793 19794 19795 19796 19797 19798 19799 19800 19801 19802 19803 19804 19805 19806 19807 19808 19809 19810 19811 19812 19813 19814 19815 19816 19817 19818 19819 19820 19821 19822 19823 19824 19825 19826 19827 19828 19829 19830 19831 19832 19833 19834 19835 19836 19837 19838 19839 19840 19841 19842 19843 19844 19845 19846 19847 19848 19849 19850 19851 19852 19853 19854 19855 19856 19857 19858 19859 19860 19861 19862 19863 19864 19865 19866 19867 19868 19869 19870 19871 19872 19873 19874 19875 19876 19877 19878 19879 19880 19881 19882 19883 19884 19885 19886 19887 19888 19889 19890 19891 19892 19893 19894 19895 19896 19897 19898 19899 19900 19901 19902 19903 19904 19905 19906 19907 19908 19909 19910 19911 19912 19913 19914 19915 19916 19917 19918 19919 19920 19921 19922 19923 19924 19925 19926 19927 19928 19929 19930 19931 19932 19933 19934 19935 19936 19937 19938 19939 19940 19941 19942 19943 19944 19945 19946 19947 19948 19949 19950 19951 19952 19953 19954 19955 19956 19957 19958 19959 19960 19961 19962 19963 19964 19965 19966 19967 19968 19969 19970 19971 19972 19973 19974 19975 19976 19977 19978 19979 19980 19981 19982 19983 19984 19985 19986 19987 19988 19989 19990 19991 19992 19993 19994 19995 19996 19997 19998 19999 20000 20001 20002 20003 20004 20005 20006 20007 20008 20009 20010 20011 20012 20013 20014 20015 20016 20017 20018 20019 20020 20021 20022 20023 20024 20025 20026 20027 20028 20029 20030 20031 20032 20033 20034 20035 20036 20037 20038 20039 20040 20041 20042 20043 20044 20045 20046 20047 20048 20049 20050 20051 20052 20053 20054 20055 20056 20057 20058 20059 20060 20061 20062 20063 20064 20065 20066 20067 20068 20069 20070 20071 20072 20073 20074 20075 20076 20077 20078 20079 20080 20081 20082 20083 20084 20085 20086 20087 20088 20089 20090 20091 20092 20093 20094 20095 20096 20097 20098 20099 20100 20101 20102 20103 20104 20105 20106 20107 20108 20109 20110 20111 20112 20113 20114 20115 20116 20117 20118 20119 20120 20121 20122 20123 20124 20125 20126 20127 20128 20129 20130 20131 20132 20133 20134 20135 20136 20137 20138 20139 20140 20141 20142 20143 20144 20145 20146 20147 20148 20149 20150 20151 20152 20153 20154 20155 20156 20157 20158 20159 20160 20161 20162 20163 20164 20165 20166 20167 20168 20169 20170 20171 20172 20173 20174 20175 20176 20177 20178 20179 20180 20181 20182 20183 20184 20185 20186 20187 20188 20189 20190 20191 20192 20193 20194 20195 20196 20197 20198 20199 20200 20201 20202 20203 20204 20205 20206 20207 20208 20209 20210 20211 20212 20213 20214 20215 20216 20217 20218 20219 20220 20221 20222 20223 20224 20225 20226 20227 20228 20229 20230 20231 20232 20233 20234 20235 20236 20237 20238 20239 20240 20241 20242 20243 20244 20245 20246 20247 20248 20249 20250 20251 20252 20253 20254 20255 20256 20257 20258 20259 20260 20261 20262 20263 20264 20265 20266 20267 20268 20269 20270 20271 20272 20273 20274 20275 20276 20277 20278 20279 20280 20281 20282 20283 20284 20285 20286 20287 20288 20289 20290 20291 20292 20293 20294 20295 20296 20297 20298 20299 20300 20301 20302 20303 20304 20305 20306 20307 20308 20309 20310 20311 20312 20313 20314 20315 20316 20317 20318 20319 20320 20321 20322 20323 20324 20325 20326 20327 20328 20329 20330 20331 20332 20333 20334 20335 20336 20337 20338 20339 20340 20341 20342 20343 20344 20345 20346 20347 20348 20349 20350 20351 20352 20353 20354 20355 20356 20357 20358 20359 20360 20361 20362 20363 20364 20365 20366 20367 20368 20369 20370 20371 20372 20373 20374 20375 20376 20377 20378 20379 20380 20381 20382 20383 20384 20385 20386 20387 20388 20389 20390 20391 20392 20393 20394 20395 20396 20397 20398 20399 20400 20401 20402 20403 20404 20405 20406 20407 20408 20409 20410 20411 20412 20413 20414 20415 20416 20417 20418 20419 20420 20421 20422 20423 20424 20425 20426 20427 20428 20429 20430 20431 20432 20433 20434 20435 20436 20437 20438 20439 20440 20441 20442 20443 20444 20445 20446 20447 20448 20449 20450 20451 20452 20453 20454 20455 20456 20457 20458 20459 20460 20461 20462 20463 20464 20465 20466 20467 20468 20469 20470 20471 20472 20473 20474 20475 20476 20477 20478 20479 20480 20481 20482 20483 20484 20485 20486 20487 20488 20489 20490 20491 20492 20493 20494 20495 20496 20497 20498 20499 20500 20501 20502 20503 20504 20505 20506 20507 20508 20509 20510 20511 20512 20513 20514 20515 20516 20517 20518 20519 20520 20521 20522 20523 20524 20525 20526 20527 20528 20529 20530 20531 20532 20533 20534 20535 20536 20537 20538 20539 20540 20541 20542 20543 20544 20545 20546 20547 20548 20549 20550 20551 20552 20553 20554 20555 20556 20557 20558 20559 20560 20561 20562 20563 20564 20565 20566 20567 20568 20569 20570 20571 20572 20573 20574 20575 20576 20577 20578 20579 20580 20581 20582 20583 20584 20585 20586 20587 20588 20589 20590 20591 20592 20593 20594 20595 20596 20597 20598 20599 20600 20601 20602 20603 20604 20605 20606 20607 20608 20609 20610 20611 20612 20613 20614 20615 20616 20617 20618 20619 20620 20621 20622 20623 20624 20625 20626 20627 20628 20629 20630 20631 20632 20633 20634 20635 20636 20637 20638 20639 20640 20641 20642 20643 20644 20645 20646 20647 20648 20649 20650 20651 20652 20653 20654 20655 20656 20657 20658 20659 20660 20661 20662 20663 20664 20665 20666 20667 20668 20669 20670 20671 20672 20673 20674 20675 20676 20677 20678 20679 20680 20681 20682 20683 20684 20685 20686 20687 20688 20689 20690 20691 20692 20693 20694 20695 20696 20697 20698 20699 20700 20701 20702 20703 20704 20705 20706 20707 20708 20709 20710 20711 20712 20713 20714 20715 20716 20717 20718 20719 20720 20721 20722 20723 20724 20725 20726 20727 20728 20729 20730 20731 20732 20733 20734 20735 20736 20737 20738 20739 20740 20741 20742 20743 20744 20745 20746 20747 20748 20749 20750 20751 20752 20753 20754 20755 20756 20757 20758 20759 20760 20761 20762 20763 20764 20765 20766 20767 20768 20769 20770 20771 20772 20773 20774 20775 20776 20777 20778 20779 20780 20781 20782 20783 20784 20785 20786 20787 20788 20789 20790 20791 20792 20793 20794 20795 20796 20797 20798 20799 20800 20801 20802 20803 20804 20805 20806 20807 20808 20809 20810 20811 20812 20813 20814 20815 20816 20817 20818 20819 20820 20821 20822 20823 20824 20825 20826 20827 20828 20829 20830 20831 20832 20833 20834 20835 20836 20837 20838 20839 20840 20841 20842 20843 20844 20845 20846 20847 20848 20849 20850 20851 20852 20853 20854 20855 20856 20857 20858 20859 20860 20861 20862 20863 20864 20865 20866 20867 20868 20869 20870 20871 20872 20873 20874 20875 20876 20877 20878 20879 20880 20881 20882 20883 20884 20885 20886 20887 20888 20889 20890 20891 20892 20893 20894 20895 20896 20897 20898 20899 20900 20901 20902 20903 20904 20905 20906 20907 20908 20909 20910 20911 20912 20913 20914 20915 20916 20917 20918 20919 20920 20921 20922 20923 20924 20925 20926 20927 20928 20929 20930 20931 20932 20933 20934 20935 20936 20937 20938 20939 20940 20941 20942 20943 20944 20945 20946 20947 20948 20949 20950 20951 20952 20953 20954 20955 20956 20957 20958 20959 20960 20961 20962 20963 20964 20965 20966 20967 20968 20969 20970 20971 20972 20973 20974 20975 20976 20977 20978 20979 20980 20981 20982 20983 20984 20985 20986 20987 20988 20989 20990 20991 20992 20993 20994 20995 20996 20997 20998 20999 21000 21001 21002 21003 21004 21005 21006 21007 21008 21009 21010 21011 21012 21013 21014 21015 21016 21017 21018 21019 21020 21021 21022 21023 21024 21025 21026 21027 21028 21029 21030 21031 21032 21033 21034 21035 21036 21037 21038 21039 21040 21041 21042 21043 21044 21045 21046 21047 21048 21049 21050 21051 21052 21053 21054 21055 21056 21057 21058 21059 21060 21061 21062 21063 21064 21065 21066 21067 21068 21069 21070 21071 21072 21073 21074 21075 21076 21077 21078 21079 21080 21081 21082 21083 21084 21085 21086 21087 21088 21089 21090 21091 21092 21093 21094 21095 21096 21097 21098 21099 21100 21101 21102 21103 21104 21105 21106 21107 21108 21109 21110 21111 21112 21113 21114 21115 21116 21117 21118 21119 21120 21121 21122 21123 21124 21125 21126 21127 21128 21129 21130 21131 21132 21133 21134 21135 21136 21137 21138 21139 21140 21141 21142 21143 21144 21145 21146 21147 21148 21149 21150 21151 21152 21153 21154 21155 21156 21157 21158 21159 21160 21161 21162 21163 21164 21165 21166 21167 21168 21169 21170 21171 21172 21173 21174 21175 21176 21177 21178 21179 21180 21181 21182 21183 21184 21185 21186 21187 21188 21189 21190 21191 21192 21193 21194 21195 21196 21197 21198 21199 21200 21201 21202 21203 21204 21205 21206 21207 21208 21209 21210 21211 21212 21213 21214 21215 21216 21217 21218 21219 21220 21221 21222 21223 21224 21225 21226 21227 21228 21229 21230 21231 21232 21233 21234 21235 21236 21237 21238 21239 21240 21241 21242 21243 21244 21245 21246 21247 21248 21249 21250 21251 21252 21253 21254 21255 21256 21257 21258 21259 21260 21261 21262 21263 21264 21265 21266 21267 21268 21269 21270 21271 21272 21273 21274 21275 21276 21277 21278 21279 21280 21281 21282 21283 21284 21285 21286 21287 21288 21289 21290 21291 21292 21293 21294 21295 21296 21297 21298 21299 21300 21301 21302 21303 21304 21305 21306 21307 21308 21309 21310 21311 21312 21313 21314 21315 21316 21317 21318 21319 21320 21321 21322 21323 21324 21325 21326 21327 21328 21329 21330 21331 21332 21333 21334 21335 21336 21337 21338 21339 21340 21341 21342 21343 21344 21345 21346 21347 21348 21349 21350 21351 21352 21353 21354 21355 21356 21357 21358 21359 21360 21361 21362 21363 21364 21365 21366 21367 21368 21369 21370 21371 21372 21373 21374 21375 21376 21377 21378 21379 21380 21381 21382 21383 21384 21385 21386 21387 21388 21389 21390 21391 21392 21393 21394 21395 21396 21397 21398 21399 21400 21401 21402 21403 21404 21405 21406 21407 21408 21409 21410 21411 21412 21413 21414 21415 21416 21417 21418 21419 21420 21421 21422 21423 21424 21425 21426 21427 21428 21429 21430 21431 21432 21433 21434 21435 21436 21437 21438 21439 21440 21441 21442 21443 21444 21445 21446 21447 21448 21449 21450 21451 21452 21453 21454 21455 21456 21457 21458 21459 21460 21461 21462 21463 21464 21465 21466 21467 21468 21469 21470 21471 21472 21473 21474 21475 21476 21477 21478 21479 21480 21481 21482 21483 21484 21485 21486 21487 21488 21489 21490 21491 21492 21493 21494 21495 21496 21497 21498 21499 21500 21501 21502 21503 21504 21505 21506 21507 21508 21509 21510 21511 21512 21513 21514 21515 21516 21517 21518 21519 21520 21521 21522 21523 21524 21525 21526 21527 21528 21529 21530 21531 21532 21533 21534 21535 21536 21537 21538 21539 21540 21541 21542 21543 21544 21545 21546 21547 21548 21549 21550 21551 21552 21553 21554 21555 21556 21557 21558 21559 21560 21561 21562 21563 21564 21565 21566 21567 21568 21569 21570 21571 21572 21573 21574 21575 21576 21577 21578 21579 21580 21581 21582 21583 21584 21585 21586 21587 21588 21589 21590 21591 21592 21593 21594 21595 21596 21597 21598 21599 21600 21601 21602 21603 21604 21605 21606 21607 21608 21609 21610 21611 21612 21613 21614 21615 21616 21617 21618 21619 21620 21621 21622 21623 21624 21625 21626 21627 21628 21629 21630 21631 21632 21633 21634 21635 21636 21637 21638 21639 21640 21641 21642 21643 21644 21645 21646 21647 21648 21649 21650 21651 21652 21653 21654 21655 21656 21657 21658 21659 21660 21661 21662 21663 21664 21665 21666 21667 21668 21669 21670 21671 21672 21673 21674 21675 21676 21677 21678 21679 21680 21681 21682 21683 21684 21685 21686 21687 21688 21689 21690 21691 21692 21693 21694 21695 21696 21697 21698 21699 21700 21701 21702 21703 21704 21705 21706 21707 21708 21709 21710 21711 21712 21713 21714 21715 21716 21717 21718 21719 21720 21721 21722 21723 21724 21725 21726 21727 21728 21729 21730 21731 21732 21733 21734 21735 21736 21737 21738 21739 21740 21741 21742 21743 21744 21745 21746 21747 21748 21749 21750 21751 21752 21753 21754 21755 21756 21757 21758 21759 21760 21761 21762 21763 21764 21765 21766 21767 21768 21769 21770 21771 21772 21773 21774 21775 21776 21777 21778 21779 21780 21781 21782 21783 21784 21785 21786 21787 21788 21789 21790 21791 21792 21793 21794 21795 21796 21797 21798 21799 21800 21801 21802 21803 21804 21805 21806 21807 21808 21809 21810 21811 21812 21813 21814 21815 21816 21817 21818 21819 21820 21821 21822 21823 21824 21825 21826 21827 21828 21829 21830 21831 21832 21833 21834 21835 21836 21837 21838 21839 21840 21841 21842 21843 21844 21845 21846 21847 21848 21849 21850 21851 21852 21853 21854 21855 21856 21857 21858 21859 21860 21861 21862 21863 21864 21865 21866 21867 21868 21869 21870 21871 21872 21873 21874 21875 21876 21877 21878 21879 21880 21881 21882 21883 21884 21885 21886 21887 21888 21889 21890 21891 21892 21893 21894 21895 21896 21897 21898 21899 21900 21901 21902 21903 21904 21905 21906 21907 21908 21909 21910 21911 21912 21913 21914 21915 21916 21917 21918 21919 21920 21921 21922 21923 21924 21925 21926 21927 21928 21929 21930 21931 21932 21933 21934 21935 21936 21937 21938 21939 21940 21941 21942 21943 21944 21945 21946 21947 21948 21949 21950 21951 21952 21953 21954 21955 21956 21957 21958 21959 21960 21961 21962 21963 21964 21965 21966 21967 21968 21969 21970 21971 21972 21973 21974 21975 21976 21977 21978 21979 21980 21981 21982 21983 21984 21985 21986 21987 21988 21989 21990 21991 21992 21993 21994 21995 21996 21997 21998 21999 22000 22001 22002 22003 22004 22005 22006 22007 22008 22009 22010 22011 22012 22013 22014 22015 22016 22017 22018 22019 22020 22021 22022 22023 22024 22025 22026 22027 22028 22029 22030 22031 22032 22033 22034 22035 22036 22037 22038 22039 22040 22041 22042 22043 22044 22045 22046 22047 22048 22049 22050 22051 22052 22053 22054 22055 22056 22057 22058 22059 22060 22061 22062 22063 22064 22065 22066 22067 22068 22069 22070 22071 22072 22073 22074 22075 22076 22077 22078 22079 22080 22081 22082 22083 22084 22085 22086 22087 22088 22089 22090 22091 22092 22093 22094 22095 22096 22097 22098 22099 22100 22101 22102 22103 22104 22105 22106 22107 22108 22109 22110 22111 22112 22113 22114 22115 22116 22117 22118 22119 22120 22121 22122 22123 22124 22125 22126 22127 22128 22129 22130 22131 22132 22133 22134 22135 22136 22137 22138 22139 22140 22141 22142 22143 22144 22145 22146 22147 22148 22149 22150 22151 22152 22153 22154 22155 22156 22157 22158 22159 22160 22161 22162 22163 22164 22165 22166 22167 22168 22169 22170 22171 22172 22173 22174 22175 22176 22177 22178 22179 22180 22181 22182 22183 22184 22185 22186 22187 22188 22189 22190 22191 22192 22193 22194 22195 22196 22197 22198 22199 22200 22201 22202 22203 22204 22205 22206 22207 22208 22209 22210 22211 22212 22213 22214 22215 22216 22217 22218 22219 22220 22221 22222 22223 22224 22225 22226 22227 22228 22229 22230 22231 22232 22233 22234 22235 22236 22237 22238 22239 22240 22241 22242 22243 22244 22245 22246 22247 22248 22249 22250 22251 22252 22253 22254 22255 22256 22257 22258 22259 22260 22261 22262 22263 22264 22265 22266 22267 22268 22269 22270 22271 22272 22273 22274 22275 22276 22277 22278 22279 22280 22281 22282 22283 22284 22285 22286 22287 22288 22289 22290 22291 22292 22293 22294 22295 22296 22297 22298 22299 22300 22301 22302 22303 22304 22305 22306 22307 22308 22309 22310 22311 22312 22313 22314 22315 22316 22317 22318 22319 22320 22321 22322 22323 22324 22325 22326 22327 22328 22329 22330 22331 22332 22333 22334 22335 22336 22337 22338 22339 22340 22341 22342 22343 22344 22345 22346 22347 22348 22349 22350 22351 22352 22353 22354 22355 22356 22357 22358 22359 22360 22361 22362 22363 22364 22365 22366 22367 22368 22369 22370 22371 22372 22373 22374 22375 22376 22377 22378 22379 22380 22381 22382 22383 22384 22385 22386 22387 22388 22389 22390 22391 22392 22393 22394 22395 22396 22397 22398 22399 22400 22401 22402 22403 22404 22405 22406 22407 22408 22409 22410 22411 22412 22413 22414 22415 22416 22417 22418 22419 22420 22421 22422 22423 22424 22425 22426 22427 22428 22429 22430 22431 22432 22433 22434 22435 22436 22437 22438 22439 22440 22441 22442 22443 22444 22445 22446 22447 22448 22449 22450 22451 22452 22453 22454 22455 22456 22457 22458 22459 22460 22461 22462 22463 22464 22465 22466 22467 22468 22469 22470 22471 22472 22473 22474 22475 22476 22477 22478 22479 22480 22481 22482 22483 22484 22485 22486 22487 22488 22489 22490 22491 22492 22493 22494 22495 22496 22497 22498 22499 22500 22501 22502 22503 22504 22505 22506 22507 22508 22509 22510 22511 22512 22513 22514 22515 22516 22517 22518 22519 22520 22521 22522 22523 22524 22525 22526 22527 22528 22529 22530 22531 22532 22533 22534 22535 22536 22537 22538 22539 22540 22541 22542 22543 22544 22545 22546 22547 22548 22549 22550 22551 22552 22553 22554 22555 22556 22557 22558 22559 22560 22561 22562 22563 22564 22565 22566 22567 22568 22569 22570 22571 22572 22573 22574 22575 22576 22577 22578 22579 22580 22581 22582 22583 22584 22585 22586 22587 22588 22589 22590 22591 22592 22593 22594 22595 22596 22597 22598 22599 22600 22601 22602 22603 22604 22605 22606 22607 22608 22609 22610 22611 22612 22613 22614 22615 22616 22617 22618 22619 22620 22621 22622 22623 22624 22625 22626 22627 22628 22629 22630 22631 22632 22633 22634 22635 22636 22637 22638 22639 22640 22641 22642 22643 22644 22645 22646 22647 22648 22649 22650 22651 22652 22653 22654 22655 22656 22657 22658 22659 22660 22661 22662 22663 22664 22665 22666 22667 22668 22669 22670 22671 22672 22673 22674 22675 22676 22677 22678 22679 22680 22681 22682 22683 22684 22685 22686 22687 22688 22689 22690 22691 22692 22693 22694 22695 22696 22697 22698 22699 22700 22701 22702 22703 22704 22705 22706 22707 22708 22709 22710 22711 22712 22713 22714 22715 22716 22717 22718 22719 22720 22721 22722 22723 22724 22725 22726 22727 22728 22729 22730 22731 22732 22733 22734 22735 22736 22737 22738 22739 22740 22741 22742 22743 22744 22745 22746 22747 22748 22749 22750 22751 22752 22753 22754 22755 22756 22757 22758 22759 22760 22761 22762 22763 22764 22765 22766 22767 22768 22769 22770 22771 22772 22773 22774 22775 22776 22777 22778 22779 22780 22781 22782 22783 22784 22785 22786 22787 22788 22789 22790 22791 22792 22793 22794 22795 22796 22797 22798 22799 22800 22801 22802 22803 22804 22805 22806 22807 22808 22809 22810 22811 22812 22813 22814 22815 22816 22817 22818 22819 22820 22821 22822 22823 22824 22825 22826 22827 22828 22829 22830 22831 22832 22833 22834 22835 22836 22837 22838 22839 22840 22841 22842 22843 22844 22845 22846 22847 22848 22849 22850 22851 22852 22853 22854 22855 22856 22857 22858 22859 22860 22861 22862 22863 22864 22865 22866 22867 22868 22869 22870 22871 22872 22873 22874 22875 22876 22877 22878 22879 22880 22881 22882 22883 22884 22885 22886 22887 22888 22889 22890 22891 22892 22893 22894 22895 22896 22897 22898 22899 22900 22901 22902 22903 22904 22905 22906 22907 22908 22909 22910 22911 22912 22913 22914 22915 22916 22917 22918 22919 22920 22921 22922 22923 22924 22925 22926 22927 22928 22929 22930 22931 22932 22933 22934 22935 22936 22937 22938 22939 22940 22941 22942 22943 22944 22945 22946 22947 22948 22949 22950 22951 22952 22953 22954 22955 22956 22957 22958 22959 22960 22961 22962 22963 22964 22965 22966 22967 22968 22969 22970 22971 22972 22973 22974 22975 22976 22977 22978 22979 22980 22981 22982 22983 22984 22985 22986 22987 22988 22989 22990 22991 22992 22993 22994 22995 22996 22997 22998 22999 23000 23001 23002 23003 23004 23005 23006 23007 23008 23009 23010 23011 23012 23013 23014 23015 23016 23017 23018 23019 23020 23021 23022 23023 23024 23025 23026 23027 23028 23029 23030 23031 23032 23033 23034 23035 23036 23037 23038 23039 23040 23041 23042 23043 23044 23045 23046 23047 23048 23049 23050 23051 23052 23053 23054 23055 23056 23057 23058 23059 23060 23061 23062 23063 23064 23065 23066 23067 23068 23069 23070 23071 23072 23073 23074 23075 23076 23077 23078 23079 23080 23081 23082 23083 23084 23085 23086 23087 23088 23089 23090 23091 23092 23093 23094 23095 23096 23097 23098 23099 23100 23101 23102 23103 23104 23105 23106 23107 23108 23109 23110 23111 23112 23113 23114 23115 23116 23117 23118 23119 23120 23121 23122 23123 23124 23125 23126 23127 23128 23129 23130 23131 23132 23133 23134 23135 23136 23137 23138 23139 23140 23141 23142 23143 23144 23145 23146 23147 23148 23149 23150 23151 23152 23153 23154 23155 23156 23157 23158 23159 23160 23161 23162 23163 23164 23165 23166 23167 23168 23169 23170 23171 23172 23173 23174 23175 23176 23177 23178 23179 23180 23181 23182 23183 23184 23185 23186 23187 23188 23189 23190 23191 23192 23193 23194 23195 23196 23197 23198 23199 23200 23201 23202 23203 23204 23205 23206 23207 23208 23209 23210 23211 23212 23213 23214 23215 23216 23217 23218 23219 23220 23221 23222 23223 23224 23225 23226 23227 23228 23229 23230 23231 23232 23233 23234 23235 23236 23237 23238 23239 23240 23241 23242 23243 23244 23245 23246 23247 23248 23249 23250 23251 23252 23253 23254 23255 23256 23257 23258 23259 23260 23261 23262 23263 23264 23265 23266 23267 23268 23269 23270 23271 23272 23273 23274 23275 23276 23277 23278 23279 23280 23281 23282 23283 23284 23285 23286 23287 23288 23289 23290 23291 23292 23293 23294 23295 23296 23297 23298 23299 23300 23301 23302 23303 23304 23305 23306 23307 23308 23309 23310 23311 23312 23313 23314 23315 23316 23317 23318 23319 23320 23321 23322 23323 23324 23325 23326 23327 23328 23329 23330 23331 23332 23333 23334 23335 23336 23337 23338 23339 23340 23341 23342 23343 23344 23345 23346 23347 23348 23349 23350 23351 23352 23353 23354 23355 23356 23357 23358 23359 23360 23361 23362 23363 23364 23365 23366 23367 23368 23369 23370 23371 23372 23373 23374 23375 23376 23377 23378 23379 23380 23381 23382 23383 23384 23385 23386 23387 23388 23389 23390 23391 23392 23393 23394 23395 23396 23397 23398 23399 23400 23401 23402 23403 23404 23405 23406 23407 23408 23409 23410 23411 23412 23413 23414 23415 23416 23417 23418 23419 23420 23421 23422 23423 23424 23425 23426 23427 23428 23429 23430 23431 23432 23433 23434 23435 23436 23437 23438 23439 23440 23441 23442 23443 23444 23445 23446 23447 23448 23449 23450 23451 23452 23453 23454 23455 23456 23457 23458 23459 23460 23461 23462 23463 23464 23465 23466 23467 23468 23469 23470 23471 23472 23473 23474 23475 23476 23477 23478 23479 23480 23481 23482 23483 23484 23485 23486 23487 23488 23489 23490 23491 23492 23493 23494 23495 23496 23497 23498 23499 23500 23501 23502 23503 23504 23505 23506 23507 23508 23509 23510 23511 23512 23513 23514 23515 23516 23517 23518 23519 23520 23521 23522 23523 23524 23525 23526 23527 23528 23529 23530 23531 23532 23533 23534 23535 23536 23537 23538 23539 23540 23541 23542 23543 23544 23545 23546 23547 23548 23549 23550 23551 23552 23553 23554 23555 23556 23557 23558 23559 23560 23561 23562 23563 23564 23565 23566 23567 23568 23569 23570 23571 23572 23573 23574 23575 23576 23577 23578 23579 23580 23581 23582 23583 23584 23585 23586 23587 23588 23589 23590 23591 23592 23593 23594 23595 23596 23597 23598 23599 23600 23601 23602 23603 23604 23605 23606 23607 23608 23609 23610 23611 23612 23613 23614 23615 23616 23617 23618 23619 23620 23621 23622 23623 23624 23625 23626 23627 23628 23629 23630 23631 23632 23633 23634 23635 23636 23637 23638 23639 23640 23641 23642 23643 23644 23645 23646 23647 23648 23649 23650 23651 23652 23653 23654 23655 23656 23657 23658 23659 23660 23661 23662 23663 23664 23665 23666 23667 23668 23669 23670 23671 23672 23673 23674 23675 23676 23677 23678 23679 23680 23681 23682 23683 23684 23685 23686 23687 23688 23689 23690 23691 23692 23693 23694 23695 23696 23697 23698 23699 23700 23701 23702 23703 23704 23705 23706 23707 23708 23709 23710 23711 23712 23713 23714 23715 23716 23717 23718 23719 23720 23721 23722 23723 23724 23725 23726 23727 23728 23729 23730 23731 23732 23733 23734 23735 23736 23737 23738 23739 23740 23741 23742 23743 23744 23745 23746 23747 23748 23749 23750 23751 23752 23753 23754 23755 23756 23757 23758 23759 23760 23761 23762 23763 23764 23765 23766 23767 23768 23769 23770 23771 23772 23773 23774 23775 23776 23777 23778 23779 23780 23781 23782 23783 23784 23785 23786 23787 23788 23789 23790 23791 23792 23793 23794 23795 23796 23797 23798 23799 23800 23801 23802 23803 23804 23805 23806 23807 23808 23809 23810 23811 23812 23813 23814 23815 23816 23817 23818 23819 23820 23821 23822 23823 23824 23825 23826 23827 23828 23829 23830 23831 23832 23833 23834 23835 23836 23837 23838 23839 23840 23841 23842 23843 23844 23845 23846 23847 23848 23849 23850 23851 23852 23853 23854 23855 23856 23857 23858 23859 23860 23861 23862 23863 23864 23865 23866 23867 23868 23869 23870 23871 23872 23873 23874 23875 23876 23877 23878 23879 23880 23881 23882 23883 23884 23885 23886 23887 23888 23889 23890 23891 23892 23893 23894 23895 23896 23897 23898 23899 23900 23901 23902 23903 23904 23905 23906 23907 23908 23909 23910 23911 23912 23913 23914 23915 23916 23917 23918 23919 23920 23921 23922 23923 23924 23925 23926 23927 23928 23929 23930 23931 23932 23933 23934 23935 23936 23937 23938 23939 23940 23941 23942 23943 23944 23945 23946 23947 23948 23949 23950 23951 23952 23953 23954 23955 23956 23957 23958 23959 23960 23961 23962 23963 23964 23965 23966 23967 23968 23969 23970 23971 23972 23973 23974 23975 23976 23977 23978 23979 23980 23981 23982 23983 23984 23985 23986 23987 23988 23989 23990 23991 23992 23993 23994 23995 23996 23997 23998 23999 24000 24001 24002 24003 24004 24005 24006 24007 24008 24009 24010 24011 24012 24013 24014 24015 24016 24017 24018 24019 24020 24021 24022 24023 24024 24025 24026 24027 24028 24029 24030 24031 24032 24033 24034 24035 24036 24037 24038 24039 24040 24041 24042 24043 24044 24045 24046 24047 24048 24049 24050 24051 24052 24053 24054 24055 24056 24057 24058 24059 24060 24061 24062 24063 24064 24065 24066 24067 24068 24069 24070 24071 24072 24073 24074 24075 24076 24077 24078 24079 24080 24081 24082 24083 24084 24085 24086 24087 24088 24089 24090 24091 24092 24093 24094 24095 24096 24097 24098 24099 24100 24101 24102 24103 24104 24105 24106 24107 24108 24109 24110 24111 24112 24113 24114 24115 24116 24117 24118 24119 24120 24121 24122 24123 24124 24125 24126 24127 24128 24129 24130 24131 24132 24133 24134 24135 24136 24137 24138 24139 24140 24141 24142 24143 24144 24145 24146 24147 24148 24149 24150 24151 24152 24153 24154 24155 24156 24157 24158 24159 24160 24161 24162 24163 24164 24165 24166 24167 24168 24169 24170 24171 24172 24173 24174 24175 24176 24177 24178 24179 24180 24181 24182 24183 24184 24185 24186 24187 24188 24189 24190 24191 24192 24193 24194 24195 24196 24197 24198 24199 24200 24201 24202 24203 24204 24205 24206 24207 24208 24209 24210 24211 24212 24213 24214 24215 24216 24217 24218 24219 24220 24221 24222 24223 24224 24225 24226 24227 24228 24229 24230 24231 24232 24233 24234 24235 24236 24237 24238 24239 24240 24241 24242 24243 24244 24245 24246 24247 24248 24249 24250 24251 24252 24253 24254 24255 24256 24257 24258 24259 24260 24261 24262 24263 24264 24265 24266 24267 24268 24269 24270 24271 24272 24273 24274 24275 24276 24277 24278 24279 24280 24281 24282 24283 24284 24285 24286 24287 24288 24289 24290 24291 24292 24293 24294 24295 24296 24297 24298 24299 24300 24301 24302 24303 24304 24305 24306 24307 24308 24309 24310 24311 24312 24313 24314 24315 24316 24317 24318 24319 24320 24321 24322 24323 24324 24325 24326 24327 24328 24329 24330 24331 24332 24333 24334 24335 24336 24337 24338 24339 24340 24341 24342 24343 24344 24345 24346 24347 24348 24349 24350 24351 24352 24353 24354 24355 24356 24357 24358 24359 24360 24361 24362 24363 24364 24365 24366 24367 24368 24369 24370 24371 24372 24373 24374 24375 24376 24377 24378 24379 24380 24381 24382 24383 24384 24385 24386 24387 24388 24389 24390 24391 24392 24393 24394 24395 24396 24397 24398 24399 24400 24401 24402 24403 24404 24405 24406 24407 24408 24409 24410 24411 24412 24413 24414 24415 24416 24417 24418 24419 24420 24421 24422 24423 24424 24425 24426 24427 24428 24429 24430 24431 24432 24433 24434 24435 24436 24437 24438 24439 24440 24441 24442 24443 24444 24445 24446 24447 24448 24449 24450 24451 24452 24453 24454 24455 24456 24457 24458 24459 24460 24461 24462 24463 24464 24465 24466 24467 24468 24469 24470 24471 24472 24473 24474 24475 24476 24477 24478 24479 24480 24481 24482 24483 24484 24485 24486 24487 24488 24489 24490 24491 24492 24493 24494 24495 24496 24497 24498 24499 24500 24501 24502 24503 24504 24505 24506 24507 24508 24509 24510 24511 24512 24513 24514 24515 24516 24517 24518 24519 24520 24521 24522 24523 24524 24525 24526 24527 24528 24529 24530 24531 24532 24533 24534 24535 24536 24537 24538 24539 24540 24541 24542 24543 24544 24545 24546 24547 24548 24549 24550 24551 24552 24553 24554 24555 24556 24557 24558 24559 24560 24561 24562 24563 24564 24565 24566 24567 24568 24569 24570 24571 24572 24573 24574 24575 24576 24577 24578 24579 24580 24581 24582 24583 24584 24585 24586 24587 24588 24589 24590 24591 24592 24593 24594 24595 24596 24597 24598 24599 24600 24601 24602 24603 24604 24605 24606 24607 24608 24609 24610 24611 24612 24613 24614 24615 24616 24617 24618 24619 24620 24621 24622 24623 24624 24625 24626 24627 24628 24629 24630 24631 24632 24633 24634 24635 24636 24637 24638 24639 24640 24641 24642 24643 24644 24645 24646 24647 24648 24649 24650 24651 24652 24653 24654 24655 24656 24657 24658 24659 24660 24661 24662 24663 24664 24665 24666 24667 24668 24669 24670 24671 24672 24673 24674 24675 24676 24677 24678 24679 24680 24681 24682 24683 24684 24685 24686 24687 24688 24689 24690 24691 24692 24693 24694 24695 24696 24697 24698 24699 24700 24701 24702 24703 24704 24705 24706 24707 24708 24709 24710 24711 24712 24713 24714 24715 24716 24717 24718 24719 24720 24721 24722 24723 24724 24725 24726 24727 24728 24729 24730 24731 24732 24733 24734 24735 24736 24737 24738 24739 24740 24741 24742 24743 24744 24745 24746 24747 24748 24749 24750 24751 24752 24753 24754 24755 24756 24757 24758 24759 24760 24761 24762 24763 24764 24765 24766 24767 24768 24769 24770 24771 24772 24773 24774 24775 24776 24777 24778 24779 24780 24781 24782 24783 24784 24785 24786 24787 24788 24789 24790 24791 24792 24793 24794 24795 24796 24797 24798 24799 24800 24801 24802 24803 24804 24805 24806 24807 24808 24809 24810 24811 24812 24813 24814 24815 24816 24817 24818 24819 24820 24821 24822 24823 24824 24825 24826 24827 24828 24829 24830 24831 24832 24833 24834 24835 24836 24837 24838 24839 24840 24841 24842 24843 24844 24845 24846 24847 24848 24849 24850 24851 24852 24853 24854 24855 24856 24857 24858 24859 24860 24861 24862 24863 24864 24865 24866 24867 24868 24869 24870 24871 24872 24873 24874 24875 24876 24877 24878 24879 24880 24881 24882 24883 24884 24885 24886 24887 24888 24889 24890 24891 24892 24893 24894 24895 24896 24897 24898 24899 24900 24901 24902 24903 24904 24905 24906 24907 24908 24909 24910 24911 24912 24913 24914 24915 24916 24917 24918 24919 24920 24921 24922 24923 24924 24925 24926 24927 24928 24929 24930 24931 24932 24933 24934 24935 24936 24937 24938 24939 24940 24941 24942 24943 24944 24945 24946 24947 24948 24949 24950 24951 24952 24953 24954 24955 24956 24957 24958 24959 24960 24961 24962 24963 24964 24965 24966 24967 24968 24969 24970 24971 24972 24973 24974 24975 24976 24977 24978 24979 24980 24981 24982 24983 24984 24985 24986 24987 24988 24989 24990 24991 24992 24993 24994 24995 24996 24997 24998 24999 25000 25001 25002 25003 25004 25005 25006 25007 25008 25009 25010 25011 25012 25013 25014 25015 25016 25017 25018 25019 25020 25021 25022 25023 25024 25025 25026 25027 25028 25029 25030 25031 25032 25033 25034 25035 25036 25037 25038 25039 25040 25041 25042 25043 25044 25045 25046 25047 25048 25049 25050 25051 25052 25053 25054 25055 25056 25057 25058 25059 25060 25061 25062 25063 25064 25065 25066 25067 25068 25069 25070 25071 25072 25073 25074 25075 25076 25077 25078 25079 25080 25081 25082 25083 25084 25085 25086 25087 25088 25089 25090 25091 25092 25093 25094 25095 25096 25097 25098 25099 25100 25101 25102 25103 25104 25105 25106 25107 25108 25109 25110 25111 25112 25113 25114 25115 25116 25117 25118 25119 25120 25121 25122 25123 25124 25125 25126 25127 25128 25129 25130 25131 25132 25133 25134 25135 25136 25137 25138 25139 25140 25141 25142 25143 25144 25145 25146 25147 25148 25149 25150 25151 25152 25153 25154 25155 25156 25157 25158 25159 25160 25161 25162 25163 25164 25165 25166 25167 25168 25169 25170 25171 25172 25173 25174 25175 25176 25177 25178 25179 25180 25181 25182 25183 25184 25185 25186 25187 25188 25189 25190 25191 25192 25193 25194 25195 25196 25197 25198 25199 25200 25201 25202 25203 25204 25205 25206 25207 25208 25209 25210 25211 25212 25213 25214 25215 25216 25217 25218 25219 25220 25221 25222 25223 25224 25225 25226 25227 25228 25229 25230 25231 25232 25233 25234 25235 25236 25237 25238 25239 25240 25241 25242 25243 25244 25245 25246 25247 25248 25249 25250 25251 25252 25253 25254 25255 25256 25257 25258 25259 25260 25261 25262 25263 25264 25265 25266 25267 25268 25269 25270 25271 25272 25273 25274 25275 25276 25277 25278 25279 25280 25281 25282 25283 25284 25285 25286 25287 25288 25289 25290 25291 25292 25293 25294 25295 25296 25297 25298 25299 25300 25301 25302 25303 25304 25305 25306 25307 25308 25309 25310 25311 25312 25313 25314 25315 25316 25317 25318 25319 25320 25321 25322 25323 25324 25325 25326 25327 25328 25329 25330 25331 25332 25333 25334 25335 25336 25337 25338 25339 25340 25341 25342 25343 25344 25345 25346 25347 25348 25349 25350 25351 25352 25353 25354 25355 25356 25357 25358 25359 25360 25361 25362 25363 25364 25365 25366 25367 25368 25369 25370 25371 25372 25373 25374 25375 25376 25377 25378 25379 25380 25381 25382 25383 25384 25385 25386 25387 25388 25389 25390 25391 25392 25393 25394 25395 25396 25397 25398 25399 25400 25401 25402 25403 25404 25405 25406 25407 25408 25409 25410 25411 25412 25413 25414 25415 25416 25417 25418 25419 25420 25421 25422 25423 25424 25425 25426 25427 25428 25429 25430 25431 25432 25433 25434 25435 25436 25437 25438 25439 25440 25441 25442 25443 25444 25445 25446 25447 25448 25449 25450 25451 25452 25453 25454 25455 25456 25457 25458 25459 25460 25461 25462 25463 25464 25465 25466 25467 25468 25469 25470 25471 25472 25473 25474 25475 25476 25477 25478 25479 25480 25481 25482 25483 25484 25485 25486 25487 25488 25489 25490 25491 25492 25493 25494 25495 25496 25497 25498 25499 25500 25501 25502 25503 25504 25505 25506 25507 25508 25509 25510 25511 25512 25513 25514 25515 25516 25517 25518 25519 25520 25521 25522 25523 25524 25525 25526 25527 25528 25529 25530 25531 25532 25533 25534 25535 25536 25537 25538 25539 25540 25541 25542 25543 25544 25545 25546 25547 25548 25549 25550 25551 25552 25553 25554 25555 25556 25557 25558 25559 25560 25561 25562 25563 25564 25565 25566 25567 25568 25569 25570 25571 25572 25573 25574 25575 25576 25577 25578 25579 25580 25581 25582 25583 25584 25585 25586 25587 25588 25589 25590 25591 25592 25593 25594 25595 25596 25597 25598 25599 25600 25601 25602 25603 25604 25605 25606 25607 25608 25609 25610 25611 25612 25613 25614 25615 25616 25617 25618 25619 25620 25621 25622 25623 25624 25625 25626 25627 25628 25629 25630 25631 25632 25633 25634 25635 25636 25637 25638 25639 25640 25641 25642 25643 25644 25645 25646 25647 25648 25649 25650 25651 25652 25653 25654 25655 25656 25657 25658 25659 25660 25661 25662 25663 25664 25665 25666 25667 25668 25669 25670 25671 25672 25673 25674 25675 25676 25677 25678 25679 25680 25681 25682 25683 25684 25685 25686 25687 25688 25689 25690 25691 25692 25693 25694 25695 25696 25697 25698 25699 25700 25701 25702 25703 25704 25705 25706 25707 25708 25709 25710 25711 25712 25713 25714 25715 25716 25717 25718 25719 25720 25721 25722 25723 25724 25725 25726 25727 25728 25729 25730 25731 25732 25733 25734 25735 25736 25737 25738 25739 25740 25741 25742 25743 25744 25745 25746 25747 25748 25749 25750 25751 25752 25753 25754 25755 25756 25757 25758 25759 25760 25761 25762 25763 25764 25765 25766 25767 25768 25769 25770 25771 25772 25773 25774 25775 25776 25777 25778 25779 25780 25781 25782 25783 25784 25785 25786 25787 25788 25789 25790 25791 25792 25793 25794 25795 25796 25797 25798 25799 25800 25801 25802 25803 25804 25805 25806 25807 25808 25809 25810 25811 25812 25813 25814 25815 25816 25817 25818 25819 25820 25821 25822 25823 25824 25825 25826 25827 25828 25829 25830 25831 25832 25833 25834 25835 25836 25837 25838 25839 25840 25841 25842 25843 25844 25845 25846 25847 25848 25849 25850 25851 25852 25853 25854 25855 25856 25857 25858 25859 25860 25861 25862 25863 25864 25865 25866 25867 25868 25869 25870 25871 25872 25873 25874 25875 25876 25877 25878 25879 25880 25881 25882 25883 25884 25885 25886 25887 25888 25889 25890 25891 25892 25893 25894 25895 25896 25897 25898 25899 25900 25901 25902 25903 25904 25905 25906 25907 25908 25909 25910 25911 25912 25913 25914 25915 25916 25917 25918 25919 25920 25921 25922 25923 25924 25925 25926 25927 25928 25929 25930 25931 25932 25933 25934 25935 25936 25937 25938 25939 25940 25941 25942 25943 25944 25945 25946 25947 25948 25949 25950 25951 25952 25953 25954 25955 25956 25957 25958 25959 25960 25961 25962 25963 25964 25965 25966 25967 25968 25969 25970 25971 25972 25973 25974 25975 25976 25977 25978 25979 25980 25981 25982 25983 25984 25985 25986 25987 25988 25989 25990 25991 25992 25993 25994 25995 25996 25997 25998 25999 26000 26001 26002 26003 26004 26005 26006 26007 26008 26009 26010 26011 26012 26013 26014 26015 26016 26017 26018 26019 26020 26021 26022 26023 26024 26025 26026 26027 26028 26029 26030 26031 26032 26033 26034 26035 26036 26037 26038 26039 26040 26041 26042 26043 26044 26045 26046 26047 26048 26049 26050 26051 26052 26053 26054 26055 26056 26057 26058 26059 26060 26061 26062 26063 26064 26065 26066 26067 26068 26069 26070 26071 26072 26073 26074 26075 26076 26077 26078 26079 26080 26081 26082 26083 26084 26085 26086 26087 26088 26089 26090 26091 26092 26093 26094 26095 26096 26097 26098 26099 26100 26101 26102 26103 26104 26105 26106 26107 26108 26109 26110 26111 26112 26113 26114 26115 26116 26117 26118 26119 26120 26121 26122 26123 26124 26125 26126 26127 26128 26129 26130 26131 26132 26133 26134 26135 26136 26137 26138 26139 26140 26141 26142 26143 26144 26145 26146 26147 26148 26149 26150 26151 26152 26153 26154 26155 26156 26157 26158 26159 26160 26161 26162 26163 26164 26165 26166 26167 26168 26169 26170 26171 26172 26173 26174 26175 26176 26177 26178 26179 26180 26181 26182 26183 26184 26185 26186 26187 26188 26189 26190 26191 26192 26193 26194 26195 26196 26197 26198 26199 26200 26201 26202 26203 26204 26205 26206 26207 26208 26209 26210 26211 26212 26213 26214 26215 26216 26217 26218 26219 26220 26221 26222 26223 26224 26225 26226 26227 26228 26229 26230 26231 26232 26233 26234 26235 26236 26237 26238 26239 26240 26241 26242 26243 26244 26245 26246 26247 26248 26249 26250 26251 26252 26253 26254 26255 26256 26257 26258 26259 26260 26261 26262 26263 26264 26265 26266 26267 26268 26269 26270 26271 26272 26273 26274 26275 26276 26277 26278 26279 26280 26281 26282 26283 26284 26285 26286 26287 26288 26289 26290 26291 26292 26293 26294 26295 26296 26297 26298 26299 26300 26301 26302 26303 26304 26305 26306 26307 26308 26309 26310 26311 26312 26313 26314 26315 26316 26317 26318 26319 26320 26321 26322 26323 26324 26325 26326 26327 26328 26329 26330 26331 26332 26333 26334 26335 26336 26337 26338 26339 26340 26341 26342 26343 26344 26345 26346 26347 26348 26349 26350 26351 26352 26353 26354 26355 26356 26357 26358 26359 26360 26361 26362 26363 26364 26365 26366 26367 26368 26369 26370 26371 26372 26373 26374 26375 26376 26377 26378 26379 26380 26381 26382 26383 26384 26385 26386 26387 26388 26389 26390 26391 26392 26393 26394 26395 26396 26397 26398 26399 26400 26401 26402 26403 26404 26405 26406 26407 26408 26409 26410 26411 26412 26413 26414 26415 26416 26417 26418 26419 26420 26421 26422 26423 26424 26425 26426 26427 26428 26429 26430 26431 26432 26433 26434 26435 26436 26437 26438 26439 26440 26441 26442 26443 26444 26445 26446 26447 26448 26449 26450 26451 26452 26453 26454 26455 26456 26457 26458 26459 26460 26461 26462 26463 26464 26465 26466 26467 26468 26469 26470 26471 26472 26473 26474 26475 26476 26477 26478 26479 26480 26481 26482 26483 26484 26485 26486 26487 26488 26489 26490 26491 26492 26493 26494 26495 26496 26497 26498 26499 26500 26501 26502 26503 26504 26505 26506 26507 26508 26509 26510 26511 26512 26513 26514 26515 26516 26517 26518 26519 26520 26521 26522 26523 26524 26525 26526 26527 26528 26529 26530 26531 26532 26533 26534 26535 26536 26537 26538 26539 26540 26541 26542 26543 26544 26545 26546 26547 26548 26549 26550 26551 26552 26553 26554 26555 26556 26557 26558 26559 26560 26561 26562 26563 26564 26565 26566 26567 26568 26569 26570 26571 26572 26573 26574 26575 26576 26577 26578 26579 26580 26581 26582 26583 26584 26585 26586 26587 26588 26589 26590 26591 26592 26593 26594 26595 26596 26597 26598 26599 26600 26601 26602 26603 26604 26605 26606 26607 26608 26609 26610 26611 26612 26613 26614 26615 26616 26617 26618 26619 26620 26621 26622 26623 26624 26625 26626 26627 26628 26629 26630 26631 26632 26633 26634 26635 26636 26637 26638 26639 26640 26641 26642 26643 26644 26645 26646 26647 26648 26649 26650 26651 26652 26653 26654 26655 26656 26657 26658 26659 26660 26661 26662 26663 26664 26665 26666 26667 26668 26669 26670 26671 26672 26673 26674 26675 26676 26677 26678 26679 26680 26681 26682 26683 26684 26685 26686 26687 26688 26689 26690 26691 26692 26693 26694 26695 26696 26697 26698 26699 26700 26701 26702 26703 26704 26705 26706 26707 26708 26709 26710 26711 26712 26713 26714 26715 26716 26717 26718 26719 26720 26721 26722 26723 26724 26725 26726 26727 26728 26729 26730 26731 26732 26733 26734 26735 26736 26737 26738 26739 26740 26741 26742 26743 26744 26745 26746 26747 26748 26749 26750 26751 26752 26753 26754 26755 26756 26757 26758 26759 26760 26761 26762 26763 26764 26765 26766 26767 26768 26769 26770 26771 26772 26773 26774 26775 26776 26777 26778 26779 26780 26781 26782 26783 26784 26785 26786 26787 26788 26789 26790 26791 26792 26793 26794 26795 26796 26797 26798 26799 26800 26801 26802 26803 26804 26805 26806 26807 26808 26809 26810 26811 26812 26813 26814 26815 26816 26817 26818 26819 26820 26821 26822 26823 26824 26825 26826 26827 26828 26829 26830 26831 26832 26833 26834 26835 26836 26837 26838 26839 26840 26841 26842 26843 26844 26845 26846 26847 26848 26849 26850 26851 26852 26853 26854 26855 26856 26857 26858 26859 26860 26861 26862 26863 26864 26865 26866 26867 26868 26869 26870 26871 26872 26873 26874 26875 26876 26877 26878 26879 26880 26881 26882 26883 26884 26885 26886 26887 26888 26889 26890 26891 26892 26893 26894 26895 26896 26897 26898 26899 26900 26901 26902 26903 26904 26905 26906 26907 26908 26909 26910 26911 26912 26913 26914 26915 26916 26917 26918 26919 26920 26921 26922 26923 26924 26925 26926 26927 26928 26929 26930 26931 26932 26933 26934 26935 26936 26937 26938 26939 26940 26941 26942 26943 26944 26945 26946 26947 26948 26949 26950 26951 26952 26953 26954 26955 26956 26957 26958 26959 26960 26961 26962 26963 26964 26965 26966 26967 26968 26969 26970 26971 26972 26973 26974 26975 26976 26977 26978 26979 26980 26981 26982 26983 26984 26985 26986 26987 26988 26989 26990 26991 26992 26993 26994 26995 26996 26997 26998 26999 27000 27001 27002 27003 27004 27005 27006 27007 27008 27009 27010 27011 27012 27013 27014 27015 27016 27017 27018 27019 27020 27021 27022 27023 27024 27025 27026 27027 27028 27029 27030 27031 27032 27033 27034 27035 27036 27037 27038 27039 27040 27041 27042 27043 27044 27045 27046 27047 27048 27049 27050 27051 27052 27053 27054 27055 27056 27057 27058 27059 27060 27061 27062 27063 27064 27065 27066 27067 27068 27069 27070 27071 27072 27073 27074 27075 27076 27077 27078 27079 27080 27081 27082 27083 27084 27085 27086 27087 27088 27089 27090 27091 27092 27093 27094 27095 27096 27097 27098 27099 27100 27101 27102 27103 27104 27105 27106 27107 27108 27109 27110 27111 27112 27113 27114 27115 27116 27117 27118 27119 27120 27121 27122 27123 27124 27125 27126 27127 27128 27129 27130 27131 27132 27133 27134 27135 27136 27137 27138 27139 27140 27141 27142 27143 27144 27145 27146 27147 27148 27149 27150 27151 27152 27153 27154 27155 27156 27157 27158 27159 27160 27161 27162 27163 27164 27165 27166 27167 27168 27169 27170 27171 27172 27173 27174 27175 27176 27177 27178 27179 27180 27181 27182 27183 27184 27185 27186 27187 27188 27189 27190 27191 27192 27193 27194 27195 27196 27197 27198 27199 27200 27201 27202 27203 27204 27205 27206 27207 27208 27209 27210 27211 27212 27213 27214 27215 27216 27217 27218 27219 27220 27221 27222 27223 27224 27225 27226 27227 27228 27229 27230 27231 27232 27233 27234 27235 27236 27237 27238 27239 27240 27241 27242 27243 27244 27245 27246 27247 27248 27249 27250 27251 27252 27253 27254 27255 27256 27257 27258 27259 27260 27261 27262 27263 27264 27265 27266 27267 27268 27269 27270 27271 27272 27273 27274 27275 27276 27277 27278 27279 27280 27281 27282 27283 27284 27285 27286 27287 27288 27289 27290 27291 27292 27293 27294 27295 27296 27297 27298 27299 27300 27301 27302 27303 27304 27305 27306 27307 27308 27309 27310 27311 27312 27313 27314 27315 27316 27317 27318 27319 27320 27321 27322 27323 27324 27325 27326 27327 27328 27329 27330 27331 27332 27333 27334 27335 27336 27337 27338 27339 27340 27341 27342 27343 27344 27345 27346 27347 27348 27349 27350 27351 27352 27353 27354 27355 27356 27357 27358 27359 27360 27361 27362 27363 27364 27365 27366 27367 27368 27369 27370 27371 27372 27373 27374 27375 27376 27377 27378 27379 27380 27381 27382 27383 27384 27385 27386 27387 27388 27389 27390 27391 27392 27393 27394 27395 27396 27397 27398 27399 27400 27401 27402 27403 27404 27405 27406 27407 27408 27409 27410 27411 27412 27413 27414 27415 27416 27417 27418 27419 27420 27421 27422 27423 27424 27425 27426 27427 27428 27429 27430 27431 27432 27433 27434 27435 27436 27437 27438 27439 27440 27441 27442 27443 27444 27445 27446 27447 27448 27449 27450 27451 27452 27453 27454 27455 27456 27457 27458 27459 27460 27461 27462 27463 27464 27465 27466 27467 27468 27469 27470 27471 27472 27473 27474 27475 27476 27477 27478 27479 27480 27481 27482 27483 27484 27485 27486 27487 27488 27489 27490 27491 27492 27493 27494 27495 27496 27497 27498 27499 27500 27501 27502 27503 27504 27505 27506 27507 27508 27509 27510 27511 27512 27513 27514 27515 27516 27517 27518 27519 27520 27521 27522 27523 27524 27525 27526 27527 27528 27529 27530 27531 27532 27533 27534 27535 27536 27537 27538 27539 27540 27541 27542 27543 27544 27545 27546 27547 27548 27549 27550 27551 27552 27553 27554 27555 27556 27557 27558 27559 27560 27561 27562 27563 27564 27565 27566 27567 27568 27569 27570 27571 27572 27573 27574 27575 27576 27577 27578 27579 27580 27581 27582 27583 27584 27585 27586 27587 27588 27589 27590 27591 27592 27593 27594 27595 27596 27597 27598 27599 27600 27601 27602 27603 27604 27605 27606 27607 27608 27609 27610 27611 27612 27613 27614 27615 27616 27617 27618 27619 27620 27621 27622 27623 27624 27625 27626 27627 27628 27629 27630 27631 27632 27633 27634 27635 27636 27637 27638 27639 27640 27641 27642 27643 27644 27645 27646 27647 27648 27649 27650 27651 27652 27653 27654 27655 27656 27657 27658 27659 27660 27661 27662 27663 27664 27665 27666 27667 27668 27669 27670 27671 27672 27673 27674 27675 27676 27677 27678 27679 27680 27681 27682 27683 27684 27685 27686 27687 27688 27689 27690 27691 27692 27693 27694 27695 27696 27697 27698 27699 27700 27701 27702 27703 27704 27705 27706 27707 27708 27709 27710 27711 27712 27713 27714 27715 27716 27717 27718 27719 27720 27721 27722 27723 27724 27725 27726 27727 27728 27729 27730 27731 27732 27733 27734 27735 27736 27737 27738 27739 27740 27741 27742 27743 27744 27745 27746 27747 27748 27749 27750 27751 27752 27753 27754 27755 27756 27757 27758 27759 27760 27761 27762 27763 27764 27765 27766 27767 27768 27769 27770 27771 27772 27773 27774 27775 27776 27777 27778 27779 27780 27781 27782 27783 27784 27785 27786 27787 27788 27789 27790 27791 27792 27793 27794 27795 27796 27797 27798 27799 27800 27801 27802 27803 27804 27805 27806 27807 27808 27809 27810 27811 27812 27813 27814 27815 27816 27817 27818 27819 27820 27821 27822 27823 27824 27825 27826 27827 27828 27829 27830 27831 27832 27833 27834 27835 27836 27837 27838 27839 27840 27841 27842 27843 27844 27845 27846 27847 27848 27849 27850 27851 27852 27853 27854 27855 27856 27857 27858 27859 27860 27861 27862 27863 27864 27865 27866 27867 27868 27869 27870 27871 27872 27873 27874 27875 27876 27877 27878 27879 27880 27881 27882 27883 27884 27885 27886 27887 27888 27889 27890 27891 27892 27893 27894 27895 27896 27897 27898 27899 27900 27901 27902 27903 27904 27905 27906 27907 27908 27909 27910 27911 27912 27913 27914 27915 27916 27917 27918 27919 27920 27921 27922 27923 27924 27925 27926 27927 27928 27929 27930 27931 27932 27933 27934 27935 27936 27937 27938 27939 27940 27941 27942 27943 27944 27945 27946 27947 27948 27949 27950 27951 27952 27953 27954 27955 27956 27957 27958 27959 27960 27961 27962 27963 27964 27965 27966 27967 27968 27969 27970 27971 27972 27973 27974 27975 27976 27977 27978 27979 27980 27981 27982 27983 27984 27985 27986 27987 27988 27989 27990 27991 27992 27993 27994 27995 27996 27997 27998 27999 28000 28001 28002 28003 28004 28005 28006 28007 28008 28009 28010 28011 28012 28013 28014 28015 28016 28017 28018 28019 28020 28021 28022 28023 28024 28025 28026 28027 28028 28029 28030 28031 28032 28033 28034 28035 28036 28037 28038 28039 28040 28041 28042 28043 28044 28045 28046 28047 28048 28049 28050 28051 28052 28053 28054 28055 28056 28057 28058 28059 28060 28061 28062 28063 28064 28065 28066 28067 28068 28069 28070 28071 28072 28073 28074 28075 28076 28077 28078 28079 28080 28081 28082 28083 28084 28085 28086 28087 28088 28089 28090 28091 28092 28093 28094 28095 28096 28097 28098 28099 28100 28101 28102 28103 28104 28105 28106 28107 28108 28109 28110 28111 28112 28113 28114 28115 28116 28117 28118 28119 28120 28121 28122 28123 28124 28125 28126 28127 28128 28129 28130 28131 28132 28133 28134 28135 28136 28137 28138 28139 28140 28141 28142 28143 28144 28145 28146 28147 28148 28149 28150 28151 28152 28153 28154 28155 28156 28157 28158 28159 28160 28161 28162 28163 28164 28165 28166 28167 28168 28169 28170 28171 28172 28173 28174 28175 28176 28177 28178 28179 28180 28181 28182 28183 28184 28185 28186 28187 28188 28189 28190 28191 28192 28193 28194 28195 28196 28197 28198 28199 28200 28201 28202 28203 28204 28205 28206 28207 28208 28209 28210 28211 28212 28213 28214 28215 28216 28217 28218 28219 28220 28221 28222 28223 28224 28225 28226 28227 28228 28229 28230 28231 28232 28233 28234 28235 28236 28237 28238 28239 28240 28241 28242 28243 28244 28245 28246 28247 28248 28249 28250 28251 28252 28253 28254 28255 28256 28257 28258 28259 28260 28261 28262 28263 28264 28265 28266 28267 28268 28269 28270 28271 28272 28273 28274 28275 28276 28277 28278 28279 28280 28281 28282 28283 28284 28285 28286 28287 28288 28289 28290 28291 28292 28293 28294 28295 28296 28297 28298 28299 28300 28301 28302 28303 28304 28305 28306 28307 28308 28309 28310 28311 28312 28313 28314 28315 28316 28317 28318 28319 28320 28321 28322 28323 28324 28325 28326 28327 28328 28329 28330 28331 28332 28333 28334 28335 28336 28337 28338 28339 28340 28341 28342 28343 28344 28345 28346 28347 28348 28349 28350 28351 28352 28353 28354 28355 28356 28357 28358 28359 28360 28361 28362 28363 28364 28365 28366 28367 28368 28369 28370 28371 28372 28373 28374 28375 28376 28377 28378 28379 28380 28381 28382 28383 28384 28385 28386 28387 28388 28389 28390 28391 28392 28393 28394 28395 28396 28397 28398 28399 28400 28401 28402 28403 28404 28405 28406 28407 28408 28409 28410 28411 28412 28413 28414 28415 28416 28417 28418 28419 28420 28421 28422 28423 28424 28425 28426 28427 28428 28429 28430 28431 28432 28433 28434 28435 28436 28437 28438 28439 28440 28441 28442 28443 28444 28445 28446 28447 28448 28449 28450 28451 28452 28453 28454 28455 28456 28457 28458 28459 28460 28461 28462 28463 28464 28465 28466 28467 28468 28469 28470 28471 28472 28473 28474 28475 28476 28477 28478 28479 28480 28481 28482 28483 28484 28485 28486 28487 28488 28489 28490 28491 28492 28493 28494 28495 28496 28497 28498 28499 28500 28501 28502 28503 28504 28505 28506 28507 28508 28509 28510 28511 28512 28513 28514 28515 28516 28517 28518 28519 28520 28521 28522 28523 28524 28525 28526 28527 28528 28529 28530 28531 28532 28533 28534 28535 28536 28537 28538 28539 28540 28541 28542 28543 28544 28545 28546 28547 28548 28549 28550 28551 28552 28553 28554 28555 28556 28557 28558 28559 28560 28561 28562 28563 28564 28565 28566 28567 28568 28569 28570 28571 28572 28573 28574 28575 28576 28577 28578 28579 28580 28581 28582 28583 28584 28585 28586 28587 28588 28589 28590 28591 28592 28593 28594 28595 28596 28597 28598 28599 28600 28601 28602 28603 28604 28605 28606 28607 28608 28609 28610 28611 28612 28613 28614 28615 28616 28617 28618 28619 28620 28621 28622 28623 28624 28625 28626 28627 28628 28629 28630 28631 28632 28633 28634 28635 28636 28637 28638 28639 28640 28641 28642 28643 28644 28645 28646 28647 28648 28649 28650 28651 28652 28653 28654 28655 28656 28657 28658 28659 28660 28661 28662 28663 28664 28665 28666 28667 28668 28669 28670 28671 28672 28673 28674 28675 28676 28677 28678 28679 28680 28681 28682 28683 28684 28685 28686 28687 28688 28689 28690 28691 28692 28693 28694 28695 28696 28697 28698 28699 28700 28701 28702 28703 28704 28705 28706 28707 28708 28709 28710 28711 28712 28713 28714 28715 28716 28717 28718 28719 28720 28721 28722 28723 28724 28725 28726 28727 28728 28729 28730 28731 28732 28733 28734 28735 28736 28737 28738 28739 28740 28741 28742 28743 28744 28745 28746 28747 28748 28749 28750 28751 28752 28753 28754 28755 28756 28757 28758 28759 28760 28761 28762 28763 28764 28765 28766 28767 28768 28769 28770 28771 28772 28773 28774 28775 28776 28777 28778 28779 28780 28781 28782 28783 28784 28785 28786 28787 28788 28789 28790 28791 28792 28793 28794 28795 28796 28797 28798 28799 28800 28801 28802 28803 28804 28805 28806 28807 28808 28809 28810 28811 28812 28813 28814 28815 28816 28817 28818 28819 28820 28821 28822 28823 28824 28825 28826 28827 28828 28829 28830 28831 28832 28833 28834 28835 28836 28837 28838 28839 28840 28841 28842 28843 28844 28845 28846 28847 28848 28849 28850 28851 28852 28853 28854 28855 28856 28857 28858 28859 28860 28861 28862 28863 28864 28865 28866 28867 28868 28869 28870 28871 28872 28873 28874 28875 28876 28877 28878 28879 28880 28881 28882 28883 28884 28885 28886 28887 28888 28889 28890 28891 28892 28893 28894 28895 28896 28897 28898 28899 28900 28901 28902 28903 28904 28905 28906 28907 28908 28909 28910 28911 28912 28913 28914 28915 28916 28917 28918 28919 28920 28921 28922 28923 28924 28925 28926 28927 28928 28929 28930 28931 28932 28933 28934 28935 28936 28937 28938 28939 28940 28941 28942 28943 28944 28945 28946 28947 28948 28949 28950 28951 28952 28953 28954 28955 28956 28957 28958 28959 28960 28961 28962 28963 28964 28965 28966 28967 28968 28969 28970 28971 28972 28973 28974 28975 28976 28977 28978 28979 28980 28981 28982 28983 28984 28985 28986 28987 28988 28989 28990 28991 28992 28993 28994 28995 28996 28997 28998 28999 29000 29001 29002 29003 29004 29005 29006 29007 29008 29009 29010 29011 29012 29013 29014 29015 29016 29017 29018 29019 29020 29021 29022 29023 29024 29025 29026 29027 29028 29029 29030 29031 29032 29033 29034 29035 29036 29037 29038 29039 29040 29041 29042 29043 29044 29045 29046 29047 29048 29049 29050 29051 29052 29053 29054 29055 29056 29057 29058 29059 29060 29061 29062 29063 29064 29065 29066 29067 29068 29069 29070 29071 29072 29073 29074 29075 29076 29077 29078 29079 29080 29081 29082 29083 29084 29085 29086 29087 29088 29089 29090 29091 29092 29093 29094 29095 29096 29097 29098 29099 29100 29101 29102 29103 29104 29105 29106 29107 29108 29109 29110 29111 29112 29113 29114 29115 29116 29117 29118 29119 29120 29121 29122 29123 29124 29125 29126 29127 29128 29129 29130 29131 29132 29133 29134 29135 29136 29137 29138 29139 29140 29141 29142 29143 29144 29145 29146 29147 29148 29149 29150 29151 29152 29153 29154 29155 29156 29157 29158 29159 29160 29161 29162 29163 29164 29165 29166 29167 29168 29169 29170 29171 29172 29173 29174 29175 29176 29177 29178 29179 29180 29181 29182 29183 29184 29185 29186 29187 29188 29189 29190 29191 29192 29193 29194 29195 29196 29197 29198 29199 29200 29201 29202 29203 29204 29205 29206 29207 29208 29209 29210 29211 29212 29213 29214 29215 29216 29217 29218 29219 29220 29221 29222 29223 29224 29225 29226 29227 29228 29229 29230 29231 29232 29233 29234 29235 29236 29237 29238 29239 29240 29241 29242 29243 29244 29245 29246 29247 29248 29249 29250 29251 29252 29253 29254 29255 29256 29257 29258 29259 29260 29261 29262 29263 29264 29265 29266 29267 29268 29269 29270 29271 29272 29273 29274 29275 29276 29277 29278 29279 29280 29281 29282 29283 29284 29285 29286 29287 29288 29289 29290 29291 29292 29293 29294 29295 29296 29297 29298 29299 29300 29301 29302 29303 29304 29305 29306 29307 29308 29309 29310 29311 29312 29313 29314 29315 29316 29317 29318 29319 29320 29321 29322 29323 29324 29325 29326 29327 29328 29329 29330 29331 29332 29333 29334 29335 29336 29337 29338 29339 29340 29341 29342 29343 29344 29345 29346 29347 29348 29349 29350 29351 29352 29353 29354 29355 29356 29357 29358 29359 29360 29361 29362 29363 29364 29365 29366 29367 29368 29369 29370 29371 29372 29373 29374 29375 29376 29377 29378 29379 29380 29381 29382 29383 29384 29385 29386 29387 29388 29389 29390 29391 29392 29393 29394 29395 29396 29397 29398 29399 29400 29401 29402 29403 29404 29405 29406 29407 29408 29409 29410 29411 29412 29413 29414 29415 29416 29417 29418 29419 29420 29421 29422 29423 29424 29425 29426 29427 29428 29429 29430 29431 29432 29433 29434 29435 29436 29437 29438 29439 29440 29441 29442 29443 29444 29445 29446 29447 29448 29449 29450 29451 29452 29453 29454 29455 29456 29457 29458 29459 29460 29461 29462 29463 29464 29465 29466 29467 29468 29469 29470 29471 29472 29473 29474 29475 29476 29477 29478 29479 29480 29481 29482 29483 29484 29485 29486 29487 29488 29489 29490 29491 29492 29493 29494 29495 29496 29497 29498 29499 29500 29501 29502 29503 29504 29505 29506 29507 29508 29509 29510 29511 29512 29513 29514 29515 29516 29517 29518 29519 29520 29521 29522 29523 29524 29525 29526 29527 29528 29529 29530 29531 29532 29533 29534 29535 29536 29537 29538 29539 29540 29541 29542 29543 29544 29545 29546 29547 29548 29549 29550 29551 29552 29553 29554 29555 29556 29557 29558 29559 29560 29561 29562 29563 29564 29565 29566 29567 29568 29569 29570 29571 29572 29573 29574 29575 29576 29577 29578 29579 29580 29581 29582 29583 29584 29585 29586 29587 29588 29589 29590 29591 29592 29593 29594 29595 29596 29597 29598 29599 29600 29601 29602 29603 29604 29605 29606 29607 29608 29609 29610 29611 29612 29613 29614 29615 29616 29617 29618 29619 29620 29621 29622 29623 29624 29625 29626 29627 29628 29629 29630 29631 29632 29633 29634 29635 29636 29637 29638 29639 29640 29641 29642 29643 29644 29645 29646 29647 29648 29649 29650 29651 29652 29653 29654 29655 29656 29657 29658 29659 29660 29661 29662 29663 29664 29665 29666 29667 29668 29669 29670 29671 29672 29673 29674 29675 29676 29677 29678 29679 29680 29681 29682 29683 29684 29685 29686 29687 29688 29689 29690 29691 29692 29693 29694 29695 29696 29697 29698 29699 29700 29701 29702 29703 29704 29705 29706 29707 29708 29709 29710 29711 29712 29713 29714 29715 29716 29717 29718 29719 29720 29721 29722 29723 29724 29725 29726 29727 29728 29729 29730 29731 29732 29733 29734 29735 29736 29737 29738 29739 29740 29741 29742 29743 29744 29745 29746 29747 29748 
</DataArray>
<DataArray type="UInt32" Name="offsets" format="ascii">
3 6 9 12 15 18 21 24 27 30 33 36 39 42 45 48 51 54 56 59 62 64 67 69 71 74 77 80 82 85 88 90 93 96 99 102 105 108 110 112 115 118 120 123 126 129 132 135 138 141 144 146 149 152 155 157 160 163 165 168 171 174 177 180 183 186 189 192 195 198 201 204 207 210 213 216 219 222 225 228 231 234 237 240 243 246 248 251 254 257 259 262 265 268 270 273 275 278 281 284 287 290 293 296 298 301 304 307 310 313 316 318 321 324 327 330 333 336 339 342 345 348 351 354 357 359 362 365 368 371 374 377 379 382 384 387 390 392 395 398 400 403 406 409 411 414 417 420 423 426 429 432 435 438 441 444 447 450 453 456 459 461 464 467 470 473 476 479 482 485 487 490 493 496 498 501 504 507 510 513 516 519 522 524 527 530 533 536 538 540 543 546 548 551 554 556 559 562 565 568 571 574 577 580 583 586 589 592 595 598 601 604 607 610 613 616 619 622 625 628 631 634 637 640 643 646 649 652 655 658 661 664 667 670 673 675 678 681 683 686 689 692 695 698 701 704 707 710 713 716 719 722 725 728 731 734 737 740 743 746 749 752 755 758 761 763 766 769 772 774 777 780 782 785 788 790 793 796 799 802 805 807 810 812 815 817 819 822 825 828 831 833 835 837 840 843 846 849 852 854 857 860 862 865 867 870 873 876 879 882 885 888 890 893 896 899 902 905 908 910 913 916 919 922 925 928 931 934 937 940 943 946 949 952 955 958 961 964 967 969 971 973 976 978 980 983 986 989 991 993 996 999 1002 1004 1006 1009 1011 1014 1016 1019 1022 1025 1028 1031 1034 1037 1040 1042 1045 1048 1051 1054 1057 1060 1063 1066 1069 1072 1075 1078 1080 1083 1086 1089 1092 1095 1098 1101 1104 1107 1110 1113 1116 1119 1122 1125 1128 1131 1134 1137 1140 1143 1146 1149 1152 1155 1157 1160 1163 1166 1169 1171 1174 1177 1180 1183 1185 1188 1191 1194 1197 1200 1203 1206 1209 1212 1215 1218 1221 1224 1227 1230 1233 1236 1239 1241 1244 1247 1250 1253 1256 1259 1262 1265 1268 1271 1274 1277 1280 1282 1285 1288 1291 1294 1297 1300 1303 1306 1309 1312 1315 1318 1321 1324 1327 1330 1333 1336 1339 1342 1345 1348 1351 1354 1357 1360 1363 1366 1369 1372 1375 1378 1381 1384 1387 1390 1393 1396 1399 1402 1405 1408 1411 1414 1417 1420 1423 1426 1429 1432 1435 1438 1440 1443 1446 1449 1452 1455 1458 1461 1464 1467 1469 1472 1475 1478 1481 1483 1486 1489 1492 1495 1498 1501 1504 1507 1510 1513 1516 1519 1522 1525 1528 1531 1533 1536 1539 1542 1545 1548 1551 1554 1557 1559 1562 1565 1568 1571 1574 1577 1580 1583 1586 1589 1592 1595 1598 1601 1604 1607 1610 1613 1616 1619 1622 1625 1628 1631 1634 1637 1640 1643 1646 1649 1651 1654 1657 1659 1662 1665 1668 1670 1673 1676 1679 1682 1685 1688 1691 1694 1697 1700 1703 1705 1708 1711 1714 1717 1720 1723 1726 1729 1732 1735 1738 1741 1744 1747 1750 1753 1756 1759 1762 1765 1768 1771 1774 1777 1779 1781 1784 1786 1788 1791 1794 1797 1800 1803 1806 1809 1812 1815 1817 1820 1823 1826 1828 1831 1833 1836 1839 1841 1844 1847 1850 1853 1856 1858 1861 1864 1866 1869 1872 1875 1878 1881 1884 1887 1890 1893 1896 1899 1902 1904 1906 1909 1912 1915 1918 1920 1923 1926 1929 1932 1935 1938 1941 1943 1946 1949 1951 1954 1956 1959 1962 1965 1967 1969 1972 1975 1977 1979 1982 1985 1987 1990 1993 1995 1998 2001 2003 2006 2008 2011 2014 2017 2020 2023 2026 2028 2031 2034 2037 2040 2043 2046 2049 2052 2055 2058 2061 2064 2066 2069 2072 2075 2078 2080 2083 2086 2088 2091 2094 2097 2100 2103 2106 2109 2112 2115 2118 2121 2124 2127 2130 2133 2136 2139 2142 2145 2148 2151 2154 2157 2160 2163 2166 2169 2172 2175 2178 2181 2184 2187 2190 2193 2196 2199 2202 2205 2208 2211 2214 2217 2220 2223 2226 2229 2232 2235 2238 2241 2244 2247 2250 2253 2256 2259 2262 2265 2268 2271 2274 2277 2280 2283 2286 2288 2291 2294 2297 2300 2302 2305 2308 2311 2314 2317 2320 2323 2326 2329 2332 2335 2338 2341 2344 2347 2350 2353 2356 2359 2362 2365 2368 2371 2374 2377 2380 2383 2386 2389 2392 2395 2397 2400 2403 2406 2409 2412 2415 2417 2420 2423 2426 2429 2432 2435 2438 2441 2444 2447 2450 2453 2456 2459 2462 2465 2468 2471 2474 2477 2480 2483 2485 2488 2491 2494 2497 2499 2502 2505 2508 2510 2513 2516 2519 2522 2525 2528 2531 2534 2537 2540 2543 2546 2549 2551 2554 2557 2559 2561 2564 2567 2570 2573 2576 2579 2581 2583 2585 2588 2591 2594 2597 2600 2603 2606 2609 2612 2615 2618 2621 2624 2627 2630 2633 2636 2639 2641 2644 2647 2650 2653 2656 2658 2661 2664 2666 2669 2672 2675 2677 2680 2683 2686 2688 2691 2694 2697 2700 2703 2705 2708 2711 2714 2717 2719 2722 2725 2728 2731 2734 2737 2740 2743 2745 2748 2751 2754 2757 2760 2763 2766 2769 2772 2774 2777 2780 2783 2785 2788 2791 2794 2797 2800 2803 2806 2809 2812 2815 2818 2821 2824 2827 2830 2833 2836 2839 2842 2845 2848 2851 2854 2857 2860 2863 2866 2868 2871 2874 2876 2879 2882 2885 2887 2890 2892 2895 2898 2900 2903 2905 2908 2911 2914 2917 2920 2922 2925 2928 2930 2932 2934 2937 2940 2942 2945 2948 2951 2953 2955 2958 2961 2963 2966 2969 2972 2975 2978 2981 2983 2986 2989 2992 2995 2998 3001 3004 3007 3010 3012 3015 3018 3021 3024 3027 3030 3033 3036 3039 3042 3045 3048 3051 3054 3057 3060 3063 3066 3069 3072 3075 3078 3081 3084 3087 3090 3093 3096 3099 3102 3105 3108 3111 3114 3117 3120 3123 3125 3127 3130 3133 3136 3139 3142 3145 3148 3151 3154 3157 3160 3163 3166 3169 3172 3175 3178 3181 3184 3187 3190 3193 3196 3199 3202 3205 3208 3211 3214 3217 3220 3223 3226 3229 3232 3235 3238 3241 3244 3247 3250 3252 3255 3258 3261 3264 3266 3269 3272 3275 3278 3281 3284 3287 3290 3293 3296 3299 3302 3305 3308 3311 3314 3317 3320 3323 3326 3329 3332 3335 3338 3341 3344 3346 3349 3352 3355 3358 3361 3364 3367 3370 3373 3376 3379 3382 3385 3388 3390 3393 3396 3399 3402 3405 3407 3410 3413 3416 3419 3421 3424 3427 3430 3432 3435 3438 3440 3443 3445 3448 3450 3453 3456 3458 3461 3464 3467 3470 3473 3476 3479 3481 3484 3487 3490 3493 3496 3499 3502 3505 3508 3511 3514 3517 3520 3523 3526 3529 3532 3535 3538 3541 3544 3547 3550 3553 3556 3559 3562 3565 3568 3571 3574 3577 3580 3582 3585 3588 3591 3593 3596 3599 3602 3604 3607 3610 3613 3616 3619 3622 3625 3628 3631 3633 3636 3639 3642 3644 3647 3650 3653 3656 3658 3661 3663 3666 3669 3672 3675 3678 3681 3684 3687 3690 3693 3696 3699 3702 3705 3708 3711 3714 3717 3720 3723 3726 3729 3732 3735 3738 3741 3744 3747 3750 3753 3756 3759 3762 3765 3768 3771 3773 3776 3779 3781 3784 3786 3789 3791 3794 3797 3799 3801 3804 3807 3810 3812 3815 3817 3820 3823 3826 3829 3832 3835 3838 3840 3843 3846 3848 3851 3854 3856 3859 3862 3865 3868 3870 3872 3875 3878 3881 3883 3885 3888 3890 3893 3896 3899 3902 3905 3908 3910 3913 3915 3917 3920 3922 3925 3928 3931 3934 3937 3939 3942 3945 3948 3951 3954 3957 3960 3962 3964 3967 3969 3972 3975 3977 3980 3982 3985 3988 3991 3994 3997 4000 4003 4006 4008 4011 4014 4016 4019 4021 4024 4027 4030 4033 4036 4039 4042 4045 4048 4051 4053 4056 4059 4062 4064 4066 4069 4072 4074 4077 4080 4083 4086 4089 4092 4094 4097 4100 4103 4106 4109 4112 4115 4118 4120 4122 4125 4128 4131 4134 4137 4140 4143 4146 4149 4152 4155 4158 4161 4164 4166 4169 4172 4175 4178 4181 4184 4186 4189 4191 4194 4196 4199 4201 4204 4207 4210 4213 4216 4219 4222 4225 4228 4230 4232 4235 4238 4241 4244 4247 4250 4253 4256 4259 4262 4265 4268 4271 4274 4277 4280 4282 4285 4288 4290 4293 4296 4299 4302 4305 4308 4311 4314 4317 4320 4322 4325 4328 4331 4334 4337 4340 4343 4345 4348 4350 4352 4355 4358 4360 4363 4366 4369 4372 4375 4378 4381 4384 4386 4389 4392 4395 4397 4400 4403 4406 4408 4411 4414 4417 4420 4423 4426 4429 4432 4435 4438 4441 4444 4447 4450 4453 4456 4459 4462 4465 4468 4471 4473 4476 4479 4482 4485 4488 4491 4494 4497 4500 4503 4506 4509 4512 4515 4518 4521 4524 4527 4530 4533 4536 4539 4542 4545 4548 4550 4553 4556 4559 4562 4565 4568 4571 4574 4577 4580 4583 4586 4589 4592 4595 4597 4600 4603 4606 4609 4612 4615 4618 4621 4624 4627 4630 4633 4635 4637 4640 4643 4645 4647 4650 4653 4656 4659 4661 4663 4666 4669 4672 4675 4678 4681 4683 4685 4688 4691 4694 4697 4699 4702 4705 4707 4710 4713 4716 4719 4721 4724 4727 4730 4733 4735 4738 4741 4744 4746 4749 4751 4754 4756 4758 4761 4764 4767 4769 4771 4773 4775 4778 4781 4783 4786 4788 4791 4794 4796 4799 4802 4805 4807 4809 4812 4814 4817 4820 4823 4826 4829 4832 4835 4838 4841 4844 4847 4850 4853 4856 4859 4862 4865 4868 4870 4873 4876 4879 4882 4885 4887 4890 4893 4896 4899 4901 4904 4907 4910 4913 4916 4919 4922 4924 4926 4929 4932 4934 4937 4940 4943 4946 4949 4952 4955 4958 4961 4964 4967 4970 4973 4976 4979 4982 4985 4988 4991 4994 4997 5000 5003 5006 5009 5012 5015 5018 5021 5024 5027 5030 5033 5036 5039 5042 5044 5047 5050 5053 5055 5058 5061 5064 5067 5070 5073 5076 5079 5082 5085 5088 5091 5094 5097 5100 5103 5106 5109 5111 5114 5117 5119 5122 5125 5128 5131 5134 5136 5139 5141 5144 5147 5150 5153 5156 5159 5162 5165 5168 5171 5174 5176 5178 5181 5184 5186 5189 5191 5194 5197 5200 5203 5205 5208 5210 5213 5215 5218 5221 5223 5225 5228 5231 5233 5236 5239 5242 5245 5248 5251 5254 5256 5259 5262 5265 5267 5270 5273 5276 5279 5281 5283 5286 5289 5292 5295 5298 5301 5303 5306 5309 5312 5315 5317 5320 5323 5326 5329 5332 5335 5338 5341 5344 5347 5350 5353 5356 5359 5362 5365 5367 5370 5373 5376 5379 5381 5384 5387 5390 5393 5395 5398 5400 5403 5406 5409 5412 5415 5417 5420 5423 5426 5429 5432 5435 5438 5440 5443 5446 5449 5451 5453 5456 5459 5462 5464 5467 5469 5472 5475 5478 5481 5483 5486 5489 5492 5495 5497 5500 5503 5506 5509 5512 5514 5517 5520 5522 5525 5527 5530 5532 5535 5538 5541 5544 5546 5549 5552 5555 5558 5561 5564 5567 5570 5573 5576 5579 5581 5584 5587 5590 5593 5596 5599 5602 5604 5607 5610 5613 5616 5619 5622 5625 5628 5631 5634 5636 5639 5642 5645 5648 5651 5654 5657 5659 5662 5665 5667 5670 5673 5676 5679 5682 5685 5688 5691 5694 5697 5700 5703 5706 5709 5712 5715 5718 5721 5724 5727 5730 5733 5735 5738 5740 5743 5746 5748 5751 5754 5757 5760 5763 5765 5768 5771 5774 5776 5779 5781 5784 5787 5790 5793 5796 5799 5802 5805 5808 5811 5814 5816 5819 5822 5825 5828 5831 5834 5837 5840 5843 5846 5849 5852 5855 5858 5861 5863 5866 5869 5872 5875 5878 5881 5884 5887 5890 5892 5895 5898 5900 5903 5906 5908 5911 5914 5917 5920 5923 5926 5929 5932 5935 5938 5940 5943 5946 5949 5952 5954 5957 5959 5961 5963 5966 5969 5971 5974 5976 5979 5982 5985 5988 5990 5993 5996 5998 6001 6004 6007 6010 6013 6016 6019 6022 6025 6028 6031 6034 6037 6040 6043 6046 6049 6052 6054 6057 6059 6061 6064 6067 6070 6073 6076 6078 6080 6083 6086 6089 6092 6095 6098 6101 6104 6107 6110 6113 6116 6119 6122 6125 6128 6131 6134 6136 6138 6141 6144 6147 6150 6153 6156 6159 6162 6165 6168 6171 6174 6177 6179 6182 6185 6188 6191 6194 6196 6199 6202 6205 6208 6211 6214 6217 6220 6223 6226 6229 6232 6235 6238 6241 6244 6247 6250 6253 6256 6259 6262 6265 6268 6271 6274 6277 6279 6282 6285 6288 6290 6293 6296 6299 6301 6303 6306 6308 6311 6314 6316 6319 6322 6324 6327 6330 6333 6336 6339 6341 6344 6347 6350 6353 6356 6359 6362 6365 6368 6370 6373 6376 6379 6382 6385 6387 6390 6393 6396 6399 6402 6405 6408 6411 6414 6417 6420 6423 6426 6428 6431 6434 6437 6440 6443 6446 6449 6452 6455 6458 6461 6464 6467 6470 6473 6476 6478 6481 6484 6487 6490 6493 6495 6498 6501 6504 6507 6509 6512 6515 6517 6520 6523 6526 6529 6531 6534 6536 6539 6542 6545 6548 6551 6554 6556 6559 6562 6565 6568 6571 6574 6577 6580 6583 6586 6589 6592 6595 6598 6601 6604 6607 6610 6613 6616 6619 6622 6625 6628 6631 6634 6637 6640 6643 6645 6648 6651 6654 6657 6660 6663 6666 6669 6672 6675 6678 6681 6683 6686 6689 6692 6695 6697 6700 6703 6705 6708 6710 6713 6716 6719 6722 6725 6728 6731 6734 6737 6740 6743 6746 6749 6751 6753 6756 6759 6761 6764 6767 6770 6773 6776 6779 6782 6785 6788 6791 6794 6796 6799 6802 6804 6807 6810 6813 6816 6819 6822 6825 6828 6831 6834 6836 6839 6842 6845 6847 6850 6853 6856 6859 6862 6865 6868 6871 6874 6877 6880 6883 6886 6889 6892 6895 6898 6901 6904 6906 6909 6912 6915 6918 6921 6924 6927 6930 6933 6936 6939 6942 6944 6947 6950 6953 6956 6959 6962 6965 6968 6971 6974 6977 6980 6983 6986 6989 6991 6993 6996 6999 7001 7004 7007 7009 7012 7015 7017 7020 7022 7025 7028 7030 7033 7036 7039 7041 7043 7046 7049 7051 7054 7056 7058 7060 7063 7066 7069 7071 7074 7076 7079 7082 7085 7088 7090 7093 7096 7099 7102 7105 7108 7111 7113 7116 7118 7121 7124 7126 7129 7132 7135 7138 7141 7143 7146 7149 7151 7153 7156 7158 7161 7163 7166 7169 7171 7174 7177 7180 7182 7185 7188 7191 7194 7196 7199 7202 7205 7208 7211 7213 7216 7219 7221 7224 7227 7230 7233 7236 7238 7241 7244 7247 7250 7253 7256 7259 7262 7265 7268 7271 7273 7276 7279 7282 7285 7288 7291 7294 7297 7299 7302 7305 7308 7311 7314 7317 7320 7322 7325 7328 7331 7333 7336 7339 7342 7345 7348 7350 7353 7356 7359 7362 7365 7368 7371 7374 7377 7380 7382 7385 7387 7390 7393 7396 7399 7402 7405 7408 7411 7414 7417 7420 7423 7426 7429 7432 7435 7438 7441 7444 7446 7449 7451 7454 7457 7460 7462 7465 7468 7471 7474 7477 7480 7482 7485 7488 7491 7494 7497 7499 7502 7505 7507 7510 7513 7516 7518 7521 7524 7527 7529 7532 7535 7538 7541 7544 7547 7550 7553 7556 7559 7562 7565 7568 7571 7574 7577 7580 7583 7586 7589 7592 7594 7597 7600 7603 7606 7609 7612 7615 7617 7620 7622 7624 7627 7630 7633 7636 7639 7641 7644 7646 7648 7650 7653 7656 7659 7662 7664 7667 7670 7673 7676 7679 7681 7684 7687 7690 7693 7696 7699 7702 7704 7707 7710 7713 7716 7719 7722 7725 7728 7731 7734 7737 7740 7743 7746 7749 7752 7755 7758 7761 7764 7767 7770 7772 7775 7778 7781 7784 7787 7790 7792 7795 7798 7801 7804 7806 7809 7812 7814 7817 7820 7823 7825 7828 7830 7832 7834 7837 7840 7843 7845 7848 7850 7852 7855 7858 7860 7863 7865 7868 7871 7874 7877 7879 7881 7883 7885 7888 7891 7894 7896 7899 7902 7905 7908 7911 7914 7916 7919 7922 7924 7927 7930 7933 7936 7939 7942 7945 7948 7951 7954 7956 7959 7962 7965 7968 7971 7973 7976 7979 7982 7984 7987 7990 7992 7994 7997 8000 8002 8005 8008 8011 8014 8017 8020 8023 8026 8029 8032 8035 8038 8041 8044 8047 8050 8053 8055 8058 8061 8063 8066 8069 8071 8074 8077 8080 8083 8086 8089 8092 8094 8097 8100 8102 8105 8108 8111 8113 8116 8118 8121 8124 8127 8129 8132 8134 8137 8140 8143 8146 8149 8152 8155 8158 8161 8164 8166 8169 8172 8175 8178 8181 8184 8187 8190 8193 8196 8199 8202 8205 8207 8210 8212 8215 8218 8221 8223 8226 8229 8232 8235 8238 8240 8243 8245 8248 8251 8254 8257 8260 8263 8265 8268 8271 8274 8277 8280 8283 8285 8288 8291 8294 8296 8299 8302 8305 8308 8311 8314 8317 8320 8323 8326 8329 8331 8334 8337 8339 8342 8345 8348 8351 8354 8357 8360 8363 8366 8369 8372 8375 8378 8380 8383 8386 8389 8392 8394 8397 8400 8402 8405 8408 8410 8413 8416 8419 8422 8425 8428 8431 8434 8437 8440 8443 8446 8449 8452 8455 8458 8461 8464 8467 8470 8473 8476 8479 8482 8485 8487 8490 8492 8495 8498 8500 8503 8506 8509 8512 8514 8517 8520 8523 8526 8529 8532 8535 8538 8541 8543 8546 8549 8551 8554 8557 8560 8563 8566 8569 8571 8574 8576 8579 8582 8585 8588 8591 8593 8596 8599 8602 8605 8608 8611 8614 8617 8620 8622 8625 8628 8631 8634 8637 8640 8643 8646 8649 8652 8654 8657 8660 8663 8665 8668 8671 8674 8677 8680 8683 8685 8687 8689 8692 8695 8698 8701 8704 8706 8709 8712 8715 8718 8721 8724 8727 8730 8733 8736 8739 8742 8745 8748 8750 8753 8756 8759 8762 8765 8768 8770 8773 8776 8779 8781 8784 8786 8789 8792 8795 8798 8800 8803 8806 8809 8812 8815 8818 8821 8824 8827 8830 8833 8836 8839 8842 8845 8848 8851 8854 8857 8860 8863 8866 8868 8871 8874 8876 8879 8882 8885 8888 8891 8893 8896 8899 8902 8905 8908 8911 8914 8917 8920 8923 8926 8929 8932 8935 8938 8941 8944 8947 8950 8953 8956 8959 8962 8965 8968 8971 8973 8976 8979 8982 8985 8988 8990 8993 8995 8998 9001 9004 9007 9010 9012 9015 9018 9021 9024 9027 9030 9033 9036 9039 9041 9044 9047 9050 9053 9056 9059 9062 9065 9068 9071 9074 9077 9080 9083 9086 9089 9092 9094 9097 9100 9103 9106 9109 9112 9114 9117 9120 9123 9125 9128 9131 9134 9137 9140 9143 9146 9149 9152 9155 9158 9161 9164 9167 9170 9173 9176 9179 9181 9184 9187 9189 9192 9195 9198 9201 9204 9206 9209 9212 9215 9218 9221 9224 9227 9230 9233 9236 9238 9240 9243 9246 9249 9252 9254 9257 9260 9262 9265 9268 9271 9274 9277 9280 9283 9286 9289 9292 9295 9298 9301 9304 9307 9310 9313 9316 9319 9322 9325 9328 9331 9334 9336 9339 9342 9345 9348 9351 9354 9357 9360 9362 9365 9368 9371 9374 9377 9380 9382 9385 9388 9391 9394 9397 9400 9403 9406 9409 9411 9414 9417 9420 9423 9426 9429 9432 9435 9438 9440 9443 9446 9449 9451 9453 9456 9459 9462 9465 9468 9471 9473 9476 9479 9481 9484 9487 9490 9493 9496 9499 9501 9504 9507 9510 9513 9515 9518 9520 9523 9526 9529 9532 9534 9536 9539 9542 9545 9548 9551 9553 9556 9559 9562 9564 9567 9570 9573 9576 9579 9582 9585 9588 9591 9594 9596 9599 9602 9605 9608 9611 9614 9617 9620 9623 9625 9627 9630 9633 9636 9639 9642 9645 9648 9651 9654 9657 9660 9663 9666 9669 9671 9674 9676 9679 9682 9685 9687 9690 9693 9696 9699 9702 9704 9707 9710 9713 9716 9719 9722 9725 9728 9730 9732 9735 9738 9741 9744 9746 9749 9752 9755 9758 9760 9763 9766 9769 9772 9775 9778 9780 9783 9786 9789 9792 9795 9798 9801 9804 9807 9809 9812 9815 9818 9821 9824 9826 9829 9831 9834 9837 9840 9842 9845 9847 9850 9852 9855 9857 9859 9862 9865 9868 9871 9874 9877 9880 9883 9885 9888 9890 9893 9896 9899 9902 9904 9906 9908 9911 9914 9917 9920 9922 9925 9928 9931 9933 9935 9938 9941 9944 9947 9950 9953 9956 9958 9960 9963 9966 9969 9972 9975 9978 9980 9983 9986 9989 9992 9995 9998 10001 10004 10007 10010 10013 10015 10017 10020 10023 10026 10029 10031 10033 10036 10038 10041 10044 10047 10050 10053 10056 10059 10062 10065 10067 10069 10072 10075 10078 10081 10084 10087 10090 10093 10096 10099 10102 10105 10108 10111 10114 10117 10120 10123 10125 10127 10130 10132 10135 10138 10141 10144 10147 10150 10153 10156 10159 10162 10165 10168 10171 10174 10177 10180 10183 10186 10189 10192 10195 10198 10201 10204 10206 10208 10211 10214 10217 10220 10223 10226 10229 10232 10235 10238 10241 10244 10247 10250 10253 10256 10259 10262 10265 10268 10271 10274 10277 10280 10283 10286 10289 10292 10295 10298 10301 10303 10306 10309 10311 10314 10317 10320 10323 10326 10328 10331 10334 10336 10339 10342 10345 10348 10351 10354 10357 10360 10363 10366 10369 10372 10375 10377 10380 10383 10386 10389 10392 10395 10398 10401 10403 10406 10409 10412 10415 10418 10420 10422 10424 10427 10430 10433 10436 10438 10441 10444 10447 10450 10453 10456 10459 10462 10465 10468 10471 10474 10477 10479 10481 10484 10487 10490 10493 10496 10499 10502 10504 10507 10510 10512 10515 10518 10521 10524 10527 10530 10533 10536 10539 10542 10545 10548 10551 10554 10557 10560 10563 10566 10569 10572 10575 10577 10580 10582 10585 10588 10591 10594 10597 10600 10603 10605 10608 10611 10614 10617 10620 10623 10626 10629 10632 10635 10638 10640 10643 10646 10649 10652 10655 10658 10660 10663 10666 10669 10672 10674 10677 10680 10682 10685 10688 10691 10694 10696 10699 10702 10705 10708 10711 10714 10717 10720 10723 10726 10729 10732 10735 10738 10741 10743 10746 10749 10752 10755 10758 10761 10764 10766 10769 10772 10775 10778 10781 10784 10787 10790 10793 10796 10799 10802 10805 10807 10810 10813 10815 10818 10821 10824 10826 10829 10832 10835 10838 10841 10844 10846 10849 10852 10855 10858 10861 10864 10867 10870 10873 10876 10879 10882 10885 10888 10891 10894 10897 10900 10903 10906 10908 10911 10914 10917 10920 10923 10925 10928 10931 10934 10937 10940 10942 10945 10948 10951 10954 10956 10959 10962 10964 10966 10969 10972 10975 10978 10981 10984 10986 10989 10992 10995 10998 11001 11004 11007 11010 11013 11016 11018 11021 11024 11026 11029 11032 11035 11038 11041 11044 11047 11049 11052 11055 11058 11061 11064 11067 11070 11073 11076 11079 11082 11085 11088 11090 11093 11096 11099 11102 11104 11107 11110 11113 11115 11117 11120 11123 11126 11129 11132 11135 11137 11140 11143 11146 11148 11151 11154 11157 11160 11163 11166 11168 11171 11174 11177 11179 11182 11185 11188 11191 11194 11197 11200 11203 11206 11209 11212 11215 11218 11221 11224 11227 11230 11233 11236 11239 11241 11244 11247 11250 11253 11256 11259 11262 11265 11268 11271 11274 11277 11280 11283 11286 11289 11292 11295 11298 11301 11304 11307 11310 11313 11316 11319 11322 11325 11328 11331 11334 11337 11340 11343 11345 11348 11351 11353 11356 11359 11361 11364 11367 11369 11372 11375 11378 11381 11384 11386 11389 11392 11395 11398 11401 11404 11407 11410 11413 11416 11419 11422 11425 11428 11431 11434 11437 11440 11443 11446 11449 11452 11455 11457 11460 11463 11466 11469 11472 11475 11478 11480 11483 11486 11489 11491 11494 11497 11499 11502 11505 11507 11510 11513 11515 11518 11521 11523 11526 11529 11532 11534 11537 11540 11542 11544 11547 11550 11552 11555 11558 11560 11563 11566 11569 11572 11575 11578 11581 11584 11587 11590 11593 11596 11599 11602 11605 11608 11610 11613 11615 11618 11621 11624 11627 11629 11632 11635 11638 11640 11643 11646 11649 11652 11655 11658 11661 11664 11667 11670 11673 11676 11679 11682 11685 11687 11689 11692 11695 11698 11701 11704 11707 11709 11712 11715 11717 11720 11723 11725 11728 11731 11734 11737 11740 11743 11746 11749 11752 11755 11758 11761 11764 11767 11770 11773 11776 11779 11782 11785 11788 11791 11794 11797 11800 11803 11806 11808 11811 11814 11816 11818 11821 11824 11827 11830 11833 11836 11839 11841 11844 11847 11850 11852 11855 11858 11861 11864 11867 11870 11873 11876 11879 11882 11885 11888 11891 11894 11896 11899 11902 11904 11907 11910 11913 11916 11918 11921 11924 11927 11930 11933 11936 11939 11941 11944 11947 11950 11953 11956 11959 11962 11965 11968 11971 11974 11977 11980 11983 11986 11988 11991 11994 11997 12000 12002 12005 12008 12010 12012 12015 12018 12020 12023 12026 12028 12031 12034 12036 12039 12041 12043 12046 12049 12052 12055 12058 12061 12063 12066 12068 12071 12074 12076 12079 12082 12084 12087 12090 12093 12095 12098 12100 12103 12106 12109 12112 12114 12117 12120 12123 12126 12129 12132 12135 12138 12140 12143 12146 12148 12151 12154 12157 12160 12163 12165 12168 12171 12174 12177 12179 12181 12184 12187 12189 12192 12195 12198 12201 12204 12207 12210 12213 12215 12218 12221 12224 12227 12229 12232 12235 12238 12241 12244 12247 12250 12253 12256 12259 12261 12264 12267 12270 12273 12276 12279 12282 12285 12288 12291 12293 12296 12299 12302 12305 12307 12310 12313 12316 12319 12322 12325 12327 12330 12333 12336 12339 12342 12344 12347 12350 12353 12356 12359 12362 12365 12368 12371 12374 12377 12380 12383 12386 12389 12391 12394 12397 12400 12403 12406 12408 12411 12414 12417 12420 12422 12425 12427 12430 12433 12436 12439 12441 12443 12446 12448 12450 12453 12455 12457 12460 12463 12466 12469 12472 12474 12477 12479 12482 12485 12488 12491 12494 12497 12500 12503 12506 12509 12512 12515 12517 12520 12523 12526 12529 12531 12534 12536 12539 12542 12545 12548 12551 12554 12557 12560 12563 12566 12569 12572 12575 12578 12580 12583 12586 12589 12591 12594 12597 12600 12603 12606 12609 12612 12615 12618 12621 12624 12627 12630 12633 12636 12639 12642 12645 12648 12651 12654 12657 12660 12663 12666 12669 12672 12675 12678 12681 12684 12687 12690 12693 12696 12699 12702 12705 12708 12711 12714 12717 12720 12723 12726 12728 12731 12734 12737 12740 12743 12746 12748 12751 12754 12757 12760 12762 12764 12766 12768 12771 12774 12777 12780 12783 12785 12788 12791 12794 12797 12800 12803 12806 12809 12811 12813 12816 12819 12822 12825 12827 12830 12833 12836 12839 12842 12845 12848 12851 12854 12857 12860 12863 12866 12869 12872 12875 12878 12881 12884 12887 12890 12893 12896 12899 12902 12905 12908 12910 12913 12916 12918 12921 12924 12927 12930 12933 12935 12938 12941 12944 12947 12949 12951 12954 12957 12960 12963 12966 12968 12971 12974 12977 12980 12983 12986 12989 12992 12995 12998 13001 13004 13007 13010 13013 13016 13019 13022 13025 13028 13031 13034 13037 13040 13042 13045 13048 13051 13053 13055 13058 13061 13063 13066 13069 13072 13075 13077 13080 13083 13086 13089 13092 13095 13098 13101 13104 13107 13110 13113 13116 13119 13122 13125 13128 13131 13134 13137 13140 13143 13146 13149 13152 13154 13157 13159 13161 13164 13166 13169 13172 13175 13178 13181 13183 13186 13189 13192 13195 13198 13201 13204 13207 13209 13212 13215 13218 13221 13224 13227 13230 13233 13236 13239 13242 13245 13248 13251 13254 13257 13260 13263 13266 13269 13272 13275 13278 13281 13284 13287 13290 13293 13296 13299 13302 13305 13308 13311 13314 13317 13320 13322 13325 13328 13331 13334 13337 13339 13342 13345 13348 13351 13354 13357 13360 13363 13366 13369 13371 13374 13377 13380 13383 13386 13389 13392 13395 13398 13400 13403 13406 13409 13412 13415 13418 13421 13424 13427 13429 13432 13435 13438 13441 13444 13447 13449 13452 13455 13458 13461 13464 13467 13470 13473 13476 13479 13482 13485 13488 13491 13494 13497 13500 13503 13506 13508 13511 13514 13517 13520 13523 13526 13529 13532 13535 13538 13541 13544 13547 13550 13553 13556 13558 13561 13564 13567 13570 13573 13576 13579 13582 13585 13588 13591 13594 13597 13600 13603 13606 13609 13612 13615 13618 13621 13624 13626 13629 13632 13634 13637 13640 13643 13646 13648 13651 13654 13657 13660 13663 13666 13669 13672 13674 13677 13680 13683 13685 13687 13689 13692 13695 13697 13700 13703 13706 13709 13712 13714 13717 13720 13723 13726 13729 13732 13735 13738 13741 13744 13747 13750 13753 13756 13759 13762 13765 13768 13771 13774 13777 13780 13783 13786 13789 13792 13795 13798 13801 13804 13807 13810 13813 13816 13819 13822 13825 13828 13831 13834 13837 13840 13843 13845 13848 13850 13853 13856 13859 13862 13865 13868 13871 13874 13877 13879 13882 13885 13888 13891 13893 13896 13899 13901 13904 13907 13909 13911 13914 13916 13918 13921 13924 13927 13930 13933 13936 13939 13941 13944 13947 13950 13953 13955 13958 13961 13964 13967 13970 13973 13976 13979 13982 13985 13988 13991 13993 13996 13999 14002 14005 14008 14011 14014 14017 14020 14023 14026 14029 14032 14035 14038 14041 14044 14047 14049 14052 14055 14057 14059 14062 14065 14068 14071 14074 14076 14079 14082 14085 14088 14091 14094 14096 14099 14102 14105 14108 14111 14114 14117 14120 14123 14126 14128 14131 14134 14137 14140 14143 14146 14149 14151 14154 14157 14160 14163 14165 14168 14171 14174 14177 14180 14183 14186 14188 14191 14194 14197 14200 14203 14206 14209 14212 14215 14218 14221 14224 14227 14230 14233 14236 14239 14242 14245 14248 14251 14253 14256 14259 14262 14265 14268 14270 14273 14276 14279 14281 14284 14286 14289 14292 14295 14298 14301 14304 14307 14310 14313 14316 14319 14321 14324 14327 14330 14333 14336 14338 14341 14344 14347 14350 14353 14356 14359 14362 14365 14368 14371 14374 14377 14380 14382 14385 14388 14391 14394 14396 14399 14401 14404 14406 14409 14411 14413 14416 14418 14421 14424 14426 14429 14432 14434 14437 14440 14443 14446 14449 14452 14455 14458 14461 14464 14467 14470 14472 14475 14478 14481 14484 14486 14489 14491 14494 14497 14500 14502 14505 14508 14510 14513 14516 14518 14521 14523 14526 14529 14532 14535 14538 14541 14544 14547 14550 14553 14556 14559 14561 14563 14566 14568 14571 14574 14576 14578 14581 14584 14587 14590 14593 14596 14598 14601 14604 14606 14609 14612 14615 14617 14620 14623 14626 14629 14632 14634 14637 14639 14641 14644 14647 14650 14652 14655 14658 14661 14663 14666 14669 14672 14675 14677 14680 14683 14686 14689 14692 14695 14698 14701 14704 14707 14710 14713 14716 14719 14722 14725 14728 14731 14734 14737 14739 14742 14745 14748 14751 14754 14757 14760 14762 14764 14767 14770 14773 14776 14779 14781 14784 14786 14789 14792 14795 14798 14801 14804 14807 14810 14813 14816 14819 14822 14825 14828 14831 14834 14837 14840 14843 14846 14849 14852 14855 14858 14861 14864 14867 14870 14873 14876 14879 14882 14885 14888 14891 14894 14897 14900 14903 14906 14909 14912 14915 14918 14921 14924 14927 14930 14933 14936 14939 14942 14945 14948 14951 14954 14957 14960 14963 14966 14969 14972 14975 14978 14981 14984 14987 14990 14993 14996 14999 15002 15005 15008 15011 15014 15017 15020 15023 15026 15029 15032 15035 15038 15041 15044 15047 15050 15053 15056 15059 15062 15065 15067 15070 15073 15076 15079 15082 15085 15088 15091 15094 15096 15098 15101 15104 15107 15110 15113 15115 15118 15121 15123 15126 15129 15131 15133 15136 15138 15141 15144 15147 15150 15153 15156 15159 15162 15165 15168 15171 15174 15177 15180 15183 15186 15189 15192 15195 15197 15200 15203 15206 15209 15212 15215 15218 15220 15222 15225 15228 15231 15234 15237 15239 15242 15245 15247 15250 15252 15255 15258 15261 15264 15267 15270 15273 15276 15279 15282 15285 15288 15291 15294 15297 15300 15303 15306 15309 15312 15315 15318 15321 15324 15327 15329 15332 15335 15338 15341 15344 15347 15350 15353 15356 15359 15362 15365 15368 15371 15374 15377 15380 15383 15386 15389 15392 15395 15398 15401 15404 15407 15410 15413 15416 15419 15422 15425 15428 15431 15434 15437 15440 15443 15446 15449 15452 15455 15458 15461 15464 15467 15470 15473 15476 15479 15482 15485 15488 15491 15494 15497 15500 15503 15506 15509 15512 15515 15518 15521 15523 15526 15529 15532 15535 15538 15540 15543 15546 15549 15551 15554 15557 15560 15563 15566 15569 15572 15575 15578 15581 15583 15586 15589 15592 15595 15598 15601 15604 15607 15610 15613 15616 15619 15621 15624 15627 15630 15633 15635 15638 15641 15644 15647 15650 15653 15656 15659 15662 15665 15667 15670 15673 15676 15679 15682 15684 15687 15690 15693 15696 15699 15702 15705 15708 15711 15714 15716 15719 15722 15725 15728 15731 15734 15737 15740 15743 15746 15748 15751 15754 15757 15759 15762 15765 15768 15771 15774 15777 15780 15783 15786 15789 15792 15795 15798 15800 15803 15806 15809 15812 15815 15818 15821 15824 15827 15830 15833 15836 15839 15842 15845 15848 15851 15854 15857 15860 15863 15866 15869 15872 15875 15878 15881 15884 15887 15890 15893 15896 15899 15902 15905 15908 15911 15913 15916 15919 15922 15925 15928 15931 15934 15937 15939 15942 15945 15948 15950 15953 15956 15959 15962 15965 15968 15971 15974 15976 15979 15982 15984 15987 15990 15993 15996 15999 16002 16005 16007 16010 16013 16015 16017 16020 16023 16026 16029 16032 16035 16037 16040 16043 16046 16049 16052 16055 16058 16061 16064 16067 16070 16073 16076 16079 16082 16085 16087 16090 16093 16096 16098 16101 16104 16107 16110 16113 16116 16119 16122 16125 16128 16131 16134 16137 16140 16143 16146 16149 16152 16154 16157 16160 16163 16166 16169 16172 16175 16177 16179 16182 16185 16188 16191 16193 16196 16199 16201 16204 16207 16210 16213 16216 16219 16222 16225 16228 16230 16233 16236 16238 16240 16243 16246 16249 16251 16254 16257 16259 16262 16265 16268 16271 16274 16277 16279 16282 16285 16287 16290 16293 16296 16299 16302 16305 16307 16310 16313 16315 16317 16320 16323 16326 16329 16332 16334 16337 16340 16343 16346 16349 16352 16355 16358 16361 16364 16367 16369 16372 16375 16378 16381 16383 16386 16389 16392 16394 16397 16399 16402 16405 16408 16411 16414 16417 16419 16422 16425 16428 16431 16434 16436 16439 16442 16445 16448 16450 16453 16456 16459 16462 16465 16468 16471 16474 16476 16479 16482 16484 16487 16489 16492 16494 16497 16500 16503 16505 16508 16510 16513 16515 16518 16521 16524 16527 16530 16533 16536 16539 16542 16545 16548 16551 16554 16557 16560 16562 16565 16568 16571 16573 16576 16579 16581 16584 16587 16590 16592 16595 16598 16601 16604 16606 16609 16612 16615 16618 16620 16622 16625 16628 16630 16633 16636 16638 16641 16644 16647 16650 16653 16656 16659 16662 16665 16668 16671 16674 16677 16680 16683 16686 16689 16692 16695 16698 16701 16704 16707 16710 16713 16716 16719 16722 16725 16728 16731 16734 16737 16740 16743 16746 16749 16752 16755 16758 16761 16764 16767 16770 16773 16776 16779 16782 16784 16787 16789 16792 16795 16798 16801 16804 16807 16809 16812 16815 16818 16821 16824 16827 16830 16833 16836 16838 16841 16844 16846 16849 16851 16854 16857 16860 16863 16866 16869 16872 16875 16878 16880 16883 16886 16888 16891 16894 16896 16899 16902 16905 16908 16911 16914 16916 16919 16922 16925 16928 16931 16934 16937 16940 16943 16946 16949 16952 16955 16958 16961 16964 16967 16970 16973 16976 16979 16981 16984 16987 16990 16993 16996 16999 17002 17005 17008 17010 17013 17016 17019 17022 17025 17028 17031 17034 17037 17040 17043 17046 17048 17050 17053 17055 17057 17060 17063 17066 17069 17071 17074 17077 17080 17083 17086 17089 17092 17094 17097 17100 17102 17105 17108 17111 17114 17117 17119 17122 17125 17128 17131 17133 17136 17139 17142 17145 17148 17150 17153 17156 17159 17162 17164 17167 17170 17173 17176 17179 17182 17185 17188 17191 17194 17197 17200 17202 17205 17208 17211 17214 17217 17220 17223 17226 17228 17231 17234 17236 17238 17241 17244 17246 17249 17251 17253 17256 17259 17262 17264 17267 17269 17272 17275 17278 17280 17282 17285 17288 17291 17293 17296 17299 17302 17305 17308 17311 17314 17316 17319 17322 17325 17328 17331 17334 17337 17340 17343 17346 17349 17351 17354 17357 17359 17362 17365 17367 17370 17373 17375 17378 17380 17383 17386 17388 17391 17394 17397 17400 17403 17406 17409 17412 17415 17418 17421 17423 17426 17429 17432 17435 17438 17441 17444 17447 17450 17453 17456 17459 17462 17465 17468 17471 17474 17476 17479 17482 17484 17487 17490 17493 17496 17498 17501 17504 17507 17510 17513 17516 17519 17522 17525 17528 17531 17534 17537 17540 17543 17546 17549 17552 17555 17558 17561 17564 17567 17570 17573 17576 17579 17582 17585 17588 17591 17594 17597 17599 17602 17605 17608 17611 17614 17617 17620 17623 17626 17629 17631 17634 17637 17639 17642 17645 17648 17651 17654 17657 17660 17663 17666 17669 17671 17674 17677 17680 17683 17686 17689 17692 17694 17697 17700 17703 17706 17709 17712 17715 17718 17720 17723 17725 17728 17731 17734 17737 17740 17743 17746 17749 17752 17754 17757 17760 17763 17766 17769 17772 17775 17778 17781 17784 17787 17790 17793 17795 17798 17801 17804 17807 17809 17812 17815 17818 17821 17824 17827 17830 17833 17836 17839 17842 17845 17848 17851 17854 17857 17860 17863 17866 17869 17872 17874 17877 17880 17883 17885 17888 17891 17894 17896 17899 17902 17905 17908 17911 17913 17916 17919 17922 17925 17928 17931 17934 17937 17940 17943 17946 17949 17952 17954 17957 17960 17963 17966 17969 17972 17975 17978 17981 17984 17987 17990 17993 17996 17999 18002 18005 18007 18010 18013 18016 18019 18022 18025 18028 18031 18034 18037 18040 18043 18046 18048 18051 18054 18057 18060 18062 18065 18068 18071 18074 18077 18080 18082 18085 18088 18091 18094 18097 18100 18103 18106 18108 18111 18114 18117 18120 18123 18126 18129 18131 18134 18137 18140 18142 18145 18148 18151 18154 18157 18160 18163 18165 18168 18171 18174 18177 18180 18183 18186 18189 18192 18195 18198 18200 18203 18206 18209 18212 18215 18218 18221 18224 18227 18229 18232 18235 18237 18240 18243 18246 18249 18252 18254 18256 18259 18261 18264 18267 18270 18272 18274 18277 18280 18283 18285 18288 18290 18293 18296 18299 18302 18304 18307 18310 18313 18316 18319 18321 18324 18327 18330 18333 18335 18338 18341 18343 18345 18347 18350 18353 18356 18359 18361 18364 18366 18369 18372 18375 18377 18380 18383 18386 18389 18392 18395 18398 18401 18404 18407 18410 18413 18416 18419 18422 18425 18427 18430 18432 18435 18438 18441 18444 18447 18450 18453 18456 18459 18461 18464 18467 18469 18471 18474 18477 18479 18482 18485 18488 18491 18493 18496 18499 18502 18505 18508 18511 18514 18517 18520 18523 18526 18528 18531 18534 18537 18540 18543 18546 18549 18552 18555 18558 18561 18564 18567 18570 18573 18576 18579 18582 18585 18587 18590 18593 18596 18599 18602 18605 18608 18611 18614 18617 18620 18623 18626 18629 18632 18635 18638 18641 18644 18647 18650 18653 18656 18659 18662 18665 18667 18670 18672 18675 18678 18681 18684 18687 18690 18692 18695 18697 18700 18703 18706 18709 18712 18715 18718 18721 18724 18727 18730 18733 18736 18739 18742 18745 18748 18751 18754 18757 18760 18763 18765 18768 18771 18774 18777 18780 18783 18785 18788 18790 18793 18796 18799 18802 18805 18808 18810 18813 18815 18817 18820 18823 18826 18829 18832 18834 18837 18840 18843 18846 18849 18852 18855 18857 18860 18862 18865 18868 18871 18873 18876 18879 18882 18885 18888 18891 18894 18897 18900 18903 18906 18909 18912 18915 18918 18921 18924 18927 18930 18933 18936 18939 18942 18945 18948 18951 18953 18956 18958 18961 18964 18967 18969 18972 18975 18978 18981 18983 18986 18989 18992 18995 18998 19001 19004 19007 19010 19013 19016 19019 19022 19025 19028 19031 19034 19037 19040 19043 19046 19049 19052 19055 19058 19061 19064 19067 19069 19071 19074 19077 19080 19083 19085 19087 19090 19093 19096 19098 19100 19103 19106 19109 19112 19115 19118 19120 19123 19126 19129 19132 19134 19137 19140 19143 19145 19148 19151 19153 19156 19159 19162 19164 19167 19170 19172 19174 19177 19179 19182 19185 19188 19191 19194 19197 19199 19202 19205 19208 19210 19213 19216 19219 19222 19225 19227 19230 19233 19236 19239 19242 19245 19248 19251 19254 19257 19260 19263 19266 19269 19272 19275 19278 19281 19284 19287 19290 19293 19296 19299 19302 19305 19308 19311 19314 19317 19320 19323 19326 19329 19332 19335 19338 19341 19344 19347 19350 19353 19356 19359 19362 19365 19368 19371 19374 19377 19380 19383 19385 19388 19391 19394 19397 19400 19403 19406 19409 19412 19415 19418 19421 19424 19427 19430 19433 19436 19439 19442 19445 19448 19451 19454 19457 19460 19463 19466 19469 19472 19475 19478 19481 19484 19487 19490 19493 19496 19499 19502 19504 19507 19509 19512 19514 19516 19519 19521 19524 19527 19530 19532 19535 19538 19540 19543 19546 19548 19550 19553 19556 19559 19561 19564 19567 19570 19573 19576 19579 19582 19585 19588 19591 19594 19597 19600 19603 19606 19609 19612 19615 19618 19621 19624 19627 19630 19633 19635 19638 19641 19644 19647 19650 19653 19656 19658 19661 19664 19667 19670 19672 19675 19678 19680 19683 19686 19689 19692 19695 19697 19700 19703 19706 19709 19711 19714 19717 19720 19723 19726 19728 19731 19734 19737 19740 19743 19746 19749 19752 19754 19757 19760 19763 19766 19769 19772 19775 19778 19781 19784 19787 19790 19793 19796 19799 19802 19805 19808 19811 19814 19817 19820 19823 19826 19829 19832 19835 19838 19841 19844 19847 19850 19853 19856 19859 19862 19865 19868 19871 19874 19877 19880 19883 19886 19889 19892 19895 19898 19901 19904 19907 19909 19912 19915 19918 19921 19924 19927 19930 19933 19936 19939 19941 19944 19947 19950 19953 19955 19958 19960 19963 19966 19969 19972 19975 19978 19980 19983 19986 19989 19992 19995 19998 20001 20004 20006 20009 20012 20014 20017 20020 20023 20026 20029 20031 20034 20037 20040 20043 20046 20049 20052 20055 20058 20060 20063 20066 20068 20071 20074 20077 20080 20083 20086 20089 20092 20095 20098 20100 20103 20106 20109 20112 20115 20118 20121 20123 20126 20129 20132 20135 20138 20141 20144 20147 20150 20153 20156 20159 20162 20165 20168 20171 20174 20177 20180 20183 20186 20189 20192 20195 20198 20201 20204 20207 20210 20213 20216 20219 20222 20225 20228 20231 20234 20237 20239 20241 20244 20247 20250 20253 20256 20259 20261 20264 20267 20270 20273 20276 20279 20282 20285 20288 20291 20294 20297 20300 20303 20306 20309 20312 20315 20318 20321 20324 20327 20330 20333 20336 20339 20342 20345 20348 20351 20354 20357 20359 20362 20365 20368 20370 20373 20376 20378 20381 20384 20387 20390 20393 20396 20399 20402 20405 20408 20411 20414 20417 20420 20422 20424 20427 20429 20432 20434 20437 20440 20443 20446 20449 20451 20454 20457 20460 20463 20466 20469 20472 20475 20478 20481 20484 20487 20490 20493 20495 20498 20501 20503 20505 20508 20510 20513 20516 20519 20522 20525 20528 20531 20534 20537 20540 20543 20546 20549 20552 20555 20558 20561 20564 20567 20569 20572 20574 20577 20580 20583 20586 20588 20591 20594 20597 20600 20603 20606 20609 20612 20615 20618 20621 20624 20627 20630 20633 20636 20638 20640 20643 20645 20648 20651 20654 20656 20659 20662 20664 20667 20670 20673 20675 20678 20680 20683 20686 20689 20692 20695 20698 20701 20704 20706 20709 20712 20714 20717 20720 20723 20725 20728 20731 20733 20736 20739 20741 20744 20746 20749 20751 20754 20756 20759 20762 20765 20768 20770 20773 20776 20778 20780 20783 20786 20788 20791 20793 20796 20799 20802 20804 20806 20809 20811 20814 20817 20820 20822 20825 20828 20831 20833 20836 20838 20841 20844 20846 20849 20851 20854 20857 20859 20862 20865 20868 20870 20873 20876 20879 20882 20885 20887 20889 20892 20894 20897 20900 20903 20906 20909 20912 20915 20918 20921 20924 20927 20930 20933 20936 20938 20941 20943 20946 20949 20952 20954 20957 20960 20963 20966 20969 20972 20975 20978 20981 20984 20987 20990 20993 20996 20999 21002 21005 21008 21011 21014 21017 21020 21023 21026 21029 21032 21035 21038 21041 21044 21047 21050 21053 21056 21059 21062 21065 21068 21071 21074 21077 21080 21082 21085 21088 21091 21094 21096 21099 21102 21105 21107 21110 21112 21115 21118 21121 21123 21126 21129 21132 21135 21138 21141 21144 21147 21149 21152 21155 21158 21161 21164 21166 21169 21172 21175 21178 21181 21184 21187 21190 21193 21196 21199 21202 21205 21208 21211 21214 21217 21220 21223 21226 21229 21231 21234 21237 21240 21242 21245 21248 21251 21254 21257 21260 21263 21266 21269 21272 21275 21278 21281 21284 21287 21290 21293 21296 21299 21302 21305 21308 21311 21314 21317 21320 21323 21326 21329 21332 21335 21337 21340 21343 21346 21349 21351 21354 21357 21360 21363 21365 21368 21371 21374 21377 21380 21383 21386 21389 21392 21395 21398 21401 21403 21406 21409 21412 21415 21418 21421 21424 21427 21430 21433 21436 21439 21441 21444 21447 21449 21452 21455 21457 21460 21462 21465 21468 21470 21473 21476 21478 21481 21484 21487 21490 21492 21495 21498 21501 21504 21507 21510 21513 21516 21518 21521 21524 21527 21529 21532 21535 21538 21541 21544 21546 21549 21552 21554 21557 21560 21563 21566 21569 21572 21575 21578 21581 21584 21587 21590 21593 21596 21599 21602 21605 21608 21611 21614 21617 21620 21623 21626 21629 21632 21635 21638 21640 21643 21646 21649 21652 21654 21657 21660 21663 21665 21667 21670 21673 21675 21678 21681 21684 21687 21690 21693 21695 21698 21701 21704 21707 21710 21713 21716 21719 21722 21725 21728 21731 21733 21736 21739 21742 21744 21747 21750 21753 21756 21759 21762 21765 21768 21771 21774 21777 21780 21783 21786 21789 21792 21795 21798 21801 21804 21807 21810 21813 21816 21819 21822 21825 21828 21831 21834 21837 21840 21843 21846 21849 21852 21855 21858 21860 21863 21866 21869 21872 21875 21878 21881 21884 21887 21890 21893 21896 21899 21902 21905 21907 21910 21913 21916 21919 21922 21925 21928 21931 21934 21937 21940 21943 21946 21949 21952 21955 21958 21961 21964 21967 21970 21973 21976 21979 21981 21984 21987 21990 21992 21995 21998 22001 22004 22006 22009 22012 22015 22018 22021 22024 22026 22029 22032 22035 22038 22041 22044 22047 22050 22053 22056 22059 22062 22064 22067 22069 22072 22075 22078 22081 22084 22087 22090 22093 22096 22099 22102 22105 22108 22111 22114 22117 22120 22123 22126 22129 22132 22135 22138 22141 22144 22147 22150 22153 22156 22159 22162 22165 22168 22171 22174 22177 22180 22183 22186 22189 22192 22195 22198 22201 22204 22207 22210 22213 22216 22219 22222 22225 22228 22231 22234 22237 22240 22243 22246 22249 22252 22255 22258 22261 22264 22267 22270 22273 22276 22279 22282 22285 22288 22291 22294 22297 22300 22303 22306 22309 22312 22315 22318 22321 22324 22327 22330 22333 22336 22339 22342 22345 22348 22351 22353 22356 22359 22361 22364 22366 22369 22372 22375 22378 22381 22384 22387 22390 22393 22395 22398 22400 22403 22406 22409 22412 22415 22418 22421 22424 22427 22430 22433 22436 22439 22442 22445 22447 22450 22453 22456 22459 22462 22464 22466 22468 22471 22474 22477 22479 22482 22485 22488 22491 22494 22497 22500 22503 22506 22509 22512 22515 22518 22521 22524 22527 22530 22533 22536 22539 22542 22545 22547 22550 22553 22555 22558 22561 22564 22567 22570 22573 22575 22578 22581 22584 22587 22590 22593 22596 22599 22602 22605 22608 22611 22614 22617 22620 22623 22626 22629 22632 22635 22638 22641 22644 22647 22650 22653 22656 22659 22662 22665 22668 22671 22674 22677 22680 22683 22686 22689 22692 22695 22698 22701 22704 22707 22710 22713 22716 22719 22722 22725 22728 22731 22734 22736 22739 22742 22745 22747 22750 22753 22756 22758 22761 22764 22767 22770 22772 22775 22778 22781 22784 22787 22789 22792 22795 22798 22801 22804 22807 22810 22813 22816 22819 22822 22825 22828 22831 22834 22837 22840 22843 22846 22849 22852 22855 22858 22860 22863 22866 22869 22871 22874 22877 22880 22883 22886 22889 22892 22895 22898 22901 22903 22906 22909 22912 22914 22917 22920 22923 22926 22929 22932 22935 22938 22941 22944 22947 22950 22953 22956 22959 22962 22965 22968 22971 22974 22977 22980 22983 22986 22989 22992 22994 22997 23000 23003 23006 23008 23011 23014 23017 23020 23023 23026 23028 23031 23034 23037 23040 23043 23046 23049 23052 23055 23058 23061 23063 23066 23068 23070 23073 23076 23079 23082 23085 23087 23090 23093 23096 23099 23102 23105 23108 23111 23114 23117 23120 23123 23126 23128 23131 23134 23137 23140 23142 23145 23148 23151 23154 23157 23160 23163 23166 23169 23172 23175 23178 23180 23183 23186 23189 23192 23195 23198 23201 23203 23206 23208 23211 23214 23217 23220 23223 23226 23229 23232 23235 23238 23241 23243 23246 23248 23251 23254 23257 23260 23263 23266 23269 23271 23274 23277 23279 23282 23284 23287 23290 23293 23295 23298 23301 23303 23306 23309 23312 23315 23318 23321 23324 23327 23330 23333 23335 23338 23341 23344 23347 23350 23353 23356 23359 23362 23365 23367 23370 23373 23375 23378 23381 23384 23386 23389 23392 23395 23398 23401 23404 23407 23410 23413 23416 23419 23422 23425 23428 23431 23433 23435 23438 23441 23444 23446 23449 23452 23455 23457 23460 23463 23466 23469 23472 23474 23477 23480 23482 23485 23488 23491 23494 23497 23500 23503 23506 23509 23512 23515 23517 23520 23523 23525 23528 23531 23534 23537 23540 23543 23546 23549 23552 23555 23558 23560 23563 23566 23569 23572 23575 23578 23581 23584 23587 23590 23593 23596 23599 23602 23605 23608 23610 23613 23615 23618 23621 23623 23626 23629 23632 23634 23637 23640 23643 23646 23648 23651 23654 23657 23660 23663 23666 23668 23671 23674 23677 23680 23683 23686 23688 23691 23694 23697 23700 23703 23706 23709 23712 23715 23718 23721 23724 23727 23730 23733 23735 23738 23741 23744 23747 23750 23753 23755 23758 23761 23764 23767 23770 23773 23776 23779 23782 23785 23788 23791 23794 23797 23800 23803 23806 23809 23812 23815 23818 23821 23824 23827 23830 23833 23836 23839 23842 23845 23848 23851 23854 23857 23859 23862 23865 23868 23871 23874 23877 23880 23883 23886 23889 23892 23894 23897 23900 23903 23906 23909 23912 23915 23918 23921 23924 23926 23929 23931 23934 23936 23939 23941 23943 23945 23948 23950 23953 23955 23958 23961 23964 23966 23969 23972 23975 23978 23980 23983 23986 23989 23991 23994 23997 23999 24001 24003 24006 24008 24011 24014 24017 24019 24022 24025 24028 24031 24034 24037 24040 24043 24046 24049 24052 24055 24058 24061 24064 24067 24070 24073 24076 24079 24082 24085 24088 24091 24094 24096 24099 24102 24105 24108 24111 24114 24117 24120 24123 24126 24129 24132 24135 24138 24141 24144 24147 24150 24153 24156 24159 24162 24164 24167 24170 24173 24176 24179 24182 24185 24188 24191 24194 24197 24200 24203 24206 24209 24212 24215 24218 24221 24224 24227 24230 24233 24236 24239 24242 24245 24248 24251 24254 24257 24260 24263 24266 24269 24272 24275 24278 24281 24284 24287 24290 24292 24295 24298 24300 24303 24306 24309 24311 24314 24317 24320 24322 24325 24328 24331 24334 24337 24339 24341 24344 24347 24350 24353 24355 24358 24361 24364 24366 24368 24371 24374 24377 24380 24383 24386 24389 24392 24395 24398 24401 24403 24405 24408 24411 24414 24417 24420 24423 24425 24427 24430 24433 24436 24438 24441 24444 24447 24450 24452 24455 24458 24461 24464 24467 24469 24471 24474 24477 24479 24482 24485 24487 24490 24493 24495 24498 24501 24504 24506 24509 24512 24514 24516 24519 24522 24525 24528 24530 24533 24536 24539 24542 24545 24548 24551 24553 24556 24559 24562 24565 24567 24570 24573 24575 24578 24581 24584 24587 24590 24593 24596 24599 24602 24605 24608 24611 24613 24616 24619 24622 24625 24628 24631 24634 24637 24640 24643 24646 24649 24652 24655 24658 24661 24664 24667 24670 24673 24676 24679 24682 24685 24688 24691 24694 24697 24699 24702 24705 24708 24710 24713 24716 24719 24722 24725 24728 24731 24734 24737 24740 24743 24746 24749 24752 24755 24758 24761 24764 24767 24770 24773 24776 24779 24782 24785 24788 24791 24794 24797 24800 24803 24806 24809 24812 24815 24818 24820 24823 24826 24828 24830 24833 24836 24839 24842 24844 24847 24850 24853 24855 24858 24861 24864 24867 24869 24872 24875 24878 24881 24883 24886 24889 24892 24894 24897 24900 24903 24906 24908 24911 24914 24916 24918 24921 24924 24927 24930 24932 24935 24938 24941 24943 24946 24949 24952 24955 24958 24961 24964 24967 24970 24973 24976 24979 24982 24984 24987 24989 24991 24994 24997 25000 25003 25006 25009 25012 25014 25016 25019 25022 25025 25028 25031 25034 25037 25040 25043 25046 25049 25052 25055 25058 25061 25064 25067 25069 25072 25075 25077 25080 25083 25086 25089 25091 25094 25097 25100 25102 25105 25107 25110 25113 25116 25118 25121 25124 25127 25130 25133 25136 25139 25142 25145 25148 25151 25154 25156 25159 25162 25165 25168 25170 25173 25176 25179 25182 25184 25187 25190 25193 25196 25199 25202 25205 25208 25210 25213 25216 25219 25222 25224 25227 25230 25233 25235 25238 25241 25244 25247 25250 25253 25256 25258 25261 25263 25266 25269 25272 25275 25277 25280 25283 25285 25288 25291 25294 25297 25300 25302 25305 25308 25311 25314 25317 25320 25323 25326 25329 25332 25335 25337 25340 25343 25346 25349 25351 25354 25357 25360 25362 25365 25368 25371 25374 25377 25380 25382 25385 25388 25391 25394 25397 25400 25403 25406 25409 25412 25415 25418 25421 25424 25427 25430 25433 25435 25438 25441 25444 25447 25450 25453 25456 25459 25462 25465 25468 25471 25474 25477 25480 25483 25486 25489 25492 25494 25497 25500 25503 25506 25509 25512 25515 25518 25520 25523 25526 25529 25531 25534 25537 25540 25543 25546 25548 25551 25554 25557 25560 25562 25565 25568 25571 25573 25576 25579 25582 25585 25588 25591 25593 25596 25599 25601 25604 25607 25610 25613 25615 25618 25621 25624 25627 25630 25632 25635 25638 25641 25643 25646 25649 25652 25655 25658 25661 25664 25667 25670 25673 25676 25679 25682 25685 25688 25691 25694 25697 25700 25703 25706 25709 25712 25715 25718 25721 25724 25727 25730 25732 25735 25738 25741 25744 25747 25750 25753 25755 25758 25761 25764 25767 25770 25773 25776 25779 25782 25785 25788 25791 25794 25796 25799 25802 25805 25808 25811 25814 25817 25820 25823 25826 25829 25832 25835 25838 25840 25843 25846 25849 25852 25855 25858 25860 25863 25866 25868 25870 25873 25876 25879 25882 25885 25888 25890 25893 25896 25899 25902 25905 25908 25911 25914 25917 25919 25922 25925 25928 25930 25933 25936 25939 25942 25945 25948 25951 25953 25956 25959 25962 25965 25968 25971 25974 25977 25980 25983 25985 25988 25990 25993 25996 25999 26001 26004 26007 26010 26013 26016 26019 26022 26025 26028 26031 26033 26036 26039 26042 26045 26048 26051 26054 26057 26060 26063 26066 26069 26072 26075 26078 26080 26083 26086 26089 26092 26095 26098 26101 26104 26107 26110 26113 26115 26118 26121 26124 26127 26129 26132 26135 26138 26141 26144 26147 26149 26152 26154 26157 26160 26163 26166 26169 26171 26174 26177 26179 26182 26185 26188 26191 26194 26197 26200 26203 26206 26209 26212 26214 26217 26220 26222 26225 26227 26230 26233 26236 26239 26242 26245 26248 26251 26253 26256 26259 26262 26265 26268 26271 26274 26277 26280 26283 26285 26288 26291 26294 26297 26300 26303 26306 26309 26312 26315 26318 26321 26323 26326 26329 26332 26335 26338 26341 26344 26347 26350 26353 26356 26359 26362 26365 26368 26371 26374 26377 26379 26382 26385 26387 26389 26392 26394 26397 26399 26401 26403 26406 26408 26411 26414 26417 26420 26423 26426 26429 26431 26434 26436 26438 26440 26443 26446 26449 26452 26455 26458 26461 26464 26467 26470 26473 26476 26479 26482 26485 26488 26491 26494 26497 26500 26502 26505 26508 26511 26514 26517 26520 26523 26525 26528 26531 26534 26536 26539 26542 26545 26547 26550 26553 26556 26558 26560 26563 26566 26569 26572 26575 26578 26581 26584 26587 26590 26593 26596 26598 26601 26603 26605 26608 26610 26613 26616 26619 26622 26625 26628 26631 26633 26635 26638 26641 26644 26647 26650 26652 26655 26658 26661 26663 26666 26669 26672 26674 26677 26680 26683 26686 26688 26691 26694 26697 26700 26703 26706 26708 26711 26713 26716 26719 26722 26724 26727 26730 26732 26734 26737 26740 26742 26744 26747 26750 26752 26755 26757 26760 26763 26765 26767 26770 26772 26774 26777 26779 26782 26785 26788 26791 26794 26796 26798 26801 26804 26807 26810 26813 26816 26818 26821 26824 26827 26830 26833 26836 26839 26841 26844 26847 26849 26852 26855 26858 26861 26864 26867 26869 26872 26875 26878 26881 26884 26887 26889 26891 26894 26896 26899 26902 26904 26907 26910 26913 26916 26919 26922 26925 26928 26931 26934 26937 26940 26943 26946 26949 26951 26954 26957 26960 26963 26966 26969 26972 26975 26977 26980 26983 26986 26989 26992 26994 26997 27000 27002 27005 27007 27010 27013 27016 27019 27021 27024 27026 27029 27032 27035 27038 27040 27043 27046 27049 27052 27054 27057 27060 27063 27065 27068 27071 27074 27077 27079 27081 27083 27086 27089 27091 27094 27097 27100 27103 27106 27108 27111 27114 27117 27119 27122 27125 27128 27131 27133 27135 27138 27140 27143 27146 27149 27151 27153 27155 27158 27160 27163 27166 27169 27172 27174 27177 27180 27182 27185 27188 27191 27194 27197 27200 27203 27206 27208 27211 27213 27216 27219 27222 27225 27228 27231 27233 27236 27239 27242 27245 27248 27250 27253 27256 27259 27262 27265 27268 27271 27274 27277 27280 27282 27285 27288 27290 27293 27296 27299 27302 27305 27308 27310 27313 27315 27318 27321 27324 27326 27328 27331 27334 27337 27340 27343 27346 27348 27351 27354 27357 27359 27362 27365 27368 27371 27374 27377 27380 27382 27385 27388 27391 27394 27397 27400 27403 27406 27409 27412 27415 27418 27421 27424 27427 27430 27433 27436 27439 27442 27445 27448 27451 27454 27457 27460 27463 27466 27469 27472 27475 27478 27481 27484 27487 27490 27493 27496 27499 27502 27505 27508 27511 27514 27517 27520 27523 27526 27529 27532 27535 27538 27541 27544 27547 27550 27553 27556 27559 27562 27565 27568 27571 27574 27577 27580 27583 27586 27589 27592 27595 27598 27601 27604 27607 27610 27613 27616 27619 27622 27625 27628 27630 27633 27636 27639 27641 27644 27647 27650 27653 27656 27659 27662 27664 27667 27670 27672 27675 27678 27681 27684 27687 27690 27693 27696 27699 27701 27704 27707 27710 27713 27716 27719 27722 27725 27727 27730 27733 27736 27739 27742 27745 27748 27751 27754 27756 27759 27762 27765 27767 27770 27773 27776 27779 27782 27785 27788 27791 27794 27797 27800 27803 27806 27809 27811 27814 27817 27820 27823 27826 27829 27831 27833 27836 27839 27842 27845 27848 27850 27853 27856 27858 27861 27864 27867 27870 27873 27876 27879 27882 27885 27888 27890 27893 27896 27899 27902 27905 27908 27911 27914 27917 27920 27923 27926 27929 27932 27935 27938 27941 27944 27947 27950 27952 27955 27958 27961 27964 27966 27968 27971 27974 27977 27979 27982 27985 27988 27991 27994 27997 28000 28002 28004 28007 28010 28013 28016 28018 28021 28024 28027 28030 28033 28036 28039 28042 28045 28048 28051 28053 28056 28059 28062 28064 28067 28070 28073 28076 28079 28082 28085 28088 28091 28094 28096 28099 28101 28104 28107 28110 28113 28116 28119 28122 28125 28128 28131 28134 28137 28140 28143 28146 28149 28152 28155 28158 28161 28164 28167 28170 28173 28176 28179 28182 28185 28188 28191 28194 28197 28200 28203 28206 28209 28212 28215 28218 28221 28224 28227 28230 28233 28236 28239 28242 28245 28248 28251 28254 28257 28260 28263 28266 28269 28272 28275 28278 28281 28284 28287 28290 28293 28296 28299 28302 28305 28308 28311 28314 28317 28320 28323 28326 28329 28332 28335 28338 28341 28344 28347 28350 28353 28356 28359 28362 28365 28368 28371 28374 28377 28380 28383 28385 28388 28391 28394 28397 28400 28403 28406 28409 28412 28415 28417 28420 28423 28426 28429 28432 28435 28438 28441 28444 28446 28449 28452 28455 28457 28460 28463 28466 28469 28472 28475 28478 28481 28484 28487 28490 28493 28496 28499 28502 28505 28508 28511 28514 28517 28520 28523 28526 28529 28532 28534 28537 28540 28543 28546 28549 28552 28555 28558 28560 28563 28565 28568 28571 28574 28577 28580 28582 28585 28588 28591 28594 28597 28600 28603 28606 28609 28611 28614 28617 28620 28622 28625 28628 28630 28633 28636 28639 28642 28645 28648 28651 28654 28657 28660 28663 28666 28669 28672 28675 28678 28681 28683 28686 28689 28692 28695 28697 28700 28703 28706 28709 28712 28715 28718 28721 28724 28726 28729 28732 28735 28738 28741 28744 28746 28749 28752 28755 28757 28760 28763 28766 28769 28771 28774 28777 28780 28782 28785 28787 28790 28793 28796 28798 28801 28804 28807 28810 28813 28816 28819 28822 28825 28828 28831 28834 28837 28840 28843 28846 28849 28851 28854 28857 28860 28863 28866 28869 28872 28875 28878 28881 28884 28887 28890 28893 28896 28899 28902 28905 28908 28911 28914 28917 28920 28923 28926 28929 28932 28935 28938 28941 28944 28947 28950 28953 28956 28959 28962 28965 28968 28971 28974 28977 28980 28983 28986 28989 28992 28995 28998 29001 29004 29007 29010 29013 29016 29019 29022 29025 29028 29031 29034 29037 29040 29043 29046 29049 29052 29055 29058 29061 29064 29067 29070 29073 29076 29079 29082 29085 29088 29091 29094 29097 29100 29103 29106 29109 29112 29115 29118 29121 29124 29127 29130 29133 29136 29139 29142 29145 29148 29151 29154 29157 29160 29163 29166 29169 29172 29175 29178 29181 29184 29187 29190 29193 29196 29199 29202 29205 29208 29211 29214 29217 29220 29223 29226 29229 29232 29235 29238 29241 29243 29246 29249 29252 29255 29257 29259 29262 29265 29268 29271 29273 29276 29278 29281 29284 29287 29289 29291 29293 29296 29299 29302 29305 29308 29311 29314 29316 29319 29322 29325 29327 29330 29333 29336 29339 29342 29345 29348 29351 29354 29357 29360 29363 29366 29369 29371 29374 29377 29380 29383 29386 29389 29392 29395 29398 29401 29404 29407 29410 29413 29416 29418 29421 29424 29427 29430 29432 29435 29437 29440 29443 29446 29449 29452 29455 29458 29461 29464 29467 29470 29472 29475 29478 29481 29484 29487 29489 29492 29495 29497 29500 29503 29506 29508 29511 29514 29517 29519 29522 29525 29527 29530 29532 29535 29538 29541 29544 29547 29550 29553 29556 29558 29561 29564 29567 29569 29572 29575 29577 29580 29583 29585 29587 29590 29593 29596 29599 29602 29605 29607 29610 29612 29615 29618 29621 29624 29626 29629 29632 29635 29638 29641 29644 29647 29649 29652 29655 29658 29661 29663 29666 29669 29672 29675 29678 29681 29684 29687 29690 29693 29696 29699 29702 29705 29708 29711 29714 29717 29720 29723 29726 29729 29732 29735 29738 29741 29743 29746 29749 
</DataArray>
<DataArray type="UInt32" Name="types" format="ascii">
5 5 5 5 5 5 5 5 5 5 5 5 5 5 5 5 5 5 3 5 5 3 5 3 3 5 5 5 3 5 5 3 5 5 5 5 5 5 3 3 5 5 3 5 5 5 5 5 5 5 5 3 5 5 5 3 5 5 3 5 5 5 5 5 5 5 5 5 5 5 5 5 5 5 5 5 5 5 5 5 5 5 5 5 5 5 3 5 5 5 3 5 5 5 3 5 3 5 5 5 5 5 5 5 3 5 5 5 5 5 5 3 5 5 5 5 5 5 5 5 5 5 5 5 5 3 5 5 5 5 5 5 3 5 3 5 5 3 5 5 3 5 5 5 3 5 5 5 5 5 5 5 5 5 5 5 5 5 5 5 5 3 5 5 5 5 5 5 5 5 3 5 5 5 3 5 5 5 5 5 5 5 5 3 5 5 5 5 3 3 5 5 3 5 5 3 5 5 5 5 5 5 5 5 5 5 5 5 5 5 5 5 5 5 5 5 5 5 5 5 5 5 5 5 5 5 5 5 5 5 5 5 5 5 5 3 5 5 3 5 5 5 5 5 5 5 5 5 5 5 5 5 5 5 5 5 5 5 5 5 5 5 5 5 5 3 5 5 5 3 5 5 3 5 5 3 5 5 5 5 5 3 5 3 5 3 3 5 5 5 5 3 3 3 5 5 5 5 5 3 5 5 3 5 3 5 5 5 5 5 5 5 3 5 5 5 5 5 5 3 5 5 5 5 5 5 5 5 5 5 5 5 5 5 5 5 5 5 5 3 3 3 5 3 3 5 5 5 3 3 5 5 5 3 3 5 3 5 3 5 5 5 5 5 5 5 5 3 5 5 5 5 5 5 5 5 5 5 5 5 3 5 5 5 5 5 5 5 5 5 5 5 5 5 5 5 5 5 5 5 5 5 5 5 5 5 3 5 5 5 5 3 5 5 5 5 3 5 5 5 5 5 5 5 5 5 5 5 5 5 5 5 5 5 5 3 5 5 5 5 5 5 5 5 5 5 5 5 5 3 5 5 5 5 5 5 5 5 5 5 5 5 5 5 5 5 5 5 5 5 5 5 5 5 5 5 5 5 5 5 5 5 5 5 5 5 5 5 5 5 5 5 5 5 5 5 5 5 5 5 5 5 3 5 5 5 5 5 5 5 5 5 3 5 5 5 5 3 5 5 5 5 5 5 5 5 5 5 5 5 5 5 5 5 3 5 5 5 5 5 5 5 5 3 5 5 5 5 5 5 5 5 5 5 5 5 5 5 5 5 5 5 5 5 5 5 5 5 5 5 5 5 5 5 3 5 5 3 5 5 5 3 5 5 5 5 5 5 5 5 5 5 5 3 5 5 5 5 5 5 5 5 5 5 5 5 5 5 5 5 5 5 5 5 5 5 5 5 3 3 5 3 3 5 5 5 5 5 5 5 5 5 3 5 5 5 3 5 3 5 5 3 5 5 5 5 5 3 5 5 3 5 5 5 5 5 5 5 5 5 5 5 5 3 3 5 5 5 5 3 5 5 5 5 5 5 5 3 5 5 3 5 3 5 5 5 3 3 5 5 3 3 5 5 3 5 5 3 5 5 3 5 3 5 5 5 5 5 5 3 5 5 5 5 5 5 5 5 5 5 5 5 3 5 5 5 5 3 5 5 3 5 5 5 5 5 5 5 5 5 5 5 5 5 5 5 5 5 5 5 5 5 5 5 5 5 5 5 5 5 5 5 5 5 5 5 5 5 5 5 5 5 5 5 5 5 5 5 5 5 5 5 5 5 5 5 5 5 5 5 5 5 5 5 5 5 5 3 5 5 5 5 3 5 5 5 5 5 5 5 5 5 5 5 5 5 5 5 5 5 5 5 5 5 5 5 5 5 5 5 5 5 5 5 3 5 5 5 5 5 5 3 5 5 5 5 5 5 5 5 5 5 5 5 5 5 5 5 5 5 5 5 5 5 3 5 5 5 5 3 5 5 5 3 5 5 5 5 5 5 5 5 5 5 5 5 5 3 5 5 3 3 5 5 5 5 5 5 3 3 3 5 5 5 5 5 5 5 5 5 5 5 5 5 5 5 5 5 5 3 5 5 5 5 5 3 5 5 3 5 5 5 3 5 5 5 3 5 5 5 5 5 3 5 5 5 5 3 5 5 5 5 5 5 5 5 3 5 5 5 5 5 5 5 5 5 3 5 5 5 3 5 5 5 5 5 5 5 5 5 5 5 5 5 5 5 5 5 5 5 5 5 5 5 5 5 5 5 3 5 5 3 5 5 5 3 5 3 5 5 3 5 3 5 5 5 5 5 3 5 5 3 3 3 5 5 3 5 5 5 3 3 5 5 3 5 5 5 5 5 5 3 5 5 5 5 5 5 5 5 5 3 5 5 5 5 5 5 5 5 5 5 5 5 5 5 5 5 5 5 5 5 5 5 5 5 5 5 5 5 5 5 5 5 5 5 5 5 5 3 3 5 5 5 5 5 5 5 5 5 5 5 5 5 5 5 5 5 5 5 5 5 5 5 5 5 5 5 5 5 5 5 5 5 5 5 5 5 5 5 5 5 3 5 5 5 5 3 5 5 5 5 5 5 5 5 5 5 5 5 5 5 5 5 5 5 5 5 5 5 5 5 5 5 3 5 5 5 5 5 5 5 5 5 5 5 5 5 5 3 5 5 5 5 5 3 5 5 5 5 3 5 5 5 3 5 5 3 5 3 5 3 5 5 3 5 5 5 5 5 5 5 3 5 5 5 5 5 5 5 5 5 5 5 5 5 5 5 5 5 5 5 5 5 5 5 5 5 5 5 5 5 5 5 5 5 3 5 5 5 3 5 5 5 3 5 5 5 5 5 5 5 5 5 3 5 5 5 3 5 5 5 5 3 5 3 5 5 5 5 5 5 5 5 5 5 5 5 5 5 5 5 5 5 5 5 5 5 5 5 5 5 5 5 5 5 5 5 5 5 5 5 3 5 5 3 5 3 5 3 5 5 3 3 5 5 5 3 5 3 5 5 5 5 5 5 5 3 5 5 3 5 5 3 5 5 5 5 3 3 5 5 5 3 3 5 3 5 5 5 5 5 5 3 5 3 3 5 3 5 5 5 5 5 3 5 5 5 5 5 5 5 3 3 5 3 5 5 3 5 3 5 5 5 5 5 5 5 5 3 5 5 3 5 3 5 5 5 5 5 5 5 5 5 5 3 5 5 5 3 3 5 5 3 5 5 5 5 5 5 3 5 5 5 5 5 5 5 5 3 3 5 5 5 5 5 5 5 5 5 5 5 5 5 5 3 5 5 5 5 5 5 3 5 3 5 3 5 3 5 5 5 5 5 5 5 5 5 3 3 5 5 5 5 5 5 5 5 5 5 5 5 5 5 5 5 3 5 5 3 5 5 5 5 5 5 5 5 5 5 3 5 5 5 5 5 5 5 3 5 3 3 5 5 3 5 5 5 5 5 5 5 5 3 5 5 5 3 5 5 5 3 5 5 5 5 5 5 5 5 5 5 5 5 5 5 5 5 5 5 5 5 5 3 5 5 5 5 5 5 5 5 5 5 5 5 5 5 5 5 5 5 5 5 5 5 5 5 5 3 5 5 5 5 5 5 5 5 5 5 5 5 5 5 5 3 5 5 5 5 5 5 5 5 5 5 5 5 3 3 5 5 3 3 5 5 5 5 3 3 5 5 5 5 5 5 3 3 5 5 5 5 3 5 5 3 5 5 5 5 3 5 5 5 5 3 5 5 5 3 5 3 5 3 3 5 5 5 3 3 3 3 5 5 3 5 3 5 5 3 5 5 5 3 3 5 3 5 5 5 5 5 5 5 5 5 5 5 5 5 5 5 5 5 5 3 5 5 5 5 5 3 5 5 5 5 3 5 5 5 5 5 5 5 3 3 5 5 3 5 5 5 5 5 5 5 5 5 5 5 5 5 5 5 5 5 5 5 5 5 5 5 5 5 5 5 5 5 5 5 5 5 5 5 5 3 5 5 5 3 5 5 5 5 5 5 5 5 5 5 5 5 5 5 5 5 5 5 3 5 5 3 5 5 5 5 5 3 5 3 5 5 5 5 5 5 5 5 5 5 5 3 3 5 5 3 5 3 5 5 5 5 3 5 3 5 3 5 5 3 3 5 5 3 5 5 5 5 5 5 5 3 5 5 5 3 5 5 5 5 3 3 5 5 5 5 5 5 3 5 5 5 5 3 5 5 5 5 5 5 5 5 5 5 5 5 5 5 5 5 3 5 5 5 5 3 5 5 5 5 3 5 3 5 5 5 5 5 3 5 5 5 5 5 5 5 3 5 5 5 3 3 5 5 5 3 5 3 5 5 5 5 3 5 5 5 5 3 5 5 5 5 5 3 5 5 3 5 3 5 3 5 5 5 5 3 5 5 5 5 5 5 5 5 5 5 5 3 5 5 5 5 5 5 5 3 5 5 5 5 5 5 5 5 5 5 3 5 5 5 5 5 5 5 3 5 5 3 5 5 5 5 5 5 5 5 5 5 5 5 5 5 5 5 5 5 5 5 5 5 3 5 3 5 5 3 5 5 5 5 5 3 5 5 5 3 5 3 5 5 5 5 5 5 5 5 5 5 5 3 5 5 5 5 5 5 5 5 5 5 5 5 5 5 5 3 5 5 5 5 5 5 5 5 5 3 5 5 3 5 5 3 5 5 5 5 5 5 5 5 5 5 3 5 5 5 5 3 5 3 3 3 5 5 3 5 3 5 5 5 5 3 5 5 3 5 5 5 5 5 5 5 5 5 5 5 5 5 5 5 5 5 5 3 5 3 3 5 5 5 5 5 3 3 5 5 5 5 5 5 5 5 5 5 5 5 5 5 5 5 5 5 3 3 5 5 5 5 5 5 5 5 5 5 5 5 5 3 5 5 5 5 5 3 5 5 5 5 5 5 5 5 5 5 5 5 5 5 5 5 5 5 5 5 5 5 5 5 5 5 5 3 5 5 5 3 5 5 5 3 3 5 3 5 5 3 5 5 3 5 5 5 5 5 3 5 5 5 5 5 5 5 5 5 3 5 5 5 5 5 3 5 5 5 5 5 5 5 5 5 5 5 5 5 3 5 5 5 5 5 5 5 5 5 5 5 5 5 5 5 5 3 5 5 5 5 5 3 5 5 5 5 3 5 5 3 5 5 5 5 3 5 3 5 5 5 5 5 5 3 5 5 5 5 5 5 5 5 5 5 5 5 5 5 5 5 5 5 5 5 5 5 5 5 5 5 5 5 5 3 5 5 5 5 5 5 5 5 5 5 5 5 3 5 5 5 5 3 5 5 3 5 3 5 5 5 5 5 5 5 5 5 5 5 5 5 3 3 5 5 3 5 5 5 5 5 5 5 5 5 5 5 3 5 5 3 5 5 5 5 5 5 5 5 5 5 3 5 5 5 3 5 5 5 5 5 5 5 5 5 5 5 5 5 5 5 5 5 5 5 3 5 5 5 5 5 5 5 5 5 5 5 5 3 5 5 5 5 5 5 5 5 5 5 5 5 5 5 5 3 3 5 5 3 5 5 3 5 5 3 5 3 5 5 3 5 5 5 3 3 5 5 3 5 3 3 3 5 5 5 3 5 3 5 5 5 5 3 5 5 5 5 5 5 5 3 5 3 5 5 3 5 5 5 5 5 3 5 5 3 3 5 3 5 3 5 5 3 5 5 5 3 5 5 5 5 3 5 5 5 5 5 3 5 5 3 5 5 5 5 5 3 5 5 5 5 5 5 5 5 5 5 5 3 5 5 5 5 5 5 5 5 3 5 5 5 5 5 5 5 3 5 5 5 3 5 5 5 5 5 3 5 5 5 5 5 5 5 5 5 5 3 5 3 5 5 5 5 5 5 5 5 5 5 5 5 5 5 5 5 5 5 5 3 5 3 5 5 5 3 5 5 5 5 5 5 3 5 5 5 5 5 3 5 5 3 5 5 5 3 5 5 5 3 5 5 5 5 5 5 5 5 5 5 5 5 5 5 5 5 5 5 5 5 5 3 5 5 5 5 5 5 5 3 5 3 3 5 5 5 5 5 3 5 3 3 3 5 5 5 5 3 5 5 5 5 5 3 5 5 5 5 5 5 5 3 5 5 5 5 5 5 5 5 5 5 5 5 5 5 5 5 5 5 5 5 5 5 3 5 5 5 5 5 5 3 5 5 5 5 3 5 5 3 5 5 5 3 5 3 3 3 5 5 5 3 5 3 3 5 5 3 5 3 5 5 5 5 3 3 3 3 5 5 5 3 5 5 5 5 5 5 3 5 5 3 5 5 5 5 5 5 5 5 5 5 3 5 5 5 5 5 3 5 5 5 3 5 5 3 3 5 5 3 5 5 5 5 5 5 5 5 5 5 5 5 5 5 5 5 5 3 5 5 3 5 5 3 5 5 5 5 5 5 5 3 5 5 3 5 5 5 3 5 3 5 5 5 3 5 3 5 5 5 5 5 5 5 5 5 5 3 5 5 5 5 5 5 5 5 5 5 5 5 5 3 5 3 5 5 5 3 5 5 5 5 5 3 5 3 5 5 5 5 5 5 3 5 5 5 5 5 5 3 5 5 5 3 5 5 5 5 5 5 5 5 5 5 5 3 5 5 3 5 5 5 5 5 5 5 5 5 5 5 5 5 3 5 5 5 5 3 5 5 3 5 5 3 5 5 5 5 5 5 5 5 5 5 5 5 5 5 5 5 5 5 5 5 5 5 5 5 5 3 5 3 5 5 3 5 5 5 5 3 5 5 5 5 5 5 5 5 5 3 5 5 3 5 5 5 5 5 5 3 5 3 5 5 5 5 5 3 5 5 5 5 5 5 5 5 5 3 5 5 5 5 5 5 5 5 5 5 3 5 5 5 3 5 5 5 5 5 5 3 3 3 5 5 5 5 5 3 5 5 5 5 5 5 5 5 5 5 5 5 5 5 3 5 5 5 5 5 5 3 5 5 5 3 5 3 5 5 5 5 3 5 5 5 5 5 5 5 5 5 5 5 5 5 5 5 5 5 5 5 5 5 5 3 5 5 3 5 5 5 5 5 3 5 5 5 5 5 5 5 5 5 5 5 5 5 5 5 5 5 5 5 5 5 5 5 5 5 5 3 5 5 5 5 5 3 5 3 5 5 5 5 5 3 5 5 5 5 5 5 5 5 5 3 5 5 5 5 5 5 5 5 5 5 5 5 5 5 5 5 5 3 5 5 5 5 5 5 3 5 5 5 3 5 5 5 5 5 5 5 5 5 5 5 5 5 5 5 5 5 5 3 5 5 3 5 5 5 5 5 3 5 5 5 5 5 5 5 5 5 5 3 3 5 5 5 5 3 5 5 3 5 5 5 5 5 5 5 5 5 5 5 5 5 5 5 5 5 5 5 5 5 5 5 5 3 5 5 5 5 5 5 5 5 3 5 5 5 5 5 5 3 5 5 5 5 5 5 5 5 5 3 5 5 5 5 5 5 5 5 5 3 5 5 5 3 3 5 5 5 5 5 5 3 5 5 3 5 5 5 5 5 5 3 5 5 5 5 3 5 3 5 5 5 5 3 3 5 5 5 5 5 3 5 5 5 3 5 5 5 5 5 5 5 5 5 5 3 5 5 5 5 5 5 5 5 5 3 3 5 5 5 5 5 5 5 5 5 5 5 5 5 5 3 5 3 5 5 5 3 5 5 5 5 5 3 5 5 5 5 5 5 5 5 3 3 5 5 5 5 3 5 5 5 5 3 5 5 5 5 5 5 3 5 5 5 5 5 5 5 5 5 3 5 5 5 5 5 3 5 3 5 5 5 3 5 3 5 3 5 3 3 5 5 5 5 5 5 5 5 3 5 3 5 5 5 5 3 3 3 5 5 5 5 3 5 5 5 3 3 5 5 5 5 5 5 5 3 3 5 5 5 5 5 5 3 5 5 5 5 5 5 5 5 5 5 5 3 3 5 5 5 5 3 3 5 3 5 5 5 5 5 5 5 5 5 3 3 5 5 5 5 5 5 5 5 5 5 5 5 5 5 5 5 5 5 3 3 5 3 5 5 5 5 5 5 5 5 5 5 5 5 5 5 5 5 5 5 5 5 5 5 5 5 3 3 5 5 5 5 5 5 5 5 5 5 5 5 5 5 5 5 5 5 5 5 5 5 5 5 5 5 5 5 5 5 5 3 5 5 3 5 5 5 5 5 3 5 5 3 5 5 5 5 5 5 5 5 5 5 5 5 5 3 5 5 5 5 5 5 5 5 3 5 5 5 5 5 3 3 3 5 5 5 5 3 5 5 5 5 5 5 5 5 5 5 5 5 5 3 3 5 5 5 5 5 5 5 3 5 5 3 5 5 5 5 5 5 5 5 5 5 5 5 5 5 5 5 5 5 5 5 5 3 5 3 5 5 5 5 5 5 5 3 5 5 5 5 5 5 5 5 5 5 5 3 5 5 5 5 5 5 3 5 5 5 5 3 5 5 3 5 5 5 5 3 5 5 5 5 5 5 5 5 5 5 5 5 5 5 5 3 5 5 5 5 5 5 5 3 5 5 5 5 5 5 5 5 5 5 5 5 5 3 5 5 3 5 5 5 3 5 5 5 5 5 5 3 5 5 5 5 5 5 5 5 5 5 5 5 5 5 5 5 5 5 5 5 3 5 5 5 5 5 3 5 5 5 5 5 3 5 5 5 5 3 5 5 3 3 5 5 5 5 5 5 3 5 5 5 5 5 5 5 5 5 5 3 5 5 3 5 5 5 5 5 5 5 3 5 5 5 5 5 5 5 5 5 5 5 5 5 3 5 5 5 5 3 5 5 5 3 3 5 5 5 5 5 5 3 5 5 5 3 5 5 5 5 5 5 3 5 5 5 3 5 5 5 5 5 5 5 5 5 5 5 5 5 5 5 5 5 5 5 5 3 5 5 5 5 5 5 5 5 5 5 5 5 5 5 5 5 5 5 5 5 5 5 5 5 5 5 5 5 5 5 5 5 5 5 3 5 5 3 5 5 3 5 5 3 5 5 5 5 5 3 5 5 5 5 5 5 5 5 5 5 5 5 5 5 5 5 5 5 5 5 5 5 5 3 5 5 5 5 5 5 5 3 5 5 5 3 5 5 3 5 5 3 5 5 3 5 5 3 5 5 5 3 5 5 3 3 5 5 3 5 5 3 5 5 5 5 5 5 5 5 5 5 5 5 5 5 5 5 3 5 3 5 5 5 5 3 5 5 5 3 5 5 5 5 5 5 5 5 5 5 5 5 5 5 5 3 3 5 5 5 5 5 5 3 5 5 3 5 5 3 5 5 5 5 5 5 5 5 5 5 5 5 5 5 5 5 5 5 5 5 5 5 5 5 5 5 5 3 5 5 3 3 5 5 5 5 5 5 5 3 5 5 5 3 5 5 5 5 5 5 5 5 5 5 5 5 5 5 3 5 5 3 5 5 5 5 3 5 5 5 5 5 5 5 3 5 5 5 5 5 5 5 5 5 5 5 5 5 5 5 3 5 5 5 5 3 5 5 3 3 5 5 3 5 5 3 5 5 3 5 3 3 5 5 5 5 5 5 3 5 3 5 5 3 5 5 3 5 5 5 3 5 3 5 5 5 5 3 5 5 5 5 5 5 5 5 3 5 5 3 5 5 5 5 5 3 5 5 5 5 3 3 5 5 3 5 5 5 5 5 5 5 5 3 5 5 5 5 3 5 5 5 5 5 5 5 5 5 5 3 5 5 5 5 5 5 5 5 5 5 3 5 5 5 5 3 5 5 5 5 5 5 3 5 5 5 5 5 3 5 5 5 5 5 5 5 5 5 5 5 5 5 5 5 3 5 5 5 5 5 3 5 5 5 5 3 5 3 5 5 5 5 3 3 5 3 3 5 3 3 5 5 5 5 5 3 5 3 5 5 5 5 5 5 5 5 5 5 5 5 3 5 5 5 5 3 5 3 5 5 5 5 5 5 5 5 5 5 5 5 5 5 3 5 5 5 3 5 5 5 5 5 5 5 5 5 5 5 5 5 5 5 5 5 5 5 5 5 5 5 5 5 5 5 5 5 5 5 5 5 5 5 5 5 5 5 5 5 5 5 5 5 3 5 5 5 5 5 5 3 5 5 5 5 3 3 3 3 5 5 5 5 5 3 5 5 5 5 5 5 5 5 3 3 5 5 5 5 3 5 5 5 5 5 5 5 5 5 5 5 5 5 5 5 5 5 5 5 5 5 5 5 5 5 5 5 3 5 5 3 5 5 5 5 5 3 5 5 5 5 3 3 5 5 5 5 5 3 5 5 5 5 5 5 5 5 5 5 5 5 5 5 5 5 5 5 5 5 5 5 5 5 3 5 5 5 3 3 5 5 3 5 5 5 5 3 5 5 5 5 5 5 5 5 5 5 5 5 5 5 5 5 5 5 5 5 5 5 5 5 5 3 5 3 3 5 3 5 5 5 5 5 3 5 5 5 5 5 5 5 5 3 5 5 5 5 5 5 5 5 5 5 5 5 5 5 5 5 5 5 5 5 5 5 5 5 5 5 5 5 5 5 5 5 5 5 5 5 5 3 5 5 5 5 5 3 5 5 5 5 5 5 5 5 5 5 3 5 5 5 5 5 5 5 5 5 3 5 5 5 5 5 5 5 5 5 3 5 5 5 5 5 5 3 5 5 5 5 5 5 5 5 5 5 5 5 5 5 5 5 5 5 5 3 5 5 5 5 5 5 5 5 5 5 5 5 5 5 5 5 3 5 5 5 5 5 5 5 5 5 5 5 5 5 5 5 5 5 5 5 5 5 5 3 5 5 3 5 5 5 5 3 5 5 5 5 5 5 5 5 3 5 5 5 3 3 3 5 5 3 5 5 5 5 5 3 5 5 5 5 5 5 5 5 5 5 5 5 5 5 5 5 5 5 5 5 5 5 5 5 5 5 5 5 5 5 5 5 5 5 5 5 5 5 5 5 5 5 5 3 5 3 5 5 5 5 5 5 5 5 5 3 5 5 5 5 3 5 5 3 5 5 3 3 5 3 3 5 5 5 5 5 5 5 3 5 5 5 5 3 5 5 5 5 5 5 5 5 5 5 5 5 3 5 5 5 5 5 5 5 5 5 5 5 5 5 5 5 5 5 5 3 5 5 3 3 5 5 5 5 5 3 5 5 5 5 5 5 3 5 5 5 5 5 5 5 5 5 5 3 5 5 5 5 5 5 5 3 5 5 5 5 3 5 5 5 5 5 5 5 3 5 5 5 5 5 5 5 5 5 5 5 5 5 5 5 5 5 5 5 5 5 3 5 5 5 5 5 3 5 5 5 3 5 3 5 5 5 5 5 5 5 5 5 5 5 3 5 5 5 5 5 3 5 5 5 5 5 5 5 5 5 5 5 5 5 5 3 5 5 5 5 3 5 3 5 3 5 3 3 5 3 5 5 3 5 5 3 5 5 5 5 5 5 5 5 5 5 5 5 3 5 5 5 5 3 5 3 5 5 5 3 5 5 3 5 5 3 5 3 5 5 5 5 5 5 5 5 5 5 5 5 3 3 5 3 5 5 3 3 5 5 5 5 5 5 3 5 5 3 5 5 5 3 5 5 5 5 5 3 5 3 3 5 5 5 3 5 5 5 3 5 5 5 5 3 5 5 5 5 5 5 5 5 5 5 5 5 5 5 5 5 5 5 5 5 3 5 5 5 5 5 5 5 3 3 5 5 5 5 5 3 5 3 5 5 5 5 5 5 5 5 5 5 5 5 5 5 5 5 5 5 5 5 5 5 5 5 5 5 5 5 5 5 5 5 5 5 5 5 5 5 5 5 5 5 5 5 5 5 5 5 5 5 5 5 5 5 5 5 5 5 5 5 5 5 5 5 5 5 5 5 5 5 5 5 5 5 5 5 5 5 5 5 5 5 5 5 5 5 5 5 5 5 5 5 5 3 5 5 5 5 5 5 5 5 5 3 3 5 5 5 5 5 3 5 5 3 5 5 3 3 5 3 5 5 5 5 5 5 5 5 5 5 5 5 5 5 5 5 5 5 5 3 5 5 5 5 5 5 5 3 3 5 5 5 5 5 3 5 5 3 5 3 5 5 5 5 5 5 5 5 5 5 5 5 5 5 5 5 5 5 5 5 5 5 5 5 5 3 5 5 5 5 5 5 5 5 5 5 5 5 5 5 5 5 5 5 5 5 5 5 5 5 5 5 5 5 5 5 5 5 5 5 5 5 5 5 5 5 5 5 5 5 5 5 5 5 5 5 5 5 5 5 5 5 5 5 5 5 5 5 5 5 3 5 5 5 5 5 3 5 5 5 3 5 5 5 5 5 5 5 5 5 5 3 5 5 5 5 5 5 5 5 5 5 5 5 3 5 5 5 5 3 5 5 5 5 5 5 5 5 5 5 3 5 5 5 5 5 3 5 5 5 5 5 5 5 5 5 5 3 5 5 5 5 5 5 5 5 5 5 3 5 5 5 3 5 5 5 5 5 5 5 5 5 5 5 5 5 3 5 5 5 5 5 5 5 5 5 5 5 5 5 5 5 5 5 5 5 5 5 5 5 5 5 5 5 5 5 5 5 5 5 5 5 5 5 3 5 5 5 5 5 5 5 5 3 5 5 5 3 5 5 5 5 5 5 5 5 3 5 5 3 5 5 5 5 5 5 5 3 5 5 3 3 5 5 5 5 5 5 3 5 5 5 5 5 5 5 5 5 5 5 5 5 5 5 5 3 5 5 5 3 5 5 5 5 5 5 5 5 5 5 5 5 5 5 5 5 5 5 3 5 5 5 5 5 5 5 3 3 5 5 5 5 3 5 5 3 5 5 5 5 5 5 5 5 5 3 5 5 3 3 5 5 5 3 5 5 3 5 5 5 5 5 5 3 5 5 3 5 5 5 5 5 5 3 5 5 3 3 5 5 5 5 5 3 5 5 5 5 5 5 5 5 5 5 5 3 5 5 5 5 3 5 5 5 3 5 3 5 5 5 5 5 5 3 5 5 5 5 5 3 5 5 5 5 3 5 5 5 5 5 5 5 5 3 5 5 3 5 3 5 3 5 5 5 3 5 3 5 3 5 5 5 5 5 5 5 5 5 5 5 5 5 5 5 3 5 5 5 3 5 5 3 5 5 5 3 5 5 5 5 3 5 5 5 5 3 3 5 5 3 5 5 3 5 5 5 5 5 5 5 5 5 5 5 5 5 5 5 5 5 5 5 5 5 5 5 5 5 5 5 5 5 5 5 5 5 5 5 5 5 5 5 5 5 5 5 5 5 5 5 5 3 5 3 5 5 5 5 5 5 3 5 5 5 5 5 5 5 5 5 3 5 5 3 5 3 5 5 5 5 5 5 5 5 5 3 5 5 3 5 5 3 5 5 5 5 5 5 3 5 5 5 5 5 5 5 5 5 5 5 5 5 5 5 5 5 5 5 5 5 3 5 5 5 5 5 5 5 5 5 3 5 5 5 5 5 5 5 5 5 5 5 5 3 3 5 3 3 5 5 5 5 3 5 5 5 5 5 5 5 3 5 5 3 5 5 5 5 5 3 5 5 5 5 3 5 5 5 5 5 3 5 5 5 5 3 5 5 5 5 5 5 5 5 5 5 5 5 3 5 5 5 5 5 5 5 5 3 5 5 3 3 5 5 3 5 3 3 5 5 5 3 5 3 5 5 5 3 3 5 5 5 3 5 5 5 5 5 5 5 3 5 5 5 5 5 5 5 5 5 5 5 3 5 5 3 5 5 3 5 5 3 5 3 5 5 3 5 5 5 5 5 5 5 5 5 5 5 3 5 5 5 5 5 5 5 5 5 5 5 5 5 5 5 5 5 3 5 5 3 5 5 5 5 3 5 5 5 5 5 5 5 5 5 5 5 5 5 5 5 5 5 5 5 5 5 5 5 5 5 5 5 5 5 5 5 5 5 3 5 5 5 5 5 5 5 5 5 5 3 5 5 3 5 5 5 5 5 5 5 5 5 5 3 5 5 5 5 5 5 5 3 5 5 5 5 5 5 5 5 3 5 3 5 5 5 5 5 5 5 5 5 3 5 5 5 5 5 5 5 5 5 5 5 5 5 3 5 5 5 5 3 5 5 5 5 5 5 5 5 5 5 5 5 5 5 5 5 5 5 5 5 5 3 5 5 5 3 5 5 5 3 5 5 5 5 5 3 5 5 5 5 5 5 5 5 5 5 5 5 5 3 5 5 5 5 5 5 5 5 5 5 5 5 5 5 5 5 5 3 5 5 5 5 5 5 5 5 5 5 5 5 5 3 5 5 5 5 3 5 5 5 5 5 5 3 5 5 5 5 5 5 5 5 3 5 5 5 5 5 5 5 3 5 5 5 3 5 5 5 5 5 5 5 3 5 5 5 5 5 5 5 5 5 5 5 3 5 5 5 5 5 5 5 5 5 3 5 5 3 5 5 5 5 5 3 3 5 3 5 5 5 3 3 5 5 5 3 5 3 5 5 5 5 3 5 5 5 5 5 3 5 5 5 5 3 5 5 3 3 3 5 5 5 5 3 5 3 5 5 5 3 5 5 5 5 5 5 5 5 5 5 5 5 5 5 5 5 3 5 3 5 5 5 5 5 5 5 5 5 3 5 5 3 3 5 5 3 5 5 5 5 3 5 5 5 5 5 5 5 5 5 5 5 3 5 5 5 5 5 5 5 5 5 5 5 5 5 5 5 5 5 5 5 3 5 5 5 5 5 5 5 5 5 5 5 5 5 5 5 5 5 5 5 5 5 5 5 5 5 5 3 5 3 5 5 5 5 5 5 3 5 3 5 5 5 5 5 5 5 5 5 5 5 5 5 5 5 5 5 5 5 5 5 5 3 5 5 5 5 5 5 3 5 3 5 5 5 5 5 5 3 5 3 3 5 5 5 5 5 3 5 5 5 5 5 5 5 3 5 3 5 5 5 3 5 5 5 5 5 5 5 5 5 5 5 5 5 5 5 5 5 5 5 5 5 5 5 5 5 5 3 5 3 5 5 5 3 5 5 5 5 3 5 5 5 5 5 5 5 5 5 5 5 5 5 5 5 5 5 5 5 5 5 5 5 5 5 5 5 5 3 3 5 5 5 5 3 3 5 5 5 3 3 5 5 5 5 5 5 3 5 5 5 5 3 5 5 5 3 5 5 3 5 5 5 3 5 5 3 3 5 3 5 5 5 5 5 5 3 5 5 5 3 5 5 5 5 5 3 5 5 5 5 5 5 5 5 5 5 5 5 5 5 5 5 5 5 5 5 5 5 5 5 5 5 5 5 5 5 5 5 5 5 5 5 5 5 5 5 5 5 5 5 5 5 5 5 5 5 5 5 3 5 5 5 5 5 5 5 5 5 5 5 5 5 5 5 5 5 5 5 5 5 5 5 5 5 5 5 5 5 5 5 5 5 5 5 5 5 5 5 3 5 3 5 3 3 5 3 5 5 5 3 5 5 3 5 5 3 3 5 5 5 3 5 5 5 5 5 5 5 5 5 5 5 5 5 5 5 5 5 5 5 5 5 5 5 5 3 5 5 5 5 5 5 5 3 5 5 5 5 3 5 5 3 5 5 5 5 5 3 5 5 5 5 3 5 5 5 5 5 3 5 5 5 5 5 5 5 5 3 5 5 5 5 5 5 5 5 5 5 5 5 5 5 5 5 5 5 5 5 5 5 5 5 5 5 5 5 5 5 5 5 5 5 5 5 5 5 5 5 5 5 5 5 5 5 5 5 5 5 5 3 5 5 5 5 5 5 5 5 5 5 3 5 5 5 5 3 5 3 5 5 5 5 5 5 3 5 5 5 5 5 5 5 5 3 5 5 3 5 5 5 5 5 3 5 5 5 5 5 5 5 5 5 3 5 5 3 5 5 5 5 5 5 5 5 5 5 3 5 5 5 5 5 5 5 3 5 5 5 5 5 5 5 5 5 5 5 5 5 5 5 5 5 5 5 5 5 5 5 5 5 5 5 5 5 5 5 5 5 5 5 5 5 5 3 3 5 5 5 5 5 5 3 5 5 5 5 5 5 5 5 5 5 5 5 5 5 5 5 5 5 5 5 5 5 5 5 5 5 5 5 5 5 5 5 3 5 5 5 3 5 5 3 5 5 5 5 5 5 5 5 5 5 5 5 5 5 3 3 5 3 5 3 5 5 5 5 5 3 5 5 5 5 5 5 5 5 5 5 5 5 5 5 3 5 5 3 3 5 3 5 5 5 5 5 5 5 5 5 5 5 5 5 5 5 5 5 5 5 3 5 3 5 5 5 5 3 5 5 5 5 5 5 5 5 5 5 5 5 5 5 5 5 3 3 5 3 5 5 5 3 5 5 3 5 5 5 3 5 3 5 5 5 5 5 5 5 5 3 5 5 3 5 5 5 3 5 5 3 5 5 3 5 3 5 3 5 3 5 5 5 5 3 5 5 3 3 5 5 3 5 3 5 5 5 3 3 5 3 5 5 5 3 5 5 5 3 5 3 5 5 3 5 3 5 5 3 5 5 5 3 5 5 5 5 5 3 3 5 3 5 5 5 5 5 5 5 5 5 5 5 5 5 5 3 5 3 5 5 5 3 5 5 5 5 5 5 5 5 5 5 5 5 5 5 5 5 5 5 5 5 5 5 5 5 5 5 5 5 5 5 5 5 5 5 5 5 5 5 5 5 5 5 3 5 5 5 5 3 5 5 5 3 5 3 5 5 5 3 5 5 5 5 5 5 5 5 3 5 5 5 5 5 3 5 5 5 5 5 5 5 5 5 5 5 5 5 5 5 5 5 5 5 5 5 3 5 5 5 3 5 5 5 5 5 5 5 5 5 5 5 5 5 5 5 5 5 5 5 5 5 5 5 5 5 5 5 5 5 5 5 3 5 5 5 5 3 5 5 5 5 3 5 5 5 5 5 5 5 5 5 5 5 5 3 5 5 5 5 5 5 5 5 5 5 5 5 3 5 5 3 5 5 3 5 3 5 5 3 5 5 3 5 5 5 5 3 5 5 5 5 5 5 5 5 3 5 5 5 3 5 5 5 5 5 3 5 5 3 5 5 5 5 5 5 5 5 5 5 5 5 5 5 5 5 5 5 5 5 5 5 5 5 5 5 5 5 3 5 5 5 5 3 5 5 5 3 3 5 5 3 5 5 5 5 5 5 3 5 5 5 5 5 5 5 5 5 5 5 5 3 5 5 5 3 5 5 5 5 5 5 5 5 5 5 5 5 5 5 5 5 5 5 5 5 5 5 5 5 5 5 5 5 5 5 5 5 5 5 5 5 5 5 3 5 5 5 5 5 5 5 5 5 5 5 5 5 5 5 3 5 5 5 5 5 5 5 5 5 5 5 5 5 5 5 5 5 5 5 5 5 5 5 5 3 5 5 5 3 5 5 5 5 3 5 5 5 5 5 5 3 5 5 5 5 5 5 5 5 5 5 5 5 3 5 3 5 5 5 5 5 5 5 5 5 5 5 5 5 5 5 5 5 5 5 5 5 5 5 5 5 5 5 5 5 5 5 5 5 5 5 5 5 5 5 5 5 5 5 5 5 5 5 5 5 5 5 5 5 5 5 5 5 5 5 5 5 5 5 5 5 5 5 5 5 5 5 5 5 5 5 5 5 5 5 5 5 5 5 5 5 5 5 5 5 5 5 5 5 5 3 5 5 3 5 3 5 5 5 5 5 5 5 5 5 3 5 3 5 5 5 5 5 5 5 5 5 5 5 5 5 5 5 3 5 5 5 5 5 3 3 3 5 5 5 3 5 5 5 5 5 5 5 5 5 5 5 5 5 5 5 5 5 5 5 5 5 5 3 5 5 3 5 5 5 5 5 5 3 5 5 5 5 5 5 5 5 5 5 5 5 5 5 5 5 5 5 5 5 5 5 5 5 5 5 5 5 5 5 5 5 5 5 5 5 5 5 5 5 5 5 5 5 5 5 5 5 5 5 5 5 5 3 5 5 5 3 5 5 5 3 5 5 5 5 3 5 5 5 5 5 3 5 5 5 5 5 5 5 5 5 5 5 5 5 5 5 5 5 5 5 5 5 5 5 3 5 5 5 3 5 5 5 5 5 5 5 5 5 5 3 5 5 5 3 5 5 5 5 5 5 5 5 5 5 5 5 5 5 5 5 5 5 5 5 5 5 5 5 5 5 3 5 5 5 5 3 5 5 5 5 5 5 3 5 5 5 5 5 5 5 5 5 5 5 3 5 3 3 5 5 5 5 5 3 5 5 5 5 5 5 5 5 5 5 5 5 5 3 5 5 5 5 3 5 5 5 5 5 5 5 5 5 5 5 5 3 5 5 5 5 5 5 5 3 5 3 5 5 5 5 5 5 5 5 5 5 5 3 5 3 5 5 5 5 5 5 5 3 5 5 3 5 3 5 5 5 3 5 5 3 5 5 5 5 5 5 5 5 5 5 3 5 5 5 5 5 5 5 5 5 5 3 5 5 3 5 5 5 3 5 5 5 5 5 5 5 5 5 5 5 5 5 5 5 3 3 5 5 5 3 5 5 5 3 5 5 5 5 5 3 5 5 3 5 5 5 5 5 5 5 5 5 5 5 3 5 5 3 5 5 5 5 5 5 5 5 5 5 5 3 5 5 5 5 5 5 5 5 5 5 5 5 5 5 5 5 3 5 3 5 5 3 5 5 5 3 5 5 5 5 3 5 5 5 5 5 5 3 5 5 5 5 5 5 3 5 5 5 5 5 5 5 5 5 5 5 5 5 5 5 3 5 5 5 5 5 5 3 5 5 5 5 5 5 5 5 5 5 5 5 5 5 5 5 5 5 5 5 5 5 5 5 5 5 5 5 5 5 5 5 5 5 3 5 5 5 5 5 5 5 5 5 5 5 3 5 5 5 5 5 5 5 5 5 5 3 5 3 5 3 5 3 3 3 5 3 5 3 5 5 5 3 5 5 5 5 3 5 5 5 3 5 5 3 3 3 5 3 5 5 5 3 5 5 5 5 5 5 5 5 5 5 5 5 5 5 5 5 5 5 5 5 5 5 5 5 5 3 5 5 5 5 5 5 5 5 5 5 5 5 5 5 5 5 5 5 5 5 5 5 3 5 5 5 5 5 5 5 5 5 5 5 5 5 5 5 5 5 5 5 5 5 5 5 5 5 5 5 5 5 5 5 5 5 5 5 5 5 5 5 5 5 5 3 5 5 3 5 5 5 3 5 5 5 3 5 5 5 5 5 3 3 5 5 5 5 3 5 5 5 3 3 5 5 5 5 5 5 5 5 5 5 5 3 3 5 5 5 5 5 5 3 3 5 5 5 3 5 5 5 5 3 5 5 5 5 5 3 3 5 5 3 5 5 3 5 5 3 5 5 5 3 5 5 3 3 5 5 5 5 3 5 5 5 5 5 5 5 3 5 5 5 5 3 5 5 3 5 5 5 5 5 5 5 5 5 5 5 5 3 5 5 5 5 5 5 5 5 5 5 5 5 5 5 5 5 5 5 5 5 5 5 5 5 5 5 5 5 3 5 5 5 3 5 5 5 5 5 5 5 5 5 5 5 5 5 5 5 5 5 5 5 5 5 5 5 5 5 5 5 5 5 5 5 5 5 5 5 5 3 5 5 3 3 5 5 5 5 3 5 5 5 3 5 5 5 5 3 5 5 5 5 3 5 5 5 3 5 5 5 5 3 5 5 3 3 5 5 5 5 3 5 5 5 3 5 5 5 5 5 5 5 5 5 5 5 5 5 3 5 3 3 5 5 5 5 5 5 5 3 3 5 5 5 5 5 5 5 5 5 5 5 5 5 5 5 5 5 3 5 5 3 5 5 5 5 3 5 5 5 3 5 3 5 5 5 3 5 5 5 5 5 5 5 5 5 5 5 5 3 5 5 5 5 3 5 5 5 5 3 5 5 5 5 5 5 5 5 3 5 5 5 5 3 5 5 5 3 5 5 5 5 5 5 5 3 5 3 5 5 5 5 3 5 5 3 5 5 5 5 5 3 5 5 5 5 5 5 5 5 5 5 5 3 5 5 5 5 3 5 5 5 3 5 5 5 5 5 5 3 5 5 5 5 5 5 5 5 5 5 5 5 5 5 5 5 5 3 5 5 5 5 5 5 5 5 5 5 5 5 5 5 5 5 5 5 5 3 5 5 5 5 5 5 5 5 3 5 5 5 3 5 5 5 5 5 3 5 5 5 5 3 5 5 5 3 5 5 5 5 5 5 3 5 5 3 5 5 5 5 3 5 5 5 5 5 3 5 5 5 3 5 5 5 5 5 5 5 5 5 5 5 5 5 5 5 5 5 5 5 5 5 5 5 5 5 5 5 5 5 3 5 5 5 5 5 5 5 3 5 5 5 5 5 5 5 5 5 5 5 5 5 3 5 5 5 5 5 5 5 5 5 5 5 5 5 5 3 5 5 5 5 5 5 3 5 5 3 3 5 5 5 5 5 5 3 5 5 5 5 5 5 5 5 5 3 5 5 5 3 5 5 5 5 5 5 5 3 5 5 5 5 5 5 5 5 5 5 3 5 3 5 5 5 3 5 5 5 5 5 5 5 5 5 5 3 5 5 5 5 5 5 5 5 5 5 5 5 5 5 5 3 5 5 5 5 5 5 5 5 5 5 5 3 5 5 5 5 3 5 5 5 5 5 5 3 5 3 5 5 5 5 5 3 5 5 3 5 5 5 5 5 5 5 5 5 5 5 3 5 5 3 5 3 5 5 5 5 5 5 5 5 3 5 5 5 5 5 5 5 5 5 5 3 5 5 5 5 5 5 5 5 5 5 5 5 3 5 5 5 5 5 5 5 5 5 5 5 5 5 5 5 5 5 5 3 5 5 3 3 5 3 5 3 3 3 5 3 5 5 5 5 5 5 5 3 5 3 3 3 5 5 5 5 5 5 5 5 5 5 5 5 5 5 5 5 5 5 5 5 3 5 5 5 5 5 5 5 3 5 5 5 3 5 5 5 3 5 5 5 3 3 5 5 5 5 5 5 5 5 5 5 5 5 3 5 3 3 5 3 5 5 5 5 5 5 5 3 3 5 5 5 5 5 3 5 5 5 3 5 5 5 3 5 5 5 5 3 5 5 5 5 5 5 3 5 3 5 5 5 3 5 5 3 3 5 5 3 3 5 5 3 5 3 5 5 3 3 5 3 3 5 3 5 5 5 5 5 3 3 5 5 5 5 5 5 3 5 5 5 5 5 5 5 3 5 5 3 5 5 5 5 5 5 3 5 5 5 5 5 5 3 3 5 3 5 5 3 5 5 5 5 5 5 5 5 5 5 5 5 5 5 5 3 5 5 5 5 5 5 5 5 3 5 5 5 5 5 3 5 5 3 5 3 5 5 5 5 3 5 3 5 5 5 5 3 5 5 5 5 3 5 5 5 3 5 5 5 5 3 3 3 5 5 3 5 5 5 5 5 3 5 5 5 3 5 5 5 5 3 3 5 3 5 5 5 3 3 3 5 3 5 5 5 5 3 5 5 3 5 5 5 5 5 5 5 5 3 5 3 5 5 5 5 5 5 3 5 5 5 5 5 3 5 5 5 5 5 5 5 5 5 5 3 5 5 3 5 5 5 5 5 5 3 5 3 5 5 5 3 3 5 5 5 5 5 5 3 5 5 5 3 5 5 5 5 5 5 5 3 5 5 5 5 5 5 5 5 5 5 5 5 5 5 5 5 5 5 5 5 5 5 5 5 5 5 5 5 5 5 5 5 5 5 5 5 5 5 5 5 5 5 5 5 5 5 5 5 5 5 5 5 5 5 5 5 5 5 5 5 5 5 5 5 5 5 5 5 5 5 5 5 5 5 5 5 5 5 5 5 5 5 3 5 5 5 3 5 5 5 5 5 5 5 3 5 5 3 5 5 5 5 5 5 5 5 5 3 5 5 5 5 5 5 5 5 3 5 5 5 5 5 5 5 5 5 3 5 5 5 3 5 5 5 5 5 5 5 5 5 5 5 5 5 5 3 5 5 5 5 5 5 3 3 5 5 5 5 5 3 5 5 3 5 5 5 5 5 5 5 5 5 5 3 5 5 5 5 5 5 5 5 5 5 5 5 5 5 5 5 5 5 5 5 3 5 5 5 5 3 3 5 5 5 3 5 5 5 5 5 5 5 3 3 5 5 5 5 3 5 5 5 5 5 5 5 5 5 5 5 3 5 5 5 3 5 5 5 5 5 5 5 5 5 5 3 5 3 5 5 5 5 5 5 5 5 5 5 5 5 5 5 5 5 5 5 5 5 5 5 5 5 5 5 5 5 5 5 5 5 5 5 5 5 5 5 5 5 5 5 5 5 5 5 5 5 5 5 5 5 5 5 5 5 5 5 5 5 5 5 5 5 5 5 5 5 5 5 5 5 5 5 5 5 5 5 5 5 5 5 5 5 5 5 5 5 5 5 5 5 5 5 3 5 5 5 5 5 5 5 5 5 5 3 5 5 5 5 5 5 5 5 5 3 5 5 5 3 5 5 5 5 5 5 5 5 5 5 5 5 5 5 5 5 5 5 5 5 5 5 5 5 5 3 5 5 5 5 5 5 5 5 3 5 3 5 5 5 5 5 3 5 5 5 5 5 5 5 5 5 3 5 5 5 3 5 5 3 5 5 5 5 5 5 5 5 5 5 5 5 5 5 5 5 5 3 5 5 5 5 3 5 5 5 5 5 5 5 5 5 3 5 5 5 5 5 5 3 5 5 5 3 5 5 5 5 3 5 5 5 3 5 3 5 5 5 3 5 5 5 5 5 5 5 5 5 5 5 5 5 5 5 5 5 3 5 5 5 5 5 5 5 5 5 5 5 5 5 5 5 5 5 5 5 5 5 5 5 5 5 5 5 5 5 5 5 5 5 5 5 5 5 5 5 5 5 5 5 5 5 5 5 5 5 5 5 5 5 5 5 5 5 5 5 5 5 5 5 5 5 5 5 5 5 5 5 5 5 5 5 5 5 5 5 5 5 5 5 5 5 5 5 5 5 5 5 5 5 5 5 5 5 5 5 5 5 5 5 5 5 5 5 5 5 5 5 5 5 5 5 5 5 5 5 5 5 5 5 5 5 5 5 5 5 5 3 5 5 5 5 3 3 5 5 5 5 3 5 3 5 5 5 3 3 3 5 5 5 5 5 5 5 3 5 5 5 3 5 5 5 5 5 5 5 5 5 5 5 5 5 5 3 5 5 5 5 5 5 5 5 5 5 5 5 5 5 5 3 5 5 5 5 3 5 3 5 5 5 5 5 5 5 5 5 5 5 3 5 5 5 5 5 3 5 5 3 5 5 5 3 5 5 5 3 5 5 3 5 3 5 5 5 5 5 5 5 5 3 5 5 5 3 5 5 3 5 5 3 3 5 5 5 5 5 5 3 5 3 5 5 5 5 3 5 5 5 5 5 5 5 3 5 5 5 5 3 5 5 5 5 5 5 5 5 5 5 5 5 5 5 5 5 5 5 5 5 5 5 5 5 5 5 3 5 5 
</DataArray>
</Cells>
<PointData Scalars="" Vectors="displacement," Tensors="">
<DataArray type="Float64" Name="displacement" NumberOfComponents="3" format="ascii">
1.0069697298941516e-08 -0.0049996899436074221 0 -2.8682915895369086e-05 -0.0048761728692942839 0 -2.3600614696371428e-07 -0.0046134530005496653 0 1.0069697298941516e-08 -0.0049996899436074221 0 -2.8682915895369086e-05 -0.0048761728692942839 0 -7.4378178050007624e-08 -0.0049998219751287041 0 -2.8682915895369086e-05 -0.0048761728692942839 0 -2.0921306616413556e-05 -0.0049057956833001527 0 -7.4378178050007624e-08 -0.0049998219751287041 0 -2.8682915895369086e-05 -0.0048761728692942839 0 -2.0921306616413556e-05 -0.0049057956833001527 0 -2.1691332605733956e-05 -0.0048028283757028398 0 -2.0921306616413556e-05 -0.0049057956833001527 0 -1.7233196826241465e-05 -0.0048898656648611637 0 -1.1876890880224507e-05 -0.0049601108535168546 0 -2.0921306616413556e-05 -0.0049057956833001527 0 -7.4378178050007624e-08 -0.0049998219751287041 0 -1.1876890880224507e-05 -0.0049601108535168546 0 2.1384905464791254e-05 -0.0047986862976449433 0 -1.576181667196614e-07 -0.00487204806442344 0 3.8575434545232665e-05 -0.0048873973981952033 0 2.1384905464791254e-05 -0.0047986862976449433 0 -1.576181667196614e-07 -0.00487204806442344 0 -2.1691332605733956e-05 -0.0048028283757028398 0 -2.0921306616413556e-05 -0.0049057956833001527 0 -1.7233196826241465e-05 -0.0048898656648611637 0 -2.1691332605733956e-05 -0.0048028283757028398 0 -1.576181667196614e-07 -0.00487204806442344 0 -1.7233196826241465e-05 -0.0048898656648611637 0 -2.1691332605733956e-05 -0.0048028283757028398 0 -1.576181667196614e-07 -0.00487204806442344 0 -1.7233196826241465e-05 -0.0048898656648611637 0 -1.0704939898458411e-05 -0.0049258901607214323 0 -2.1691332605733956e-05 -0.0048028283757028398 0 1.3294675856739574e-05 -0.0047114616824173242 0 -8.5241934689712462e-06 -0.0046266190549109276 0 2.1384905464791254e-05 -0.0047986862976449433 0 -2.1691332605733956e-05 -0.0048028283757028398 0 1.3294675856739574e-05 -0.0047114616824173242 0 -2.8682915895369086e-05 -0.0048761728692942839 0 -2.1691332605733956e-05 -0.0048028283757028398 0 -8.5241934689712462e-06 -0.0046266190549109276 0 -2.8682915895369086e-05 -0.0048761728692942839 0 -2.3600614696371428e-07 -0.0046134530005496653 0 -8.5241934689712462e-06 -0.0046266190549109276 0 1.3294675856739574e-05 -0.0047114616824173242 0 -8.5241934689712462e-06 -0.0046266190549109276 0 5.1220173298262866e-05 -0.0046104026676693438 0 -2.3600614696371428e-07 -0.0046134530005496653 0 -8.5241934689712462e-06 -0.0046266190549109276 0 5.7781903933833104e-07 -0.0040712258387602621 0 -8.5241934689712462e-06 -0.0046266190549109276 0 5.7781903933833104e-07 -0.0040712258387602621 0 5.1220173298262866e-05 -0.0046104026676693438 0 0.00015027915545265166 -0.004516953867739629 0 3.8610250842097247e-05 -0.0045919908732682787 0 5.7781903933833104e-07 -0.0040712258387602621 0 9.59329526695784e-05 -0.0044402205479367515 0 5.1220173298262866e-05 -0.0046104026676693438 0 -1.1323591694818425e-07 -0.0037720684933249689 0 5.1988960629346311e-08 -0.0040080478712613025 0 -5.4705507748257066e-08 -0.0037396080567572033 0 -0.00016445931497296166 -0.0038955228664647483 0 9.4130099682520154e-05 -0.0042383989235467026 0 -1.175657820524143e-08 -0.0040699513603580642 0 1.2606417319654456e-08 -0.0040088164755121706 0 -1.9883575923322476e-05 -0.0039435529374170809 0 3.5976795825032394e-08 -0.0040704213661856697 0 9.4130099682520154e-05 -0.0042383989235467026 0 -0.00016445931497296166 -0.0038955228664647483 0 1.0378826139376608e-07 -0.0040082558099378838 0 5.7781903933833104e-07 -0.0040712258387602621 0 9.59329526695784e-05 -0.0044402205479367515 0 0.00032154140512153897 -0.0043333852626050206 0 -5.4354121766709151e-05 -0.0039563323305363595 0 1.2606417319654456e-08 -0.0040088164755121706 0 -1.9883575923322476e-05 -0.0039435529374170809 0 0.00017466238180759169 -0.0045657253322244958 0 0.00021398188714131706 -0.004559710355505891 0 0.00021271750685770787 -0.0045714032194687062 0 0.00015027915545265166 -0.004516953867739629 0 9.4130099682520154e-05 -0.0042383989235467026 0 0.00017466238180759169 -0.0045657253322244958 0 0.00021398188714131706 -0.004559710355505891 0 0.00018302318042023248 -0.0046744743706609044 0 -6.3957291972038395e-05 -0.0041219938758141807 0 -0.00012738820262596178 -0.0041473987619668855 0 -2.7096528165298768e-05 -0.0042554264504718218 0 9.4130099682520154e-05 -0.0042383989235467026 0 6.0385810446531403e-05 -0.0044034081349865369 0 0.00021398188714131706 -0.004559710355505891 0 0.00021271750685770787 -0.0045714032194687062 0 0.00014043665140683122 -0.0045236982657344618 0 0.00019455995428970324 -0.0045034605340688941 0 0.00021480207640763342 -0.0044676177631224993 0 0.0001262403096642038 -0.0044594502708652003 0 0.00019455995428970324 -0.0045034605340688941 0 0.00014043665140683122 -0.0045236982657344618 0 0.0001262403096642038 -0.0044594502708652003 0 0.00021398188714131706 -0.004559710355505891 0 0.00019455995428970324 -0.0045034605340688941 0 0.00014043665140683122 -0.0045236982657344618 0 0.00019455995428970324 -0.0045034605340688941 0 0.00021480207640763342 -0.0044676177631224993 0 0.00025405029535338484 -0.0044998217479705971 0 0.00021398188714131706 -0.004559710355505891 0 0.00019455995428970324 -0.0045034605340688941 0 0.00025405029535338484 -0.0044998217479705971 0 0.00021435779972603144 -0.0045678474751476416 0 0.00021156402286565996 -0.0045911388130782859 0 0.00016852655119351575 -0.0044843829382522574 0 0.00022359698953164421 -0.0044783466193090401 0 0.00013359070795863901 -0.0044967380432130843 0 0.00014281721738268783 -0.0045409479097475412 0 0.00013833254527751047 -0.0045259248191807542 0 0.00021480207640763342 -0.0044676177631224993 0 0.00025405029535338484 -0.0044998217479705971 0 0.00026338273964673372 -0.0044667626209216726 0 0.00016852655119351575 -0.0044843829382522574 0 0.00013326459281790269 -0.0044649612981664004 0 0.00013359070795863901 -0.0044967380432130843 0 0.0001262403096642038 -0.0044594502708652003 0 0.00012070197205889966 -0.0044460209740263441 0 0.00013359070795863901 -0.0044967380432130843 0 0.00012486396005803658 -0.0044755515651479748 0 0.00012070197205889966 -0.0044460209740263441 0 2.1384905464791254e-05 -0.0047986862976449433 0 1.3294675856739574e-05 -0.0047114616824173242 0 5.1965985030267485e-05 -0.0047286089270706013 0 1.3294675856739574e-05 -0.0047114616824173242 0 5.1220173298262866e-05 -0.0046104026676693438 0 5.1965985030267485e-05 -0.0047286089270706013 0 5.1965985030267485e-05 -0.0047286089270706013 0 0.00018302318042023248 -0.0046744743706609044 0 9.6054844581101954e-05 -0.0048006989116321794 0 5.1220173298262866e-05 -0.0046104026676693438 0 5.1965985030267485e-05 -0.0047286089270706013 0 0.00018302318042023248 -0.0046744743706609044 0 0.00017466238180759169 -0.0045657253322244958 0 5.1220173298262866e-05 -0.0046104026676693438 0 0.00018302318042023248 -0.0046744743706609044 0 0.00025405029535338484 -0.0044998217479705971 0 0.00026338273964673372 -0.0044667626209216726 0 0.00026896310107726965 -0.0044739225255183996 0 0.00021156402286565996 -0.0045911388130782859 0 0.00018912600650320812 -0.0046317085476640573 0 0.00026338273964673372 -0.0044667626209216726 0 0.00026896310107726965 -0.0044739225255183996 0 0.00027246822874904417 -0.0044732378211235985 0 2.1384905464791254e-05 -0.0047986862976449433 0 5.1965985030267485e-05 -0.0047286089270706013 0 9.6054844581101954e-05 -0.0048006989116321794 0 2.1384905464791254e-05 -0.0047986862976449433 0 9.6054844581101954e-05 -0.0048006989116321794 0 3.8575434545232665e-05 -0.0048873973981952033 0 0.00018912600650320812 -0.0046317085476640573 0 0.00011686489267332991 -0.0047134456103456786 0 0.00013363870930151075 -0.0045950692170350456 0 0.00013862682886341631 -0.0045670752606170829 0 0.00010158317891694308 -0.0045690235977670817 0 0.00014281721738268783 -0.0045409479097475412 0 0.00013862682886341631 -0.0045670752606170829 0 0.00010158317891694308 -0.0045690235977670817 0 0.00022359698953164421 -0.0044783466193090401 0 0.00011686489267332991 -0.0047134456103456786 0 0.00013363870930151075 -0.0045950692170350456 0 0.00010158317891694308 -0.0045690235977670817 0 0.00010349846856761047 -0.0046402232088959593 0 0.00014281721738268783 -0.0045409479097475412 0 0.00013862682886341631 -0.0045670752606170829 0 0.00014313239674117531 -0.004548093056195076 0 0.00014281721738268783 -0.0045409479097475412 0 0.00014313239674117531 -0.004548093056195076 0 0.00013833254527751047 -0.0045259248191807542 0 0.00014313239674117531 -0.004548093056195076 0 0.00014779490066364317 -0.0045735381736270123 0 0.00013765257226872637 -0.0045416243207573419 0 0.00013363870930151075 -0.0045950692170350456 0 0.00013862682886341631 -0.0045670752606170829 0 0.00014779490066364317 -0.0045735381736270123 0 0.00013862682886341631 -0.0045670752606170829 0 0.00014313239674117531 -0.004548093056195076 0 0.00014779490066364317 -0.0045735381736270123 0 0.00014671184309639809 -0.0045764608986129029 0 0.00016189237615063412 -0.004638457461245288 0 0.00014280444829761952 -0.0045506393656575455 0 0.00014779490066364317 -0.0045735381736270123 0 0.00014671184309639809 -0.0045764608986129029 0 0.00016189237615063412 -0.004638457461245288 0 0.00014779490066364317 -0.0045735381736270123 0 0.00014671184309639809 -0.0045764608986129029 0 0.00013765257226872637 -0.0045416243207573419 0 0.00016189237615063412 -0.004638457461245288 0 8.8230959091657575e-05 -0.0047180434614249242 0 0.00010349846856761047 -0.0046402232088959593 0 0.00013363870930151075 -0.0045950692170350456 0 0.00016189237615063412 -0.004638457461245288 0 0.00010349846856761047 -0.0046402232088959593 0 0.00013363870930151075 -0.0045950692170350456 0 0.00014779490066364317 -0.0045735381736270123 0 0.00016189237615063412 -0.004638457461245288 0 0.00013359070795863901 -0.0044967380432130843 0 0.00012486396005803658 -0.0044755515651479748 0 0.00012945526968787099 -0.0045072077291719364 0 0.00012945526968787099 -0.0045072077291719364 0 0.0001298097964404347 -0.0045129941058792413 0 0.00012819416105407707 -0.0044883237885215126 0 0.00012486396005803658 -0.0044755515651479748 0 0.00012945526968787099 -0.0045072077291719364 0 0.00012819416105407707 -0.0044883237885215126 0 0.00013359070795863901 -0.0044967380432130843 0 0.00012945526968787099 -0.0045072077291719364 0 0.00013833254527751047 -0.0045259248191807542 0 0.00012945526968787099 -0.0045072077291719364 0 0.00013765257226872637 -0.0045416243207573419 0 0.00012975618685442594 -0.004529001929046401 0 0.00012945526968787099 -0.0045072077291719364 0 0.00013833254527751047 -0.0045259248191807542 0 0.00013765257226872637 -0.0045416243207573419 0 0.00014313239674117531 -0.004548093056195076 0 0.00013833254527751047 -0.0045259248191807542 0 0.00013765257226872637 -0.0045416243207573419 0 0.00014671184309639809 -0.0045764608986129029 0 0.00013765257226872637 -0.0045416243207573419 0 0.00013398753900850896 -0.004550144256075913 0 0.00014671184309639809 -0.0045764608986129029 0 0.00013398753900850896 -0.004550144256075913 0 0.00014280444829761952 -0.0045506393656575455 0 0.00013398753900850896 -0.004550144256075913 0 0.00012975618685442594 -0.004529001929046401 0 0.00012490918009130272 -0.0045366872996434578 0 0.00013765257226872637 -0.0045416243207573419 0 0.00013398753900850896 -0.004550144256075913 0 0.00012975618685442594 -0.004529001929046401 0 0.0001298097964404347 -0.0045129941058792413 0 0.00012490918009130272 -0.0045366872996434578 0 0.00014132809946372591 -0.0045297244161637551 0 0.00012945526968787099 -0.0045072077291719364 0 0.00012975618685442594 -0.004529001929046401 0 0.0001298097964404347 -0.0045129941058792413 0 0.00012975618685442594 -0.004529001929046401 0 0.0001298097964404347 -0.0045129941058792413 0 0.00012490918009130272 -0.0045366872996434578 0 0.00013158205636313228 -0.0045454529065984857 0 0.00012490918009130272 -0.0045366872996434578 0 0.00014132809946372591 -0.0045297244161637551 0 0.00014517651958363413 -0.0045278170924062389 0 0.00019475159934489235 -0.0046341442878042437 0 0.00013158205636313228 -0.0045454529065984857 0 0.00012490918009130272 -0.0045366872996434578 0 0.00011571142165945754 -0.0045498001429805706 0 0.00012490918009130272 -0.0045366872996434578 0 0.00012905408880774848 -0.004533107135395978 0 0.00014280444829761952 -0.0045506393656575455 0 0.00013398753900850896 -0.004550144256075913 0 0.00012490918009130272 -0.0045366872996434578 0 0.00014280444829761952 -0.0045506393656575455 0 0.00019475159934489235 -0.0046341442878042437 0 0.00022972715485043637 -0.004648197176727379 0 0.00040787169953368247 -0.0047932749923932788 0 0.00030013533095115644 -0.0047283381714325655 0 0.00029486732296962737 -0.0048437394990234854 0 0.00040787169953368247 -0.0047932749923932788 0 0.00037453980039033676 -0.0048940495759437026 0 0.00029486732296962737 -0.0048437394990234854 0 0.00037453980039033676 -0.0048940495759437026 0 0.00029486732296962737 -0.0048437394990234854 0 0.00030033048457799559 -0.0049108274699270951 0 0.00019475159934489235 -0.0046341442878042437 0 0.00026160797657902003 -0.0047442615811722731 0 0.00015940493278340079 -0.0045834807434197268 0 0.00015574887531567239 -0.0045943434416840945 0 0.00017563424639225489 -0.0045901011140482032 0 0.00019475159934489235 -0.0046341442878042437 0 0.00014793160900411715 -0.0045692979040051363 0 0.00013158205636313228 -0.0045454529065984857 0 0.00011571142165945754 -0.0045498001429805706 0 0.00014766095370384859 -0.0045738477379992509 0 0.00013645840179079467 -0.0047448391532780828 0 0.00010578385127290128 -0.004835455697682893 0 8.8230959091657575e-05 -0.0047180434614249242 0 0.00016189237615063412 -0.004638457461245288 0 0.00013645840179079467 -0.0047448391532780828 0 0.00020355916921939644 -0.0047806669390171421 0 0.00013645840179079467 -0.0047448391532780828 0 0.00020355916921939644 -0.0047806669390171421 0 0.00010578385127290128 -0.004835455697682893 0 0.00016189237615063412 -0.004638457461245288 0 0.00013645840179079467 -0.0047448391532780828 0 8.8230959091657575e-05 -0.0047180434614249242 0 0.00016189237615063412 -0.004638457461245288 0 0.00030013533095115644 -0.0047283381714325655 0 0.00020355916921939644 -0.0047806669390171421 0 0.00030013533095115644 -0.0047283381714325655 0 0.00020355916921939644 -0.0047806669390171421 0 0.00029486732296962737 -0.0048437394990234854 0 0.0001603378425923109 -0.0046281785240337887 0 0.00022972715485043637 -0.004648197176727379 0 0.00020355916921939644 -0.0047806669390171421 0 0.00021579479844868464 -0.0048492837409857339 0 0.00029486732296962737 -0.0048437394990234854 0 0.00021579479844868464 -0.0048492837409857339 0 0.00029486732296962737 -0.0048437394990234854 0 0.00026031016306813997 -0.0048794343096787481 0 0.00026031016306813997 -0.0048794343096787481 0 0.00022211686057102521 -0.0049071189205659848 0 0.00030033048457799559 -0.0049108274699270951 0 0.00029486732296962737 -0.0048437394990234854 0 0.00026031016306813997 -0.0048794343096787481 0 0.00030033048457799559 -0.0049108274699270951 0 0.00021579479844868464 -0.0048492837409857339 0 0.00026031016306813997 -0.0048794343096787481 0 0.00022211686057102521 -0.0049071189205659848 0 0.00014558273557103388 -0.0048840708474853743 0 0.00010578385127290128 -0.004835455697682893 0 0.00015811425101755605 -0.0048931908825960799 0 0.00010168533847715191 -0.004831953999623979 0 0.00020724483391788032 -0.0049214180295214507 0 0.00020355916921939644 -0.0047806669390171421 0 0.00021579479844868464 -0.0048492837409857339 0 0.00010578385127290128 -0.004835455697682893 0 0.00021579479844868464 -0.0048492837409857339 0 0.00010578385127290128 -0.004835455697682893 0 0.00022211686057102521 -0.0049071189205659848 0 0.00014558273557103388 -0.0048840708474853743 0 0.00010578385127290128 -0.004835455697682893 0 9.9963832279581982e-05 -0.0049021220365833259 0 5.9694880635995165e-05 -0.0048803956424778201 0 0.00010578385127290128 -0.004835455697682893 0 3.6346995917473883e-05 -0.0048128985143723818 0 5.9694880635995165e-05 -0.0048803956424778201 0 0.00010578385127290128 -0.004835455697682893 0 9.9963832279581982e-05 -0.0049021220365833259 0 8.8230959091657575e-05 -0.0047180434614249242 0 3.6346995917473883e-05 -0.0048128985143723818 0 1.9470037221129805e-05 -0.0046837802874740535 0 0.00010578385127290128 -0.004835455697682893 0 8.8230959091657575e-05 -0.0047180434614249242 0 3.6346995917473883e-05 -0.0048128985143723818 0 3.6346995917473883e-05 -0.0048128985143723818 0 -2.6202325399192706e-05 -0.0048379750266110922 0 1.9470037221129805e-05 -0.0046837802874740535 0 5.9694880635995165e-05 -0.0048803956424778201 0 3.6346995917473883e-05 -0.0048128985143723818 0 2.220635007019333e-05 -0.0049236710045327129 0 3.6346995917473883e-05 -0.0048128985143723818 0 2.220635007019333e-05 -0.0049236710045327129 0 -2.6202325399192706e-05 -0.0048379750266110922 0 -6.9391717315443868e-06 -0.0049879114540458533 0 -2.6202325399192706e-05 -0.0048379750266110922 0 -7.6650921151203159e-06 -0.0049674715759686957 0 2.220635007019333e-05 -0.0049236710045327129 0 -2.6202325399192706e-05 -0.0048379750266110922 0 -7.6650921151203159e-06 -0.0049674715759686957 0 -6.9391717315443868e-06 -0.0049879114540458533 0 -2.9652981213360004e-08 -0.0049999105047906847 0 -1.2078152455577488e-05 -0.0049834707431262162 0 -1.0621618591987764e-05 -0.0049730162549580549 0 -1.0278363478960486e-05 -0.0049076036175273487 0 -2.9652981213360004e-08 -0.0049999105047906847 0 -1.2078152455577488e-05 -0.0049834707431262162 0 -7.4378178050007624e-08 -0.0049998219751287041 0 -1.2078152455577488e-05 -0.0049834707431262162 0 -7.4378178050007624e-08 -0.0049998219751287041 0 -1.1876890880224507e-05 -0.0049601108535168546 0 -1.2078152455577488e-05 -0.0049834707431262162 0 -9.7692960712903642e-06 -0.0049608578092207034 0 -1.1876890880224507e-05 -0.0049601108535168546 0 -9.7692960712903642e-06 -0.0049608578092207034 0 -1.1876890880224507e-05 -0.0049601108535168546 0 -1.0704939898458411e-05 -0.0049258901607214323 0 -1.7233196826241465e-05 -0.0048898656648611637 0 -1.1876890880224507e-05 -0.0049601108535168546 0 -1.0704939898458411e-05 -0.0049258901607214323 0 -9.7692960712903642e-06 -0.0049608578092207034 0 -1.0704939898458411e-05 -0.0049258901607214323 0 2.3793650469619946e-07 -0.0049223660688598493 0 -3.72648776604309e-06 -0.0049517460040544876 0 -1.4574803348517959e-05 -0.0049434266160499878 0 -1.576181667196614e-07 -0.00487204806442344 0 -1.0704939898458411e-05 -0.0049258901607214323 0 2.3793650469619946e-07 -0.0049223660688598493 0 -1.4574803348517959e-05 -0.0049434266160499878 0 0.00011686489267332991 -0.0047134456103456786 0 -1.576181667196614e-07 -0.00487204806442344 0 2.3793650469619946e-07 -0.0049223660688598493 0 3.8575434545232665e-05 -0.0048873973981952033 0 1.6016849605204322e-05 -0.004944306971687437 0 5.2336741281129844e-05 -0.0049304192045811516 0 1.1342249058079577e-05 -0.0049659833277472948 0 0.00011686489267332991 -0.0047134456103456786 0 1.0629739735780664e-05 -0.0048321193257635075 0 0.00010158317891694308 -0.0045690235977670817 0 0.00010349846856761047 -0.0046402232088959593 0 1.9470037221129805e-05 -0.0046837802874740535 0 8.8230959091657575e-05 -0.0047180434614249242 0 0.00010349846856761047 -0.0046402232088959593 0 1.9470037221129805e-05 -0.0046837802874740535 0 -1.0278363478960486e-05 -0.0049076036175273487 0 1.0629739735780664e-05 -0.0048321193257635075 0 -1.2078152455577488e-05 -0.0049834707431262162 0 -9.7692960712903642e-06 -0.0049608578092207034 0 1.1342249058079577e-05 -0.0049659833277472948 0 -9.7692960712903642e-06 -0.0049608578092207034 0 1.6016849605204322e-05 -0.004944306971687437 0 1.1342249058079577e-05 -0.0049659833277472948 0 2.2619069586758679e-05 -0.0022966238512694176 0 1.7062479699014489e-05 -0.0025483627540277879 0 -7.8081727543120083e-05 -0.0023341308513582858 0 6.5033288382852179e-07 -0.002558773125446165 0 5.9411646336532537e-05 -0.0025234145091572982 0 1.8310375484713823e-05 -0.0027116811932756655 0 1.7062479699014489e-05 -0.0025483627540277879 0 -5.3105507764623671e-06 -0.002692428850238405 0 2.2619069586758679e-05 -0.0022966238512694176 0 0.00019213648122868389 -0.0022945277508730497 0 1.7062479699014489e-05 -0.0025483627540277879 0 1.7062479699014489e-05 -0.0025483627540277879 0 -7.2770044485342677e-06 -0.0026771701131150403 0 -5.3105507764623671e-06 -0.002692428850238405 0 1.7062479699014489e-05 -0.0025483627540277879 0 -6.465020008890592e-05 -0.0023996903253153353 0 -7.8081727543120083e-05 -0.0023341308513582858 0 1.7062479699014489e-05 -0.0025483627540277879 0 -7.3004708202356982e-06 -0.0026000717064642485 0 -6.465020008890592e-05 -0.0023996903253153353 0 -7.3004708202356982e-06 -0.0026000717064642485 0 -6.7732741094767429e-09 -0.002785663037434198 0 -6.610622620313905e-08 -0.0024938365165697654 0 -7.3004708202356982e-06 -0.0026000717064642485 0 -6.610622620313905e-08 -0.0024938365165697654 0 -6.465020008890592e-05 -0.0023996903253153353 0 -7.3004708202356982e-06 -0.0026000717064642485 0 -6.7732741094767429e-09 -0.002785663037434198 0 -1.1360039306306256e-05 -0.0027667853848269033 0 1.7062479699014489e-05 -0.0025483627540277879 0 -7.3004708202356982e-06 -0.0026000717064642485 0 -1.1360039306306256e-05 -0.0027667853848269033 0 -6.7732741094767429e-09 -0.002785663037434198 0 -1.1360039306306256e-05 -0.0027667853848269033 0 -1.1191773058557861e-07 -0.0030776093340419662 0 -1.1360039306306256e-05 -0.0027667853848269033 0 -1.1191773058557861e-07 -0.0030776093340419662 0 8.6241967486632261e-05 -0.0028988977534655808 0 -1.1360039306306256e-05 -0.0027667853848269033 0 3.861237462008934e-05 -0.00270364122672362 0 8.6241967486632261e-05 -0.0028988977534655808 0 -1.1360039306306256e-05 -0.0027667853848269033 0 1.3515675400676893e-06 -0.0026944999929174695 0 3.861237462008934e-05 -0.00270364122672362 0 1.7062479699014489e-05 -0.0025483627540277879 0 -1.1360039306306256e-05 -0.0027667853848269033 0 -7.2770044485342677e-06 -0.0026771701131150403 0 -1.1360039306306256e-05 -0.0027667853848269033 0 -7.2770044485342677e-06 -0.0026771701131150403 0 1.3515675400676893e-06 -0.0026944999929174695 0 -7.2770044485342677e-06 -0.0026771701131150403 0 1.3515675400676893e-06 -0.0026944999929174695 0 -5.3105507764623671e-06 -0.002692428850238405 0 6.5033288382852179e-07 -0.002558773125446165 0 3.2950622716028849e-05 -0.002646256409261393 0 -3.6162465956763248e-06 -0.0026916617226143301 0 -5.3105507764623671e-06 -0.002692428850238405 0 -7.7257499869997772e-07 -0.0026916244735489098 0 1.3515675400676893e-06 -0.0026944999929174695 0 -5.3105507764623671e-06 -0.002692428850238405 0 4.032569303420719e-06 -0.0026925780849363463 0 -5.3105507764623671e-06 -0.002692428850238405 0 4.032569303420719e-06 -0.0026925780849363463 0 -7.7257499869997772e-07 -0.0026916244735489098 0 1.3515675400676893e-06 -0.0026944999929174695 0 4.032569303420719e-06 -0.0026925780849363463 0 3.861237462008934e-05 -0.00270364122672362 0 0.00037889829236057853 -0.004340672686201719 0 0.00021958116412732842 -0.0043936061994289573 0 0.00030367095978905387 -0.0044310383677724653 0 0.00021958116412732842 -0.0043936061994289573 0 0.00015285092422468032 -0.0042314455758462599 0 0.00014495345391786078 -0.0043701800966893887 0 0.00021958116412732842 -0.0043936061994289573 0 0.00014495345391786078 -0.0043701800966893887 0 0.00015354232968387078 -0.004439157982639913 0 0.00037889829236057853 -0.004340672686201719 0 0.00021958116412732842 -0.0043936061994289573 0 0.00015285092422468032 -0.0042314455758462599 0 0.00021848747563561543 -0.0035316971056264372 0 0.00019699748153986129 -0.0034363696950965306 0 0.00037889829236057853 -0.004340672686201719 0 0.00015285092422468032 -0.0042314455758462599 0 0.00035094584607530814 -0.003989939912389019 0 -1.1191773058557861e-07 -0.0030776093340419662 0 8.6241967486632261e-05 -0.0028988977534655808 0 4.0046159512231356e-07 -0.0033689658587133927 0 0.00035094584607530814 -0.003989939912389019 0 7.6622312530211388e-07 -0.0033700585891767751 0 1.6132821606118996e-05 -0.0036476037777983025 0 0.00019699748153986129 -0.0034363696950965306 0 6.3183342236589749e-08 -0.0033694907474675381 0 7.6622312530211388e-07 -0.0033700585891767751 0 1.6132821606118996e-05 -0.0036476037777983025 0 -7.128702898257776e-07 -0.0034703788183926012 0 0.00015285092422468032 -0.0042314455758462599 0 0.00035094584607530814 -0.003989939912389019 0 7.4221469409952316e-06 -0.0038665323142033419 0 0.00035094584607530814 -0.003989939912389019 0 1.6132821606118996e-05 -0.0036476037777983025 0 7.4221469409952316e-06 -0.0038665323142033419 0 0.00015285092422468032 -0.0042314455758462599 0 7.4221469409952316e-06 -0.0038665323142033419 0 -0.00028992758297577761 -0.0039354498923655128 0 7.4221469409952316e-06 -0.0038665323142033419 0 -0.00012153096034149373 -0.0036780526026721299 0 -0.00028992758297577761 -0.0039354498923655128 0 1.6132821606118996e-05 -0.0036476037777983025 0 7.4221469409952316e-06 -0.0038665323142033419 0 -0.00012153096034149373 -0.0036780526026721299 0 1.6132821606118996e-05 -0.0036476037777983025 0 -0.00012153096034149373 -0.0036780526026721299 0 -7.128702898257776e-07 -0.0034703788183926012 0 -0.00012153096034149373 -0.0036780526026721299 0 -0.00035316734384910174 -0.0035685949169242471 0 -0.00028992758297577761 -0.0039354498923655128 0 -7.0900082023466107e-08 -0.0034708691564473205 0 -0.00020611766954120841 -0.0036255399569168054 0 -0.00012153096034149373 -0.0036780526026721299 0 -7.128702898257776e-07 -0.0034703788183926012 0 -0.00035316734384910174 -0.0035685949169242471 0 -1.1323591694818425e-07 -0.0037720684933249689 0 -5.4705507748257066e-08 -0.0037396080567572033 0 -1.196243745892604e-06 -0.0036761489809860109 0 5.202103159221583e-08 -0.0034709031240392047 0 -5.4705507748257066e-08 -0.0037396080567572033 0 -1.196243745892604e-06 -0.0036761489809860109 0 -0.00065211288347557053 -0.003688325808451705 0 -0.00035316734384910174 -0.0035685949169242471 0 -0.00028992758297577761 -0.0039354498923655128 0 -0.00016445931497296166 -0.0038955228664647483 0 -0.00020611766954120841 -0.0036255399569168054 0 -0.00016445931497296166 -0.0038955228664647483 0 -0.00013945249773033154 -0.0040668185926739757 0 -6.3957291972038395e-05 -0.0041219938758141807 0 7.3246100346031922e-05 -0.0042141466138378844 0 -2.7096528165298768e-05 -0.0042554264504718218 0 -2.7096528165298768e-05 -0.0042554264504718218 0 6.8026544194869711e-05 -0.004281570031643399 0 9.4022107958270269e-05 -0.0043918108085030374 0 6.0385810446531403e-05 -0.0044034081349865369 0 8.9567950442320012e-05 -0.0043931301067791171 0 0.00014043665140683122 -0.0045236982657344618 0 0.0001262403096642038 -0.0044594502708652003 0 9.4022107958270269e-05 -0.0043918108085030374 0 7.3246100346031922e-05 -0.0042141466138378844 0 -2.7096528165298768e-05 -0.0042554264504718218 0 6.8026544194869711e-05 -0.004281570031643399 0 0.00015141363390464038 -0.0042300716732330225 0 -0.00013945249773033154 -0.0040668185926739757 0 0.00015285092422468032 -0.0042314455758462599 0 7.3246100346031922e-05 -0.0042141466138378844 0 0.00010921315434899332 -0.004289347146484478 0 7.3246100346031922e-05 -0.0042141466138378844 0 6.8026544194869711e-05 -0.004281570031643399 0 0.00010921315434899332 -0.004289347146484478 0 0.00015285092422468032 -0.0042314455758462599 0 0.00010921315434899332 -0.004289347146484478 0 0.00014495345391786078 -0.0043701800966893887 0 6.8026544194869711e-05 -0.004281570031643399 0 0.00010921315434899332 -0.004289347146484478 0 9.4022107958270269e-05 -0.0043918108085030374 0 0.00010921315434899332 -0.004289347146484478 0 9.4022107958270269e-05 -0.0043918108085030374 0 0.00014495345391786078 -0.0043701800966893887 0 9.4022107958270269e-05 -0.0043918108085030374 0 0.00012730000596237472 -0.0044572960434948999 0 0.00015354232968387078 -0.004439157982639913 0 9.4022107958270269e-05 -0.0043918108085030374 0 0.00014495345391786078 -0.0043701800966893887 0 0.00015354232968387078 -0.004439157982639913 0 9.4022107958270269e-05 -0.0043918108085030374 0 0.00012070197205889966 -0.0044460209740263441 0 0.00012730000596237472 -0.0044572960434948999 0 0.0001262403096642038 -0.0044594502708652003 0 9.4022107958270269e-05 -0.0043918108085030374 0 0.00012070197205889966 -0.0044460209740263441 0 0.00012819416105407707 -0.0044883237885215126 0 0.00012730000596237472 -0.0044572960434948999 0 0.00014342913274819399 -0.0044969401783414705 0 0.00012486396005803658 -0.0044755515651479748 0 0.00012819416105407707 -0.0044883237885215126 0 0.00012730000596237472 -0.0044572960434948999 0 0.00012486396005803658 -0.0044755515651479748 0 0.00012070197205889966 -0.0044460209740263441 0 0.00012730000596237472 -0.0044572960434948999 0 0.00015354232968387078 -0.004439157982639913 0 0.00016389251548855555 -0.0044766236686743701 0 0.00021632997166326764 -0.0044664841709511878 0 0.00012730000596237472 -0.0044572960434948999 0 0.00016389251548855555 -0.0044766236686743701 0 0.00014342913274819399 -0.0044969401783414705 0 0.00012730000596237472 -0.0044572960434948999 0 0.00015354232968387078 -0.004439157982639913 0 0.00016389251548855555 -0.0044766236686743701 0 0.00016389251548855555 -0.0044766236686743701 0 0.00017966950151465303 -0.0045079415774546949 0 0.00014342913274819399 -0.0044969401783414705 0 0.00016389251548855555 -0.0044766236686743701 0 0.00017966950151465303 -0.0045079415774546949 0 0.00021632997166326764 -0.0044664841709511878 0 0.00017966950151465303 -0.0045079415774546949 0 0.00015774366458102629 -0.0045188882714397921 0 0.00014342913274819399 -0.0044969401783414705 0 0.00015774366458102629 -0.0045188882714397921 0 0.00014342913274819399 -0.0044969401783414705 0 0.00014132809946372591 -0.0045297244161637551 0 0.0001298097964404347 -0.0045129941058792413 0 0.00012819416105407707 -0.0044883237885215126 0 0.00014342913274819399 -0.0044969401783414705 0 0.0001298097964404347 -0.0045129941058792413 0 0.00014342913274819399 -0.0044969401783414705 0 0.00014132809946372591 -0.0045297244161637551 0 0.00013158205636313228 -0.0045454529065984857 0 0.00014132809946372591 -0.0045297244161637551 0 0.00014766095370384859 -0.0045738477379992509 0 0.00014132809946372591 -0.0045297244161637551 0 0.00014766095370384859 -0.0045738477379992509 0 0.00016908671551691334 -0.0045394334991750605 0 0.00015774366458102629 -0.0045188882714397921 0 0.00014132809946372591 -0.0045297244161637551 0 0.00016908671551691334 -0.0045394334991750605 0 0.00014766095370384859 -0.0045738477379992509 0 0.00019400351742016926 -0.004565667125414544 0 0.00016908671551691334 -0.0045394334991750605 0 0.00014766095370384859 -0.0045738477379992509 0 0.00019400351742016926 -0.004565667125414544 0 0.00019890249993148964 -0.0045975219327970291 0 0.00019400351742016926 -0.004565667125414544 0 0.00016908671551691334 -0.0045394334991750605 0 0.00020385371920068337 -0.0045379506910812502 0 0.00017966950151465303 -0.0045079415774546949 0 0.00015774366458102629 -0.0045188882714397921 0 0.00016908671551691334 -0.0045394334991750605 0 0.00017966950151465303 -0.0045079415774546949 0 0.00016908671551691334 -0.0045394334991750605 0 0.00020385371920068337 -0.0045379506910812502 0 0.00017966950151465303 -0.0045079415774546949 0 0.00020385371920068337 -0.0045379506910812502 0 0.00022796650659565371 -0.0045092108160031431 0 0.00023253338309837051 -0.0045366556459644786 0 0.00020385371920068337 -0.0045379506910812502 0 0.00022796650659565371 -0.0045092108160031431 0 0.00023253338309837051 -0.0045366556459644786 0 0.00026162401796442244 -0.0045160579282120744 0 0.00022796650659565371 -0.0045092108160031431 0 0.00023253338309837051 -0.0045366556459644786 0 0.00020385371920068337 -0.0045379506910812502 0 0.00023052293910718252 -0.0045572179057270486 0 0.00023253338309837051 -0.0045366556459644786 0 0.00023052293910718252 -0.0045572179057270486 0 0.00025813281735930367 -0.0045366164265104453 0 0.00019400351742016926 -0.004565667125414544 0 0.00020385371920068337 -0.0045379506910812502 0 0.00023052293910718252 -0.0045572179057270486 0 0.00019400351742016926 -0.004565667125414544 0 0.00022014943093862503 -0.0045817386546880548 0 0.00019890249993148964 -0.0045975219327970291 0 0.00019400351742016926 -0.004565667125414544 0 0.00023052293910718252 -0.0045572179057270486 0 0.00022014943093862503 -0.0045817386546880548 0 0.00023052293910718252 -0.0045572179057270486 0 0.00022014943093862503 -0.0045817386546880548 0 0.0002419258487572305 -0.0045781036054831428 0 0.00022014943093862503 -0.0045817386546880548 0 0.0002419258487572305 -0.0045781036054831428 0 0.00023580415558912784 -0.0045863265615297454 0 0.00011444078802454443 -0.0042581029599474641 0 0.00024096621178697114 -0.0046084516786265833 0 0.00026176815856817449 -0.0044968773766885265 0 0.00025652028025496609 -0.0045233587820156431 0 0.00023005366460523662 -0.004564503075435827 0 0.00026367499094872183 -0.0045693920819862644 0 0.00030051154482186335 -0.0045547617326151309 0 0.00025305497441585866 -0.0045911906895507344 0 0.00014919571964326002 -0.0042372641037982601 0 0.00022521488848401238 -0.0045784858058921145 0 0.00025652028025496609 -0.0045233587820156431 0 0.00024045363804004377 -0.0045750041710344641 0 0.00023005366460523662 -0.004564503075435827 0 0.0002419258487572305 -0.0045781036054831428 0 0.00023580415558912784 -0.0045863265615297454 0 0.00025305497441585866 -0.0045911906895507344 0 0.0002419258487572305 -0.0045781036054831428 0 0.00026367499094872183 -0.0045693920819862644 0 0.00025305497441585866 -0.0045911906895507344 0 0.0002419258487572305 -0.0045781036054831428 0 0.00025403890418008312 -0.0045643011974063862 0 0.00026367499094872183 -0.0045693920819862644 0 0.00023052293910718252 -0.0045572179057270486 0 0.0002419258487572305 -0.0045781036054831428 0 0.00025403890418008312 -0.0045643011974063862 0 0.00023052293910718252 -0.0045572179057270486 0 0.00025403890418008312 -0.0045643011974063862 0 0.00026139627896551134 -0.0045508477084407343 0 0.00025403890418008312 -0.0045643011974063862 0 0.00027207797132996543 -0.0045575839240153499 0 0.00026139627896551134 -0.0045508477084407343 0 0.00027207797132996543 -0.0045575839240153499 0 0.00026367499094872183 -0.0045693920819862644 0 0.00030051154482186335 -0.0045547617326151309 0 0.00025403890418008312 -0.0045643011974063862 0 0.00027207797132996543 -0.0045575839240153499 0 0.00026367499094872183 -0.0045693920819862644 0 0.00028734804496687282 -0.0045373958805790164 0 0.00025813281735930367 -0.0045366164265104453 0 0.00026139627896551134 -0.0045508477084407343 0 0.00027207797132996543 -0.0045575839240153499 0 0.00028734804496687282 -0.0045373958805790164 0 0.00030051154482186335 -0.0045547617326151309 0 0.00027207797132996543 -0.0045575839240153499 0 0.00028734804496687282 -0.0045373958805790164 0 0.00026139627896551134 -0.0045508477084407343 0 0.00023052293910718252 -0.0045572179057270486 0 0.00025813281735930367 -0.0045366164265104453 0 0.00026139627896551134 -0.0045508477084407343 0 0.00023253338309837051 -0.0045366556459644786 0 0.00025813281735930367 -0.0045366164265104453 0 0.00026162401796442244 -0.0045160579282120744 0 0.00025813281735930367 -0.0045366164265104453 0 0.00026162401796442244 -0.0045160579282120744 0 0.00027596401774737997 -0.0045257023290214936 0 0.00028734804496687282 -0.0045373958805790164 0 0.00027596401774737997 -0.0045257023290214936 0 0.00029687405178464187 -0.0045094724524132376 0 0.00026162401796442244 -0.0045160579282120744 0 0.00027596401774737997 -0.0045257023290214936 0 0.00029687405178464187 -0.0045094724524132376 0 0.00028734804496687282 -0.0045373958805790164 0 0.00025813281735930367 -0.0045366164265104453 0 0.00027596401774737997 -0.0045257023290214936 0 0.00026162401796442244 -0.0045160579282120744 0 0.00029687405178464187 -0.0045094724524132376 0 0.0002810701204312506 -0.0044835248936743377 0 0.00026162401796442244 -0.0045160579282120744 0 0.0002810701204312506 -0.0044835248936743377 0 0.00022796650659565371 -0.0045092108160031431 0 0.00017966950151465303 -0.0045079415774546949 0 0.00022796650659565371 -0.0045092108160031431 0 0.00021632997166326764 -0.0044664841709511878 0 0.0002810701204312506 -0.0044835248936743377 0 0.00022796650659565371 -0.0045092108160031431 0 0.00021632997166326764 -0.0044664841709511878 0 0.00021958116412732842 -0.0043936061994289573 0 0.00015354232968387078 -0.004439157982639913 0 0.00021632997166326764 -0.0044664841709511878 0 0.00021958116412732842 -0.0043936061994289573 0 0.00021632997166326764 -0.0044664841709511878 0 0.00030367095978905387 -0.0044310383677724653 0 0.0002810701204312506 -0.0044835248936743377 0 0.00021632997166326764 -0.0044664841709511878 0 0.00030367095978905387 -0.0044310383677724653 0 0.0002810701204312506 -0.0044835248936743377 0 0.00030367095978905387 -0.0044310383677724653 0 0.00036306018300283219 -0.0044635220460570914 0 0.00021848747563561543 -0.0035316971056264372 0 0.0001338216018820876 -0.0035180476171138542 0 4.032569303420719e-06 -0.0026925780849363463 0 3.861237462008934e-05 -0.00270364122672362 0 5.0099515479640776e-06 -0.0026899060947227905 0 3.861237462008934e-05 -0.00270364122672362 0 5.0099515479640776e-06 -0.0026899060947227905 0 4.1938719645443476e-06 -0.0026880187880999199 0 0.00037889829236057853 -0.004340672686201719 0 0.00030367095978905387 -0.0044310383677724653 0 0.00036306018300283219 -0.0044635220460570914 0 0.00018070801334435702 -0.0031498461364072479 0 0.0001338216018820876 -0.0035180476171138542 0 4.032569303420719e-06 -0.0026925780849363463 0 -7.7257499869997772e-07 -0.0026916244735489098 0 2.5947566528929244e-06 -0.002689460102178143 0 -3.6162465956763248e-06 -0.0026916617226143301 0 -7.7257499869997772e-07 -0.0026916244735489098 0 2.5947566528929244e-06 -0.002689460102178143 0 6.5033288382852179e-07 -0.002558773125446165 0 -3.0714392872264951e-05 -0.0026677566852834267 0 5.0099515479640776e-06 -0.0026899060947227905 0 2.5947566528929244e-06 -0.002689460102178143 0 4.3456336298067551e-06 -0.0026926743411596538 0 4.032569303420719e-06 -0.0026925780849363463 0 5.0099515479640776e-06 -0.0026899060947227905 0 2.5947566528929244e-06 -0.002689460102178143 0 -3.0714392872264951e-05 -0.0026677566852834267 0 -1.9041980307554997e-05 -0.0030424411940793571 0 2.5947566528929244e-06 -0.002689460102178143 0 4.3982516346148676e-06 -0.0026962940659420618 0 4.3456336298067551e-06 -0.0026926743411596538 0 -9.8692357069384947e-05 -0.0026785075764509531 0 -9.8848728765767337e-05 -0.0026806309701508935 0 -9.9129478713165048e-05 -0.0026787835093017888 0 -9.8848728765767337e-05 -0.0026806309701508935 0 -9.8871275924496111e-05 -0.0026801115034117205 0 -9.9129478713165048e-05 -0.0026787835093017888 0 0.00019015577199387926 -0.0035193249521490865 0 9.8396409345616659e-05 -0.0033200807097882854 0 -4.0646730000317394e-05 -0.0038051936253642379 0 0.00029687405178464187 -0.0045094724524132376 0 0.0002810701204312506 -0.0044835248936743377 0 0.00036306018300283219 -0.0044635220460570914 0 0.0001338216018820876 -0.0035180476171138542 0 9.9330023420591786e-05 -0.0040795675390619453 0 0.00029687405178464187 -0.0045094724524132376 0 0.00036306018300283219 -0.0044635220460570914 0 0.00031889533460009224 -0.0045296070271763919 0 -1.9041980307554997e-05 -0.0030424411940793571 0 0.0001338216018820876 -0.0035180476171138542 0 0.00028734804496687282 -0.0045373958805790164 0 0.00029687405178464187 -0.0045094724524132376 0 0.00031889533460009224 -0.0045296070271763919 0 9.9330023420591786e-05 -0.0040795675390619453 0 -3.6738602419303921e-05 -0.003808350648357205 0 -1.9041980307554997e-05 -0.0030424411940793571 0 -3.6738602419303921e-05 -0.003808350648357205 0 0.00019015577199387926 -0.0035193249521490865 0 -4.0646730000317394e-05 -0.0038051936253642379 0 3.9185859832835499e-06 -0.0038395919119453992 0 9.1094065459819523e-05 -0.0038866009376044858 0 0.00015673664221746704 -0.0039373170357945167 0 -3.3349733060053175e-08 -0.0042074799923541737 0 -0.00010382217240719176 -0.0038176028949276314 0 -8.6866097525031607e-05 -0.0037890638437540832 0 -0.00010215610852896365 -0.003771597388557472 0 0.00028734804496687282 -0.0045373958805790164 0 0.00031889533460009224 -0.0045296070271763919 0 0.00030051154482186335 -0.0045547617326151309 0 9.9330023420591786e-05 -0.0040795675390619453 0 0.00011444078802454443 -0.0042581029599474641 0 -3.6738602419303921e-05 -0.003808350648357205 0 0.00011444078802454443 -0.0042581029599474641 0 0.00011444078802454443 -0.0042581029599474641 0 0.00014919571964326002 -0.0042372641037982601 0 -8.6866097525031607e-05 -0.0037890638437540832 0 -7.9829938539624135e-05 -0.0037635443007606882 0 -0.00010215610852896365 -0.003771597388557472 0 -0.00010382217240719176 -0.0038176028949276314 0 -0.00010215610852896365 -0.003771597388557472 0 -0.00013123659721223094 -0.0037578994744275796 0 -0.00010215610852896365 -0.003771597388557472 0 -0.00013123659721223094 -0.0037578994744275796 0 -0.0001081314452212071 -0.0037307677584932186 0 -7.9829938539624135e-05 -0.0037635443007606882 0 -0.00010215610852896365 -0.003771597388557472 0 -0.0001081314452212071 -0.0037307677584932186 0 -0.00010382217240719176 -0.0038176028949276314 0 -0.00013123659721223094 -0.0037578994744275796 0 -0.00018585241733272664 -0.0037496926897981086 0 -3.6738602419303921e-05 -0.003808350648357205 0 -0.00014042095275603405 -0.0032230064040316029 0 -0.00013123659721223094 -0.0037578994744275796 0 -0.0001081314452212071 -0.0037307677584932186 0 -0.00015753117243126293 -0.0037056854560412107 0 -0.00013123659721223094 -0.0037578994744275796 0 -0.00018585241733272664 -0.0037496926897981086 0 -0.00015753117243126293 -0.0037056854560412107 0 -0.00014042095275603405 -0.0032230064040316029 0 -0.00011116470257430437 -0.0029441571221468172 0 -6.3477562408316047e-05 -0.0032941687787094148 0 -9.3897712059013707e-05 -0.0032694514460888851 0 -8.3672087248275846e-05 -0.0032901776163464457 0 -1.9041980307554997e-05 -0.0030424411940793571 0 -0.00011116470257430437 -0.0029441571221468172 0 -7.3372359174760546e-05 -0.0033088859695646904 0 -6.3477562408316047e-05 -0.0032941687787094148 0 -8.3672087248275846e-05 -0.0032901776163464457 0 -9.9449062220457454e-05 -0.0026793122517639757 0 -9.8871275924496111e-05 -0.0026801115034117205 0 -9.9969219414334959e-05 -0.0026775292160957907 0 -9.8871275924496111e-05 -0.0026801115034117205 0 -9.9969219414334959e-05 -0.0026775292160957907 0 -9.9129478713165048e-05 -0.0026787835093017888 0 -9.9449062220457454e-05 -0.0026793122517639757 0 -0.00010062984772048189 -0.0026763468347918182 0 -0.00010049642230641793 -0.0026779124817854498 0 -9.9449062220457454e-05 -0.0026793122517639757 0 -9.9969219414334959e-05 -0.0026775292160957907 0 -0.00010062984772048189 -0.0026763468347918182 0 -0.00010062984772048189 -0.0026763468347918182 0 -0.00010167331144579732 -0.0026757218823708915 0 -0.00010276449519447536 -0.0026726416452012877 0 -0.00010062984772048189 -0.0026763468347918182 0 -0.00010049642230641793 -0.0026779124817854498 0 -0.00010276449519447536 -0.0026726416452012877 0 -0.0001143205446041315 -0.0028367098707710683 0 -8.1678653644268092e-05 -0.0026171341029336513 0 -9.9969219414334959e-05 -0.0026775292160957907 0 -0.00010167331144579732 -0.0026757218823708915 0 -0.00010001992474246096 -0.0026775671775484664 0 -9.9969219414334959e-05 -0.0026775292160957907 0 -0.00010062984772048189 -0.0026763468347918182 0 -0.00010167331144579732 -0.0026757218823708915 0 -0.00010167331144579732 -0.0026757218823708915 0 -0.00010001992474246096 -0.0026775671775484664 0 -0.00010556157670538331 -0.0026752534981661115 0 -9.8692357069384947e-05 -0.0026785075764509531 0 -0.00010001992474246096 -0.0026775671775484664 0 -9.9129478713165048e-05 -0.0026787835093017888 0 -9.9969219414334959e-05 -0.0026775292160957907 0 -0.00010001992474246096 -0.0026775671775484664 0 -9.9129478713165048e-05 -0.0026787835093017888 0 2.2619069586758679e-05 -0.0022966238512694176 0 0.00019213648122868389 -0.0022945277508730497 0 -5.173328801122485e-06 -0.0021351463423846533 0 6.5033288382852179e-07 -0.002558773125446165 0 -4.9220595856874725e-05 -0.0023948606282101657 0 -9.8464135887293278e-05 -0.0026772437448999544 0 -9.8692357069384947e-05 -0.0026785075764509531 0 -0.00010001992474246096 -0.0026775671775484664 0 2.2619069586758679e-05 -0.0022966238512694176 0 -5.173328801122485e-06 -0.0021351463423846533 0 -7.8081727543120083e-05 -0.0023341308513582858 0 -0.00012101978657664375 -0.0035208659178408638 0 -0.0001300481454663362 -0.0035270888732674265 0 -0.00013027949487950285 -0.00351051277859279 0 -0.00012101978657664375 -0.0035208659178408638 0 -0.000119610088756803 -0.0035277846075953533 0 -0.00011134791166304122 -0.0035225233180737445 0 -0.00012101978657664375 -0.0035208659178408638 0 -0.000119610088756803 -0.0035277846075953533 0 -0.0001300481454663362 -0.0035270888732674265 0 -0.0001300481454663362 -0.0035270888732674265 0 -0.00013169878072283284 -0.0035210210313720734 0 -0.00013027949487950285 -0.00351051277859279 0 -0.0001300481454663362 -0.0035270888732674265 0 -0.00013324646358516587 -0.0035325096619953128 0 -0.00013418002474327323 -0.0035304512777766359 0 -0.0001300481454663362 -0.0035270888732674265 0 -0.00013169878072283284 -0.0035210210313720734 0 -0.00013324646358516587 -0.0035325096619953128 0 -0.00013169878072283284 -0.0035210210313720734 0 -0.00013426492633000401 -0.0035190219958072702 0 -0.00013324646358516587 -0.0035325096619953128 0 -0.00013169878072283284 -0.0035210210313720734 0 -0.0001318260931466386 -0.0035155837173336457 0 -0.00013027949487950285 -0.00351051277859279 0 -0.00013169878072283284 -0.0035210210313720734 0 -0.0001318260931466386 -0.0035155837173336457 0 -0.00013426492633000401 -0.0035190219958072702 0 -0.00013027949487950285 -0.00351051277859279 0 -0.00012691516922718252 -0.0034818105426920494 0 -0.0001094397800013959 -0.0035082886106265585 0 -0.00012101978657664375 -0.0035208659178408638 0 -0.00013027949487950285 -0.00351051277859279 0 -0.0001094397800013959 -0.0035082886106265585 0 -0.00013027949487950285 -0.00351051277859279 0 -0.00012691516922718252 -0.0034818105426920494 0 -0.00015110434449967265 -0.0034724932937475737 0 -0.00012691516922718252 -0.0034818105426920494 0 -0.00013228378456418783 -0.0034563551600974587 0 -0.00010400446698587461 -0.003484528071053566 0 -0.00012691516922718252 -0.0034818105426920494 0 -0.00014137828516530375 -0.0034602285236230634 0 -0.00015110434449967265 -0.0034724932937475737 0 -0.00012691516922718252 -0.0034818105426920494 0 -0.00014137828516530375 -0.0034602285236230634 0 -0.00013228378456418783 -0.0034563551600974587 0 -9.9126864785376107e-05 -0.0026672599579564606 0 -9.9692965858725241e-05 -0.0026667164566787139 0 -0.00010276449519447536 -0.0026726416452012877 0 -0.00017634317415769239 -0.0029705597819761715 0 -0.00011389208318836479 -0.002889258992516317 0 -7.1262587264541151e-05 -0.0029221131014102214 0 -0.00019100752024650482 -0.003134931659798894 0 -0.00014887454358138432 -0.002779522293136378 0 -0.00019100752024650482 -0.003134931659798894 0 -0.0001143205446041315 -0.0028367098707710683 0 -0.0001143205446041315 -0.0028367098707710683 0 -0.00014887454358138432 -0.002779522293136378 0 -0.00014122634268951852 -0.0031888416650228267 0 -0.00016941177126196608 -0.0031664952879895923 0 -0.00015610563444977621 -0.0031581495665047496 0 -0.00014042095275603405 -0.0032230064040316029 0 -0.00020689259204705537 -0.0034784431089584064 0 -0.00014042095275603405 -0.0032230064040316029 0 -0.0001143205446041315 -0.0028367098707710683 0 -0.00022099803285901106 -0.0036693024086778777 0 -0.00019236490359644473 -0.0036574282166239817 0 -0.00015753117243126293 -0.0037056854560412107 0 -0.00018585241733272664 -0.0037496926897981086 0 -0.00022099803285901106 -0.0036693024086778777 0 -0.00015753117243126293 -0.0037056854560412107 0 -0.00016543782311667838 -0.0031616892665800797 0 -0.00016941177126196608 -0.0031664952879895923 0 -0.00015610563444977621 -0.0031581495665047496 0 -0.00019100752024650482 -0.003134931659798894 0 -0.00020689259204705537 -0.0034784431089584064 0 -0.00019921749465236476 -0.0035030344234933306 0 -0.0001597093298486142 -0.0035718346038394145 0 -0.0001318260931466386 -0.0035155837173336457 0 -0.00013208925528078485 -0.0035149225078812177 0 -0.00013426492633000401 -0.0035190219958072702 0 -0.00021895767120114437 -0.0036686183864236411 0 -0.00019236490359644473 -0.0036574282166239817 0 -0.00022448350915527665 -0.0036569588573472397 0 -0.0001318260931466386 -0.0035155837173336457 0 -0.00013027949487950285 -0.00351051277859279 0 -0.00013208925528078485 -0.0035149225078812177 0 -0.00012174053227621923 -0.003511790786870693 0 -0.00019921749465236476 -0.0035030344234933306 0 -0.00020689259204705537 -0.0034784431089584064 0 -0.00023649850161270298 -0.0035842802023343789 0 -0.00019236490359644473 -0.0036574282166239817 0 -0.00022448350915527665 -0.0036569588573472397 0 -0.00018095227594647309 -0.0036024974466317256 0 -0.00019100752024650482 -0.003134931659798894 0 -0.00019921749465236476 -0.0035030344234933306 0 -0.00015168359777646727 -0.003294887635021023 0 -0.00026843545237629102 -0.0033487027704104076 0 -0.00024004878481937556 -0.0034101302264021387 0 -0.00020689259204705537 -0.0034784431089584064 0 -0.00019921749465236476 -0.0035030344234933306 0 -0.00019236490359644473 -0.0036574282166239817 0 -0.00015730790698898067 -0.0036367597071712237 0 -0.00018095227594647309 -0.0036024974466317256 0 -0.00015730790698898067 -0.0036367597071712237 0 -0.00013171926203810522 -0.0036452809762649091 0 -0.00013396005833825423 -0.0036048503898779382 0 -0.00015730790698898067 -0.0036367597071712237 0 -0.00014705989581601881 -0.0036740951851624935 0 -0.00013171926203810522 -0.0036452809762649091 0 -0.00019236490359644473 -0.0036574282166239817 0 -0.00015730790698898067 -0.0036367597071712237 0 -0.00014705989581601881 -0.0036740951851624935 0 -0.00019236490359644473 -0.0036574282166239817 0 -0.00014705989581601881 -0.0036740951851624935 0 -0.00015753117243126293 -0.0037056854560412107 0 -0.00014705989581601881 -0.0036740951851624935 0 -0.00015753117243126293 -0.0037056854560412107 0 -0.00011765488814538975 -0.0036978570572104813 0 -7.9829938539624135e-05 -0.0037635443007606882 0 -0.0001081314452212071 -0.0037307677584932186 0 -7.2899310585930843e-05 -0.0036578518057478098 0 -0.0001081314452212071 -0.0037307677584932186 0 -0.00011765488814538975 -0.0036978570572104813 0 -7.2899310585930843e-05 -0.0036578518057478098 0 0.00014919571964326002 -0.0042372641037982601 0 7.6017294870315652e-05 -0.0040922680721487215 0 -0.0001081314452212071 -0.0037307677584932186 0 -0.00015753117243126293 -0.0037056854560412107 0 -0.00011765488814538975 -0.0036978570572104813 0 -0.00014705989581601881 -0.0036740951851624935 0 -0.00011765488814538975 -0.0036978570572104813 0 -0.00011370061274485683 -0.0036622412753992304 0 -0.00011765488814538975 -0.0036978570572104813 0 -0.00011370061274485683 -0.0036622412753992304 0 -7.2899310585930843e-05 -0.0036578518057478098 0 -0.00011370061274485683 -0.0036622412753992304 0 -0.00011045612111082941 -0.003634444162910607 0 -7.2899310585930843e-05 -0.0036578518057478098 0 -0.00011045612111082941 -0.003634444162910607 0 -9.8213996915550778e-05 -0.0036040391226606406 0 -7.2899310585930843e-05 -0.0036578518057478098 0 -0.00014705989581601881 -0.0036740951851624935 0 -0.00011370061274485683 -0.0036622412753992304 0 -0.00013171926203810522 -0.0036452809762649091 0 -0.00011370061274485683 -0.0036622412753992304 0 -0.00013171926203810522 -0.0036452809762649091 0 -0.00011045612111082941 -0.003634444162910607 0 -0.00013171926203810522 -0.0036452809762649091 0 -0.00011045612111082941 -0.003634444162910607 0 -0.00013396005833825423 -0.0036048503898779382 0 -9.8213996915550778e-05 -0.0036040391226606406 0 -0.00013396005833825423 -0.0036048503898779382 0 -0.00013113360006286679 -0.0035454213354403031 0 -9.8213996915550778e-05 -0.0036040391226606406 0 -0.00013113360006286679 -0.0035454213354403031 0 -7.6483495286911466e-05 -0.0035651834147162166 0 -0.00011045612111082941 -0.003634444162910607 0 -9.8213996915550778e-05 -0.0036040391226606406 0 -0.00013396005833825423 -0.0036048503898779382 0 -0.00013396005833825423 -0.0036048503898779382 0 -0.00018095227594647309 -0.0036024974466317256 0 -0.00013113360006286679 -0.0035454213354403031 0 -0.0001597093298486142 -0.0035718346038394145 0 -0.00013235378922378689 -0.0035411362091366731 0 -0.00015730790698898067 -0.0036367597071712237 0 -0.00013396005833825423 -0.0036048503898779382 0 -0.00018095227594647309 -0.0036024974466317256 0 -0.00013426492633000401 -0.0035190219958072702 0 -0.00013113360006286679 -0.0035454213354403031 0 -0.00013324646358516587 -0.0035325096619953128 0 -0.00013324646358516587 -0.0035325096619953128 0 -0.0001296515421613408 -0.0035332041649404314 0 -0.00013418002474327323 -0.0035304512777766359 0 -0.00013113360006286679 -0.0035454213354403031 0 -0.00013324646358516587 -0.0035325096619953128 0 -0.0001296515421613408 -0.0035332041649404314 0 -0.00013113360006286679 -0.0035454213354403031 0 -0.00010499088894553232 -0.003533496901992002 0 -0.0001296515421613408 -0.0035332041649404314 0 -0.00013113360006286679 -0.0035454213354403031 0 -7.6483495286911466e-05 -0.0035651834147162166 0 -0.00010499088894553232 -0.003533496901992002 0 0.00023373675472781715 -0.0046376813518067142 0 0.00021503674436814394 -0.0046544417044301302 0 0.00022557514460683957 -0.004672536639989398 0 0.00023373675472781715 -0.0046376813518067142 0 0.00021503674436814394 -0.0046544417044301302 0 0.00021571856953120242 -0.0046335325293633501 0 0.00021503674436814394 -0.0046544417044301302 0 0.00020124898818048585 -0.0046530264284765383 0 0.000208805842047882 -0.0046461974998215716 0 0.00020124898818048585 -0.0046530264284765383 0 0.00019270229423172386 -0.0046574857873081443 0 0.00020297566778493348 -0.0046630262482796891 0 0.00021503674436814394 -0.0046544417044301302 0 0.00020124898818048585 -0.0046530264284765383 0 0.00020297566778493348 -0.0046630262482796891 0 0.00020124898818048585 -0.0046530264284765383 0 0.0002025054919071611 -0.0046420973751557957 0 0.000208805842047882 -0.0046461974998215716 0 0.00020124898818048585 -0.0046530264284765383 0 0.0002025054919071611 -0.0046420973751557957 0 0.00019297720574612011 -0.0046468978108459812 0 0.0002025054919071611 -0.0046420973751557957 0 0.00021571856953120242 -0.0046335325293633501 0 0.00020195389410433145 -0.0046336458857105965 0 0.0002025054919071611 -0.0046420973751557957 0 0.00020195389410433145 -0.0046336458857105965 0 0.00019462105480945948 -0.0046380608429378353 0 0.00021503674436814394 -0.0046544417044301302 0 0.000208805842047882 -0.0046461974998215716 0 0.00021571856953120242 -0.0046335325293633501 0 0.0002025054919071611 -0.0046420973751557957 0 0.000208805842047882 -0.0046461974998215716 0 0.00021571856953120242 -0.0046335325293633501 0 0.00021571856953120242 -0.0046335325293633501 0 0.00020395450729434258 -0.0046247910122126585 0 0.00021454062728387108 -0.0046157329018399768 0 0.00020195389410433145 -0.0046336458857105965 0 0.00020395450729434258 -0.0046247910122126585 0 0.00019284465238698527 -0.0046298056126909621 0 0.00021571856953120242 -0.0046335325293633501 0 0.00020195389410433145 -0.0046336458857105965 0 0.00020395450729434258 -0.0046247910122126585 0 0.00020395450729434258 -0.0046247910122126585 0 0.00020477243340421528 -0.0046170624657181037 0 0.00019466707784258889 -0.0046177363106386987 0 0.00020395450729434258 -0.0046247910122126585 0 0.00020477243340421528 -0.0046170624657181037 0 0.00021454062728387108 -0.0046157329018399768 0 0.00021454062728387108 -0.0046157329018399768 0 0.00022623841022110963 -0.00462188763716291 0 0.00022909195255432926 -0.0046036318511896955 0 0.00023373675472781715 -0.0046376813518067142 0 0.00022623841022110963 -0.00462188763716291 0 0.00024660560254805057 -0.0045805423631228069 0 -9.8213996915550778e-05 -0.0036040391226606406 0 -7.6483495286911466e-05 -0.0035651834147162166 0 -7.2899310585930843e-05 -0.0036578518057478098 0 9.1198858305679598e-05 -0.0041128656229180256 0 7.6017294870315652e-05 -0.0040922680721487215 0 0.00021571856953120242 -0.0046335325293633501 0 0.00021454062728387108 -0.0046157329018399768 0 0.00022623841022110963 -0.00462188763716291 0 0.00023373675472781715 -0.0046376813518067142 0 0.00021571856953120242 -0.0046335325293633501 0 0.00022623841022110963 -0.00462188763716291 0 0.00022909195255432926 -0.0046036318511896955 0 0.00024660560254805057 -0.0045805423631228069 0 0.00023865557440613968 -0.0045292660966893671 0 0.00022623841022110963 -0.00462188763716291 0 0.00022909195255432926 -0.0046036318511896955 0 0.00024660560254805057 -0.0045805423631228069 0 0.00023367255740138344 -0.0045879638646517257 0 0.00022521488848401238 -0.0045784858058921145 0 0.00022909195255432926 -0.0046036318511896955 0 0.00024045363804004377 -0.0045750041710344641 0 0.00021947909228484368 -0.0046007377193928722 0 0.00021454062728387108 -0.0046157329018399768 0 0.00022909195255432926 -0.0046036318511896955 0 0.00021947909228484368 -0.0046007377193928722 0 0.00024045363804004377 -0.0045750041710344641 0 0.00023005366460523662 -0.004564503075435827 0 0.00021947909228484368 -0.0046007377193928722 0 0.00025059780129053943 -0.0044732985891384105 0 0.00024660560254805057 -0.0045805423631228069 0 0.00023865557440613968 -0.0045292660966893671 0 0.00024096621178697114 -0.0046084516786265833 0 0.00022757618300191322 -0.0045876180583083979 0 0.00025305497441585866 -0.0045911906895507344 0 0.00022817157579124538 -0.0045939278979386924 0 0.00021947909228484368 -0.0046007377193928722 0 0.00023580415558912784 -0.0045863265615297454 0 0.00025305497441585866 -0.0045911906895507344 0 0.00022817157579124538 -0.0045939278979386924 0 0.00022014943093862503 -0.0045817386546880548 0 0.00022817157579124538 -0.0045939278979386924 0 0.00019890249993148964 -0.0045975219327970291 0 0.00022014943093862503 -0.0045817386546880548 0 0.00023580415558912784 -0.0045863265615297454 0 0.00022817157579124538 -0.0045939278979386924 0 0.00022817157579124538 -0.0045939278979386924 0 0.00020959550257197669 -0.0046021370969405511 0 0.00021947909228484368 -0.0046007377193928722 0 0.00022817157579124538 -0.0045939278979386924 0 0.00020959550257197669 -0.0046021370969405511 0 0.00019890249993148964 -0.0045975219327970291 0 0.00020959550257197669 -0.0046021370969405511 0 0.00019572959258374611 -0.0046064989329409264 0 0.00019890249993148964 -0.0045975219327970291 0 0.00020959550257197669 -0.0046021370969405511 0 0.00020564220146390255 -0.0046102655404561847 0 0.00019572959258374611 -0.0046064989329409264 0 0.00020959550257197669 -0.0046021370969405511 0 0.00021947909228484368 -0.0046007377193928722 0 0.00020564220146390255 -0.0046102655404561847 0 0.00021454062728387108 -0.0046157329018399768 0 0.00021947909228484368 -0.0046007377193928722 0 0.00020564220146390255 -0.0046102655404561847 0 0.00020477243340421528 -0.0046170624657181037 0 0.00020564220146390255 -0.0046102655404561847 0 0.00019466707784258889 -0.0046177363106386987 0 0.00020477243340421528 -0.0046170624657181037 0 0.00021454062728387108 -0.0046157329018399768 0 0.00020564220146390255 -0.0046102655404561847 0 0.00020564220146390255 -0.0046102655404561847 0 0.00019572959258374611 -0.0046064989329409264 0 0.00019466707784258889 -0.0046177363106386987 0 0.00018602817316186517 -0.0046115770341638744 0 0.00019572959258374611 -0.0046064989329409264 0 0.00019466707784258889 -0.0046177363106386987 0 0.00018602817316186517 -0.0046115770341638744 0 0.00017962153565869606 -0.0046174089188162131 0 0.00018631336851855504 -0.0046188585830002158 0 0.00018602817316186517 -0.0046115770341638744 0 0.00018631336851855504 -0.0046188585830002158 0 0.00019466707784258889 -0.0046177363106386987 0 0.00018602817316186517 -0.0046115770341638744 0 0.00019572959258374611 -0.0046064989329409264 0 0.00018173380679051992 -0.004603517722660066 0 0.00017563424639225489 -0.0045901011140482032 0 0.00019890249993148964 -0.0045975219327970291 0 0.00018173380679051992 -0.004603517722660066 0 0.00014793160900411715 -0.0045692979040051363 0 0.00020296900319648832 -0.0046018792550969649 0 0.00019572959258374611 -0.0046064989329409264 0 0.00019890249993148964 -0.0045975219327970291 0 0.00018173380679051992 -0.004603517722660066 0 0.00017563424639225489 -0.0045901011140482032 0 0.00018173380679051992 -0.004603517722660066 0 0.00016514357613029769 -0.0046027231569020031 0 0.00018173380679051992 -0.004603517722660066 0 0.00017360412114895971 -0.0046137635938462282 0 0.00016514357613029769 -0.0046027231569020031 0 0.00017360412114895971 -0.0046137635938462282 0 0.00017230762554530025 -0.0046218660488320283 0 0.00016277736156573291 -0.0046130580761846087 0 0.00018602817316186517 -0.0046115770341638744 0 0.00018173380679051992 -0.004603517722660066 0 0.00017360412114895971 -0.0046137635938462282 0 0.00018602817316186517 -0.0046115770341638744 0 0.00017360412114895971 -0.0046137635938462282 0 0.00017962153565869606 -0.0046174089188162131 0 0.00017360412114895971 -0.0046137635938462282 0 0.00017557827876408413 -0.0046208268977722426 0 0.00017962153565869606 -0.0046174089188162131 0 0.00017360412114895971 -0.0046137635938462282 0 0.00017230762554530025 -0.0046218660488320283 0 0.00017557827876408413 -0.0046208268977722426 0 0.00016295482598695891 -0.0046193547625427225 0 0.00017199021920281672 -0.0046248359691125011 0 0.00016505319902337045 -0.0046379786009225392 0 0.00017771040113228318 -0.0046334903900094402 0 0.00017199021920281672 -0.0046248359691125011 0 0.00016505319902337045 -0.0046379786009225392 0 0.00017771040113228318 -0.0046334903900094402 0 0.00017199021920281672 -0.0046248359691125011 0 0.00017866226439714459 -0.0046240211718467251 0 0.00017199021920281672 -0.0046248359691125011 0 0.00017866226439714459 -0.0046240211718467251 0 0.00017557827876408413 -0.0046208268977722426 0 0.00017230762554530025 -0.0046218660488320283 0 0.00017199021920281672 -0.0046248359691125011 0 0.00017557827876408413 -0.0046208268977722426 0 0.00014720198089158477 -0.0046695743192599693 0 0.00015037653144805665 -0.0046574573574114861 0 0.00017866226439714459 -0.0046240211718467251 0 0.00017557827876408413 -0.0046208268977722426 0 0.00017962153565869606 -0.0046174089188162131 0 0.00017866226439714459 -0.0046240211718467251 0 0.00017962153565869606 -0.0046174089188162131 0 0.00018631336851855504 -0.0046188585830002158 0 0.00018631336851855504 -0.0046188585830002158 0 0.00019466707784258889 -0.0046177363106386987 0 0.00018449859120371783 -0.0046257859752953448 0 0.00017866226439714459 -0.0046240211718467251 0 0.00018631336851855504 -0.0046188585830002158 0 0.00018449859120371783 -0.0046257859752953448 0 0.00020395450729434258 -0.0046247910122126585 0 0.00019466707784258889 -0.0046177363106386987 0 0.00019284465238698527 -0.0046298056126909621 0 0.00019466707784258889 -0.0046177363106386987 0 0.00019284465238698527 -0.0046298056126909621 0 0.00018449859120371783 -0.0046257859752953448 0 0.00019284465238698527 -0.0046298056126909621 0 0.00018613122655562671 -0.004638744638116205 0 0.00019462105480945948 -0.0046380608429378353 0 0.00020195389410433145 -0.0046336458857105965 0 0.00019284465238698527 -0.0046298056126909621 0 0.00019462105480945948 -0.0046380608429378353 0 0.00017771040113228318 -0.0046334903900094402 0 0.00017866226439714459 -0.0046240211718467251 0 0.00018449859120371783 -0.0046257859752953448 0 0.00019284465238698527 -0.0046298056126909621 0 0.00018449859120371783 -0.0046257859752953448 0 0.00018474402129483065 -0.0046319930933396737 0 0.00019284465238698527 -0.0046298056126909621 0 0.00018474402129483065 -0.0046319930933396737 0 0.00018613122655562671 -0.004638744638116205 0 0.00017771040113228318 -0.0046334903900094402 0 0.00018474402129483065 -0.0046319930933396737 0 0.00018613122655562671 -0.004638744638116205 0 0.00017771040113228318 -0.0046334903900094402 0 0.00018449859120371783 -0.0046257859752953448 0 0.00018474402129483065 -0.0046319930933396737 0 0.00018613122655562671 -0.004638744638116205 0 0.00019297720574612011 -0.0046468978108459812 0 0.00018222375538297028 -0.0046526387320951299 0 0.00017771040113228318 -0.0046334903900094402 0 0.00018613122655562671 -0.004638744638116205 0 0.00017533302825115156 -0.0046433785178980067 0 0.00018613122655562671 -0.004638744638116205 0 0.00018222375538297028 -0.0046526387320951299 0 0.00017533302825115156 -0.0046433785178980067 0 0.00018613122655562671 -0.004638744638116205 0 0.00019462105480945948 -0.0046380608429378353 0 0.00019297720574612011 -0.0046468978108459812 0 0.0002025054919071611 -0.0046420973751557957 0 0.00019462105480945948 -0.0046380608429378353 0 0.00019297720574612011 -0.0046468978108459812 0 0.00020124898818048585 -0.0046530264284765383 0 0.00019297720574612011 -0.0046468978108459812 0 0.00019270229423172386 -0.0046574857873081443 0 0.00019297720574612011 -0.0046468978108459812 0 0.00019270229423172386 -0.0046574857873081443 0 0.00018222375538297028 -0.0046526387320951299 0 0.00019270229423172386 -0.0046574857873081443 0 0.00018222375538297028 -0.0046526387320951299 0 0.00018489383801268208 -0.0046650557800503771 0 0.00018222375538297028 -0.0046526387320951299 0 0.00016458093681508652 -0.0046543388017069066 0 0.00017533302825115156 -0.0046433785178980067 0 0.00016295482598695891 -0.0046193547625427225 0 0.00016505319902337045 -0.0046379786009225392 0 0.00013615112803788985 -0.0046528155908597772 0 0.00016458093681508652 -0.0046543388017069066 0 0.00016505319902337045 -0.0046379786009225392 0 0.00013615112803788985 -0.0046528155908597772 0 0.00018222375538297028 -0.0046526387320951299 0 0.00016458093681508652 -0.0046543388017069066 0 0.00017495667887279778 -0.0046640465505481676 0 0.00016458093681508652 -0.0046543388017069066 0 0.00016505319902337045 -0.0046379786009225392 0 0.00017533302825115156 -0.0046433785178980067 0 0.00017771040113228318 -0.0046334903900094402 0 0.00016505319902337045 -0.0046379786009225392 0 0.00017533302825115156 -0.0046433785178980067 0 0.00016458093681508652 -0.0046543388017069066 0 0.00015038317683879366 -0.0046796592043589838 0 0.00013615112803788985 -0.0046528155908597772 0 0.00017256615512739501 -0.004679839559346595 0 0.00015038317683879366 -0.0046796592043589838 0 0.00016334390085464333 -0.0046995558491944589 0 0.00017256615512739501 -0.004679839559346595 0 0.00015038317683879366 -0.0046796592043589838 0 0.00017495667887279778 -0.0046640465505481676 0 0.00016458093681508652 -0.0046543388017069066 0 0.00015038317683879366 -0.0046796592043589838 0 0.00017495667887279778 -0.0046640465505481676 0 0.00017256615512739501 -0.004679839559346595 0 0.00017495667887279778 -0.0046640465505481676 0 0.00018489383801268208 -0.0046650557800503771 0 0.00018222375538297028 -0.0046526387320951299 0 0.00017495667887279778 -0.0046640465505481676 0 0.00018489383801268208 -0.0046650557800503771 0 0.00019270229423172386 -0.0046574857873081443 0 0.00019291119638136094 -0.0046662395022036129 0 0.00020297566778493348 -0.0046630262482796891 0 0.00019270229423172386 -0.0046574857873081443 0 0.00018489383801268208 -0.0046650557800503771 0 0.00019291119638136094 -0.0046662395022036129 0 0.00018489383801268208 -0.0046650557800503771 0 0.00019291119638136094 -0.0046662395022036129 0 0.00018716687564902091 -0.004675867852017429 0 0.00018716687564902091 -0.004675867852017429 0 0.00019408910739144303 -0.004684697825873523 0 0.00019753391029046443 -0.0046710650908511177 0 0.00019291119638136094 -0.0046662395022036129 0 0.00018716687564902091 -0.004675867852017429 0 0.00019753391029046443 -0.0046710650908511177 0 0.00017256615512739501 -0.004679839559346595 0 0.00018716687564902091 -0.004675867852017429 0 0.00018165182808256537 -0.0046902730343679946 0 0.00017256615512739501 -0.004679839559346595 0 0.00018489383801268208 -0.0046650557800503771 0 0.00018716687564902091 -0.004675867852017429 0 0.00018716687564902091 -0.004675867852017429 0 0.00018165182808256537 -0.0046902730343679946 0 0.00019408910739144303 -0.004684697825873523 0 0.00019408910739144303 -0.004684697825873523 0 0.00018861630276874051 -0.00469798518925951 0 0.00019720098038149343 -0.0046942214717522477 0 0.00018165182808256537 -0.0046902730343679946 0 0.00019408910739144303 -0.004684697825873523 0 0.00018861630276874051 -0.00469798518925951 0 0.00018861630276874051 -0.00469798518925951 0 0.00019538265825853353 -0.004708190556765207 0 0.00019720098038149343 -0.0046942214717522477 0 0.00018861630276874051 -0.00469798518925951 0 0.00017703409099491425 -0.0047061522072665745 0 0.00019538265825853353 -0.004708190556765207 0 0.00018165182808256537 -0.0046902730343679946 0 0.00018861630276874051 -0.00469798518925951 0 0.00017703409099491425 -0.0047061522072665745 0 0.00017703409099491425 -0.0047061522072665745 0 0.00016334390085464333 -0.0046995558491944589 0 0.00015805565936662759 -0.0047235414963887846 0 0.00017256615512739501 -0.004679839559346595 0 0.00018165182808256537 -0.0046902730343679946 0 0.00016334390085464333 -0.0046995558491944589 0 0.00018165182808256537 -0.0046902730343679946 0 0.00017703409099491425 -0.0047061522072665745 0 0.00016334390085464333 -0.0046995558491944589 0 0.00015038317683879366 -0.0046796592043589838 0 0.00016334390085464333 -0.0046995558491944589 0 0.00013435335049008981 -0.004705986021248507 0 0.00016334390085464333 -0.0046995558491944589 0 0.00015805565936662759 -0.0047235414963887846 0 0.00013435335049008981 -0.004705986021248507 0 0.00021952876215694227 -0.0044959005349267016 0 0.00014649740383384255 -0.0040556711467572967 0 0.00011186942916671766 -0.0042760530076827947 0 0.00021684758486415075 -0.00447661816250664 0 0.00018869501659881288 -0.0043966847597471017 0 0.00021952876215694227 -0.0044959005349267016 0 0.00022082703217912164 -0.0044885057103537457 0 0.00011186942916671766 -0.0042760530076827947 0 0.00021952876215694227 -0.0044959005349267016 0 0.00024465170457921992 -0.0047323429531517342 0 0.00016104126560429006 -0.0046737782335898714 0 0.00024465170457921992 -0.0047323429531517342 0 0.00015275742104023488 -0.0047458751965247497 0 0.00016104126560429006 -0.0046737782335898714 0 2.5211864039063994e-05 -0.0041182098361927212 0 -1.8558540592268145e-05 -0.0042270053123537373 0 -4.30743094888573e-05 -0.0040472365196429312 0 0.00014649740383384255 -0.0040556711467572967 0 2.5211864039063994e-05 -0.0041182098361927212 0 -1.18405708894575e-06 -0.0040004337208193646 0 2.5211864039063994e-05 -0.0041182098361927212 0 -4.30743094888573e-05 -0.0040472365196429312 0 -1.18405708894575e-06 -0.0040004337208193646 0 0.00014649740383384255 -0.0040556711467572967 0 2.5211864039063994e-05 -0.0041182098361927212 0 0.00011186942916671766 -0.0042760530076827947 0 2.5211864039063994e-05 -0.0041182098361927212 0 0.00011186942916671766 -0.0042760530076827947 0 -1.8558540592268145e-05 -0.0042270053123537373 0 0.00022082703217912164 -0.0044885057103537457 0 0.00011186942916671766 -0.0042760530076827947 0 -1.8558540592268145e-05 -0.0042270053123537373 0 0.0001839427100513619 -0.0046016157417779844 0 0.00013118858144399825 -0.0044896224312270293 0 0.00017703409099491425 -0.0047061522072665745 0 0.00015805565936662759 -0.0047235414963887846 0 0.00019538265825853353 -0.004708190556765207 0 0.00019538265825853353 -0.004708190556765207 0 0.00021773936605489714 -0.0047045947390222248 0 0.00020675760370376513 -0.0046938157775641472 0 -1.8558540592268145e-05 -0.0042270053123537373 0 -7.8493641791237744e-05 -0.0040337858431465767 0 -9.4376691553514018e-05 -0.0040441803899680211 0 0.00021773936605489714 -0.0047045947390222248 0 0.00020675760370376513 -0.0046938157775641472 0 0.00021402640877060433 -0.0046884700292333034 0 0.00013118858144399825 -0.0044896224312270293 0 -6.3806588781758746e-05 -0.0041795233894022354 0 -1.8558540592268145e-05 -0.0042270053123537373 0 -4.30743094888573e-05 -0.0040472365196429312 0 -7.8493641791237744e-05 -0.0040337858431465767 0 -4.30743094888573e-05 -0.0040472365196429312 0 -7.8493641791237744e-05 -0.0040337858431465767 0 -7.2825974626299881e-05 -0.0039958792573991991 0 -4.30743094888573e-05 -0.0040472365196429312 0 -7.2825974626299881e-05 -0.0039958792573991991 0 -5.6400519162474602e-05 -0.003977723080668784 0 -4.30743094888573e-05 -0.0040472365196429312 0 -1.18405708894575e-06 -0.0040004337208193646 0 -5.6400519162474602e-05 -0.003977723080668784 0 -8.6829417618684688e-05 -0.0039703183070276069 0 -8.5044578445357241e-05 -0.0039371634045993397 0 -7.7974627615428685e-05 -0.0039593339227545826 0 -8.6829417618684688e-05 -0.0039703183070276069 0 -9.1549290249481744e-05 -0.0039568439563018518 0 -8.5044578445357241e-05 -0.0039371634045993397 0 -7.2825974626299881e-05 -0.0039958792573991991 0 -8.6829417618684688e-05 -0.0039703183070276069 0 -7.7974627615428685e-05 -0.0039593339227545826 0 -7.8493641791237744e-05 -0.0040337858431465767 0 -7.2825974626299881e-05 -0.0039958792573991991 0 -8.6829417618684688e-05 -0.0039703183070276069 0 -7.2825974626299881e-05 -0.0039958792573991991 0 -5.6400519162474602e-05 -0.003977723080668784 0 -7.7974627615428685e-05 -0.0039593339227545826 0 -7.8493641791237744e-05 -0.0040337858431465767 0 -8.6829417618684688e-05 -0.0039703183070276069 0 -9.0406653035419388e-05 -0.0039934209030829185 0 -7.8493641791237744e-05 -0.0040337858431465767 0 -9.0406653035419388e-05 -0.0039934209030829185 0 -0.00010097939999705278 -0.00401906869449907 0 -9.0406653035419388e-05 -0.0039934209030829185 0 -9.1549290249481744e-05 -0.0039568439563018518 0 -0.00010097939999705278 -0.00401906869449907 0 -9.1549290249481744e-05 -0.0039568439563018518 0 -0.00010097939999705278 -0.00401906869449907 0 -9.1642221070552016e-05 -0.003914512996744327 0 -8.6829417618684688e-05 -0.0039703183070276069 0 -9.0406653035419388e-05 -0.0039934209030829185 0 -9.1549290249481744e-05 -0.0039568439563018518 0 -7.8493641791237744e-05 -0.0040337858431465767 0 -0.00010097939999705278 -0.00401906869449907 0 -9.4376691553514018e-05 -0.0040441803899680211 0 -0.00023354621298852233 -0.003799380912726487 0 -0.00025176466739683536 -0.0037960746633300432 0 -0.00022172645757362493 -0.003761241235194153 0 -0.0001379697070523309 -0.004053739178630977 0 -6.3806588781758746e-05 -0.0041795233894022354 0 -0.00025176466739683536 -0.0037960746633300432 0 -0.00022172645757362493 -0.003761241235194153 0 -0.00022294933573242193 -0.0037216392264458487 0 -0.00023354621298852233 -0.003799380912726487 0 -0.00018624609424412083 -0.00374545959077693 0 -0.0001380593388267314 -0.0037560725213622004 0 -0.00023354621298852233 -0.003799380912726487 0 -0.00022172645757362493 -0.003761241235194153 0 -0.00018624609424412083 -0.00374545959077693 0 -0.00022172645757362493 -0.003761241235194153 0 -0.00020359983189001312 -0.0037290887872634534 0 -0.00022294933573242193 -0.0037216392264458487 0 -0.00022172645757362493 -0.003761241235194153 0 -0.00018624609424412083 -0.00374545959077693 0 -0.00020359983189001312 -0.0037290887872634534 0 -0.00025176466739683536 -0.0037960746633300432 0 -0.00022294933573242193 -0.0037216392264458487 0 -0.0002273991589408163 -0.0036263535888297069 0 -0.00018624609424412083 -0.00374545959077693 0 -0.00020359983189001312 -0.0037290887872634534 0 -0.00016797043274144842 -0.0037098398828112195 0 0.00021773936605489714 -0.0047045947390222248 0 0.00021840544498097922 -0.0046842530651812981 0 0.00022453211637613662 -0.0046734786061968731 0 -6.3806588781758746e-05 -0.0041795233894022354 0 -1.2914463923614148e-05 -0.0040671533532541356 0 0.00021773936605489714 -0.0047045947390222248 0 0.00021840544498097922 -0.0046842530651812981 0 0.00021402640877060433 -0.0046884700292333034 0 -0.00020359983189001312 -0.0037290887872634534 0 -0.00021054668260402819 -0.0036972891555183606 0 -0.00016797043274144842 -0.0037098398828112195 0 -0.00020359983189001312 -0.0037290887872634534 0 -0.00022294933573242193 -0.0037216392264458487 0 -0.00021054668260402819 -0.0036972891555183606 0 -0.00021054668260402819 -0.0036972891555183606 0 -0.00018817281463945099 -0.0036732141456065188 0 -0.00016797043274144842 -0.0037098398828112195 0 -0.00022294933573242193 -0.0037216392264458487 0 -0.00021054668260402819 -0.0036972891555183606 0 -0.0002273991589408163 -0.0036263535888297069 0 -0.00021054668260402819 -0.0036972891555183606 0 -0.00018817281463945099 -0.0036732141456065188 0 -0.0002273991589408163 -0.0036263535888297069 0 -0.00018817281463945099 -0.0036732141456065188 0 -0.0002273991589408163 -0.0036263535888297069 0 -0.00014689492455536885 -0.0036591468803835558 0 0.00021840544498097922 -0.0046842530651812981 0 0.00021490490361675201 -0.0046795822760205569 0 0.00022045339591501219 -0.0046742295350387635 0 0.00021840544498097922 -0.0046842530651812981 0 0.00022453211637613662 -0.0046734786061968731 0 0.00022045339591501219 -0.0046742295350387635 0 0.00021840544498097922 -0.0046842530651812981 0 0.00021402640877060433 -0.0046884700292333034 0 0.00021490490361675201 -0.0046795822760205569 0 0.00020675760370376513 -0.0046938157775641472 0 0.00021402640877060433 -0.0046884700292333034 0 0.00020985061746196635 -0.0046857216116779621 0 0.00019538265825853353 -0.004708190556765207 0 0.00020675760370376513 -0.0046938157775641472 0 0.00019720098038149343 -0.0046942214717522477 0 0.00020675760370376513 -0.0046938157775641472 0 0.00019720098038149343 -0.0046942214717522477 0 0.00020354861109698409 -0.0046855841927928663 0 0.00019408910739144303 -0.004684697825873523 0 0.00019720098038149343 -0.0046942214717522477 0 0.00020354861109698409 -0.0046855841927928663 0 0.00020354861109698409 -0.0046855841927928663 0 0.00020996681159418879 -0.0046768961583819506 0 0.00020248908927286043 -0.0046773271469030455 0 0.00019408910739144303 -0.004684697825873523 0 0.00020354861109698409 -0.0046855841927928663 0 0.00020248908927286043 -0.0046773271469030455 0 0.00021402640877060433 -0.0046884700292333034 0 0.00020985061746196635 -0.0046857216116779621 0 0.00021490490361675201 -0.0046795822760205569 0 0.00020675760370376513 -0.0046938157775641472 0 0.00020354861109698409 -0.0046855841927928663 0 0.00020985061746196635 -0.0046857216116779621 0 0.00020354861109698409 -0.0046855841927928663 0 0.00020985061746196635 -0.0046857216116779621 0 0.00020996681159418879 -0.0046768961583819506 0 0.00020985061746196635 -0.0046857216116779621 0 0.00021490490361675201 -0.0046795822760205569 0 0.00020996681159418879 -0.0046768961583819506 0 0.0002153643891838541 -0.0046723496133526023 0 0.00020996681159418879 -0.0046768961583819506 0 0.00021280034114332238 -0.0046671758778140957 0 0.00021490490361675201 -0.0046795822760205569 0 0.0002153643891838541 -0.0046723496133526023 0 0.00020996681159418879 -0.0046768961583819506 0 0.00020996681159418879 -0.0046768961583819506 0 0.00021280034114332238 -0.0046671758778140957 0 0.00020523537831529438 -0.0046711489464611924 0 0.00019408910739144303 -0.004684697825873523 0 0.00020248908927286043 -0.0046773271469030455 0 0.00019753391029046443 -0.0046710650908511177 0 0.00020996681159418879 -0.0046768961583819506 0 0.00020248908927286043 -0.0046773271469030455 0 0.00020523537831529438 -0.0046711489464611924 0 0.00020248908927286043 -0.0046773271469030455 0 0.00020523537831529438 -0.0046711489464611924 0 0.00019753391029046443 -0.0046710650908511177 0 0.00021280034114332238 -0.0046671758778140957 0 0.00020523537831529438 -0.0046711489464611924 0 0.00020297566778493348 -0.0046630262482796891 0 0.00020523537831529438 -0.0046711489464611924 0 0.00019753391029046443 -0.0046710650908511177 0 0.00020297566778493348 -0.0046630262482796891 0 0.00019291119638136094 -0.0046662395022036129 0 0.00019753391029046443 -0.0046710650908511177 0 0.00020297566778493348 -0.0046630262482796891 0 0.00021503674436814394 -0.0046544417044301302 0 0.00021280034114332238 -0.0046671758778140957 0 0.00020297566778493348 -0.0046630262482796891 0 9.1198858305679598e-05 -0.0041128656229180256 0 -1.2914463923614148e-05 -0.0040671533532541356 0 0.00021503674436814394 -0.0046544417044301302 0 0.00021280034114332238 -0.0046671758778140957 0 0.00022557514460683957 -0.004672536639989398 0 -7.6483495286911466e-05 -0.0035651834147162166 0 -8.1915777715987955e-05 -0.0035154685399988485 0 -0.00010499088894553232 -0.003533496901992002 0 -1.2914463923614148e-05 -0.0040671533532541356 0 8.0233758232265849e-05 -0.0041520691672790617 0 0.0002153643891838541 -0.0046723496133526023 0 0.00022557514460683957 -0.004672536639989398 0 0.00022045339591501219 -0.0046742295350387635 0 0.0002153643891838541 -0.0046723496133526023 0 0.00021280034114332238 -0.0046671758778140957 0 0.00022557514460683957 -0.004672536639989398 0 0.00021490490361675201 -0.0046795822760205569 0 0.0002153643891838541 -0.0046723496133526023 0 0.00022045339591501219 -0.0046742295350387635 0 -1.2914463923614148e-05 -0.0040671533532541356 0 -0.00012360466509660792 -0.0035086934853444827 0 -0.0002273991589408163 -0.0036263535888297069 0 -6.5347537163910273e-05 -0.0036136008560274011 0 -0.00014689492455536885 -0.0036591468803835558 0 -8.1915777715987955e-05 -0.0035154685399988485 0 -0.00010499088894553232 -0.003533496901992002 0 -0.00012511691595043327 -0.0035208552418102201 0 -0.00010499088894553232 -0.003533496901992002 0 -0.0001296515421613408 -0.0035332041649404314 0 -0.00012511691595043327 -0.0035208552418102201 0 -0.0001296515421613408 -0.0035332041649404314 0 -0.00012511691595043327 -0.0035208552418102201 0 -0.00013418002474327323 -0.0035304512777766359 0 -6.5347537163910273e-05 -0.0036136008560274011 0 -8.1019974608078098e-05 -0.0037088313391151831 0 6.9935211207797815e-06 -0.0036704834301764023 0 -8.1019974608078098e-05 -0.0037088313391151831 0 -0.00014689492455536885 -0.0036591468803835558 0 -0.00016797043274144842 -0.0037098398828112195 0 -8.1019974608078098e-05 -0.0037088313391151831 0 -0.00016797043274144842 -0.0037098398828112195 0 -0.0001380593388267314 -0.0037560725213622004 0 -6.5347537163910273e-05 -0.0036136008560274011 0 -8.1019974608078098e-05 -0.0037088313391151831 0 -0.00014689492455536885 -0.0036591468803835558 0 -0.00018817281463945099 -0.0036732141456065188 0 -0.00014689492455536885 -0.0036591468803835558 0 -0.00016797043274144842 -0.0037098398828112195 0 -0.00018624609424412083 -0.00374545959077693 0 -0.00016797043274144842 -0.0037098398828112195 0 -0.0001380593388267314 -0.0037560725213622004 0 -0.00023354621298852233 -0.003799380912726487 0 -0.0001380593388267314 -0.0037560725213622004 0 -7.5433414410365759e-05 -0.0038345536512017276 0 -0.0001379697070523309 -0.004053739178630977 0 -8.6868832383590408e-05 -0.0038213747988455667 0 -8.1019974608078098e-05 -0.0037088313391151831 0 -0.0001380593388267314 -0.0037560725213622004 0 -7.5433414410365759e-05 -0.0038345536512017276 0 -0.00010097939999705278 -0.00401906869449907 0 -9.1642221070552016e-05 -0.003914512996744327 0 -7.5433414410365759e-05 -0.0038345536512017276 0 -9.1642221070552016e-05 -0.003914512996744327 0 -4.6966509710887386e-05 -0.0038593086117339561 0 -7.5231863572442382e-05 -0.0039116415414477222 0 -9.1642221070552016e-05 -0.003914512996744327 0 -4.6966509710887386e-05 -0.0038593086117339561 0 -7.5433414410365759e-05 -0.0038345536512017276 0 -9.1549290249481744e-05 -0.0039568439563018518 0 -9.1642221070552016e-05 -0.003914512996744327 0 -8.5044578445357241e-05 -0.0039371634045993397 0 -9.1642221070552016e-05 -0.003914512996744327 0 -8.5044578445357241e-05 -0.0039371634045993397 0 -7.5231863572442382e-05 -0.0039116415414477222 0 -4.6966509710887386e-05 -0.0038593086117339561 0 -7.5433414410365759e-05 -0.0038345536512017276 0 -7.4792328300480778e-06 -0.0037661186814087677 0 -8.1019974608078098e-05 -0.0037088313391151831 0 -7.5433414410365759e-05 -0.0038345536512017276 0 -7.4792328300480778e-06 -0.0037661186814087677 0 -8.1019974608078098e-05 -0.0037088313391151831 0 -7.4792328300480778e-06 -0.0037661186814087677 0 6.9935211207797815e-06 -0.0036704834301764023 0 -7.4792328300480778e-06 -0.0037661186814087677 0 6.3602071257511087e-05 -0.0037071147130019306 0 6.9935211207797815e-06 -0.0036704834301764023 0 -7.4792328300480778e-06 -0.0037661186814087677 0 6.3602071257511087e-05 -0.0037071147130019306 0 4.2076829000505485e-05 -0.0037918186009824185 0 -4.6966509710887386e-05 -0.0038593086117339561 0 -7.4792328300480778e-06 -0.0037661186814087677 0 4.2076829000505485e-05 -0.0037918186009824185 0 6.3602071257511087e-05 -0.0037071147130019306 0 4.2076829000505485e-05 -0.0037918186009824185 0 0.00010748131237405027 -0.0037224434670859352 0 4.2076829000505485e-05 -0.0037918186009824185 0 0.00010748131237405027 -0.0037224434670859352 0 0.00014863863877449414 -0.0037330176610402841 0 6.3602071257511087e-05 -0.0037071147130019306 0 0.00010748131237405027 -0.0037224434670859352 0 0.00011677874157088288 -0.0036769812583677445 0 6.3602071257511087e-05 -0.0037071147130019306 0 0.00011677874157088288 -0.0036769812583677445 0 8.5836447057723654e-05 -0.0036599478564161305 0 8.5836447057723654e-05 -0.0036599478564161305 0 6.3115445685530997e-05 -0.0036068906610293556 0 0.00013176127295265081 -0.0036386729286041366 0 0.00011677874157088288 -0.0036769812583677445 0 8.5836447057723654e-05 -0.0036599478564161305 0 0.00013176127295265081 -0.0036386729286041366 0 8.5836447057723654e-05 -0.0036599478564161305 0 5.3122838906179879e-05 -0.0036577167127715576 0 6.3115445685530997e-05 -0.0036068906610293556 0 6.3602071257511087e-05 -0.0037071147130019306 0 8.5836447057723654e-05 -0.0036599478564161305 0 5.3122838906179879e-05 -0.0036577167127715576 0 -6.5347537163910273e-05 -0.0036136008560274011 0 6.9935211207797815e-06 -0.0036704834301764023 0 6.3115445685530997e-05 -0.0036068906610293556 0 6.3602071257511087e-05 -0.0037071147130019306 0 6.9935211207797815e-06 -0.0036704834301764023 0 5.3122838906179879e-05 -0.0036577167127715576 0 6.9935211207797815e-06 -0.0036704834301764023 0 5.3122838906179879e-05 -0.0036577167127715576 0 6.3115445685530997e-05 -0.0036068906610293556 0 -0.00012511691595043327 -0.0035208552418102201 0 -0.00014035234630928157 -0.0035304215722049112 0 -0.00013418002474327323 -0.0035304512777766359 0 -0.00012360466509660792 -0.0035086934853444827 0 -3.004024850503326e-05 -0.0035711669419792535 0 -3.004024850503326e-05 -0.0035711669419792535 0 -0.00015331570133230441 -0.0035234229161165251 0 -0.0001300481454663362 -0.0035270888732674265 0 -0.00012911314454355284 -0.0035349816405826772 0 -0.00013418002474327323 -0.0035304512777766359 0 -3.004024850503326e-05 -0.0035711669419792535 0 4.8531382954931607e-05 -0.0035705787324562207 0 -3.004024850503326e-05 -0.0035711669419792535 0 0.00013494731004714226 -0.0036254726339365224 0 -0.000119610088756803 -0.0035277846075953533 0 -0.0001300481454663362 -0.0035270888732674265 0 -0.00012911314454355284 -0.0035349816405826772 0 6.0654362335401197e-05 -0.0035860325364058228 0 9.4479990178935347e-05 -0.0035894981699798253 0 0.00010358711845361699 -0.0036016055134770147 0 -0.000119610088756803 -0.0035277846075953533 0 -0.00012911314454355284 -0.0035349816405826772 0 -0.00010327351784052518 -0.0035346067592680222 0 6.0654362335401197e-05 -0.0035860325364058228 0 9.4479990178935347e-05 -0.0035894981699798253 0 0.00012308776462032379 -0.0035813271398835384 0 -2.9652981213360004e-08 -0.0049999105047906847 0 7.4247770171232414e-10 -0.0049999983884370346 0 -4.5088756062533983e-06 -0.0049930872746454785 0 5.5355357262902538e-05 -0.0050115374154335313 0 2.3372783461624368e-05 -0.0049855920543996337 0 4.6602019221412478e-05 -0.0049700319362116184 0 5.5355357262902538e-05 -0.0050115374154335313 0 1.6321456404242458e-05 -0.0050067147808471142 0 2.3372783461624368e-05 -0.0049855920543996337 0 7.8739371508641239e-05 -0.0049853988735790522 0 5.5355357262902538e-05 -0.0050115374154335313 0 0.00011104465316099166 -0.0050111342648065027 0 7.8739371508641239e-05 -0.0049853988735790522 0 5.5355357262902538e-05 -0.0050115374154335313 0 4.6602019221412478e-05 -0.0049700319362116184 0 3.4717970147739337e-05 -0.0049794769517211811 0 3.1275885688941128e-05 -0.0049989020859887547 0 -1.4368050456092474e-05 -0.0049228662612150259 0 1.0195218102035081e-05 -0.0049488179720761499 0 1.3580520022539683e-05 -0.0049339390921180754 0 -1.4368050456092474e-05 -0.0049228662612150259 0 1.0195218102035081e-05 -0.0049488179720761499 0 -3.3270922523933958e-05 -0.0049602357554993787 0 1.0195218102035081e-05 -0.0049488179720761499 0 1.6181949837416012e-05 -0.0049589041521142518 0 1.3580520022539683e-05 -0.0049339390921180754 0 3.4717970147739337e-05 -0.0049794769517211811 0 1.8630741850848868e-05 -0.0049841058538946173 0 1.6181949837416012e-05 -0.0049589041521142518 0 8.1451153871847735e-09 -0.0049999325864452816 0 9.2656347435526663e-06 -0.00497494270916078 0 1.8630741850848868e-05 -0.0049841058538946173 0 1.1910118072203466e-08 -0.004999991200703705 0 1.6321456404242458e-05 -0.0050067147808471142 0 8.4847429138394516e-09 -0.0050000241767740776 0 -1.4450842551315312e-08 -0.0049999779932279192 0 1.6321456404242458e-05 -0.0050067147808471142 0 -1.4450842551315312e-08 -0.0049999779932279192 0 2.8993404443050234e-06 -0.0049815222480440293 0 -2.0344813729841516e-09 -0.0049999962050422779 0 -3.7574228831908895e-07 -0.0049870606810195018 0 1.6321456404242458e-05 -0.0050067147808471142 0 2.8993404443050234e-06 -0.0049815222480440293 0 2.3372783461624368e-05 -0.0049855920543996337 0 -6.9391717315443868e-06 -0.0049879114540458533 0 -4.5088756062533983e-06 -0.0049930872746454785 0 -7.6650921151203159e-06 -0.0049674715759686957 0 -4.5088756062533983e-06 -0.0049930872746454785 0 -4.4344530621031631e-07 -0.0049811150858437075 0 -7.6650921151203159e-06 -0.0049674715759686957 0 2.8993404443050234e-06 -0.0049815222480440293 0 2.3372783461624368e-05 -0.0049855920543996337 0 1.305940939870878e-05 -0.0049495137928089487 0 2.3372783461624368e-05 -0.0049855920543996337 0 1.305940939870878e-05 -0.0049495137928089487 0 4.6602019221412478e-05 -0.0049700319362116184 0 -3.7574228831908895e-07 -0.0049870606810195018 0 6.7122018443800681e-06 -0.0049635912549921384 0 -6.9391717315443868e-06 -0.0049879114540458533 0 -2.9652981213360004e-08 -0.0049999105047906847 0 -4.5088756062533983e-06 -0.0049930872746454785 0 2.220635007019333e-05 -0.0049236710045327129 0 -4.4344530621031631e-07 -0.0049811150858437075 0 -7.6650921151203159e-06 -0.0049674715759686957 0 2.17989168778613e-05 -0.004929030265311332 0 6.7122018443800681e-06 -0.0049635912549921384 0 5.9694880635995165e-05 -0.0048803956424778201 0 2.220635007019333e-05 -0.0049236710045327129 0 4.9178302305142476e-05 -0.0049327995344985217 0 2.220635007019333e-05 -0.0049236710045327129 0 1.305940939870878e-05 -0.0049495137928089487 0 4.9178302305142476e-05 -0.0049327995344985217 0 1.305940939870878e-05 -0.0049495137928089487 0 4.9178302305142476e-05 -0.0049327995344985217 0 4.6602019221412478e-05 -0.0049700319362116184 0 4.9178302305142476e-05 -0.0049327995344985217 0 4.6602019221412478e-05 -0.0049700319362116184 0 9.0695432964804428e-05 -0.004950361607655965 0 7.8739371508641239e-05 -0.0049853988735790522 0 4.6602019221412478e-05 -0.0049700319362116184 0 9.0695432964804428e-05 -0.004950361607655965 0 5.9694880635995165e-05 -0.0048803956424778201 0 4.9178302305142476e-05 -0.0049327995344985217 0 9.9963832279581982e-05 -0.0049021220365833259 0 4.9178302305142476e-05 -0.0049327995344985217 0 9.0695432964804428e-05 -0.004950361607655965 0 9.9963832279581982e-05 -0.0049021220365833259 0 9.0695432964804428e-05 -0.004950361607655965 0 9.9963832279581982e-05 -0.0049021220365833259 0 0.00013369273157335136 -0.0049323008158391425 0 0.00014558273557103388 -0.0048840708474853743 0 9.9963832279581982e-05 -0.0049021220365833259 0 0.00013369273157335136 -0.0049323008158391425 0 0.00014558273557103388 -0.0048840708474853743 0 0.00013369273157335136 -0.0049323008158391425 0 0.00016363645487077499 -0.00492750308507953 0 0.00015811425101755605 -0.0048931908825960799 0 0.00017247505524692401 -0.0049271789482102429 0 0.00020921021216499329 -0.0049302282887167511 0 0.00022211686057102521 -0.0049071189205659848 0 0.00030033048457799559 -0.0049108274699270951 0 0.00034252786731245435 -0.0049918329320557909 0 0.00020724483391788032 -0.0049214180295214507 0 0.00022308205843809306 -0.0048083539628179265 0 0.00014447964026587291 -0.004885670067637609 0 0.00017580858289750466 -0.0049372931464547309 0 0.00014558273557103388 -0.0048840708474853743 0 0.00015811425101755605 -0.0048931908825960799 0 0.00017247505524692401 -0.0049271789482102429 0 0.00013369273157335136 -0.0049323008158391425 0 0.00016363645487077499 -0.00492750308507953 0 0.00015583631299509294 -0.0049549191918726986 0 0.00016363645487077499 -0.00492750308507953 0 0.00015583631299509294 -0.0049549191918726986 0 0.00018404359084088864 -0.0049630352537897195 0 0.00017247505524692401 -0.0049271789482102429 0 0.00020921021216499329 -0.0049302282887167511 0 0.00019809642063384081 -0.0049637116520040055 0 0.00017580858289750466 -0.0049372931464547309 0 0.00016745787688510848 -0.0048794267503264824 0 0.00015583631299509294 -0.0049549191918726986 0 0.00018404359084088864 -0.0049630352537897195 0 0.00016242595306951472 -0.0049761327091270725 0 0.00015583631299509294 -0.0049549191918726986 0 0.00013303606278538145 -0.0049727365642209774 0 0.00016242595306951472 -0.0049761327091270725 0 7.8739371508641239e-05 -0.0049853988735790522 0 9.0695432964804428e-05 -0.004950361607655965 0 0.00013303606278538145 -0.0049727365642209774 0 9.0695432964804428e-05 -0.004950361607655965 0 0.00013369273157335136 -0.0049323008158391425 0 0.00013303606278538145 -0.0049727365642209774 0 0.00013369273157335136 -0.0049323008158391425 0 0.00015583631299509294 -0.0049549191918726986 0 0.00013303606278538145 -0.0049727365642209774 0 0.00015574887531567239 -0.0045943434416840945 0 0.00017563424639225489 -0.0045901011140482032 0 0.00016514357613029769 -0.0046027231569020031 0 0.00015574887531567239 -0.0045943434416840945 0 0.00016514357613029769 -0.0046027231569020031 0 0.00015234436955071764 -0.0046058209639775732 0 0.00026160797657902003 -0.0047442615811722731 0 0.00022308205843809306 -0.0048083539628179265 0 0.00037453980039033676 -0.0048940495759437026 0 0.00030033048457799559 -0.0049108274699270951 0 0.00034252786731245435 -0.0049918329320557909 0 0.00017856981955575031 -0.0047788654875144856 0 0.00018891575796079415 -0.0047450070671928302 0 0.00013672898784445058 -0.0047480897946711878 0 0.00022308205843809306 -0.0048083539628179265 0 0.00013243757686800172 -0.0046659798668430615 0 0.00018891575796079415 -0.0047450070671928302 0 0.00013672898784445058 -0.0047480897946711878 0 0.0001642610653344963 -0.0047080451296715523 0 0.00022308205843809306 -0.0048083539628179265 0 0.00016745787688510848 -0.0048794267503264824 0 0.00016514357613029769 -0.0046027231569020031 0 0.00015234436955071764 -0.0046058209639775732 0 0.00016277736156573291 -0.0046130580761846087 0 0.00017360412114895971 -0.0046137635938462282 0 0.00016514357613029769 -0.0046027231569020031 0 0.00016277736156573291 -0.0046130580761846087 0 9.5781708658657184e-05 -0.0047179062146886679 0 0.00013672898784445058 -0.0047480897946711878 0 0.0001642610653344963 -0.0047080451296715523 0 0.00014720198089158477 -0.0046695743192599693 0 0.00010961261153276389 -0.0046737519670330355 0 0.00014720198089158477 -0.0046695743192599693 0 0.00013243757686800172 -0.0046659798668430615 0 0.00016295482598695891 -0.0046193547625427225 0 0.00011790249123083257 -0.0046256738012776443 0 0.00013615112803788985 -0.0046528155908597772 0 0.00011896727165514624 -0.00482153299530815 0 9.3577415323833216e-05 -0.0047832022073896205 0 0.00013218687267220862 -0.004777742383605954 0 0.00016745787688510848 -0.0048794267503264824 0 0.00010961261153276389 -0.0046737519670330355 0 0.00010961261153276389 -0.0046737519670330355 0 5.9716343951733843e-05 -0.0048286124802559734 0 7.5474806426658364e-05 -0.0045638895133885493 0 5.9124439726858595e-05 -0.0046270182109279107 0 0.00011568208108272915 -0.0046246433014815319 0 7.5474806426658364e-05 -0.0045638895133885493 0 5.9124439726858595e-05 -0.0046270182109279107 0 2.267582730587815e-05 -0.0045711409629254395 0 0.00010961261153276389 -0.0046737519670330355 0 0.00011914767001119803 -0.0046265340987471657 0 7.8739371508641239e-05 -0.0049853988735790522 0 0.00013303606278538145 -0.0049727365642209774 0 0.00011104465316099166 -0.0050111342648065027 0 0.00013303606278538145 -0.0049727365642209774 0 0.00011104465316099166 -0.0050111342648065027 0 0.00017047817853916054 -0.0050030244452665216 0 3.1275885688941128e-05 -0.0049989020859887547 0 5.9716343951733843e-05 -0.0048286124802559734 0 0.00013303606278538145 -0.0049727365642209774 0 0.00016242595306951472 -0.0049761327091270725 0 0.00017047817853916054 -0.0050030244452665216 0 0.00018404359084088864 -0.0049630352537897195 0 0.00016242595306951472 -0.0049761327091270725 0 0.00017047817853916054 -0.0050030244452665216 0 0.00016745787688510848 -0.0048794267503264824 0 5.9716343951733843e-05 -0.0048286124802559734 0 5.9124439726858595e-05 -0.0046270182109279107 0 2.267582730587815e-05 -0.0045711409629254395 0 -9.4176805432457208e-06 -0.0046536926066399337 0 5.9716343951733843e-05 -0.0048286124802559734 0 -5.2373800017067487e-05 -0.0047722182591812086 0 -3.3270922523933958e-05 -0.0049602357554993787 0 -9.5282423230447271e-05 -0.0049686056801635974 0 -8.0869064829054506e-05 -0.0049091528405628788 0 -1.4368050456092474e-05 -0.0049228662612150259 0 -3.3270922523933958e-05 -0.0049602357554993787 0 -8.0869064829054506e-05 -0.0049091528405628788 0 -1.4368050456092474e-05 -0.0049228662612150259 0 -3.5020189199696993e-05 -0.0048709211236955541 0 -8.0869064829054506e-05 -0.0049091528405628788 0 -3.5020189199696993e-05 -0.0048709211236955541 0 -8.0869064829054506e-05 -0.0049091528405628788 0 -4.2294294680006727e-05 -0.0047832785218977995 0 -9.4176805432457208e-06 -0.0046536926066399337 0 -1.8837500673565198e-05 -0.0047554087024990728 0 4.6648626057070278e-05 -0.0046895311091895726 0 5.9124439726858595e-05 -0.0046270182109279107 0 -9.4176805432457208e-06 -0.0046536926066399337 0 4.6648626057070278e-05 -0.0046895311091895726 0 -5.2373800017067487e-05 -0.0047722182591812086 0 -4.1800324560664016e-05 -0.0047855878924971248 0 -1.8837500673565198e-05 -0.0047554087024990728 0 5.5514347221726934e-05 -0.0046283149465549461 0 1.4348104609369341e-06 -0.0047255899883607826 0 -9.4176805432457208e-06 -0.0046536926066399337 0 -1.8837500673565198e-05 -0.0047554087024990728 0 -4.2294294680006727e-05 -0.0047832785218977995 0 -1.8837500673565198e-05 -0.0047554087024990728 0 -2.3470948880711642e-05 -0.0047651662783310938 0 1.4348104609369341e-06 -0.0047255899883607826 0 -1.8837500673565198e-05 -0.0047554087024990728 0 -2.3470948880711642e-05 -0.0047651662783310938 0 -4.2294294680006727e-05 -0.0047832785218977995 0 -2.3470948880711642e-05 -0.0047651662783310938 0 -4.2294294680006727e-05 -0.0047832785218977995 0 -3.0305165142135568e-05 -0.0047843080069649791 0 -4.2294294680006727e-05 -0.0047832785218977995 0 -2.6576756445687611e-05 -0.0048103058653485506 0 -2.9083555315564151e-05 -0.0048265577564462351 0 -4.2294294680006727e-05 -0.0047832785218977995 0 -2.6576756445687611e-05 -0.0048103058653485506 0 -3.0305165142135568e-05 -0.0047843080069649791 0 -2.6576756445687611e-05 -0.0048103058653485506 0 -1.8730494414961963e-05 -0.0048280252179429221 0 -1.5343168517518393e-05 -0.0048477435341902284 0 -2.6576756445687611e-05 -0.0048103058653485506 0 -2.9083555315564151e-05 -0.0048265577564462351 0 -1.5343168517518393e-05 -0.0048477435341902284 0 -3.5020189199696993e-05 -0.0048709211236955541 0 -2.9083555315564151e-05 -0.0048265577564462351 0 -1.5343168517518393e-05 -0.0048477435341902284 0 -3.5020189199696993e-05 -0.0048709211236955541 0 -4.2294294680006727e-05 -0.0047832785218977995 0 -2.9083555315564151e-05 -0.0048265577564462351 0 0.00015038317683879366 -0.0046796592043589838 0 0.00011568208108272915 -0.0046246433014815319 0 0.00010088475412700264 -0.0046811615475091444 0 0.00015148415184262714 -0.0046803292258298839 0 0.00011914767001119803 -0.0046265340987471657 0 0.00015038317683879366 -0.0046796592043589838 0 0.00010088475412700264 -0.0046811615475091444 0 0.00013435335049008981 -0.004705986021248507 0 5.9124439726858595e-05 -0.0046270182109279107 0 0.00011568208108272915 -0.0046246433014815319 0 0.00010088475412700264 -0.0046811615475091444 0 5.9124439726858595e-05 -0.0046270182109279107 0 0.00010088475412700264 -0.0046811615475091444 0 4.6648626057070278e-05 -0.0046895311091895726 0 0.00010088475412700264 -0.0046811615475091444 0 4.6648626057070278e-05 -0.0046895311091895726 0 8.6405445956451966e-05 -0.0047411733509159833 0 -7.8387116822080082e-06 -0.0047402694407486625 0 7.9649247623755467e-05 -0.0046871960263696272 0 -1.8837500673565198e-05 -0.0047554087024990728 0 4.6648626057070278e-05 -0.0046895311091895726 0 8.6405445956451966e-05 -0.0047411733509159833 0 0.00015805565936662759 -0.0047235414963887846 0 8.6405445956451966e-05 -0.0047411733509159833 0 0.00013435335049008981 -0.004705986021248507 0 0.0001839427100513619 -0.0046016157417779844 0 7.9649247623755467e-05 -0.0046871960263696272 0 0.00010088475412700264 -0.0046811615475091444 0 8.6405445956451966e-05 -0.0047411733509159833 0 0.00013435335049008981 -0.004705986021248507 0 0.00021952876215694227 -0.0044959005349267016 0 0.00022082703217912164 -0.0044885057103537457 0 5.5514347221726934e-05 -0.0046283149465549461 0 0.00021952876215694227 -0.0044959005349267016 0 5.5514347221726934e-05 -0.0046283149465549461 0 0.00010825358981905553 -0.0046265883942172214 0 0.00021952876215694227 -0.0044959005349267016 0 0.00010825358981905553 -0.0046265883942172214 0 0.00016104126560429006 -0.0046737782335898714 0 0.00010825358981905553 -0.0046265883942172214 0 7.4268338593093817e-05 -0.0046952631132505902 0 0.00011338403523539271 -0.004713020626323631 0 5.5514347221726934e-05 -0.0046283149465549461 0 3.7618154634758596e-05 -0.0046916733037350366 0 1.4348104609369341e-06 -0.0047255899883607826 0 0.00010825358981905553 -0.0046265883942172214 0 3.7618154634758596e-05 -0.0046916733037350366 0 7.4268338593093817e-05 -0.0046952631132505902 0 3.7618154634758596e-05 -0.0046916733037350366 0 4.4229912005099255e-05 -0.0047296840973516281 0 7.4268338593093817e-05 -0.0046952631132505902 0 5.5514347221726934e-05 -0.0046283149465549461 0 0.00010825358981905553 -0.0046265883942172214 0 3.7618154634758596e-05 -0.0046916733037350366 0 3.7618154634758596e-05 -0.0046916733037350366 0 4.4229912005099255e-05 -0.0047296840973516281 0 4.1861072631714793e-07 -0.0047425996240218014 0 4.4229912005099255e-05 -0.0047296840973516281 0 7.443995039306001e-05 -0.0047461191774677194 0 3.8624770224221332e-05 -0.0047813022911772553 0 4.4229912005099255e-05 -0.0047296840973516281 0 1.4166321143769268e-05 -0.0047558075907291938 0 3.8624770224221332e-05 -0.0047813022911772553 0 4.4229912005099255e-05 -0.0047296840973516281 0 7.443995039306001e-05 -0.0047461191774677194 0 7.4268338593093817e-05 -0.0046952631132505902 0 7.443995039306001e-05 -0.0047461191774677194 0 7.4268338593093817e-05 -0.0046952631132505902 0 0.00011338403523539271 -0.004713020626323631 0 7.443995039306001e-05 -0.0047461191774677194 0 0.00011338403523539271 -0.004713020626323631 0 9.7695911215747529e-05 -0.0047805745021509746 0 0.00011338403523539271 -0.004713020626323631 0 0.00015275742104023488 -0.0047458751965247497 0 9.7695911215747529e-05 -0.0047805745021509746 0 0.00011338403523539271 -0.004713020626323631 0 0.00015275742104023488 -0.0047458751965247497 0 0.00016104126560429006 -0.0046737782335898714 0 0.00010825358981905553 -0.0046265883942172214 0 0.00011338403523539271 -0.004713020626323631 0 0.00016104126560429006 -0.0046737782335898714 0 -1.7301599484864937e-05 -0.0047724947414152065 0 -2.3627640559658785e-05 -0.0047883088439633452 0 -2.1874355266561515e-05 -0.0047684999813640463 0 -1.7301599484864937e-05 -0.0047724947414152065 0 -2.3627640559658785e-05 -0.0047883088439633452 0 -2.0451326735554114e-05 -0.004786701092034361 0 -2.3627640559658785e-05 -0.0047883088439633452 0 -2.3115317080698576e-05 -0.0048100453881152081 0 -2.6150376184207498e-05 -0.0047977063290492849 0 -2.3627640559658785e-05 -0.0047883088439633452 0 -2.3115317080698576e-05 -0.0048100453881152081 0 -2.3802992339115448e-05 -0.0047990765954565966 0 -2.3115317080698576e-05 -0.0048100453881152081 0 -2.6150376184207498e-05 -0.0047977063290492849 0 -1.8730494414961963e-05 -0.0048280252179429221 0 -2.6576756445687611e-05 -0.0048103058653485506 0 -2.6150376184207498e-05 -0.0047977063290492849 0 -1.8730494414961963e-05 -0.0048280252179429221 0 -2.3627640559658785e-05 -0.0047883088439633452 0 -2.6150376184207498e-05 -0.0047977063290492849 0 -2.1874355266561515e-05 -0.0047684999813640463 0 -2.6576756445687611e-05 -0.0048103058653485506 0 -2.6150376184207498e-05 -0.0047977063290492849 0 -3.0305165142135568e-05 -0.0047843080069649791 0 -2.6150376184207498e-05 -0.0047977063290492849 0 -3.0305165142135568e-05 -0.0047843080069649791 0 -2.1874355266561515e-05 -0.0047684999813640463 0 -2.3470948880711642e-05 -0.0047651662783310938 0 -3.0305165142135568e-05 -0.0047843080069649791 0 -2.1874355266561515e-05 -0.0047684999813640463 0 -2.3470948880711642e-05 -0.0047651662783310938 0 -2.1874355266561515e-05 -0.0047684999813640463 0 1.4348104609369341e-06 -0.0047255899883607826 0 -2.1874355266561515e-05 -0.0047684999813640463 0 1.4348104609369341e-06 -0.0047255899883607826 0 4.1861072631714793e-07 -0.0047425996240218014 0 3.7618154634758596e-05 -0.0046916733037350366 0 1.4348104609369341e-06 -0.0047255899883607826 0 4.1861072631714793e-07 -0.0047425996240218014 0 -1.7301599484864937e-05 -0.0047724947414152065 0 -2.1874355266561515e-05 -0.0047684999813640463 0 4.1861072631714793e-07 -0.0047425996240218014 0 -1.7301599484864937e-05 -0.0047724947414152065 0 4.1861072631714793e-07 -0.0047425996240218014 0 -8.9563430997822162e-06 -0.0047745719946783033 0 4.1861072631714793e-07 -0.0047425996240218014 0 -8.9563430997822162e-06 -0.0047745719946783033 0 1.4166321143769268e-05 -0.0047558075907291938 0 4.4229912005099255e-05 -0.0047296840973516281 0 4.1861072631714793e-07 -0.0047425996240218014 0 1.4166321143769268e-05 -0.0047558075907291938 0 1.4166321143769268e-05 -0.0047558075907291938 0 4.7979113407179641e-06 -0.0047810285632492759 0 3.8624770224221332e-05 -0.0047813022911772553 0 -8.9563430997822162e-06 -0.0047745719946783033 0 1.4166321143769268e-05 -0.0047558075907291938 0 4.7979113407179641e-06 -0.0047810285632492759 0 -8.9563430997822162e-06 -0.0047745719946783033 0 4.7979113407179641e-06 -0.0047810285632492759 0 -9.2920263944644917e-06 -0.004789560562466255 0 -9.2920263944644917e-06 -0.004789560562466255 0 -1.8192584473718018e-05 -0.0047970282665999583 0 -1.2229269782596947e-05 -0.004798974647002666 0 -9.2920263944644917e-06 -0.004789560562466255 0 -1.8192584473718018e-05 -0.0047970282665999583 0 -1.6837880258253067e-05 -0.0047898714864343227 0 -1.8192584473718018e-05 -0.0047970282665999583 0 -1.6837880258253067e-05 -0.0047898714864343227 0 -2.2478325991102755e-05 -0.0047972805741043987 0 -8.9563430997822162e-06 -0.0047745719946783033 0 -9.2920263944644917e-06 -0.004789560562466255 0 -1.6837880258253067e-05 -0.0047898714864343227 0 -8.9563430997822162e-06 -0.0047745719946783033 0 -1.6837880258253067e-05 -0.0047898714864343227 0 -2.0451326735554114e-05 -0.004786701092034361 0 -1.7301599484864937e-05 -0.0047724947414152065 0 -8.9563430997822162e-06 -0.0047745719946783033 0 -2.0451326735554114e-05 -0.004786701092034361 0 -1.6837880258253067e-05 -0.0047898714864343227 0 -2.0451326735554114e-05 -0.004786701092034361 0 -2.2478325991102755e-05 -0.0047972805741043987 0 -2.0451326735554114e-05 -0.004786701092034361 0 -2.3802992339115448e-05 -0.0047990765954565966 0 -2.2478325991102755e-05 -0.0047972805741043987 0 -2.3802992339115448e-05 -0.0047990765954565966 0 -2.2478325991102755e-05 -0.0047972805741043987 0 -2.3781381684362998e-05 -0.0048045629559756615 0 -2.3627640559658785e-05 -0.0047883088439633452 0 -2.0451326735554114e-05 -0.004786701092034361 0 -2.3802992339115448e-05 -0.0047990765954565966 0 -2.2478325991102755e-05 -0.0047972805741043987 0 -2.3810866615486448e-05 -0.0048031440498820044 0 -2.3781381684362998e-05 -0.0048045629559756615 0 -1.8192584473718018e-05 -0.0047970282665999583 0 -2.2478325991102755e-05 -0.0047972805741043987 0 -2.2050302563642889e-05 -0.0048021886424061914 0 -2.2478325991102755e-05 -0.0047972805741043987 0 -2.3810866615486448e-05 -0.0048031440498820044 0 -2.2050302563642889e-05 -0.0048021886424061914 0 -2.3810866615486448e-05 -0.0048031440498820044 0 -2.3793860893533023e-05 -0.0048052733089534866 0 -2.4337489402341902e-05 -0.0048057226091388862 0 -2.3810866615486448e-05 -0.0048031440498820044 0 -2.3793860893533023e-05 -0.0048052733089534866 0 -2.2050302563642889e-05 -0.0048021886424061914 0 -2.3810866615486448e-05 -0.0048031440498820044 0 -2.3206577592609538e-05 -0.0048071791147158861 0 -2.3781381684362998e-05 -0.0048045629559756615 0 -2.3206577592609538e-05 -0.0048071791147158861 0 -1.9792177711760339e-05 -0.0048122005929138144 0 -2.4337489402341902e-05 -0.0048057226091388862 0 -2.3810866615486448e-05 -0.0048031440498820044 0 -2.3206577592609538e-05 -0.0048071791147158861 0 -2.4337489402341902e-05 -0.0048057226091388862 0 -1.9792177711760339e-05 -0.0048122005929138144 0 -1.5945625542541117e-05 -0.0048104878185263947 0 -1.1756872325179009e-05 -0.004823916489037741 0 -2.2089066475951654e-05 -0.0048077880890218649 0 -1.9792177711760339e-05 -0.0048122005929138144 0 -2.4337489402341902e-05 -0.0048057226091388862 0 -2.2089066475951654e-05 -0.0048077880890218649 0 -1.9792177711760339e-05 -0.0048122005929138144 0 -1.5945625542541117e-05 -0.0048104878185263947 0 -1.9792177711760339e-05 -0.0048122005929138144 0 -2.1870508477857481e-05 -0.0048159826245003897 0 -1.1756872325179009e-05 -0.004823916489037741 0 -2.1870508477857481e-05 -0.0048159826245003897 0 -1.1756872325179009e-05 -0.004823916489037741 0 -5.6953668271256554e-06 -0.0048578381315580307 0 -2.3802992339115448e-05 -0.0047990765954565966 0 -2.1870508477857481e-05 -0.0048159826245003897 0 -2.3781381684362998e-05 -0.0048045629559756615 0 -2.3206577592609538e-05 -0.0048071791147158861 0 -1.9792177711760339e-05 -0.0048122005929138144 0 -2.1870508477857481e-05 -0.0048159826245003897 0 -2.3206577592609538e-05 -0.0048071791147158861 0 -2.1870508477857481e-05 -0.0048159826245003897 0 -2.3781381684362998e-05 -0.0048045629559756615 0 3.8480358273799677e-05 -0.0049741934861056792 0 2.4500808196085365e-05 -0.0049880589825420599 0 4.222149166601947e-05 -0.0049980317592128263 0 -1.5945625542541117e-05 -0.0048104878185263947 0 1.2708449430470217e-05 -0.0048245637378074996 0 -1.7436246330401444e-05 -0.0048011614485530384 0 2.2150002320441866e-05 -0.004900394894171268 0 -5.4458219820314308e-06 -0.0049162649936627086 0 -1.5945625542541117e-05 -0.0048104878185263947 0 -1.1756872325179009e-05 -0.004823916489037741 0 1.2708449430470217e-05 -0.0048245637378074996 0 -1.1756872325179009e-05 -0.004823916489037741 0 1.2708449430470217e-05 -0.0048245637378074996 0 -5.6953668271256554e-06 -0.0048578381315580307 0 2.5919020482874877e-05 -0.0049218423201785894 0 -5.6953668271256554e-06 -0.0048578381315580307 0 -5.9799434635669411e-07 -0.0048759931847274568 0 1.2708449430470217e-05 -0.0048245637378074996 0 2.5919020482874877e-05 -0.0049218423201785894 0 -5.6953668271256554e-06 -0.0048578381315580307 0 2.2150002320441866e-05 -0.004900394894171268 0 2.659437689439871e-05 -0.0049166597257842039 0 -2.3115317080698576e-05 -0.0048100453881152081 0 -2.1870508477857481e-05 -0.0048159826245003897 0 -1.4678296187030877e-05 -0.0048373565069265226 0 -2.3115317080698576e-05 -0.0048100453881152081 0 -2.3802992339115448e-05 -0.0047990765954565966 0 -2.1870508477857481e-05 -0.0048159826245003897 0 -2.1870508477857481e-05 -0.0048159826245003897 0 -5.6953668271256554e-06 -0.0048578381315580307 0 -1.4678296187030877e-05 -0.0048373565069265226 0 -5.6953668271256554e-06 -0.0048578381315580307 0 -1.4678296187030877e-05 -0.0048373565069265226 0 -5.9799434635669411e-07 -0.0048759931847274568 0 -1.8730494414961963e-05 -0.0048280252179429221 0 -1.4678296187030877e-05 -0.0048373565069265226 0 -5.9799434635669411e-07 -0.0048759931847274568 0 -2.3115317080698576e-05 -0.0048100453881152081 0 -1.8730494414961963e-05 -0.0048280252179429221 0 -1.4678296187030877e-05 -0.0048373565069265226 0 -3.5020189199696993e-05 -0.0048709211236955541 0 -1.5343168517518393e-05 -0.0048477435341902284 0 -6.3263019216496308e-07 -0.0048922871735589506 0 -1.8730494414961963e-05 -0.0048280252179429221 0 -1.5343168517518393e-05 -0.0048477435341902284 0 -5.9799434635669411e-07 -0.0048759931847274568 0 -1.5343168517518393e-05 -0.0048477435341902284 0 -5.9799434635669411e-07 -0.0048759931847274568 0 -6.3263019216496308e-07 -0.0048922871735589506 0 -5.9799434635669411e-07 -0.0048759931847274568 0 1.7013203389553349e-05 -0.0049197595850936672 0 -6.3263019216496308e-07 -0.0048922871735589506 0 2.5919020482874877e-05 -0.0049218423201785894 0 -5.9799434635669411e-07 -0.0048759931847274568 0 1.7013203389553349e-05 -0.0049197595850936672 0 1.7013203389553349e-05 -0.0049197595850936672 0 1.3580520022539683e-05 -0.0049339390921180754 0 -6.3263019216496308e-07 -0.0048922871735589506 0 1.7013203389553349e-05 -0.0049197595850936672 0 1.3580520022539683e-05 -0.0049339390921180754 0 1.5699670827498209e-05 -0.0049488884780274486 0 -1.4368050456092474e-05 -0.0049228662612150259 0 -3.5020189199696993e-05 -0.0048709211236955541 0 -6.3263019216496308e-07 -0.0048922871735589506 0 -1.4368050456092474e-05 -0.0049228662612150259 0 1.3580520022539683e-05 -0.0049339390921180754 0 -6.3263019216496308e-07 -0.0048922871735589506 0 8.1451153871847735e-09 -0.0049999325864452816 0 9.2656347435526663e-06 -0.00497494270916078 0 1.7177649843144061e-08 -0.0049999400518287215 0 9.2656347435526663e-06 -0.00497494270916078 0 1.5699670827498209e-05 -0.0049488884780274486 0 1.1500528250356941e-05 -0.0049591193884297464 0 1.6181949837416012e-05 -0.0049589041521142518 0 1.3580520022539683e-05 -0.0049339390921180754 0 1.5699670827498209e-05 -0.0049488884780274486 0 1.6181949837416012e-05 -0.0049589041521142518 0 9.2656347435526663e-06 -0.00497494270916078 0 1.5699670827498209e-05 -0.0049488884780274486 0 2.5919020482874877e-05 -0.0049218423201785894 0 1.7013203389553349e-05 -0.0049197595850936672 0 1.1500528250356941e-05 -0.0049591193884297464 0 1.7013203389553349e-05 -0.0049197595850936672 0 1.5699670827498209e-05 -0.0049488884780274486 0 1.1500528250356941e-05 -0.0049591193884297464 0 9.2656347435526663e-06 -0.00497494270916078 0 1.1500528250356941e-05 -0.0049591193884297464 0 1.7177649843144061e-08 -0.0049999400518287215 0 1.1500528250356941e-05 -0.0049591193884297464 0 1.7177649843144061e-08 -0.0049999400518287215 0 -1.3395003310009742e-08 -0.0049999567812357183 0 1.1500528250356941e-05 -0.0049591193884297464 0 1.0379115783260143e-05 -0.0049766235459097682 0 -1.3395003310009742e-08 -0.0049999567812357183 0 3.8480358273799677e-05 -0.0049741934861056792 0 2.5919020482874877e-05 -0.0049218423201785894 0 1.0379115783260143e-05 -0.0049766235459097682 0 2.5919020482874877e-05 -0.0049218423201785894 0 1.1500528250356941e-05 -0.0049591193884297464 0 1.0379115783260143e-05 -0.0049766235459097682 0 3.8480358273799677e-05 -0.0049741934861056792 0 1.0379115783260143e-05 -0.0049766235459097682 0 2.4500808196085365e-05 -0.0049880589825420599 0 1.0379115783260143e-05 -0.0049766235459097682 0 2.4500808196085365e-05 -0.0049880589825420599 0 1.0139656733638214e-05 -0.00499915695512232 0 1.0379115783260143e-05 -0.0049766235459097682 0 -1.3395003310009742e-08 -0.0049999567812357183 0 1.0139656733638214e-05 -0.00499915695512232 0 6.9973246433038603e-09 -0.0049999781392682519 0 1.2166912781597166e-06 -0.0049941995604561688 0 9.6896196399320197e-07 -0.0049982335480347273 0 -1.3395003310009742e-08 -0.0049999567812357183 0 1.5108697514764513e-08 -0.005000027717944425 0 1.0139656733638214e-05 -0.00499915695512232 0 1.9373176683306815e-09 -0.0049999970192820386 0 7.3590172414201219e-06 -0.0050028902229238194 0 2.4500808196085365e-05 -0.0049880589825420599 0 1.0139656733638214e-05 -0.00499915695512232 0 4.222149166601947e-05 -0.0049980317592128263 0 1.2166912781597166e-06 -0.0049941995604561688 0 -2.6236682357228525e-06 -0.0049849866748782083 0 -8.0926560955619463e-06 -0.0049916187237419637 0 1.2166912781597166e-06 -0.0049941995604561688 0 -2.6236682357228525e-06 -0.0049849866748782083 0 -3.2241768636106825e-07 -0.0049870327001369716 0 -3.2241768636106825e-07 -0.0049870327001369716 0 9.6896196399320197e-07 -0.0049982335480347273 0 -1.6764982345109454e-06 -0.0049747213807508992 0 -2.6236682357228525e-06 -0.0049849866748782083 0 -1.7081174923211084e-06 -0.0049797178999613102 0 -3.2241768636106825e-07 -0.0049870327001369716 0 -2.6236682357228525e-06 -0.0049849866748782083 0 -1.7081174923211084e-06 -0.0049797178999613102 0 -2.5043432618406887e-06 -0.0049744135417021818 0 -1.2430307644706037e-06 -0.0049943369882169625 0 2.0014057533483207e-06 -0.0049930097018950894 0 6.9973246433038603e-09 -0.0049999781392682519 0 9.6896196399320197e-07 -0.0049982335480347273 0 -4.1640619585625526e-10 -0.0050000017424727634 0 1.2166912781597166e-06 -0.0049941995604561688 0 -3.2241768636106825e-07 -0.0049870327001369716 0 9.6896196399320197e-07 -0.0049982335480347273 0 -2.6266983389275839e-05 -0.0048196593716755744 0 -2.4767740801721576e-05 -0.0048128630001087348 0 -2.1160143811743046e-05 -0.0048167539316466453 0 -2.6266983389275839e-05 -0.0048196593716755744 0 -2.4767740801721576e-05 -0.0048128630001087348 0 -2.7136368525076926e-05 -0.0048127634242260851 0 -2.4767740801721576e-05 -0.0048128630001087348 0 -2.5157685226692099e-05 -0.004808278961554991 0 -2.7136368525076926e-05 -0.0048127634242260851 0 -2.4767740801721576e-05 -0.0048128630001087348 0 -2.2879396255937075e-05 -0.0048083870872724782 0 -2.1160143811743046e-05 -0.0048167539316466453 0 -2.2879396255937075e-05 -0.0048083870872724782 0 -2.3793860893533023e-05 -0.0048052733089534866 0 -2.5157685226692099e-05 -0.004808278961554991 0 -2.4767740801721576e-05 -0.0048128630001087348 0 -2.2879396255937075e-05 -0.0048083870872724782 0 -2.5157685226692099e-05 -0.004808278961554991 0 -2.3793860893533023e-05 -0.0048052733089534866 0 -2.4337489402341902e-05 -0.0048057226091388862 0 -2.5157685226692099e-05 -0.004808278961554991 0 -2.4337489402341902e-05 -0.0048057226091388862 0 -2.5157685226692099e-05 -0.004808278961554991 0 -2.4468175925678824e-05 -0.004806988409703671 0 -2.5157685226692099e-05 -0.004808278961554991 0 -2.5159295891431143e-05 -0.0048071707840763858 0 -2.7136368525076926e-05 -0.0048127634242260851 0 -2.5157685226692099e-05 -0.004808278961554991 0 -2.5159295891431143e-05 -0.0048071707840763858 0 -2.4468175925678824e-05 -0.004806988409703671 0 -2.2089066475951654e-05 -0.0048077880890218649 0 -2.4337489402341902e-05 -0.0048057226091388862 0 -2.4468175925678824e-05 -0.004806988409703671 0 -2.2089066475951654e-05 -0.0048077880890218649 0 -2.5159295891431143e-05 -0.0048071707840763858 0 -2.4468175925678824e-05 -0.004806988409703671 0 -2.2089066475951654e-05 -0.0048077880890218649 0 -2.5159295891431143e-05 -0.0048071707840763858 0 -2.2389754016882438e-05 -0.0048066505037810264 0 -2.2089066475951654e-05 -0.0048077880890218649 0 -1.5945625542541117e-05 -0.0048104878185263947 0 -2.2389754016882438e-05 -0.0048066505037810264 0 -2.5159295891431143e-05 -0.0048071707840763858 0 -2.2389754016882438e-05 -0.0048066505037810264 0 -2.4789820375543925e-05 -0.0048062472264075581 0 -2.5159295891431143e-05 -0.0048071707840763858 0 -2.4789820375543925e-05 -0.0048062472264075581 0 -2.7432571658240314e-05 -0.0048099320301954332 0 -2.5159295891431143e-05 -0.0048071707840763858 0 -2.7432571658240314e-05 -0.0048099320301954332 0 -2.7136368525076926e-05 -0.0048127634242260851 0 -2.6266983389275839e-05 -0.0048196593716755744 0 -2.7136368525076926e-05 -0.0048127634242260851 0 -3.2858436537262104e-05 -0.0048216002870202276 0 -2.7432571658240314e-05 -0.0048099320301954332 0 -2.7136368525076926e-05 -0.0048127634242260851 0 -3.2858436537262104e-05 -0.0048216002870202276 0 1.2166912781597166e-06 -0.0049941995604561688 0 -1.8768015439868365e-05 -0.0050037078881633975 0 -8.0926560955619463e-06 -0.0049916187237419637 0 7.3590172414201219e-06 -0.0050028902229238194 0 -5.4458219820314308e-06 -0.0049162649936627086 0 -2.7432571658240314e-05 -0.0048099320301954332 0 -2.9415268038006851e-05 -0.0048046541182472655 0 -3.2858436537262104e-05 -0.0048216002870202276 0 -2.4789820375543925e-05 -0.0048062472264075581 0 -2.7432571658240314e-05 -0.0048099320301954332 0 -2.4054482819353993e-05 -0.0048034171772087433 0 -2.7432571658240314e-05 -0.0048099320301954332 0 -2.4054482819353993e-05 -0.0048034171772087433 0 -2.9415268038006851e-05 -0.0048046541182472655 0 -1.5945625542541117e-05 -0.0048104878185263947 0 -2.4054482819353993e-05 -0.0048034171772087433 0 -1.7436246330401444e-05 -0.0048011614485530384 0 -6.3757258223745788e-06 -0.0049074954905834987 0 -5.4458219820314308e-06 -0.0049162649936627086 0 -2.2389754016882438e-05 -0.0048066505037810264 0 -2.4789820375543925e-05 -0.0048062472264075581 0 -2.4054482819353993e-05 -0.0048034171772087433 0 -1.5945625542541117e-05 -0.0048104878185263947 0 -2.2389754016882438e-05 -0.0048066505037810264 0 -2.4054482819353993e-05 -0.0048034171772087433 0 -1.8768015439868365e-05 -0.0050037078881633975 0 -8.0926560955619463e-06 -0.0049916187237419637 0 -1.4350752121950314e-05 -0.0049834459747739287 0 -5.4458219820314308e-06 -0.0049162649936627086 0 -3.9846683435545208e-05 -0.0049015461793214922 0 -1.8768015439868365e-05 -0.0050037078881633975 0 -1.4350752121950314e-05 -0.0049834459747739287 0 -3.6450817286561722e-05 -0.0049667631645870765 0 -2.6236682357228525e-06 -0.0049849866748782083 0 -8.0926560955619463e-06 -0.0049916187237419637 0 -1.4350752121950314e-05 -0.0049834459747739287 0 -1.4350752121950314e-05 -0.0049834459747739287 0 -2.5043432618406887e-06 -0.0049744135417021818 0 -1.8528264879684243e-05 -0.0049709713259385941 0 -2.6236682357228525e-06 -0.0049849866748782083 0 -1.4350752121950314e-05 -0.0049834459747739287 0 -2.5043432618406887e-06 -0.0049744135417021818 0 -1.4350752121950314e-05 -0.0049834459747739287 0 -1.8528264879684243e-05 -0.0049709713259385941 0 -3.6450817286561722e-05 -0.0049667631645870765 0 -2.9415268038006851e-05 -0.0048046541182472655 0 -3.2858436537262104e-05 -0.0048216002870202276 0 -4.3810479940205744e-05 -0.004841618380654931 0 -3.2858436537262104e-05 -0.0048216002870202276 0 -4.3810479940205744e-05 -0.004841618380654931 0 -2.5410227602912051e-05 -0.0048319319660105192 0 -2.5410227602912051e-05 -0.0048319319660105192 0 -2.9487464436062665e-05 -0.0048542014537165321 0 -1.975915425693852e-05 -0.0048494252551047621 0 -4.3810479940205744e-05 -0.004841618380654931 0 -2.5410227602912051e-05 -0.0048319319660105192 0 -2.9487464436062665e-05 -0.0048542014537165321 0 -2.6266983389275839e-05 -0.0048196593716755744 0 -3.2858436537262104e-05 -0.0048216002870202276 0 -2.5410227602912051e-05 -0.0048319319660105192 0 -2.6266983389275839e-05 -0.0048196593716755744 0 -2.5410227602912051e-05 -0.0048319319660105192 0 -2.1160143811743046e-05 -0.0048167539316466453 0 -4.3810479940205744e-05 -0.004841618380654931 0 -2.9487464436062665e-05 -0.0048542014537165321 0 -3.5357462305508525e-05 -0.0048962792277827977 0 -3.6450817286561722e-05 -0.0049667631645870765 0 -2.9869574193616633e-05 -0.004896863077079627 0 -3.5357462305508525e-05 -0.0048962792277827977 0 -3.9846683435545208e-05 -0.0049015461793214922 0 -3.5757839819386014e-05 -0.0049003234223266162 0 -2.9487464436062665e-05 -0.0048542014537165321 0 -3.5357462305508525e-05 -0.0048962792277827977 0 -2.2003871698872341e-05 -0.0048674890866816341 0 -2.5043432618406887e-06 -0.0049744135417021818 0 -1.8528264879684243e-05 -0.0049709713259385941 0 -2.9869574193616633e-05 -0.004896863077079627 0 -1.4772601913929113e-05 -0.0049606020183932962 0 2.0014057533483207e-06 -0.0049930097018950894 0 -5.3897436499110802e-06 -0.0049610713849254414 0 -1.4772601913929113e-05 -0.0049606020183932962 0 -1.8528264879684243e-05 -0.0049709713259385941 0 -3.6450817286561722e-05 -0.0049667631645870765 0 -2.9869574193616633e-05 -0.004896863077079627 0 -2.5043432618406887e-06 -0.0049744135417021818 0 -2.9528970632102714e-06 -0.004973816343550156 0 -1.6764982345109454e-06 -0.0049747213807508992 0 -3.3573906483826037e-06 -0.0049999958363258551 0 -4.163895561619738e-06 -0.0050000898259036693 0 3.696743854866627e-08 -0.0050005231779662578 0 -1.1532782905444021e-06 -0.0049999561442787945 0 -3.3573906483826037e-06 -0.0049999958363258551 0 3.696743854866627e-08 -0.0050005231779662578 0 -1.1532782905444021e-06 -0.0049999561442787945 0 -1.3778970343799896e-06 -0.0049994135072042685 0 -3.3573906483826037e-06 -0.0049999958363258551 0 -1.3778970343799896e-06 -0.0049994135072042685 0 -3.3573906483826037e-06 -0.0049999958363258551 0 -2.1500482907913577e-06 -0.0049989402539259518 0 -3.166794393072751e-06 -0.0049994814963983981 0 -2.8245178613771102e-06 -0.004995446748459754 0 -1.4772601913929113e-05 -0.0049606020183932962 0 -3.5258088230084988e-05 -0.0049262606080030793 0 -1.4772601913929113e-05 -0.0049606020183932962 0 -1.8043080949251944e-05 -0.0049744976602244528 0 -4.163895561619738e-06 -0.0050000898259036693 0 -1.3568750009918667e-05 -0.0049912131135082596 0 -6.6771458518164758e-06 -0.0049942265805636476 0 -2.9869574193616633e-05 -0.004896863077079627 0 -3.5357462305508525e-05 -0.0048962792277827977 0 -2.3834390098273805e-05 -0.004903048355780512 0 -1.9744921019607487e-05 -0.0049695854422491604 0 -3.1661916259015384e-05 -0.0049542001179873089 0 -3.693585688537182e-05 -0.0049589294720726353 0 -3.3573906483826037e-06 -0.0049999958363258551 0 -4.163895561619738e-06 -0.0050000898259036693 0 -6.6771458518164758e-06 -0.0049942265805636476 0 -3.3573906483826037e-06 -0.0049999958363258551 0 -2.3542991206280773e-06 -0.0049918100925055364 0 -6.6771458518164758e-06 -0.0049942265805636476 0 -4.1640619585625526e-10 -0.0050000017424727634 0 3.696743854866627e-08 -0.0050005231779662578 0 -8.5018161356298893e-08 -0.005000107335080513 0 9.6896196399320197e-07 -0.0049982335480347273 0 -4.1640619585625526e-10 -0.0050000017424727634 0 3.696743854866627e-08 -0.0050005231779662578 0 -1.7081174923211084e-06 -0.0049797178999613102 0 -3.2241768636106825e-07 -0.0049870327001369716 0 -1.6764982345109454e-06 -0.0049747213807508992 0 -1.7081174923211084e-06 -0.0049797178999613102 0 -2.5043432618406887e-06 -0.0049744135417021818 0 -1.6764982345109454e-06 -0.0049747213807508992 0 -1.1532782905444021e-06 -0.0049999561442787945 0 3.696743854866627e-08 -0.0050005231779662578 0 -4.2539080329905343e-07 -0.0050001038372268942 0 3.696743854866627e-08 -0.0050005231779662578 0 -4.2539080329905343e-07 -0.0050001038372268942 0 -8.5018161356298893e-08 -0.005000107335080513 0 -4.2539080329905343e-07 -0.0050001038372268942 0 -6.2042852385435845e-07 -0.0049997556024287231 0 -8.5018161356298893e-08 -0.005000107335080513 0 -1.1532782905444021e-06 -0.0049999561442787945 0 -4.2539080329905343e-07 -0.0050001038372268942 0 -6.2042852385435845e-07 -0.0049997556024287231 0 -1.1532782905444021e-06 -0.0049999561442787945 0 -1.3778970343799896e-06 -0.0049994135072042685 0 -6.2042852385435845e-07 -0.0049997556024287231 0 -6.2042852385435845e-07 -0.0049997556024287231 0 -8.5018161356298893e-08 -0.005000107335080513 0 -2.4810415245933546e-07 -0.0049998242421112954 0 -8.5018161356298893e-08 -0.005000107335080513 0 5.6893087939973024e-11 -0.0049999991763534507 0 -2.4810415245933546e-07 -0.0049998242421112954 0 -4.1640619585625526e-10 -0.0050000017424727634 0 -8.5018161356298893e-08 -0.005000107335080513 0 5.6893087939973024e-11 -0.0049999991763534507 0 5.6893087939973024e-11 -0.0049999991763534507 0 -2.4810415245933546e-07 -0.0049998242421112954 0 -4.3728378070019704e-07 -0.0049993483416244863 0 7.2295933543444982e-10 -0.0049999991038194996 0 -1.621943040298331e-07 -0.0050002293986423328 0 5.6893087939973024e-11 -0.0049999991763534507 0 -2.4113108860044475e-10 -0.0049999994509888042 0 -4.3728378070019704e-07 -0.0049993483416244863 0 1.2603001235069876e-08 -0.0049999941105549773 0 8.7557019680657762e-07 -0.0049993754014510637 0 8.2094857930992214e-07 -0.0049968808609976859 0 8.7557019680657762e-07 -0.0049993754014510637 0 -1.2596041622205949e-06 -0.0050000363902924783 0 8.2094857930992214e-07 -0.0049968808609976859 0 -6.2042852385435845e-07 -0.0049997556024287231 0 -2.4810415245933546e-07 -0.0049998242421112954 0 -4.3728378070019704e-07 -0.0049993483416244863 0 -1.3778970343799896e-06 -0.0049994135072042685 0 -6.2042852385435845e-07 -0.0049997556024287231 0 -4.3728378070019704e-07 -0.0049993483416244863 0 -1.621943040298331e-07 -0.0050002293986423328 0 -2.8245178613771102e-06 -0.004995446748459754 0 -1.3778970343799896e-06 -0.0049994135072042685 0 -4.3728378070019704e-07 -0.0049993483416244863 0 -2.1500482907913577e-06 -0.0049989402539259518 0 8.7557019680657762e-07 -0.0049993754014510637 0 -3.1931999993370703e-06 -0.0050031176742346781 0 -1.2596041622205949e-06 -0.0050000363902924783 0 -2.8245178613771102e-06 -0.004995446748459754 0 -1.4880645601034624e-05 -0.0050047777447630266 0 -3.1931999993370703e-06 -0.0050031176742346781 0 -1.2596041622205949e-06 -0.0050000363902924783 0 -3.1291960982421202e-06 -0.0050001702803404097 0 -1.8094114900352812e-06 -0.00499147340745706 0 -7.4030776223481863e-06 -0.0049876769336975046 0 -2.888769862622684e-07 -0.0049815782420663838 0 -1.3568750009918667e-05 -0.0049912131135082596 0 -6.6771458518164758e-06 -0.0049942265805636476 0 -7.4030776223481863e-06 -0.0049876769336975046 0 -2.8245178613771102e-06 -0.004995446748459754 0 -4.5340960401818016e-06 -0.0049945537424266623 0 -1.8094114900352812e-06 -0.00499147340745706 0 -6.6771458518164758e-06 -0.0049942265805636476 0 -7.4030776223481863e-06 -0.0049876769336975046 0 -1.3568750009918667e-05 -0.0049912131135082596 0 -7.4030776223481863e-06 -0.0049876769336975046 0 -1.1096949074292021e-05 -0.0049806721970166645 0 -6.5183033915983577e-05 -0.0050274018770783743 0 -2.1603848139738711e-05 -0.0050289735256163082 0 -5.2506254856973187e-05 -0.0049920373629798584 0 -3.5070712577152511e-05 -0.0050040218701601601 0 -1.4880645601034624e-05 -0.0050047777447630266 0 -7.4030776223481863e-06 -0.0049876769336975046 0 -1.1096949074292021e-05 -0.0049806721970166645 0 -2.888769862622684e-07 -0.0049815782420663838 0 -6.5183033915983577e-05 -0.0050274018770783743 0 -5.2506254856973187e-05 -0.0049920373629798584 0 -9.369277736107011e-05 -0.0049913334545396105 0 -1.2596041622205949e-06 -0.0050000363902924783 0 -3.1291960982421202e-06 -0.0050001702803404097 0 8.2094857930992214e-07 -0.0049968808609976859 0 -2.1603848139738711e-05 -0.0050289735256163082 0 -5.2506254856973187e-05 -0.0049920373629798584 0 -1.0887436225498851e-05 -0.0049613268048634262 0 -3.1291960982421202e-06 -0.0050001702803404097 0 -5.4445857196445911e-06 -0.0049896849542663702 0 8.2094857930992214e-07 -0.0049968808609976859 0 -1.4880645601034624e-05 -0.0050047777447630266 0 -6.5635569083561792e-06 -0.0049766880571663575 0 -5.2506254856973187e-05 -0.0049920373629798584 0 -7.3329342437211537e-05 -0.0049523514000437488 0 -1.0887436225498851e-05 -0.0049613268048634262 0 -5.2506254856973187e-05 -0.0049920373629798584 0 -7.3329342437211537e-05 -0.0049523514000437488 0 -9.369277736107011e-05 -0.0049913334545396105 0 -7.3329342437211537e-05 -0.0049523514000437488 0 -1.0887436225498851e-05 -0.0049613268048634262 0 -3.5494637797066886e-05 -0.0049269753643080387 0 -7.3329342437211537e-05 -0.0049523514000437488 0 -3.5494637797066886e-05 -0.0049269753643080387 0 -8.3896624375893704e-05 -0.0049129061570383518 0 -6.5635569083561792e-06 -0.0049766880571663575 0 6.7918173135876083e-06 -0.0049294519648738306 0 -1.0887436225498851e-05 -0.0049613268048634262 0 9.1768298443217567e-06 -0.0049283146715759455 0 -3.5494637797066886e-05 -0.0049269753643080387 0 -5.4445857196445911e-06 -0.0049896849542663702 0 2.0257575160342519e-05 -0.004972815991008352 0 9.1768298443217567e-06 -0.0049283146715759455 0 -5.4445857196445911e-06 -0.0049896849542663702 0 7.3679701830196922e-06 -0.0049930677691822295 0 2.0257575160342519e-05 -0.004972815991008352 0 8.6563457458956258e-09 -0.0049999798472537549 0 7.3679701830196922e-06 -0.0049930677691822295 0 2.0257575160342519e-05 -0.004972815991008352 0 1.2603001235069876e-08 -0.0049999941105549773 0 7.3679701830196922e-06 -0.0049930677691822295 0 8.2094857930992214e-07 -0.0049968808609976859 0 1.2603001235069876e-08 -0.0049999941105549773 0 8.6563457458956258e-09 -0.0049999798472537549 0 7.3679701830196922e-06 -0.0049930677691822295 0 -5.4445857196445911e-06 -0.0049896849542663702 0 7.3679701830196922e-06 -0.0049930677691822295 0 8.2094857930992214e-07 -0.0049968808609976859 0 -0.00021000284096415044 -0.0049751121118644468 0 -0.00023015229306455552 -0.0049585266563161997 0 -0.00021138307261823569 -0.0050118792648205287 0 -0.00023075113745858403 -0.00493037541319267 0 -0.00011168202237340911 -0.0048643988732325174 0 -0.00020157577178000965 -0.0049482302006232798 0 -0.00019641126150421822 -0.0049809681174918961 0 -0.00021000284096415044 -0.0049751121118644468 0 -0.00020157577178000965 -0.0049482302006232798 0 -0.00021000284096415044 -0.0049751121118644468 0 -0.00023015229306455552 -0.0049585266563161997 0 -0.00020157577178000965 -0.0049482302006232798 0 -0.00019641126150421822 -0.0049809681174918961 0 -0.00017441785230200299 -0.0049604513001086509 0 -0.00019641126150421822 -0.0049809681174918961 0 -0.00017603865423842979 -0.0049852409562289365 0 -0.00020009880870999384 -0.0050190171830555757 0 -0.00019641126150421822 -0.0049809681174918961 0 -0.00017603865423842979 -0.0049852409562289365 0 -0.00017441785230200299 -0.0049604513001086509 0 -0.00019641126150421822 -0.0049809681174918961 0 -0.00021000284096415044 -0.0049751121118644468 0 -0.00021138307261823569 -0.0050118792648205287 0 -0.00023619477368744412 -0.0048874637776391535 0 -0.00024013348439006396 -0.0048911633689791229 0 -0.00024111415876119146 -0.0048834604916988995 0 -0.00024069370377662746 -0.0048965341027524308 0 -0.00023940218677164792 -0.0048922479360087156 0 -0.00024392687006627326 -0.0048908464193256167 0 -9.5477414105896876e-06 -0.0043991826802290733 0 -6.1549372791398608e-06 -0.0043903454869850264 0 5.3955134469952871e-07 -0.0043962901262846587 0 -0.00015877437244589745 -0.0047086629853171046 0 -0.00024857032339486106 -0.0049270526420713001 0 -0.00023619477368744412 -0.0048874637776391535 0 -0.00024013348439006396 -0.0048911633689791229 0 -0.00023940218677164792 -0.0048922479360087156 0 -0.00023015229306455552 -0.0049585266563161997 0 -0.00023885630792582258 -0.0048943463478451216 0 -0.00021712178038629708 -0.0049193790404646496 0 -0.00024013348439006396 -0.0048911633689791229 0 -0.00023940218677164792 -0.0048922479360087156 0 -0.00023885630792582258 -0.0048943463478451216 0 -0.00023075113745858403 -0.00493037541319267 0 -0.00024009219179666968 -0.0048974668790970248 0 -0.00023940218677164792 -0.0048922479360087156 0 -0.00023885630792582258 -0.0048943463478451216 0 -0.00024392687006627326 -0.0048908464193256167 0 -0.00023885630792582258 -0.0048943463478451216 0 -0.00024392687006627326 -0.0048908464193256167 0 -0.00024774955366198737 -0.0048815023089147794 0 -0.00023885630792582258 -0.0048943463478451216 0 -0.00021712178038629708 -0.0049193790404646496 0 -0.00021717546832110746 -0.0048884987893756272 0 -0.00020069894222652501 -0.0049151995233773921 0 -0.00019048338322646342 -0.0048863749885683051 0 -0.00021717546832110746 -0.0048884987893756272 0 -0.00020069894222652501 -0.0049151995233773921 0 -0.00021712178038629708 -0.0049193790404646496 0 -0.00021717546832110746 -0.0048884987893756272 0 -0.00020157577178000965 -0.0049482302006232798 0 -0.00020069894222652501 -0.0049151995233773921 0 -0.00021712178038629708 -0.0049193790404646496 0 -0.00020157577178000965 -0.0049482302006232798 0 -0.00023015229306455552 -0.0049585266563161997 0 -0.00021712178038629708 -0.0049193790404646496 0 -0.00020157577178000965 -0.0049482302006232798 0 -0.0001747385795195215 -0.004929077399264876 0 -0.00017441785230200299 -0.0049604513001086509 0 -0.00020157577178000965 -0.0049482302006232798 0 -0.00020069894222652501 -0.0049151995233773921 0 -0.0001747385795195215 -0.004929077399264876 0 -0.00020069894222652501 -0.0049151995233773921 0 -0.0001747385795195215 -0.004929077399264876 0 -0.00019048338322646342 -0.0048863749885683051 0 -0.0001543946045676 -0.0049089837562302065 0 -0.0001747385795195215 -0.004929077399264876 0 -0.00019048338322646342 -0.0048863749885683051 0 -0.0001543946045676 -0.0049089837562302065 0 -0.00014737121432762754 -0.0049437766014860359 0 -0.00011731619777394208 -0.0049262153825410408 0 -0.0001543946045676 -0.0049089837562302065 0 -0.00014737121432762754 -0.0049437766014860359 0 -0.0001747385795195215 -0.004929077399264876 0 -0.00014737121432762754 -0.0049437766014860359 0 -0.0001747385795195215 -0.004929077399264876 0 -0.00017441785230200299 -0.0049604513001086509 0 -7.3329342437211537e-05 -0.0049523514000437488 0 -0.00011731619777394208 -0.0049262153825410408 0 -8.3896624375893704e-05 -0.0049129061570383518 0 -0.00014737121432762754 -0.0049437766014860359 0 -0.00011731619777394208 -0.0049262153825410408 0 -0.00011668718992290308 -0.0049624511078980964 0 -7.3329342437211537e-05 -0.0049523514000437488 0 -0.00011731619777394208 -0.0049262153825410408 0 -0.00011668718992290308 -0.0049624511078980964 0 -7.3329342437211537e-05 -0.0049523514000437488 0 -0.00011668718992290308 -0.0049624511078980964 0 -9.369277736107011e-05 -0.0049913334545396105 0 -0.00011668718992290308 -0.0049624511078980964 0 -0.00012275087650170653 -0.004981470050818804 0 -9.369277736107011e-05 -0.0049913334545396105 0 -0.00012275087650170653 -0.004981470050818804 0 -9.369277736107011e-05 -0.0049913334545396105 0 -0.00013002292508277382 -0.0050017588909023469 0 -0.00014737121432762754 -0.0049437766014860359 0 -0.00017441785230200299 -0.0049604513001086509 0 -0.0001473417829747458 -0.0049761584111284738 0 -0.00017603865423842979 -0.0049852409562289365 0 -0.00017441785230200299 -0.0049604513001086509 0 -0.0001473417829747458 -0.0049761584111284738 0 -0.00014737121432762754 -0.0049437766014860359 0 -0.00011668718992290308 -0.0049624511078980964 0 -0.0001473417829747458 -0.0049761584111284738 0 -0.00011668718992290308 -0.0049624511078980964 0 -0.00012275087650170653 -0.004981470050818804 0 -0.0001473417829747458 -0.0049761584111284738 0 -0.00012275087650170653 -0.004981470050818804 0 -0.0001473417829747458 -0.0049761584111284738 0 -0.00013002292508277382 -0.0050017588909023469 0 -0.0001473417829747458 -0.0049761584111284738 0 -0.00015729663372449429 -0.0050002997228262994 0 -0.00013002292508277382 -0.0050017588909023469 0 -0.00017603865423842979 -0.0049852409562289365 0 -0.0001473417829747458 -0.0049761584111284738 0 -0.00015729663372449429 -0.0050002997228262994 0 -8.4077358745969158e-05 -0.0049945954330641532 0 -7.9904479720180408e-05 -0.0048983650537414289 0 -0.00015729663372449429 -0.0050002997228262994 0 -0.00011174881166306133 -0.0050253092552473306 0 -0.00020009880870999384 -0.0050190171830555757 0 -4.3751552126424165e-05 -0.0049383069808312001 0 -5.4405476432876696e-05 -0.0049478490788293179 0 -7.212357200030655e-05 -0.004936125040710327 0 -1.3772455252385441e-05 -0.0049404038256958627 0 -7.9904479720180408e-05 -0.0048983650537414289 0 -0.00015729663372449429 -0.0050002997228262994 0 -0.00013002292508277382 -0.0050017588909023469 0 -0.00011174881166306133 -0.0050253092552473306 0 -6.5183033915983577e-05 -0.0050274018770783743 0 -9.369277736107011e-05 -0.0049913334545396105 0 -0.00011198054950588397 -0.0050252303913071684 0 -1.3568750009918667e-05 -0.0049912131135082596 0 -1.1096949074292021e-05 -0.0049806721970166645 0 -2.3062175936612373e-05 -0.004980007911260069 0 -3.5070712577152511e-05 -0.0050040218701601601 0 -8.4077358745969158e-05 -0.0049945954330641532 0 -9.369277736107011e-05 -0.0049913334545396105 0 -0.00013002292508277382 -0.0050017588909023469 0 -0.00011198054950588397 -0.0050252303913071684 0 -0.0001105809884102643 -0.0049985281412540088 0 -8.4077358745969158e-05 -0.0049945954330641532 0 -4.3751552126424165e-05 -0.0049383069808312001 0 -3.693585688537182e-05 -0.0049589294720726353 0 -5.4405476432876696e-05 -0.0049478490788293179 0 -3.1661916259015384e-05 -0.0049542001179873089 0 -4.3751552126424165e-05 -0.0049383069808312001 0 -3.693585688537182e-05 -0.0049589294720726353 0 -1.8043080949251944e-05 -0.0049744976602244528 0 -8.4077358745969158e-05 -0.0049945954330641532 0 -2.3834390098273805e-05 -0.004903048355780512 0 3.9325079501622046e-06 -0.0049179645876350755 0 -4.3634946620962705e-06 -0.0048984872726832674 0 -3.5258088230084988e-05 -0.0049262606080030793 0 -1.3772455252385441e-05 -0.0049404038256958627 0 3.9325079501622046e-06 -0.0049179645876350755 0 1.8816295665579548e-05 -0.0048952916915414244 0 -4.3634946620962705e-06 -0.0048984872726832674 0 2.5257063108241237e-05 -0.0049307696638667773 0 2.8487763017408391e-05 -0.0049308548924693494 0 1.8816295665579548e-05 -0.0048952916915414244 0 7.9442990677520666e-05 -0.0046720089678021944 0 8.4659457913497204e-05 -0.0046926963414706205 0 0.00010207538472038591 -0.0046929099856352482 0 3.9325079501622046e-06 -0.0049179645876350755 0 2.5257063108241237e-05 -0.0049307696638667773 0 1.8816295665579548e-05 -0.0048952916915414244 0 8.9414371808270839e-05 -0.0046585819414597341 0 7.9442990677520666e-05 -0.0046720089678021944 0 0.00010207538472038591 -0.0046929099856352482 0 -4.8408310861268511e-05 -0.0048373728545177642 0 7.6565529085990781e-05 -0.0047848481207343994 0 -0.00019641126150421822 -0.0049809681174918961 0 -0.00020009880870999384 -0.0050190171830555757 0 -0.00021138307261823569 -0.0050118792648205287 0 -7.7860306466816961e-05 -0.0049066215132175222 0 -0.00010513998659109014 -0.0049051268543484185 0 -0.0001123464475191876 -0.0048843613079518951 0 -7.9904479720180408e-05 -0.0048983650537414289 0 -4.8408310861268511e-05 -0.0048373728545177642 0 -4.8408310861268511e-05 -0.0048373728545177642 0 -0.00011168202237340911 -0.0048643988732325174 0 -7.9904479720180408e-05 -0.0048983650537414289 0 -0.00011168202237340911 -0.0048643988732325174 0 -0.00017603865423842979 -0.0049852409562289365 0 -0.00015729663372449429 -0.0050002997228262994 0 -0.00020009880870999384 -0.0050190171830555757 0 -6.4174646572508274e-05 -0.0047130884687870238 0 -6.5231484139695848e-05 -0.0047100644768028818 0 -8.9768722186036814e-05 -0.0047104301175280626 0 -4.8408310861268511e-05 -0.0048373728545177642 0 4.5990623184637408e-06 -0.0045294654391830084 0 -8.4877529325231915e-05 -0.0046967075558630115 0 -6.5231484139695848e-05 -0.0047100644768028818 0 -8.9768722186036814e-05 -0.0047104301175280626 0 6.8094852633541897e-05 -0.0046562324128552567 0 7.9442990677520666e-05 -0.0046720089678021944 0 6.0932098565238821e-05 -0.0046762207944928118 0 8.9414371808270839e-05 -0.0046585819414597341 0 6.8094852633541897e-05 -0.0046562324128552567 0 7.9442990677520666e-05 -0.0046720089678021944 0 -0.00015877437244589745 -0.0047086629853171046 0 4.5990623184637408e-06 -0.0045294654391830084 0 -0.00015877437244589745 -0.0047086629853171046 0 -0.00011168202237340911 -0.0048643988732325174 0 7.9442990677520666e-05 -0.0046720089678021944 0 7.4401998660226788e-05 -0.0046814136336351068 0 8.4659457913497204e-05 -0.0046926963414706205 0 7.9442990677520666e-05 -0.0046720089678021944 0 7.4401998660226788e-05 -0.0046814136336351068 0 6.0932098565238821e-05 -0.0046762207944928118 0 9.7291422929788712e-05 -0.0046384019016025716 0 5.0504474531955969e-05 -0.0044999422929806474 0 7.4401998660226788e-05 -0.0046814136336351068 0 6.5710462710477199e-05 -0.004687789543556818 0 6.1818176493358377e-05 -0.0046763431180193464 0 7.1300460483838897e-05 -0.0046993388807772202 0 8.4659457913497204e-05 -0.0046926963414706205 0 8.1516306698665335e-05 -0.0047193754649385326 0 7.4401998660226788e-05 -0.0046814136336351068 0 7.1300460483838897e-05 -0.0046993388807772202 0 6.5710462710477199e-05 -0.004687789543556818 0 7.4401998660226788e-05 -0.0046814136336351068 0 7.1300460483838897e-05 -0.0046993388807772202 0 8.4659457913497204e-05 -0.0046926963414706205 0 8.4659457913497204e-05 -0.0046926963414706205 0 0.00010207538472038591 -0.0046929099856352482 0 8.1516306698665335e-05 -0.0047193754649385326 0 0.00010207538472038591 -0.0046929099856352482 0 8.1516306698665335e-05 -0.0047193754649385326 0 0.00011353812405682262 -0.0047277577253940755 0 9.3606709704462649e-05 -0.0048188917203434095 0 5.3351282775447519e-05 -0.0048018979210281308 0 7.1300460483838897e-05 -0.0046993388807772202 0 8.1516306698665335e-05 -0.0047193754649385326 0 5.0459279597414698e-05 -0.0047108504644863053 0 -3.5357462305508525e-05 -0.0048962792277827977 0 -1.9100293583574616e-05 -0.0048824551595525482 0 -1.7530195545129812e-05 -0.0048926994531555213 0 -3.5357462305508525e-05 -0.0048962792277827977 0 -2.3834390098273805e-05 -0.004903048355780512 0 -1.7530195545129812e-05 -0.0048926994531555213 0 -1.7530195545129812e-05 -0.0048926994531555213 0 -5.3398319762774415e-06 -0.0048839785814347048 0 -4.3634946620962705e-06 -0.0048984872726832674 0 -2.3834390098273805e-05 -0.004903048355780512 0 -1.7530195545129812e-05 -0.0048926994531555213 0 -4.3634946620962705e-06 -0.0048984872726832674 0 -1.9100293583574616e-05 -0.0048824551595525482 0 -1.7530195545129812e-05 -0.0048926994531555213 0 -5.3398319762774415e-06 -0.0048839785814347048 0 1.8816295665579548e-05 -0.0048952916915414244 0 -5.3398319762774415e-06 -0.0048839785814347048 0 -4.3634946620962705e-06 -0.0048984872726832674 0 1.8816295665579548e-05 -0.0048952916915414244 0 -5.3398319762774415e-06 -0.0048839785814347048 0 -3.4752630932541973e-07 -0.0048690473833362868 0 1.8816295665579548e-05 -0.0048952916915414244 0 -3.4752630932541973e-07 -0.0048690473833362868 0 8.769522051703267e-06 -0.0048511254971031438 0 7.6565529085990781e-05 -0.0047848481207343994 0 5.3351282775447519e-05 -0.0048018979210281308 0 -7.6523905728722062e-07 -0.0048530737629690224 0 -3.4752630932541973e-07 -0.0048690473833362868 0 8.769522051703267e-06 -0.0048511254971031438 0 -1.9100293583574616e-05 -0.0048824551595525482 0 -5.3398319762774415e-06 -0.0048839785814347048 0 -1.1738254613481733e-05 -0.0048703740943131946 0 -5.3398319762774415e-06 -0.0048839785814347048 0 -3.4752630932541973e-07 -0.0048690473833362868 0 -1.1738254613481733e-05 -0.0048703740943131946 0 -3.4752630932541973e-07 -0.0048690473833362868 0 -1.1738254613481733e-05 -0.0048703740943131946 0 -9.2705384447854601e-06 -0.0048570619627624698 0 -7.6523905728722062e-07 -0.0048530737629690224 0 -3.4752630932541973e-07 -0.0048690473833362868 0 -9.2705384447854601e-06 -0.0048570619627624698 0 -7.6523905728722062e-07 -0.0048530737629690224 0 -9.2705384447854601e-06 -0.0048570619627624698 0 -6.2997609490909535e-06 -0.0048471101423256373 0 -9.2705384447854601e-06 -0.0048570619627624698 0 -1.5450150975560104e-05 -0.0048601754373490628 0 -1.2515758555315788e-05 -0.0048497501348768934 0 -1.1738254613481733e-05 -0.0048703740943131946 0 -9.2705384447854601e-06 -0.0048570619627624698 0 -1.5450150975560104e-05 -0.0048601754373490628 0 -1.5450150975560104e-05 -0.0048601754373490628 0 -2.2003871698872341e-05 -0.0048674890866816341 0 -1.975915425693852e-05 -0.0048494252551047621 0 -2.9487464436062665e-05 -0.0048542014537165321 0 -2.2003871698872341e-05 -0.0048674890866816341 0 -1.975915425693852e-05 -0.0048494252551047621 0 -1.5450150975560104e-05 -0.0048601754373490628 0 -1.975915425693852e-05 -0.0048494252551047621 0 -1.2515758555315788e-05 -0.0048497501348768934 0 -3.5357462305508525e-05 -0.0048962792277827977 0 -1.9100293583574616e-05 -0.0048824551595525482 0 -2.2003871698872341e-05 -0.0048674890866816341 0 -1.1738254613481733e-05 -0.0048703740943131946 0 -1.5450150975560104e-05 -0.0048601754373490628 0 -2.2003871698872341e-05 -0.0048674890866816341 0 -1.9100293583574616e-05 -0.0048824551595525482 0 -1.1738254613481733e-05 -0.0048703740943131946 0 -2.2003871698872341e-05 -0.0048674890866816341 0 -2.5410227602912051e-05 -0.0048319319660105192 0 -1.4996340719317692e-05 -0.0048264277759602911 0 -2.1160143811743046e-05 -0.0048167539316466453 0 -2.5410227602912051e-05 -0.0048319319660105192 0 -1.4996340719317692e-05 -0.0048264277759602911 0 -1.343510396167928e-05 -0.0048393392097238388 0 -2.5410227602912051e-05 -0.0048319319660105192 0 -1.975915425693852e-05 -0.0048494252551047621 0 -1.343510396167928e-05 -0.0048393392097238388 0 -1.975915425693852e-05 -0.0048494252551047621 0 -1.343510396167928e-05 -0.0048393392097238388 0 -1.2515758555315788e-05 -0.0048497501348768934 0 -9.2705384447854601e-06 -0.0048570619627624698 0 -1.2515758555315788e-05 -0.0048497501348768934 0 -6.2997609490909535e-06 -0.0048471101423256373 0 -1.343510396167928e-05 -0.0048393392097238388 0 -1.2515758555315788e-05 -0.0048497501348768934 0 -6.2997609490909535e-06 -0.0048471101423256373 0 -7.6523905728722062e-07 -0.0048530737629690224 0 -6.2997609490909535e-06 -0.0048471101423256373 0 -6.6174351902066978e-07 -0.0048448644345713944 0 -1.343510396167928e-05 -0.0048393392097238388 0 -6.2997609490909535e-06 -0.0048471101423256373 0 -4.1877311835056608e-06 -0.0048380225714783343 0 -6.2997609490909535e-06 -0.0048471101423256373 0 -4.1877311835056608e-06 -0.0048380225714783343 0 -6.6174351902066978e-07 -0.0048448644345713944 0 -1.4996340719317692e-05 -0.0048264277759602911 0 -4.1877311835056608e-06 -0.0048380225714783343 0 -6.2957228523264364e-06 -0.004825976352089977 0 -1.4996340719317692e-05 -0.0048264277759602911 0 -1.343510396167928e-05 -0.0048393392097238388 0 -4.1877311835056608e-06 -0.0048380225714783343 0 -1.4996340719317692e-05 -0.0048264277759602911 0 -6.2957228523264364e-06 -0.004825976352089977 0 -1.3813819005339991e-05 -0.0048156717208485342 0 8.8688373788547083e-06 -0.0048671031999538723 0 2.1300442384965414e-05 -0.0048358994816799289 0 6.3587890415042967e-05 -0.0048392590737917135 0 -4.1877311835056608e-06 -0.0048380225714783343 0 -6.2957228523264364e-06 -0.004825976352089977 0 4.01906581400984e-06 -0.0048265994292963606 0 -6.2957228523264364e-06 -0.004825976352089977 0 4.01906581400984e-06 -0.0048265994292963606 0 -4.3774709687246805e-06 -0.0048152429780554994 0 4.01906581400984e-06 -0.0048265994292963606 0 4.5044137539522351e-06 -0.0048429111618428578 0 2.1300442384965414e-05 -0.0048358994816799289 0 -4.1877311835056608e-06 -0.0048380225714783343 0 4.01906581400984e-06 -0.0048265994292963606 0 4.5044137539522351e-06 -0.0048429111618428578 0 -4.1877311835056608e-06 -0.0048380225714783343 0 -6.6174351902066978e-07 -0.0048448644345713944 0 4.5044137539522351e-06 -0.0048429111618428578 0 -6.6174351902066978e-07 -0.0048448644345713944 0 3.5920463227532137e-06 -0.0048494390293754843 0 4.5044137539522351e-06 -0.0048429111618428578 0 8.8688373788547083e-06 -0.0048671031999538723 0 4.5044137539522351e-06 -0.0048429111618428578 0 2.1300442384965414e-05 -0.0048358994816799289 0 -7.6523905728722062e-07 -0.0048530737629690224 0 -6.6174351902066978e-07 -0.0048448644345713944 0 3.5920463227532137e-06 -0.0048494390293754843 0 7.3916038363457491e-06 -0.0048501793341327679 0 3.5920463227532137e-06 -0.0048494390293754843 0 4.5044137539522351e-06 -0.0048429111618428578 0 -7.6523905728722062e-07 -0.0048530737629690224 0 8.769522051703267e-06 -0.0048511254971031438 0 3.5920463227532137e-06 -0.0048494390293754843 0 5.3351282775447519e-05 -0.0048018979210281308 0 3.9746501527622541e-05 -0.0048049236409294354 0 5.3351282775447519e-05 -0.0048018979210281308 0 4.1049272317088556e-05 -0.004831510749101404 0 4.01906581400984e-06 -0.0048265994292963606 0 2.1300442384965414e-05 -0.0048358994816799289 0 2.3742841922451261e-05 -0.0048147607282986787 0 2.1300442384965414e-05 -0.0048358994816799289 0 2.3742841922451261e-05 -0.0048147607282986787 0 6.3587890415042967e-05 -0.0048392590737917135 0 2.3742841922451261e-05 -0.0048147607282986787 0 1.450829279415206e-05 -0.0047963238075047713 0 7.2844557629218968e-06 -0.0048104398993919321 0 4.7979113407179641e-06 -0.0047810285632492759 0 1.450829279415206e-05 -0.0047963238075047713 0 3.8624770224221332e-05 -0.0047813022911772553 0 2.3742841922451261e-05 -0.0048147607282986787 0 1.450829279415206e-05 -0.0047963238075047713 0 3.8624770224221332e-05 -0.0047813022911772553 0 1.450829279415206e-05 -0.0047963238075047713 0 -8.3726599094514985e-07 -0.0047969114497139831 0 7.2844557629218968e-06 -0.0048104398993919321 0 4.7979113407179641e-06 -0.0047810285632492759 0 1.450829279415206e-05 -0.0047963238075047713 0 -8.3726599094514985e-07 -0.0047969114497139831 0 4.7979113407179641e-06 -0.0047810285632492759 0 -9.2920263944644917e-06 -0.004789560562466255 0 -8.3726599094514985e-07 -0.0047969114497139831 0 -9.2920263944644917e-06 -0.004789560562466255 0 -8.3726599094514985e-07 -0.0047969114497139831 0 -1.2229269782596947e-05 -0.004798974647002666 0 -8.3726599094514985e-07 -0.0047969114497139831 0 -2.6190554991207658e-06 -0.0048072184651567363 0 -1.016247364156935e-05 -0.0048064815542324547 0 -8.3726599094514985e-07 -0.0047969114497139831 0 -2.6190554991207658e-06 -0.0048072184651567363 0 7.2844557629218968e-06 -0.0048104398993919321 0 4.01906581400984e-06 -0.0048265994292963606 0 2.3742841922451261e-05 -0.0048147607282986787 0 7.2844557629218968e-06 -0.0048104398993919321 0 -2.6190554991207658e-06 -0.0048072184651567363 0 7.2844557629218968e-06 -0.0048104398993919321 0 -4.3774709687246805e-06 -0.0048152429780554994 0 4.01906581400984e-06 -0.0048265994292963606 0 7.2844557629218968e-06 -0.0048104398993919321 0 -4.3774709687246805e-06 -0.0048152429780554994 0 -6.2957228523264364e-06 -0.004825976352089977 0 -4.3774709687246805e-06 -0.0048152429780554994 0 -1.3813819005339991e-05 -0.0048156717208485342 0 -1.3813819005339991e-05 -0.0048156717208485342 0 -1.016247364156935e-05 -0.0048064815542324547 0 -1.793427395994036e-05 -0.0048060841857337552 0 -2.6190554991207658e-06 -0.0048072184651567363 0 -4.3774709687246805e-06 -0.0048152429780554994 0 -1.016247364156935e-05 -0.0048064815542324547 0 -4.3774709687246805e-06 -0.0048152429780554994 0 -1.3813819005339991e-05 -0.0048156717208485342 0 -1.016247364156935e-05 -0.0048064815542324547 0 -8.3726599094514985e-07 -0.0047969114497139831 0 -1.016247364156935e-05 -0.0048064815542324547 0 -1.2229269782596947e-05 -0.004798974647002666 0 -1.8192584473718018e-05 -0.0047970282665999583 0 -1.2229269782596947e-05 -0.004798974647002666 0 -1.793427395994036e-05 -0.0048060841857337552 0 -1.016247364156935e-05 -0.0048064815542324547 0 -1.2229269782596947e-05 -0.004798974647002666 0 -1.793427395994036e-05 -0.0048060841857337552 0 -1.8192584473718018e-05 -0.0047970282665999583 0 -1.793427395994036e-05 -0.0048060841857337552 0 -2.2050302563642889e-05 -0.0048021886424061914 0 -2.2879396255937075e-05 -0.0048083870872724782 0 -2.3793860893533023e-05 -0.0048052733089534866 0 -2.2050302563642889e-05 -0.0048021886424061914 0 -2.2879396255937075e-05 -0.0048083870872724782 0 -1.793427395994036e-05 -0.0048060841857337552 0 -2.2050302563642889e-05 -0.0048021886424061914 0 -2.2879396255937075e-05 -0.0048083870872724782 0 -1.793427395994036e-05 -0.0048060841857337552 0 -2.1160143811743046e-05 -0.0048167539316466453 0 -1.3813819005339991e-05 -0.0048156717208485342 0 -1.793427395994036e-05 -0.0048060841857337552 0 -2.1160143811743046e-05 -0.0048167539316466453 0 -1.4996340719317692e-05 -0.0048264277759602911 0 -1.3813819005339991e-05 -0.0048156717208485342 0 -2.1160143811743046e-05 -0.0048167539316466453 0 0.0001101594382267299 -0.0048932777894561096 0 0.00015560299324938036 -0.0048098931888857005 0 0.00019970268618652558 -0.0048361831540954803 0 0.0001101594382267299 -0.0048932777894561096 0 6.3587890415042967e-05 -0.0048392590737917135 0 0.00015560299324938036 -0.0048098931888857005 0 0.0001101594382267299 -0.0048932777894561096 0 8.8688373788547083e-06 -0.0048671031999538723 0 6.3587890415042967e-05 -0.0048392590737917135 0 6.3587890415042967e-05 -0.0048392590737917135 0 3.8624770224221332e-05 -0.0047813022911772553 0 9.7695911215747529e-05 -0.0047805745021509746 0 2.3742841922451261e-05 -0.0048147607282986787 0 6.3587890415042967e-05 -0.0048392590737917135 0 3.8624770224221332e-05 -0.0047813022911772553 0 7.443995039306001e-05 -0.0047461191774677194 0 3.8624770224221332e-05 -0.0047813022911772553 0 9.7695911215747529e-05 -0.0047805745021509746 0 6.3587890415042967e-05 -0.0048392590737917135 0 9.7695911215747529e-05 -0.0047805745021509746 0 0.00015560299324938036 -0.0048098931888857005 0 0.00015275742104023488 -0.0047458751965247497 0 9.7695911215747529e-05 -0.0047805745021509746 0 0.00015560299324938036 -0.0048098931888857005 0 0.00024465170457921992 -0.0047323429531517342 0 0.00015275742104023488 -0.0047458751965247497 0 0.00015560299324938036 -0.0048098931888857005 0 0.00024465170457921992 -0.0047323429531517342 0 0.00019970268618652558 -0.0048361831540954803 0 0.0002467481018430258 -0.0048186898975529089 0 0.00024465170457921992 -0.0047323429531517342 0 0.00015560299324938036 -0.0048098931888857005 0 0.00019970268618652558 -0.0048361831540954803 0 0.0002467481018430258 -0.0048186898975529089 0 0.00024705696677115245 -0.0048683755282345354 0 0.00023856443373144955 -0.004865553444574856 0 0.00023134813721701209 -0.0048595527772709295 0 0.0002467481018430258 -0.0048186898975529089 0 0.00023856443373144955 -0.004865553444574856 0 2.4296820195752088e-05 -0.0039257456817884942 0 -2.3100483492893117e-05 -0.0039194208417685523 0 -3.8230306275787817e-05 -0.0039103246125220112 0 0.00013931151380626737 -0.0043745522155699632 0 9.8119321639800663e-05 -0.0043931682547792119 0 0.00019970268618652558 -0.0048361831540954803 0 0.00023134813721701209 -0.0048595527772709295 0 0.0002467481018430258 -0.0048186898975529089 0 2.4296820195752088e-05 -0.0039257456817884942 0 -3.4410971630868994e-05 -0.0039458371378280144 0 -2.3100483492893117e-05 -0.0039194208417685523 0 2.4296820195752088e-05 -0.0039257456817884942 0 -1.18405708894575e-06 -0.0040004337208193646 0 -3.4410971630868994e-05 -0.0039458371378280144 0 0.00014649740383384255 -0.0040556711467572967 0 2.4296820195752088e-05 -0.0039257456817884942 0 -1.18405708894575e-06 -0.0040004337208193646 0 0.00018869501659881288 -0.0043966847597471017 0 0.00013931151380626737 -0.0043745522155699632 0 -1.18405708894575e-06 -0.0040004337208193646 0 -5.6400519162474602e-05 -0.003977723080668784 0 -3.4410971630868994e-05 -0.0039458371378280144 0 -5.6400519162474602e-05 -0.003977723080668784 0 -3.4410971630868994e-05 -0.0039458371378280144 0 -6.9374928896858429e-05 -0.0039428099036281109 0 -3.4410971630868994e-05 -0.0039458371378280144 0 -6.9374928896858429e-05 -0.0039428099036281109 0 -4.85000544012258e-05 -0.0039309168019188746 0 -8.5044578445357241e-05 -0.0039371634045993397 0 -7.7974627615428685e-05 -0.0039593339227545826 0 -6.9374928896858429e-05 -0.0039428099036281109 0 -5.6400519162474602e-05 -0.003977723080668784 0 -7.7974627615428685e-05 -0.0039593339227545826 0 -6.9374928896858429e-05 -0.0039428099036281109 0 -6.9374928896858429e-05 -0.0039428099036281109 0 -7.5240263386910865e-05 -0.0039274288156018198 0 -6.2457357933041105e-05 -0.0039284524198560039 0 -8.5044578445357241e-05 -0.0039371634045993397 0 -6.9374928896858429e-05 -0.0039428099036281109 0 -7.5240263386910865e-05 -0.0039274288156018198 0 -6.5995881879725706e-05 -0.0039237197658273356 0 -6.2457357933041105e-05 -0.0039284524198560039 0 -5.8947226305604102e-05 -0.003921781555437996 0 -7.5240263386910865e-05 -0.0039274288156018198 0 -6.5995881879725706e-05 -0.0039237197658273356 0 -6.2457357933041105e-05 -0.0039284524198560039 0 -6.9374928896858429e-05 -0.0039428099036281109 0 -6.2457357933041105e-05 -0.0039284524198560039 0 -4.85000544012258e-05 -0.0039309168019188746 0 -5.8947226305604102e-05 -0.003921781555437996 0 -4.8758652884765195e-05 -0.0039195043177401214 0 -5.5028710093468857e-05 -0.0039189069365035203 0 -6.2457357933041105e-05 -0.0039284524198560039 0 -5.8947226305604102e-05 -0.003921781555437996 0 -4.8758652884765195e-05 -0.0039195043177401214 0 -5.8947226305604102e-05 -0.003921781555437996 0 -6.0669845597876399e-05 -0.0039212592122941032 0 -5.5028710093468857e-05 -0.0039189069365035203 0 -6.5995881879725706e-05 -0.0039237197658273356 0 -5.8947226305604102e-05 -0.003921781555437996 0 -6.0669845597876399e-05 -0.0039212592122941032 0 -3.4410971630868994e-05 -0.0039458371378280144 0 -4.85000544012258e-05 -0.0039309168019188746 0 -2.3100483492893117e-05 -0.0039194208417685523 0 -6.2457357933041105e-05 -0.0039284524198560039 0 -4.85000544012258e-05 -0.0039309168019188746 0 -4.8758652884765195e-05 -0.0039195043177401214 0 -4.85000544012258e-05 -0.0039309168019188746 0 -4.8758652884765195e-05 -0.0039195043177401214 0 -2.3100483492893117e-05 -0.0039194208417685523 0 -4.8758652884765195e-05 -0.0039195043177401214 0 -2.3100483492893117e-05 -0.0039194208417685523 0 -3.9823515997107877e-05 -0.0039142192527607689 0 -2.3100483492893117e-05 -0.0039194208417685523 0 -3.8230306275787817e-05 -0.0039103246125220112 0 -3.9823515997107877e-05 -0.0039142192527607689 0 -3.8230306275787817e-05 -0.0039103246125220112 0 -3.9823515997107877e-05 -0.0039142192527607689 0 -4.3738212963235365e-05 -0.0039146319150121806 0 -4.8758652884765195e-05 -0.0039195043177401214 0 -3.9823515997107877e-05 -0.0039142192527607689 0 -4.7018227653971781e-05 -0.0039159385900025163 0 -3.9823515997107877e-05 -0.0039142192527607689 0 -4.7018227653971781e-05 -0.0039159385900025163 0 -4.3738212963235365e-05 -0.0039146319150121806 0 -4.7538750253521253e-05 -0.0039177382386611816 0 -5.0326907776344931e-05 -0.0039190805792483361 0 -4.876788610540152e-05 -0.0039230883425839776 0 -4.7018227653971781e-05 -0.0039159385900025163 0 -4.3738212963235365e-05 -0.0039146319150121806 0 -4.7538750253521253e-05 -0.0039177382386611816 0 -4.7018227653971781e-05 -0.0039159385900025163 0 -4.7538750253521253e-05 -0.0039177382386611816 0 -5.0326907776344931e-05 -0.0039190805792483361 0 -4.3738212963235365e-05 -0.0039146319150121806 0 -4.7538750253521253e-05 -0.0039177382386611816 0 -4.7327166576963563e-05 -0.0039189077817929656 0 9.8119321639800663e-05 -0.0043931682547792119 0 -9.9004557359603121e-06 -0.004232876935493836 0 -3.8230306275787817e-05 -0.0039103246125220112 0 -4.7096139075957562e-05 -0.0039181044357920469 0 -4.7327166576963563e-05 -0.0039189077817929656 0 -3.8230306275787817e-05 -0.0039103246125220112 0 -4.3738212963235365e-05 -0.0039146319150121806 0 -4.7327166576963563e-05 -0.0039189077817929656 0 -6.0669845597876399e-05 -0.0039212592122941032 0 -5.5028710093468857e-05 -0.0039189069365035203 0 -5.6034012399128713e-05 -0.0039211400250795817 0 -4.8758652884765195e-05 -0.0039195043177401214 0 -4.7018227653971781e-05 -0.0039159385900025163 0 -5.5028710093468857e-05 -0.0039189069365035203 0 -4.7018227653971781e-05 -0.0039159385900025163 0 -5.5028710093468857e-05 -0.0039189069365035203 0 -5.0326907776344931e-05 -0.0039190805792483361 0 -5.5028710093468857e-05 -0.0039189069365035203 0 -5.2427594245315625e-05 -0.003922281228592177 0 -5.6034012399128713e-05 -0.0039211400250795817 0 -5.5028710093468857e-05 -0.0039189069365035203 0 -5.0326907776344931e-05 -0.0039190805792483361 0 -5.2427594245315625e-05 -0.003922281228592177 0 -5.2427594245315625e-05 -0.003922281228592177 0 -5.0430004735745985e-05 -0.0039236849778685676 0 -5.0546486423956744e-05 -0.0039267950759185781 0 -5.0326907776344931e-05 -0.0039190805792483361 0 -5.0430004735745985e-05 -0.0039236849778685676 0 -4.876788610540152e-05 -0.0039230883425839776 0 -5.0326907776344931e-05 -0.0039190805792483361 0 -5.2427594245315625e-05 -0.003922281228592177 0 -5.0430004735745985e-05 -0.0039236849778685676 0 -5.0430004735745985e-05 -0.0039236849778685676 0 -5.0505942342369459e-05 -0.0039277637648923126 0 -4.876788610540152e-05 -0.0039230883425839776 0 -5.0430004735745985e-05 -0.0039236849778685676 0 -5.0505942342369459e-05 -0.0039277637648923126 0 -5.0546486423956744e-05 -0.0039267950759185781 0 -3.2209540069667721e-05 -0.0039982174452935964 0 -4.3484180611033723e-05 -0.0039315782480492016 0 3.5603671071691168e-05 -0.0040150115995898532 0 -4.7096139075957562e-05 -0.0039181044357920469 0 -4.7327166576963563e-05 -0.0039189077817929656 0 -4.9003454395007805e-05 -0.0039302018154734799 0 -9.9004557359603121e-06 -0.004232876935493836 0 -8.3677227179077164e-05 -0.0038668903073333406 0 -4.7327166576963563e-05 -0.0039189077817929656 0 -4.876788610540152e-05 -0.0039230883425839776 0 -4.9003454395007805e-05 -0.0039302018154734799 0 -4.7538750253521253e-05 -0.0039177382386611816 0 -4.7327166576963563e-05 -0.0039189077817929656 0 -4.876788610540152e-05 -0.0039230883425839776 0 -5.0505942342369459e-05 -0.0039277637648923126 0 -4.876788610540152e-05 -0.0039230883425839776 0 -4.9003454395007805e-05 -0.0039302018154734799 0 -3.2209540069667721e-05 -0.0039982174452935964 0 -4.9003454395007805e-05 -0.0039302018154734799 0 -4.3484180611033723e-05 -0.0039315782480492016 0 -2.5364572437702708e-05 -0.0043391802516070778 0 4.1331362021837917e-05 -0.0043518151426073489 0 5.0237395465548248e-05 -0.00442000687922324 0 -5.9904197831999698e-05 -0.0040986763161996211 0 0.00012925897961198413 -0.0044428881487170559 0 4.1331362021837917e-05 -0.0043518151426073489 0 0.00010856455230996114 -0.0043574419254093786 0 5.0237395465548248e-05 -0.00442000687922324 0 4.1331362021837917e-05 -0.0043518151426073489 0 0.00010856455230996114 -0.0043574419254093786 0 7.8682408895485006e-05 -0.0043125889806890404 0 7.1300460483838897e-05 -0.0046993388807772202 0 5.6070674897913987e-05 -0.0046936714920660146 0 5.0459279597414698e-05 -0.0047108504644863053 0 7.1300460483838897e-05 -0.0046993388807772202 0 5.6070674897913987e-05 -0.0046936714920660146 0 6.5710462710477199e-05 -0.004687789543556818 0 9.2411581311313234e-05 -0.0045098834103317895 0 0.00016026121828640496 -0.0047013751909288568 0 0.00010856455230996114 -0.0043574419254093786 0 8.3276859893779073e-05 -0.004427840918294056 0 5.0237395465548248e-05 -0.00442000687922324 0 0.0001101594382267299 -0.0048932777894561096 0 0.00019970268618652558 -0.0048361831540954803 0 0.00021608295859957288 -0.0049039556980318309 0 0.00019970268618652558 -0.0048361831540954803 0 0.00023134813721701209 -0.0048595527772709295 0 0.00021608295859957288 -0.0049039556980318309 0 9.3606709704462649e-05 -0.0048188917203434095 0 0.00016026121828640496 -0.0047013751909288568 0 0.00023134813721701209 -0.0048595527772709295 0 0.00023856443373144955 -0.004865553444574856 0 0.00023414369552755181 -0.0048704030654373861 0 0.00023134813721701209 -0.0048595527772709295 0 0.00022872364412858086 -0.004870146194258575 0 0.00023414369552755181 -0.0048704030654373861 0 0.00019045208493386121 -0.0048830157177215316 0 0.00016026121828640496 -0.0047013751909288568 0 0.00024705696677115245 -0.0048683755282345354 0 0.00023856443373144955 -0.004865553444574856 0 0.00023606340616528701 -0.0048717096527457152 0 -9.9004557359603121e-06 -0.004232876935493836 0 0.00012925897961198413 -0.0044428881487170559 0 0.00024705696677115245 -0.0048683755282345354 0 0.00024728408959497376 -0.0048706690468052214 0 0.00023606340616528701 -0.0048717096527457152 0 0.00016026121828640496 -0.0047013751909288568 0 0.00012925897961198413 -0.0044428881487170559 0 0.00022872364412858086 -0.004870146194258575 0 0.00023543351975861268 -0.0048715253637813122 0 0.00023414369552755181 -0.0048704030654373861 0 0.00023856443373144955 -0.004865553444574856 0 0.00023606340616528701 -0.0048717096527457152 0 0.00023414369552755181 -0.0048704030654373861 0 0.00012925897961198413 -0.0044428881487170559 0 0.00016204548265113251 -0.0044895624193187073 0 -1.1017112199706006e-05 -0.0039107169119372972 0 -1.4198405667883412e-05 -0.0038998513511502293 0 -1.9297804918357566e-06 -0.0039078528169246268 0 -1.1017112199706006e-05 -0.0039107169119372972 0 -2.0325202017263601e-05 -0.0039091609231405077 0 -1.4198405667883412e-05 -0.0038998513511502293 0 4.2076829000505485e-05 -0.0037918186009824185 0 7.8663168950767143e-05 -0.0038800398499504868 0 0.00014863863877449414 -0.0037330176610402841 0 4.2076829000505485e-05 -0.0037918186009824185 0 7.8663168950767143e-05 -0.0038800398499504868 0 -3.5980544585828267e-05 -0.00389968179173206 0 -4.6966509710887386e-05 -0.0038593086117339561 0 4.2076829000505485e-05 -0.0037918186009824185 0 -3.5980544585828267e-05 -0.00389968179173206 0 -2.0325202017263601e-05 -0.0039091609231405077 0 -3.5980544585828267e-05 -0.00389968179173206 0 -3.3452292966552457e-05 -0.0039151743578622897 0 -2.0325202017263601e-05 -0.0039091609231405077 0 -1.4198405667883412e-05 -0.0038998513511502293 0 -3.5980544585828267e-05 -0.00389968179173206 0 2.8994085508505042e-05 -0.0039110940771860565 0 -3.3864837466157355e-05 -0.0038907233791231244 0 -4.9212281594245584e-05 -0.0039196307857371415 0 -3.5980544585828267e-05 -0.00389968179173206 0 -3.3452292966552457e-05 -0.0039151743578622897 0 -4.9212281594245584e-05 -0.0039196307857371415 0 -3.5980544585828267e-05 -0.00389968179173206 0 -6.4863408972887991e-05 -0.0039205486949342771 0 -4.6966509710887386e-05 -0.0038593086117339561 0 -3.5980544585828267e-05 -0.00389968179173206 0 -7.5231863572442382e-05 -0.0039116415414477222 0 -7.5240263386910865e-05 -0.0039274288156018198 0 -7.5231863572442382e-05 -0.0039116415414477222 0 -6.4863408972887991e-05 -0.0039205486949342771 0 -3.5980544585828267e-05 -0.00389968179173206 0 -7.5231863572442382e-05 -0.0039116415414477222 0 -6.4863408972887991e-05 -0.0039205486949342771 0 -8.5044578445357241e-05 -0.0039371634045993397 0 -7.5240263386910865e-05 -0.0039274288156018198 0 -7.5231863572442382e-05 -0.0039116415414477222 0 -7.5240263386910865e-05 -0.0039274288156018198 0 -6.5995881879725706e-05 -0.0039237197658273356 0 -6.4863408972887991e-05 -0.0039205486949342771 0 -4.9212281594245584e-05 -0.0039196307857371415 0 -6.4863408972887991e-05 -0.0039205486949342771 0 -5.6034012399128713e-05 -0.0039211400250795817 0 -6.0669845597876399e-05 -0.0039212592122941032 0 -6.4863408972887991e-05 -0.0039205486949342771 0 -5.6034012399128713e-05 -0.0039211400250795817 0 -6.5995881879725706e-05 -0.0039237197658273356 0 -6.0669845597876399e-05 -0.0039212592122941032 0 -6.4863408972887991e-05 -0.0039205486949342771 0 -4.9212281594245584e-05 -0.0039196307857371415 0 -5.6034012399128713e-05 -0.0039211400250795817 0 -4.8587965868464996e-05 -0.0039232248986987746 0 -5.2427594245315625e-05 -0.003922281228592177 0 -5.6034012399128713e-05 -0.0039211400250795817 0 -4.8587965868464996e-05 -0.0039232248986987746 0 -5.2427594245315625e-05 -0.003922281228592177 0 -5.0546486423956744e-05 -0.0039267950759185781 0 -4.8502162651942259e-05 -0.0039257178633679011 0 -5.2427594245315625e-05 -0.003922281228592177 0 -4.8587965868464996e-05 -0.0039232248986987746 0 -4.8502162651942259e-05 -0.0039257178633679011 0 -5.0546486423956744e-05 -0.0039267950759185781 0 -4.8502162651942259e-05 -0.0039257178633679011 0 -4.6951765669710406e-05 -0.0039299484811349131 0 -4.8502162651942259e-05 -0.0039257178633679011 0 -4.33546440646265e-05 -0.0039269254822520919 0 -4.6951765669710406e-05 -0.0039299484811349131 0 -4.8587965868464996e-05 -0.0039232248986987746 0 -4.8502162651942259e-05 -0.0039257178633679011 0 -4.33546440646265e-05 -0.0039269254822520919 0 -4.8587965868464996e-05 -0.0039232248986987746 0 -4.1567903776973918e-05 -0.0039245485973074326 0 -4.33546440646265e-05 -0.0039269254822520919 0 -4.33546440646265e-05 -0.0039269254822520919 0 -3.6053455387454364e-05 -0.0039268379922962936 0 -3.8849973937176777e-05 -0.0039308141182561283 0 -4.1567903776973918e-05 -0.0039245485973074326 0 -3.6053455387454364e-05 -0.0039268379922962936 0 -3.5495345122456077e-05 -0.003922780201589756 0 -4.1567903776973918e-05 -0.0039245485973074326 0 -4.33546440646265e-05 -0.0039269254822520919 0 -3.6053455387454364e-05 -0.0039268379922962936 0 -4.1567903776973918e-05 -0.0039245485973074326 0 -4.2226786030517379e-05 -0.0039214026195965659 0 -3.5495345122456077e-05 -0.003922780201589756 0 -4.8587965868464996e-05 -0.0039232248986987746 0 -4.1567903776973918e-05 -0.0039245485973074326 0 -4.2226786030517379e-05 -0.0039214026195965659 0 -4.9212281594245584e-05 -0.0039196307857371415 0 -4.8587965868464996e-05 -0.0039232248986987746 0 -4.2226786030517379e-05 -0.0039214026195965659 0 -4.9212281594245584e-05 -0.0039196307857371415 0 -4.2226786030517379e-05 -0.0039214026195965659 0 -3.3452292966552457e-05 -0.0039151743578622897 0 -4.2226786030517379e-05 -0.0039214026195965659 0 -3.3452292966552457e-05 -0.0039151743578622897 0 -3.5495345122456077e-05 -0.003922780201589756 0 -2.0325202017263601e-05 -0.0039091609231405077 0 -2.8799247978388925e-05 -0.003920116092694481 0 -2.5031103141011087e-05 -0.0039281646063594996 0 -2.0325202017263601e-05 -0.0039091609231405077 0 -3.3452292966552457e-05 -0.0039151743578622897 0 -2.8799247978388925e-05 -0.003920116092694481 0 -2.8799247978388925e-05 -0.003920116092694481 0 -3.5495345122456077e-05 -0.003922780201589756 0 -3.1891320029570129e-05 -0.0039255177451597125 0 -3.3452292966552457e-05 -0.0039151743578622897 0 -2.8799247978388925e-05 -0.003920116092694481 0 -3.5495345122456077e-05 -0.003922780201589756 0 -3.6053455387454364e-05 -0.0039268379922962936 0 -3.5495345122456077e-05 -0.003922780201589756 0 -3.1891320029570129e-05 -0.0039255177451597125 0 -3.6053455387454364e-05 -0.0039268379922962936 0 -3.1891320029570129e-05 -0.0039255177451597125 0 -3.1134626577022021e-05 -0.0039290615703718602 0 -3.6053455387454364e-05 -0.0039268379922962936 0 -3.1134626577022021e-05 -0.0039290615703718602 0 -3.1727299695586567e-05 -0.0039293026992503581 0 -5.0628465249728212e-05 -0.0039076208497787765 0 2.2936279853273956e-05 -0.0038208120758226275 0 -3.1134626577022021e-05 -0.0039290615703718602 0 -3.4149034049622559e-05 -0.0039307088478386445 0 -3.285954638440604e-05 -0.0039267629533343874 0 -2.8799247978388925e-05 -0.003920116092694481 0 -3.1891320029570129e-05 -0.0039255177451597125 0 -2.5031103141011087e-05 -0.0039281646063594996 0 -3.1891320029570129e-05 -0.0039255177451597125 0 -3.1134626577022021e-05 -0.0039290615703718602 0 -2.5031103141011087e-05 -0.0039281646063594996 0 2.2936279853273956e-05 -0.0038208120758226275 0 1.9692275461496919e-05 -0.0037566385420247637 0 7.5297290639787174e-05 -0.0035656964049855145 0 8.3356536223739219e-05 -0.0035647562246174927 0 8.9100095610061166e-05 -0.0035568245006541042 0 7.5297290639787174e-05 -0.0035656964049855145 0 8.3356536223739219e-05 -0.0035647562246174927 0 8.1741164548437595e-05 -0.0035706626315528778 0 8.3356536223739219e-05 -0.0035647562246174927 0 8.1741164548437595e-05 -0.0035706626315528778 0 8.732845311785609e-05 -0.003565293888288685 0 -2.9100357416476291e-05 -0.0039545080085050368 0 2.2936279853273956e-05 -0.0038208120758226275 0 -1.112400756940565e-05 -0.003917831560756738 0 -3.8284666340637711e-06 -0.003913902689548803 0 3.2932212422695048e-07 -0.0039218621848044659 0 -1.4975513224749691e-05 -0.0039293305220588128 0 -1.112400756940565e-05 -0.003917831560756738 0 3.2932212422695048e-07 -0.0039218621848044659 0 -2.0325202017263601e-05 -0.0039091609231405077 0 -1.4975513224749691e-05 -0.0039293305220588128 0 -1.112400756940565e-05 -0.003917831560756738 0 -1.1017112199706006e-05 -0.0039107169119372972 0 -2.0325202017263601e-05 -0.0039091609231405077 0 -1.112400756940565e-05 -0.003917831560756738 0 -1.1017112199706006e-05 -0.0039107169119372972 0 -1.112400756940565e-05 -0.003917831560756738 0 -3.8284666340637711e-06 -0.003913902689548803 0 -1.1017112199706006e-05 -0.0039107169119372972 0 -3.8284666340637711e-06 -0.003913902689548803 0 -1.9297804918357566e-06 -0.0039078528169246268 0 7.8677546571903615e-05 -0.0035896042255774596 0 8.2412785794943989e-05 -0.0035831555162623161 0 8.9762113369379814e-05 -0.0035860110917002161 0 7.8677546571903615e-05 -0.0035896042255774596 0 8.1082492058882078e-05 -0.0035929385985452979 0 8.9762113369379814e-05 -0.0035860110917002161 0 7.8677546571903615e-05 -0.0035896042255774596 0 8.2412785794943989e-05 -0.0035831555162623161 0 7.7596805421451356e-05 -0.0035774548603798276 0 1.8592310612613457e-05 -0.0037964971066964284 0 1.8699523468888643e-05 -0.0037284586942934773 0 -3.8539794830456848e-05 -0.0039078868498129927 0 -3.6723486803587411e-05 -0.003922987201858053 0 -3.1761185104458281e-05 -0.0039193961501287258 0 -1.7521138558310771e-05 -0.0039449142099173273 0 -2.3561479346106421e-05 -0.0039436243876860245 0 -2.3053453857579033e-05 -0.0039483363185094499 0 -1.7521138558310771e-05 -0.0039449142099173273 0 -2.3924210167092093e-05 -0.0039375201808400503 0 -2.3561479346106421e-05 -0.0039436243876860245 0 1.8592310612613457e-05 -0.0037964971066964284 0 -1.881718043083524e-05 -0.0039369090472543061 0 8.2412785794943989e-05 -0.0035831555162623161 0 7.7596805421451356e-05 -0.0035774548603798276 0 8.6492407140294458e-05 -0.0035798185498246314 0 7.7596805421451356e-05 -0.0035774548603798276 0 8.5369222126476841e-05 -0.0035743235800158755 0 8.6492407140294458e-05 -0.0035798185498246314 0 -3.4149034049622559e-05 -0.0039307088478386445 0 -3.6723486803587411e-05 -0.003922987201858053 0 -3.285954638440604e-05 -0.0039267629533343874 0 7.5297290639787174e-05 -0.0035656964049855145 0 8.1741164548437595e-05 -0.0035706626315528778 0 7.7596805421451356e-05 -0.0035774548603798276 0 2.2936279853273956e-05 -0.0038208120758226275 0 1.8699523468888643e-05 -0.0037284586942934773 0 8.1741164548437595e-05 -0.0035706626315528778 0 7.7596805421451356e-05 -0.0035774548603798276 0 8.5369222126476841e-05 -0.0035743235800158755 0 -3.2970983424062979e-05 -0.0039252048405716443 0 -1.881718043083524e-05 -0.0039369090472543061 0 -3.6723486803587411e-05 -0.003922987201858053 0 -3.285954638440604e-05 -0.0039267629533343874 0 -3.1761185104458281e-05 -0.0039193961501287258 0 -3.285954638440604e-05 -0.0039267629533343874 0 -3.1727299695586567e-05 -0.0039293026992503581 0 -3.1761185104458281e-05 -0.0039193961501287258 0 -3.1134626577022021e-05 -0.0039290615703718602 0 -3.285954638440604e-05 -0.0039267629533343874 0 -3.1727299695586567e-05 -0.0039293026992503581 0 -3.1727299695586567e-05 -0.0039293026992503581 0 -3.1230440905043978e-05 -0.0039363675903843843 0 -3.4685802307138332e-05 -0.0039330296809447487 0 -3.1727299695586567e-05 -0.0039293026992503581 0 -3.1230440905043978e-05 -0.0039363675903843843 0 -2.3924210167092093e-05 -0.0039375201808400503 0 -3.1230440905043978e-05 -0.0039363675903843843 0 -2.3924210167092093e-05 -0.0039375201808400503 0 -2.8292010718801449e-05 -0.0039423419846784788 0 -3.1230440905043978e-05 -0.0039363675903843843 0 -2.8292010718801449e-05 -0.0039423419846784788 0 -3.322127806278854e-05 -0.0039420322537631796 0 -2.3924210167092093e-05 -0.0039375201808400503 0 -2.3561479346106421e-05 -0.0039436243876860245 0 -2.8292010718801449e-05 -0.0039423419846784788 0 -2.3561479346106421e-05 -0.0039436243876860245 0 -2.8292010718801449e-05 -0.0039423419846784788 0 -2.6832977089584447e-05 -0.0039472450204387716 0 -2.3561479346106421e-05 -0.0039436243876860245 0 -2.6832977089584447e-05 -0.0039472450204387716 0 -2.3053453857579033e-05 -0.0039483363185094499 0 -2.8292010718801449e-05 -0.0039423419846784788 0 -3.322127806278854e-05 -0.0039420322537631796 0 -3.181135443352044e-05 -0.0039480017783477305 0 -2.8292010718801449e-05 -0.0039423419846784788 0 -3.181135443352044e-05 -0.0039480017783477305 0 -2.6832977089584447e-05 -0.0039472450204387716 0 -3.5830595883507157e-05 -0.0039468309442057181 0 -3.322127806278854e-05 -0.0039420322537631796 0 -3.181135443352044e-05 -0.0039480017783477305 0 -3.5830595883507157e-05 -0.0039468309442057181 0 -3.8550754663373034e-05 -0.0039419797520452455 0 -3.322127806278854e-05 -0.0039420322537631796 0 -3.5830595883507157e-05 -0.0039468309442057181 0 -3.8870542837300872e-05 -0.0039456675273085284 0 -3.9481252679097749e-05 -0.0039501561523752711 0 -3.8870542837300872e-05 -0.0039456675273085284 0 -4.2776641316276565e-05 -0.0039431437613691297 0 -3.9481252679097749e-05 -0.0039501561523752711 0 -3.8870542837300872e-05 -0.0039456675273085284 0 -3.8550754663373034e-05 -0.0039419797520452455 0 -4.2776641316276565e-05 -0.0039431437613691297 0 -3.5830595883507157e-05 -0.0039468309442057181 0 -3.8870542837300872e-05 -0.0039456675273085284 0 -3.8550754663373034e-05 -0.0039419797520452455 0 -3.8550754663373034e-05 -0.0039419797520452455 0 -3.650014493187399e-05 -0.0039365019554959508 0 -4.2122021828522253e-05 -0.0039361230479473428 0 -3.8550754663373034e-05 -0.0039419797520452455 0 -4.2122021828522253e-05 -0.0039361230479473428 0 -4.2776641316276565e-05 -0.0039431437613691297 0 -3.8550754663373034e-05 -0.0039419797520452455 0 -3.322127806278854e-05 -0.0039420322537631796 0 -3.650014493187399e-05 -0.0039365019554959508 0 -3.1230440905043978e-05 -0.0039363675903843843 0 -3.322127806278854e-05 -0.0039420322537631796 0 -3.650014493187399e-05 -0.0039365019554959508 0 -3.4685802307138332e-05 -0.0039330296809447487 0 -3.650014493187399e-05 -0.0039365019554959508 0 -3.8849973937176777e-05 -0.0039308141182561283 0 -3.1230440905043978e-05 -0.0039363675903843843 0 -3.4685802307138332e-05 -0.0039330296809447487 0 -3.650014493187399e-05 -0.0039365019554959508 0 -3.6053455387454364e-05 -0.0039268379922962936 0 -3.1727299695586567e-05 -0.0039293026992503581 0 -3.8849973937176777e-05 -0.0039308141182561283 0 -3.1727299695586567e-05 -0.0039293026992503581 0 -3.4685802307138332e-05 -0.0039330296809447487 0 -3.8849973937176777e-05 -0.0039308141182561283 0 -4.33546440646265e-05 -0.0039269254822520919 0 -3.8849973937176777e-05 -0.0039308141182561283 0 -4.6951765669710406e-05 -0.0039299484811349131 0 -3.650014493187399e-05 -0.0039365019554959508 0 -3.8849973937176777e-05 -0.0039308141182561283 0 -4.2122021828522253e-05 -0.0039361230479473428 0 -4.6951765669710406e-05 -0.0039299484811349131 0 -4.8074514358760954e-05 -0.0039361505180321114 0 -5.4688520680782929e-05 -0.003931636092731396 0 -4.2122021828522253e-05 -0.0039361230479473428 0 -4.6951765669710406e-05 -0.0039299484811349131 0 -4.8074514358760954e-05 -0.0039361505180321114 0 -3.8849973937176777e-05 -0.0039308141182561283 0 -4.2122021828522253e-05 -0.0039361230479473428 0 -4.6951765669710406e-05 -0.0039299484811349131 0 -4.8074514358760954e-05 -0.0039361505180321114 0 -4.8109639040367806e-05 -0.0039461033442970217 0 -5.4688520680782929e-05 -0.003931636092731396 0 -4.2122021828522253e-05 -0.0039361230479473428 0 -4.8074514358760954e-05 -0.0039361505180321114 0 -4.2776641316276565e-05 -0.0039431437613691297 0 -4.2776641316276565e-05 -0.0039431437613691297 0 -4.8109639040367806e-05 -0.0039461033442970217 0 -3.9481252679097749e-05 -0.0039501561523752711 0 -4.8074514358760954e-05 -0.0039361505180321114 0 -4.2776641316276565e-05 -0.0039431437613691297 0 -4.8109639040367806e-05 -0.0039461033442970217 0 1.099307147316024e-05 -0.0043810940521718782 0 -5.2582174556542764e-06 -0.0043660659290549039 0 1.5072940251680672e-05 -0.0043731996134501157 0 3.4379412069479488e-05 -0.004135310434568825 0 8.0489637590543684e-05 -0.0043057018160332838 0 0.00012040203923843766 -0.0042216200097562641 0 0.00010670541402187133 -0.0042286506787833546 0 0.00013020577863705448 -0.0042346616392628655 0 -4.9139961717714483e-05 -0.0039477213041105644 0 -3.9888118448183589e-05 -0.0039555679348831181 0 -3.9481252679097749e-05 -0.0039501561523752711 0 -8.6328591815770886e-05 -0.0040236091052499113 0 -5.8575802387151196e-05 -0.0039700020154961957 0 -3.4559993915902271e-05 -0.0039671500371122907 0 -3.0257919199970285e-05 -0.0039596251539451201 0 -3.9888118448183589e-05 -0.0039555679348831181 0 -8.6328591815770886e-05 -0.0040236091052499113 0 -4.8919016019194736e-05 -0.0039773045197970302 0 -3.0257919199970285e-05 -0.0039596251539451201 0 -3.9888118448183589e-05 -0.0039555679348831181 0 -4.0415862595632061e-05 -0.0039541300119497989 0 -1.1337329082437238e-05 -0.0041703339114268767 0 3.4379412069479488e-05 -0.004135310434568825 0 0.00012040203923843766 -0.0042216200097562641 0 0.00011927185695007688 -0.0042058529296865885 0 9.4226246219994333e-05 -0.0042178566869335299 0 0.00012040203923843766 -0.0042216200097562641 0 0.00011927185695007688 -0.0042058529296865885 0 0.00013760054117569116 -0.0042185058054457041 0 0.00011667074400961208 -0.003948216044717648 0 3.4379412069479488e-05 -0.004135310434568825 0 0.0001625479744881947 -0.0040422187787289843 0 0.00011667074400961208 -0.003948216044717648 0 0.00020887198712148076 -0.0038748317895731669 0 0.00017721233939394114 -0.0038913188601407554 0 0.00017371717668048423 -0.0038548154033568741 0 6.8568261032977607e-05 -0.0039962362903438117 0 7.7070102224948957e-05 -0.0040035827451350148 0 6.1722683310003919e-05 -0.0039996953276136976 0 0.00012040203923843766 -0.0042216200097562641 0 9.4226246219994333e-05 -0.0042178566869335299 0 0.00010670541402187133 -0.0042286506787833546 0 0.00011667074400961208 -0.003948216044717648 0 5.4022047366032827e-05 -0.0038845142902261256 0 -4.0415862595632061e-05 -0.0039541300119497989 0 -3.6759747396997554e-05 -0.0039518450798104888 0 -3.0319945828059837e-05 -0.0039570257894571206 0 3.4379412069479488e-05 -0.004135310434568825 0 5.4022047366032827e-05 -0.0038845142902261256 0 -3.6759747396997554e-05 -0.0039518450798104888 0 -3.181135443352044e-05 -0.0039480017783477305 0 -3.0319945828059837e-05 -0.0039570257894571206 0 -3.9888118448183589e-05 -0.0039555679348831181 0 -4.0415862595632061e-05 -0.0039541300119497989 0 -3.6759747396997554e-05 -0.0039518450798104888 0 -3.9888118448183589e-05 -0.0039555679348831181 0 -3.6759747396997554e-05 -0.0039518450798104888 0 -3.9481252679097749e-05 -0.0039501561523752711 0 -3.5830595883507157e-05 -0.0039468309442057181 0 -3.6759747396997554e-05 -0.0039518450798104888 0 -3.9481252679097749e-05 -0.0039501561523752711 0 -3.5830595883507157e-05 -0.0039468309442057181 0 -3.6759747396997554e-05 -0.0039518450798104888 0 -3.181135443352044e-05 -0.0039480017783477305 0 -2.6832977089584447e-05 -0.0039472450204387716 0 -2.3053453857579033e-05 -0.0039483363185094499 0 -3.0319945828059837e-05 -0.0039570257894571206 0 -2.3053453857579033e-05 -0.0039483363185094499 0 -3.0319945828059837e-05 -0.0039570257894571206 0 -1.7009604956310628e-05 -0.0039487453634284332 0 5.4022047366032827e-05 -0.0038845142902261256 0 1.6477609880641521e-05 -0.0037898377766057904 0 -3.181135443352044e-05 -0.0039480017783477305 0 -2.6832977089584447e-05 -0.0039472450204387716 0 -3.0319945828059837e-05 -0.0039570257894571206 0 0.00017229923178166908 -0.0036885657471052748 0 0.00015384661261599297 -0.0036982629523588688 0 0.00013066439652263348 -0.0036541855625237272 0 0.00011667074400961208 -0.003948216044717648 0 0.00014889618615238163 -0.0037716837373408924 0 0.00015384661261599297 -0.0036982629523588688 0 0.00011637627880481617 -0.0036720038039102271 0 9.771453968786572e-05 -0.0036859021671941353 0 0.00015384661261599297 -0.0036982629523588688 0 0.00011637627880481617 -0.0036720038039102271 0 0.00013066439652263348 -0.0036541855625237272 0 5.4022047366032827e-05 -0.0038845142902261256 0 7.518189356800805e-05 -0.0036919329238040985 0 9.6284275281488307e-05 -0.0036602284677075842 0 9.8076012627949251e-05 -0.0036808784968510697 0 6.2364894982511158e-05 -0.003673844747640482 0 9.2502675857499811e-05 -0.0036340129693394041 0 8.661238338218844e-05 -0.0037080549149591763 0 2.410103456266699e-05 -0.0036212031548755186 0 0.00011637627880481617 -0.0036720038039102271 0 9.6284275281488307e-05 -0.0036602284677075842 0 9.771453968786572e-05 -0.0036859021671941353 0 0.00011637627880481617 -0.0036720038039102271 0 9.6284275281488307e-05 -0.0036602284677075842 0 0.00013066439652263348 -0.0036541855625237272 0 8.6806225779897337e-05 -0.0036673211646986136 0 7.518189356800805e-05 -0.0036919329238040985 0 7.518189356800805e-05 -0.0036919329238040985 0 1.6477609880641521e-05 -0.0037898377766057904 0 5.2749928605313127e-05 -0.003790824135517699 0 4.6115508196065031e-05 -0.003788793297290453 0 4.6422550407591727e-05 -0.0037937128040689818 0 9.2502675857499811e-05 -0.0036340129693394041 0 9.8598047136325842e-05 -0.0037013559795239276 0 8.661238338218844e-05 -0.0037080549149591763 0 -1.7521138558310771e-05 -0.0039449142099173273 0 -2.3053453857579033e-05 -0.0039483363185094499 0 -1.7009604956310628e-05 -0.0039487453634284332 0 1.8592310612613457e-05 -0.0037964971066964284 0 1.6477609880641521e-05 -0.0037898377766057904 0 1.8592310612613457e-05 -0.0037964971066964284 0 6.1254122878495282e-05 -0.003706505599228126 0 3.9928018486308527e-05 -0.0037769202276080583 0 3.5372315569101869e-05 -0.0037294407601721966 0 1.391651073423457e-05 -0.0037415125644273575 0 1.6477609880641521e-05 -0.0037898377766057904 0 6.1254122878495282e-05 -0.003706505599228126 0 1.1865522796196563e-05 -0.0043880023264993955 0 1.1209207267939398e-06 -0.0043782589279459704 0 1.6495658125915327e-05 -0.0043818915066660379 0 1.1865522796196563e-05 -0.0043880023264993955 0 1.6495658125915327e-05 -0.0043818915066660379 0 2.0594846817480023e-05 -0.0043875081104932899 0 1.1865522796196563e-05 -0.0043880023264993955 0 2.0594846817480023e-05 -0.0043875081104932899 0 2.0272218214153298e-05 -0.0043945116466217017 0 -3.5047621142062393e-06 -0.0043902287906615626 0 3.7046450626341175e-06 -0.0043899222846619321 0 1.1209207267939398e-06 -0.0043782589279459704 0 1.1865522796196563e-05 -0.0043880023264993955 0 3.7046450626341175e-06 -0.0043899222846619321 0 1.1209207267939398e-06 -0.0043782589279459704 0 1.1865522796196563e-05 -0.0043880023264993955 0 3.7046450626341175e-06 -0.0043899222846619321 0 9.9728551988710279e-06 -0.0043958288171829967 0 4.5990623184637408e-06 -0.0045294654391830084 0 5.0504474531955969e-05 -0.0044999422929806474 0 -6.1549372791398608e-06 -0.0043903454869850264 0 3.7046450626341175e-06 -0.0043899222846619321 0 5.3955134469952871e-07 -0.0043962901262846587 0 4.5990623184637408e-06 -0.0045294654391830084 0 -3.1331210500238741e-06 -0.0044364305867908051 0 5.0504474531955969e-05 -0.0044999422929806474 0 1.9873076870652429e-05 -0.0043064108293080494 0 0.00013364068204882906 -0.004288741106872075 0 7.8682408895485006e-05 -0.0043125889806890404 0 3.1037347697897358e-05 -0.0042524531686531546 0 9.2411581311313234e-05 -0.0045098834103317895 0 5.0504474531955969e-05 -0.0044999422929806474 0 5.6070674897913987e-05 -0.0046936714920660146 0 6.5710462710477199e-05 -0.004687789543556818 0 6.1818176493358377e-05 -0.0046763431180193464 0 0.00010856455230996114 -0.0043574419254093786 0 0.00013364068204882906 -0.004288741106872075 0 7.8682408895485006e-05 -0.0043125889806890404 0 4.1331362021837917e-05 -0.0043518151426073489 0 7.8682408895485006e-05 -0.0043125889806890404 0 3.1037347697897358e-05 -0.0042524531686531546 0 -2.5364572437702708e-05 -0.0043391802516070778 0 4.1331362021837917e-05 -0.0043518151426073489 0 3.1037347697897358e-05 -0.0042524531686531546 0 -2.5364572437702708e-05 -0.0043391802516070778 0 3.1037347697897358e-05 -0.0042524531686531546 0 -3.3836425444902492e-05 -0.0042724404788868449 0 -5.9904197831999698e-05 -0.0040986763161996211 0 -7.1217003838708234e-05 -0.0041071126809015908 0 -2.5364572437702708e-05 -0.0043391802516070778 0 -3.3836425444902492e-05 -0.0042724404788868449 0 -9.9199603263636511e-05 -0.0042596500239722177 0 -4.9003454395007805e-05 -0.0039302018154734799 0 -4.3484180611033723e-05 -0.0039315782480492016 0 -5.4688520680782929e-05 -0.003931636092731396 0 -5.0546486423956744e-05 -0.0039267950759185781 0 -4.6951765669710406e-05 -0.0039299484811349131 0 -5.4688520680782929e-05 -0.003931636092731396 0 -5.0505942342369459e-05 -0.0039277637648923126 0 -4.9003454395007805e-05 -0.0039302018154734799 0 -5.4688520680782929e-05 -0.003931636092731396 0 -5.0505942342369459e-05 -0.0039277637648923126 0 -5.0546486423956744e-05 -0.0039267950759185781 0 -5.4688520680782929e-05 -0.003931636092731396 0 -3.4559993915902271e-05 -0.0039671500371122907 0 -3.0257919199970285e-05 -0.0039596251539451201 0 -8.0686326068729624e-06 -0.0039800673496769778 0 -0.00017204073767084049 -0.0041803063390061903 0 -9.9199603263636511e-05 -0.0042596500239722177 0 -9.4476830353035267e-05 -0.0042082000989584235 0 -8.6328591815770886e-05 -0.0040236091052499113 0 -2.0681178583512823e-05 -0.0041796974736869564 0 -8.6328591815770886e-05 -0.0040236091052499113 0 -7.1217003838708234e-05 -0.0041071126809015908 0 -9.9199603263636511e-05 -0.0042596500239722177 0 -7.1202914052554268e-05 -0.0042164665467584322 0 -9.4476830353035267e-05 -0.0042082000989584235 0 -9.436967346918013e-06 -0.0042556557168542909 0 -2.0681178583512823e-05 -0.0041796974736869564 0 2.5887373736961471e-05 -0.0043864288567564544 0 2.5448935192371444e-05 -0.0043864630073105334 0 2.400156131817655e-05 -0.0043882603444761201 0 2.5448935192371444e-05 -0.0043864630073105334 0 2.400156131817655e-05 -0.0043882603444761201 0 2.182035387238425e-05 -0.0043841666243265246 0 -1.1337329082437238e-05 -0.0041703339114268767 0 -2.0681178583512823e-05 -0.0041796974736869564 0 1.099307147316024e-05 -0.0043810940521718782 0 2.400156131817655e-05 -0.0043882603444761201 0 2.182035387238425e-05 -0.0043841666243265246 0 1.9873076870652429e-05 -0.0043064108293080494 0 -9.436967346918013e-06 -0.0042556557168542909 0 3.1037347697897358e-05 -0.0042524531686531546 0 -3.3836425444902492e-05 -0.0042724404788868449 0 -7.1202914052554268e-05 -0.0042164665467584322 0 1.6495658125915327e-05 -0.0043818915066660379 0 2.5887373736961471e-05 -0.0043864288567564544 0 2.0594846817480023e-05 -0.0043875081104932899 0 -3.3836425444902492e-05 -0.0042724404788868449 0 -9.9199603263636511e-05 -0.0042596500239722177 0 -7.1202914052554268e-05 -0.0042164665467584322 0 2.5887373736961471e-05 -0.0043864288567564544 0 2.4310601652480044e-05 -0.0043880519094097155 0 2.0594846817480023e-05 -0.0043875081104932899 0 2.5887373736961471e-05 -0.0043864288567564544 0 2.5448935192371444e-05 -0.0043864630073105334 0 2.4310601652480044e-05 -0.0043880519094097155 0 2.4310601652480044e-05 -0.0043880519094097155 0 2.0594846817480023e-05 -0.0043875081104932899 0 2.0272218214153298e-05 -0.0043945116466217017 0 3.5315052405242387e-05 -0.0043967208428469691 0 1.8117887541875605e-05 -0.0044146053199375906 0 2.0272218214153298e-05 -0.0043945116466217017 0 2.4310601652480044e-05 -0.0043880519094097155 0 2.522650821833757e-05 -0.0043890198238480489 0 2.0272218214153298e-05 -0.0043945116466217017 0 8.3341583478715634e-05 -0.0043276981475679479 0 1.1690482069604512e-05 -0.0043826446518247832 0 2.5448935192371444e-05 -0.0043864630073105334 0 2.4310601652480044e-05 -0.0043880519094097155 0 2.6007118468627713e-05 -0.0043846615093089776 0 2.4310601652480044e-05 -0.0043880519094097155 0 2.522650821833757e-05 -0.0043890198238480489 0 2.6007118468627713e-05 -0.0043846615093089776 0 8.3341583478715634e-05 -0.0043276981475679479 0 3.6473774336780434e-05 -0.0043748315858436557 0 0.00015339281248555057 -0.0042401217568060505 0 0.00013020577863705448 -0.0042346616392628655 0 0.00013760054117569116 -0.0042185058054457041 0 8.3341583478715634e-05 -0.0043276981475679479 0 8.0489637590543684e-05 -0.0043057018160332838 0 3.0985361864168915e-05 -0.0043794220710629455 0 2.0448228962973745e-05 -0.0043808690819152549 0 1.5072940251680672e-05 -0.0043731996134501157 0 1.099307147316024e-05 -0.0043810940521718782 0 2.0448228962973745e-05 -0.0043808690819152549 0 1.5072940251680672e-05 -0.0043731996134501157 0 1.099307147316024e-05 -0.0043810940521718782 0 2.0448228962973745e-05 -0.0043808690819152549 0 2.182035387238425e-05 -0.0043841666243265246 0 3.0985361864168915e-05 -0.0043794220710629455 0 2.0448228962973745e-05 -0.0043808690819152549 0 2.6007118468627713e-05 -0.0043846615093089776 0 2.0448228962973745e-05 -0.0043808690819152549 0 2.182035387238425e-05 -0.0043841666243265246 0 2.6007118468627713e-05 -0.0043846615093089776 0 2.5448935192371444e-05 -0.0043864630073105334 0 2.182035387238425e-05 -0.0043841666243265246 0 2.6007118468627713e-05 -0.0043846615093089776 0 0.00015339281248555057 -0.0042401217568060505 0 0.00013760054117569116 -0.0042185058054457041 0 0.00015804774460186853 -0.0042155607544370191 0 0.00013760054117569116 -0.0042185058054457041 0 0.00015804774460186853 -0.0042155607544370191 0 0.00014426505196187946 -0.0041932582730747773 0 0.00012040203923843766 -0.0042216200097562641 0 0.00013020577863705448 -0.0042346616392628655 0 0.00013760054117569116 -0.0042185058054457041 0 0.00015339281248555057 -0.0042401217568060505 0 0.00015804774460186853 -0.0042155607544370191 0 0.00017711591772900508 -0.0042177388564889973 0 8.3341583478715634e-05 -0.0043276981475679479 0 9.4784742855790843e-05 -0.0044738269656310605 0 0.00015804774460186853 -0.0042155607544370191 0 0.00016824809135901578 -0.0042131881318114356 0 0.0001672233434086597 -0.0042102208777066233 0 0.00015804774460186853 -0.0042155607544370191 0 0.00016824809135901578 -0.0042131881318114356 0 0.00017711591772900508 -0.0042177388564889973 0 0.00016824809135901578 -0.0042131881318114356 0 0.00016718436872299199 -0.0042105398602451972 0 0.00017711591772900508 -0.0042177388564889973 0 0.00022889011392740021 -0.0043054263034823055 0 0.00023844186450144362 -0.0043253969514257902 0 0.00023844186450144362 -0.0043253969514257902 0 9.4784742855790843e-05 -0.0044738269656310605 0 0.00032569473312074398 -0.0043672574688819422 0 0.0003357640942025389 -0.0043749554427842214 0 0.00033980036845070486 -0.0043570257162072728 0 -0.00026179261073918254 -0.0048817044667039755 0 -0.00025073671098108596 -0.0048920587362924145 0 -0.00025319435049452104 -0.0048829404359096535 0 9.4784742855790843e-05 -0.0044738269656310605 0 -0.00014137971468762821 -0.0046456947994682665 0 -0.00026179261073918254 -0.0048817044667039755 0 -0.00025319435049452104 -0.0048829404359096535 0 -0.00025650739950887764 -0.0048698478204047607 0 1.8117887541875605e-05 -0.0044146053199375906 0 9.9728551988710279e-06 -0.0043958288171829967 0 2.0272218214153298e-05 -0.0043945116466217017 0 1.8117887541875605e-05 -0.0044146053199375906 0 9.9728551988710279e-06 -0.0043958288171829967 0 3.968411412273586e-06 -0.004406020876504377 0 1.1865522796196563e-05 -0.0043880023264993955 0 9.9728551988710279e-06 -0.0043958288171829967 0 2.0272218214153298e-05 -0.0043945116466217017 0 -9.5477414105896876e-06 -0.0043991826802290733 0 5.3955134469952871e-07 -0.0043962901262846587 0 3.968411412273586e-06 -0.004406020876504377 0 -0.00024069370377662746 -0.0048965341027524308 0 -0.00025073671098108596 -0.0048920587362924145 0 -0.00024392687006627326 -0.0048908464193256167 0 -0.00015877437244589745 -0.0047086629853171046 0 -0.00014137971468762821 -0.0046456947994682665 0 3.7046450626341175e-06 -0.0043899222846619321 0 9.9728551988710279e-06 -0.0043958288171829967 0 5.3955134469952871e-07 -0.0043962901262846587 0 9.9728551988710279e-06 -0.0043958288171829967 0 5.3955134469952871e-07 -0.0043962901262846587 0 3.968411412273586e-06 -0.004406020876504377 0 -0.00025073671098108596 -0.0048920587362924145 0 -0.00024392687006627326 -0.0048908464193256167 0 -0.00025319435049452104 -0.0048829404359096535 0 -0.00024392687006627326 -0.0048908464193256167 0 -0.00025319435049452104 -0.0048829404359096535 0 -0.00024774955366198737 -0.0048815023089147794 0 -0.00024774955366198737 -0.0048815023089147794 0 -0.00025650739950887764 -0.0048698478204047607 0 -0.00023916850894439241 -0.0048671572320827614 0 -0.00025650739950887764 -0.0048698478204047607 0 -0.00023916850894439241 -0.0048671572320827614 0 -0.00024304188620632476 -0.0048396145712663145 0 -0.00025319435049452104 -0.0048829404359096535 0 -0.00024774955366198737 -0.0048815023089147794 0 -0.00025650739950887764 -0.0048698478204047607 0 0.00035650760726846896 -0.0043520443227998643 0 0.00036317133529303197 -0.0043316352771179747 0 0.00037298562840907417 -0.0043269957287387162 0 1.2301925632840236e-05 -0.0046539534521668853 0 0.00016838982544102937 -0.0044707113799622028 0 0.00037877869994181688 -0.0043620178715210482 0 0.00016838982544102937 -0.0044707113799622028 0 0.00035650760726846896 -0.0043520443227998643 0 0.00036317133529303197 -0.0043316352771179747 0 0.00035288325593546885 -0.004336654670833523 0 0.00036317133529303197 -0.0043316352771179747 0 0.00035708569597203818 -0.0043237168494752384 0 0.00035288325593546885 -0.004336654670833523 0 0.00036317133529303197 -0.0043316352771179747 0 0.00035708569597203818 -0.0043237168494752384 0 0.00036419017761403022 -0.0043230596657920792 0 0.00036419017761403022 -0.0043230596657920792 0 0.00036397703372232862 -0.0043217210242264999 0 0.00036257560698841127 -0.0043225185912453574 0 0.00036317133529303197 -0.0043316352771179747 0 0.00036419017761403022 -0.0043230596657920792 0 0.00036397703372232862 -0.0043217210242264999 0 0.00034339483991566112 -0.0043315935280867869 0 0.00032712316495649016 -0.0043337646607580719 0 0.00033980122292742428 -0.0043192468297773724 0 0.00035708569597203818 -0.0043237168494752384 0 0.00035288325593546885 -0.004336654670833523 0 0.00034339483991566112 -0.0043315935280867869 0 0.00035708569597203818 -0.0043237168494752384 0 0.00034339483991566112 -0.0043315935280867869 0 0.00033980122292742428 -0.0043192468297773724 0 0.00035288325593546885 -0.004336654670833523 0 0.00034339483991566112 -0.0043315935280867869 0 0.00033902422336977087 -0.0043445958070279581 0 0.00034339483991566112 -0.0043315935280867869 0 0.00033902422336977087 -0.0043445958070279581 0 0.00032712316495649016 -0.0043337646607580719 0 0.0003325459943553935 -0.0043543655743444216 0 0.00033902422336977087 -0.0043445958070279581 0 0.00033980036845070486 -0.0043570257162072728 0 0.0003325459943553935 -0.0043543655743444216 0 0.00033902422336977087 -0.0043445958070279581 0 0.00032609650218850503 -0.0043479270754801479 0 0.00035650760726846896 -0.0043520443227998643 0 0.00035288325593546885 -0.004336654670833523 0 0.00033902422336977087 -0.0043445958070279581 0 0.00035650760726846896 -0.0043520443227998643 0 0.00033902422336977087 -0.0043445958070279581 0 0.00033980036845070486 -0.0043570257162072728 0 9.4784742855790843e-05 -0.0044738269656310605 0 1.2301925632840236e-05 -0.0046539534521668853 0 0.0003357640942025389 -0.0043749554427842214 0 0.00035650760726846896 -0.0043520443227998643 0 0.00033980036845070486 -0.0043570257162072728 0 0.00032569473312074398 -0.0043672574688819422 0 0.0003325459943553935 -0.0043543655743444216 0 0.00033980036845070486 -0.0043570257162072728 0 0.00028193329764460482 -0.004315782761961276 0 0.00026167130018869258 -0.0042916599327155963 0 0.00026600695084968745 -0.0042741346731487882 0 0.00032569473312074398 -0.0043672574688819422 0 0.00032609650218850503 -0.0043479270754801479 0 0.00031063193475430539 -0.0043352783124323401 0 0.00028193329764460482 -0.004315782761961276 0 0.00026167130018869258 -0.0042916599327155963 0 0.00025306429415087299 -0.004296075563065156 0 0.00032569473312074398 -0.0043672574688819422 0 0.0003325459943553935 -0.0043543655743444216 0 0.00032609650218850503 -0.0043479270754801479 0 0.00023844186450144362 -0.0043253969514257902 0 0.00029712534785095461 -0.0043103487379891623 0 0.00015804774460186853 -0.0042155607544370191 0 0.0001672233434086597 -0.0042102208777066233 0 0.00014426505196187946 -0.0041932582730747773 0 0.00023844186450144362 -0.0043253969514257902 0 0.00021407248801372196 -0.0041135800651837763 0 0.00011927185695007688 -0.0042058529296865885 0 0.00013760054117569116 -0.0042185058054457041 0 0.00014426505196187946 -0.0041932582730747773 0 0.0001625479744881947 -0.0040422187787289843 0 0.00021407248801372196 -0.0041135800651837763 0 0.00026167130018869258 -0.0042916599327155963 0 0.00025240568488220811 -0.0042976026309804131 0 0.00026600695084968745 -0.0042741346731487882 0 0.00020746367125677452 -0.0041733231186446727 0 0.00021407248801372196 -0.0041135800651837763 0 0.00025240568488220811 -0.0042976026309804131 0 0.00026600695084968745 -0.0042741346731487882 0 0.00023478721190862094 -0.0042567218711386358 0 0.00032609650218850503 -0.0043479270754801479 0 0.00032712316495649016 -0.0043337646607580719 0 0.00031063193475430539 -0.0043352783124323401 0 0.00033902422336977087 -0.0043445958070279581 0 0.00032609650218850503 -0.0043479270754801479 0 0.00032712316495649016 -0.0043337646607580719 0 0.00032712316495649016 -0.0043337646607580719 0 0.00031063193475430539 -0.0043352783124323401 0 0.00031995610402936703 -0.0043154866968704462 0 0.00032712316495649016 -0.0043337646607580719 0 0.00031995610402936703 -0.0043154866968704462 0 0.00033980122292742428 -0.0043192468297773724 0 0.00031063193475430539 -0.0043352783124323401 0 0.00031995610402936703 -0.0043154866968704462 0 0.00028281036425870825 -0.0042835882782891761 0 0.00031995610402936703 -0.0043154866968704462 0 0.00033042702664177895 -0.004299652822610237 0 0.00033980122292742428 -0.0043192468297773724 0 0.00031995610402936703 -0.0043154866968704462 0 0.00033042702664177895 -0.004299652822610237 0 0.00028281036425870825 -0.0042835882782891761 0 0.00026600695084968745 -0.0042741346731487882 0 0.00024957662514393791 -0.0042246411925696368 0 0.00023478721190862094 -0.0042567218711386358 0 0.00029712534785095461 -0.0043103487379891623 0 0.00026498097493968129 -0.0042495357964815478 0 0.00026498097493968129 -0.0042495357964815478 0 0.00024127636485038267 -0.0041725635743545125 0 0.00028281036425870825 -0.0042835882782891761 0 0.00024086021317573343 -0.0041658638902818601 0 0.00030949138547979984 -0.0042073978217099604 0 0.00028281036425870825 -0.0042835882782891761 0 0.00034579497404027852 -0.0042607262251132217 0 0.00030949138547979984 -0.0042073978217099604 0 0.00033042702664177895 -0.004299652822610237 0 0.00028281036425870825 -0.0042835882782891761 0 0.00034579497404027852 -0.0042607262251132217 0 0.00034579497404027852 -0.0042607262251132217 0 0.00036417327597428035 -0.004298789996033954 0 0.00036024282141262735 -0.0042490509582257495 0 0.00034579497404027852 -0.0042607262251132217 0 0.00036417327597428035 -0.004298789996033954 0 0.00035342001107168276 -0.0043051692836294005 0 0.00036417327597428035 -0.004298789996033954 0 0.00036667777865084501 -0.004296618910442529 0 0.00036771002577990316 -0.0043411074260826512 0 0.00036417327597428035 -0.004298789996033954 0 0.00036619852237069627 -0.0043187178695060866 0 0.00036771002577990316 -0.0043411074260826512 0 0.00036417327597428035 -0.004298789996033954 0 0.00036667777865084501 -0.004296618910442529 0 0.00036024282141262735 -0.0042490509582257495 0 0.00036417327597428035 -0.004298789996033954 0 0.00036619852237069627 -0.0043187178695060866 0 0.00035342001107168276 -0.0043051692836294005 0 0.00036419017761403022 -0.0043230596657920792 0 0.00036619852237069627 -0.0043187178695060866 0 0.00036257560698841127 -0.0043225185912453574 0 0.00035708569597203818 -0.0043237168494752384 0 0.00036619852237069627 -0.0043187178695060866 0 0.00035342001107168276 -0.0043051692836294005 0 0.00035708569597203818 -0.0043237168494752384 0 0.00036419017761403022 -0.0043230596657920792 0 0.00036619852237069627 -0.0043187178695060866 0 0.00035708569597203818 -0.0043237168494752384 0 0.00033980122292742428 -0.0043192468297773724 0 0.00035342001107168276 -0.0043051692836294005 0 0.00033042702664177895 -0.004299652822610237 0 0.00033980122292742428 -0.0043192468297773724 0 0.00035342001107168276 -0.0043051692836294005 0 0.00033042702664177895 -0.004299652822610237 0 0.00034579497404027852 -0.0042607262251132217 0 0.00035342001107168276 -0.0043051692836294005 0 0.00015160784365436159 -0.0031460310784804809 0 0.00019418697522433816 -0.0031370859582994211 0 0.00013374876415800382 -0.0031058017146542629 0 0.00019681281537293528 -0.0034362981553501758 0 0.00013553660625697459 -0.0034892423029064374 0 0.00013678156357274854 -0.0038192507182714672 0 0.00011968101806832323 -0.0038419300194858508 0 0.00014654781837443863 -0.003842371544193189 0 0.00015160784365436159 -0.0031460310784804809 0 0.00019418697522433816 -0.0031370859582994211 0 0.00015662322413122738 -0.003190324000889198 0 0.00013553660625697459 -0.0034892423029064374 0 0.00014889618615238163 -0.0037716837373408924 0 9.6284275281488307e-05 -0.0036602284677075842 0 9.0509749312144664e-05 -0.0036226972021015558 0 0.00013066439652263348 -0.0036541855625237272 0 0.00011968101806832323 -0.0038419300194858508 0 0.00014833828606448883 -0.003867164130458896 0 0.00014654781837443863 -0.003842371544193189 0 0.00014833828606448883 -0.003867164130458896 0 0.00014654781837443863 -0.003842371544193189 0 0.00017371717668048423 -0.0038548154033568741 0 0.00017721233939394114 -0.0038913188601407554 0 0.00014833828606448883 -0.003867164130458896 0 0.00017371717668048423 -0.0038548154033568741 0 0.00014654781837443863 -0.003842371544193189 0 0.00016081922755944452 -0.0038282317554792977 0 0.00017371717668048423 -0.0038548154033568741 0 0.00013678156357274854 -0.0038192507182714672 0 0.00014654781837443863 -0.003842371544193189 0 0.00016081922755944452 -0.0038282317554792977 0 0.00016081922755944452 -0.0038282317554792977 0 0.00019732967249206358 -0.0038279537667407614 0 0.00015331677238711024 -0.0037964337150466695 0 0.00016081922755944452 -0.0038282317554792977 0 0.00017371717668048423 -0.0038548154033568741 0 0.00019732967249206358 -0.0038279537667407614 0 0.00020887198712148076 -0.0038748317895731669 0 0.00017371717668048423 -0.0038548154033568741 0 0.00019732967249206358 -0.0038279537667407614 0 0.00020887198712148076 -0.0038748317895731669 0 0.00024029190300462334 -0.0038592613312359359 0 0.00019732967249206358 -0.0038279537667407614 0 0.00021407248801372196 -0.0041135800651837763 0 0.00021171831980624855 -0.0040759710548750475 0 0.00025240568488220811 -0.0042976026309804131 0 0.00023478721190862094 -0.0042567218711386358 0 0.00019787079103472828 -0.0042680577603015904 0 0.00024957662514393791 -0.0042246411925696368 0 0.00023478721190862094 -0.0042567218711386358 0 0.00020429165912031806 -0.0042131491379055796 0 0.00023478721190862094 -0.0042567218711386358 0 0.00019787079103472828 -0.0042680577603015904 0 0.00020429165912031806 -0.0042131491379055796 0 0.00024957662514393791 -0.0042246411925696368 0 0.00020429165912031806 -0.0042131491379055796 0 0.00024086021317573343 -0.0041658638902818601 0 0.00020429165912031806 -0.0042131491379055796 0 0.00015813653921800699 -0.0041894555319515001 0 0.00017707789276019223 -0.0041411047874245453 0 0.00020429165912031806 -0.0042131491379055796 0 0.00015813653921800699 -0.0041894555319515001 0 0.00013178654568982918 -0.0042294283473167235 0 0.00019787079103472828 -0.0042680577603015904 0 0.00020429165912031806 -0.0042131491379055796 0 0.00013178654568982918 -0.0042294283473167235 0 0.00021171831980624855 -0.0040759710548750475 0 0.00012967552040683822 -0.0038163959828508105 0 0.00013678156357274854 -0.0038192507182714672 0 0.00016081922755944452 -0.0038282317554792977 0 0.00015331677238711024 -0.0037964337150466695 0 0.00019681281537293528 -0.0034362981553501758 0 0.00012967552040683822 -0.0038163959828508105 0 0.00012589684073231356 -0.0042129271152158273 0 0.00012967552040683822 -0.0038163959828508105 0 0.00015535706879806605 -0.0041153811767777881 0 8.5991124882703107e-05 -0.0042147232901014508 0 5.281739228572534e-05 -0.0041090766498859113 0 8.5991124882703107e-05 -0.0042147232901014508 0 5.281739228572534e-05 -0.0041090766498859113 0 -4.9729948660257857e-05 -0.00413603802127256 0 0.00012967552040683822 -0.0038163959828508105 0 4.6090051784846648e-05 -0.0035589674417106304 0 0.00019418697522433816 -0.0031370859582994211 0 0.00023187225830029293 -0.00308705486842329 0 0.00013374876415800382 -0.0031058017146542629 0 0.00023187225830029293 -0.00308705486842329 0 0.00014963916955558894 -0.0030270035353668861 0 0.00013374876415800382 -0.0031058017146542629 0 5.9140960564014465e-05 -0.0039018230248498761 0 -0.00014782768348914357 -0.0038646793508758655 0 -5.8501989498547167e-05 -0.0039971978840471767 0 0.0001088817953900684 -0.0040168335832538281 0 5.9140960564014465e-05 -0.0039018230248498761 0 -5.8501989498547167e-05 -0.0039971978840471767 0 5.281739228572534e-05 -0.0041090766498859113 0 0.0001088817953900684 -0.0040168335832538281 0 -5.8501989498547167e-05 -0.0039971978840471767 0 5.281739228572534e-05 -0.0041090766498859113 0 -4.9729948660257857e-05 -0.00413603802127256 0 -5.8501989498547167e-05 -0.0039971978840471767 0 0.00015535706879806605 -0.0041153811767777881 0 5.281739228572534e-05 -0.0041090766498859113 0 0.0001088817953900684 -0.0040168335832538281 0 0.0001088817953900684 -0.0040168335832538281 0 5.9140960564014465e-05 -0.0039018230248498761 0 0.000156290713774869 -0.0039738314831260441 0 8.381240282485323e-05 -0.0038966174649573294 0 0.00022318314438376832 -0.0039444971684391089 0 0.000156290713774869 -0.0039738314831260441 0 0.00021964577297217127 -0.0040171250008805741 0 0.00022808681631251014 -0.0039530505153708749 0 5.9140960564014465e-05 -0.0039018230248498761 0 0.000156290713774869 -0.0039738314831260441 0 0.00022808681631251014 -0.0039530505153708749 0 0.0001088817953900684 -0.0040168335832538281 0 0.000156290713774869 -0.0039738314831260441 0 0.00021964577297217127 -0.0040171250008805741 0 0.00012589684073231356 -0.0042129271152158273 0 0.00020808677881765944 -0.0040641016759175507 0 0.00015535706879806605 -0.0041153811767777881 0 0.0001088817953900684 -0.0040168335832538281 0 0.00021964577297217127 -0.0040171250008805741 0 0.00020429165912031806 -0.0042131491379055796 0 0.00017707789276019223 -0.0041411047874245453 0 0.00024086021317573343 -0.0041658638902818601 0 0.00017707789276019223 -0.0041411047874245453 0 0.00024086021317573343 -0.0041658638902818601 0 0.00026020752518528462 -0.00408924815606333 0 0.00020808677881765944 -0.0040641016759175507 0 0.00024809703916252009 -0.0039972164056160039 0 0.00017707789276019223 -0.0041411047874245453 0 0.00026020752518528462 -0.00408924815606333 0 0.00025336540082106343 -0.0039854309130914868 0 0.00021964577297217127 -0.0040171250008805741 0 0.00022808681631251014 -0.0039530505153708749 0 0.00025336540082106343 -0.0039854309130914868 0 0.00026020752518528462 -0.00408924815606333 0 0.00025336540082106343 -0.0039854309130914868 0 0.0002994323953597151 -0.0040325994092625782 0 0.00025336540082106343 -0.0039854309130914868 0 0.00027912986127976179 -0.0039306552967463852 0 0.00025399344180569526 -0.0038834427121009442 0 0.00025336540082106343 -0.0039854309130914868 0 0.00027912986127976179 -0.0039306552967463852 0 0.0002994323953597151 -0.0040325994092625782 0 0.00022808681631251014 -0.0039530505153708749 0 0.00025336540082106343 -0.0039854309130914868 0 0.00025399344180569526 -0.0038834427121009442 0 0.00027912986127976179 -0.0039306552967463852 0 0.00025399344180569526 -0.0038834427121009442 0 0.00030218539468611117 -0.0038688732015199037 0 0.00028713095303115646 -0.0037978862187629655 0 0.00034190783097400658 -0.0038135870336653255 0 0.00032321875306268139 -0.0037200966231517854 0 0.00025399344180569526 -0.0038834427121009442 0 0.00028713095303115646 -0.0037978862187629655 0 0.00030218539468611117 -0.0038688732015199037 0 0.00025399344180569526 -0.0038834427121009442 0 0.00028713095303115646 -0.0037978862187629655 0 0.00022593790579344757 -0.0037826585856948038 0 0.00022593790579344757 -0.0037826585856948038 0 0.00019527145928562451 -0.0038404178116154693 0 0.00014078417449506835 -0.0037688791452572899 0 0.00022593790579344757 -0.0037826585856948038 0 0.00020302759597136234 -0.0037155371306180837 0 0.00014078417449506835 -0.0037688791452572899 0 0.00022593790579344757 -0.0037826585856948038 0 0.00020302759597136234 -0.0037155371306180837 0 0.00026424564084259533 -0.0037180214921982207 0 0.00028713095303115646 -0.0037978862187629655 0 0.00022593790579344757 -0.0037826585856948038 0 0.00026424564084259533 -0.0037180214921982207 0 0.00025399344180569526 -0.0038834427121009442 0 0.00022593790579344757 -0.0037826585856948038 0 0.00019527145928562451 -0.0038404178116154693 0 0.00010601973592831437 -0.0038848151512445748 0 0.00022808681631251014 -0.0039530505153708749 0 0.00019527145928562451 -0.0038404178116154693 0 0.00022808681631251014 -0.0039530505153708749 0 0.00025399344180569526 -0.0038834427121009442 0 0.00019527145928562451 -0.0038404178116154693 0 0.00010601973592831437 -0.0038848151512445748 0 0.00019527145928562451 -0.0038404178116154693 0 0.00014078417449506835 -0.0037688791452572899 0 0.00020302759597136234 -0.0037155371306180837 0 0.00014078417449506835 -0.0037688791452572899 0 0.00010691223356505011 -0.003625874818541654 0 0.00014078417449506835 -0.0037688791452572899 0 2.0589638567595396e-05 -0.0037434143209983672 0 0.00010691223356505011 -0.003625874818541654 0 2.0589638567595396e-05 -0.0037434143209983672 0 0.00010691223356505011 -0.003625874818541654 0 -5.1216968606008252e-05 -0.0036110878500931103 0 8.381240282485323e-05 -0.0038966174649573294 0 -0.0001337486341166313 -0.0038569754080686092 0 0.00010601973592831437 -0.0038848151512445748 0 2.0589638567595396e-05 -0.0037434143209983672 0 -0.00011028614735878047 -0.0038507337805413541 0 0.00010601973592831437 -0.0038848151512445748 0 0.00014078417449506835 -0.0037688791452572899 0 2.0589638567595396e-05 -0.0037434143209983672 0 0.00035893824872197325 -0.0041878606312240685 0 0.00035146251442375444 -0.0041450342917286435 0 0.00035707746012261852 -0.0041235032541019926 0 0.00035893824872197325 -0.0041878606312240685 0 0.00035707746012261852 -0.0041235032541019926 0 0.00036197314499106118 -0.0041861451348071425 0 0.00035893824872197325 -0.0041878606312240685 0 0.00036362396100990678 -0.0042221714547369818 0 0.00036024282141262735 -0.0042490509582257495 0 0.00035893824872197325 -0.0041878606312240685 0 0.00036362396100990678 -0.0042221714547369818 0 0.00036197314499106118 -0.0041861451348071425 0 0.00036362396100990678 -0.0042221714547369818 0 0.00036197314499106118 -0.0041861451348071425 0 0.00036888491309792018 -0.0042083064428422171 0 0.00036362396100990678 -0.0042221714547369818 0 0.00036888491309792018 -0.0042083064428422171 0 0.00037300303760323645 -0.0042381842798863943 0 0.00036362396100990678 -0.0042221714547369818 0 0.00036507353420023699 -0.0042747620162072869 0 0.00037300303760323645 -0.0042381842798863943 0 0.00036362396100990678 -0.0042221714547369818 0 0.00036507353420023699 -0.0042747620162072869 0 0.00036024282141262735 -0.0042490509582257495 0 0.00036507353420023699 -0.0042747620162072869 0 0.00036667777865084501 -0.004296618910442529 0 0.00036835304881617601 -0.0043272919050081444 0 0.00036507353420023699 -0.0042747620162072869 0 0.00036667777865084501 -0.004296618910442529 0 0.00036024282141262735 -0.0042490509582257495 0 0.00035893824872197325 -0.0041878606312240685 0 0.00036024282141262735 -0.0042490509582257495 0 0.00034258212125156366 -0.0041954408367162153 0 0.00034579497404027852 -0.0042607262251132217 0 0.00036024282141262735 -0.0042490509582257495 0 0.00034258212125156366 -0.0041954408367162153 0 0.00034258212125156366 -0.0041954408367162153 0 0.00030949138547979984 -0.0042073978217099604 0 0.00031131206622076461 -0.0041139368671292108 0 0.00034579497404027852 -0.0042607262251132217 0 0.00034258212125156366 -0.0041954408367162153 0 0.00030949138547979984 -0.0042073978217099604 0 0.00024086021317573343 -0.0041658638902818601 0 0.00030949138547979984 -0.0042073978217099604 0 0.00031131206622076461 -0.0041139368671292108 0 0.00024086021317573343 -0.0041658638902818601 0 0.00026020752518528462 -0.00408924815606333 0 0.00031131206622076461 -0.0041139368671292108 0 0.00026020752518528462 -0.00408924815606333 0 0.00031131206622076461 -0.0041139368671292108 0 0.0002994323953597151 -0.0040325994092625782 0 0.00031131206622076461 -0.0041139368671292108 0 0.0002994323953597151 -0.0040325994092625782 0 0.00034390902073383651 -0.0040826653722865385 0 0.00035146251442375444 -0.0041450342917286435 0 0.00034390902073383651 -0.0040826653722865385 0 0.00035707746012261852 -0.0041235032541019926 0 0.00031131206622076461 -0.0041139368671292108 0 0.00035146251442375444 -0.0041450342917286435 0 0.00034390902073383651 -0.0040826653722865385 0 0.00034258212125156366 -0.0041954408367162153 0 0.00031131206622076461 -0.0041139368671292108 0 0.00035146251442375444 -0.0041450342917286435 0 0.00035893824872197325 -0.0041878606312240685 0 0.00034258212125156366 -0.0041954408367162153 0 0.00035146251442375444 -0.0041450342917286435 0 0.0003629242921593864 -0.0038668216890075046 0 0.00038915170514677296 -0.0038525707915037658 0 0.00032271794191635539 -0.003960891358648278 0 0.0003592987288158328 -0.0039872281645564949 0 0.00031163267632237175 -0.003968948478158014 0 0.0003629242921593864 -0.0038668216890075046 0 0.00038915170514677296 -0.0038525707915037658 0 0.00037683114445057259 -0.003838089809959156 0 0.00034390902073383651 -0.0040826653722865385 0 0.00035707746012261852 -0.0041235032541019926 0 0.00032271794191635539 -0.003960891358648278 0 0.0003629242921593864 -0.0038668216890075046 0 0.00032271794191635539 -0.003960891358648278 0 0.00030218539468611117 -0.0038688732015199037 0 0.00027912986127976179 -0.0039306552967463852 0 0.0002994323953597151 -0.0040325994092625782 0 0.00032271794191635539 -0.003960891358648278 0 0.0002994323953597151 -0.0040325994092625782 0 0.00034390902073383651 -0.0040826653722865385 0 0.00032271794191635539 -0.003960891358648278 0 0.00027912986127976179 -0.0039306552967463852 0 0.00032271794191635539 -0.003960891358648278 0 0.00030218539468611117 -0.0038688732015199037 0 0.0003629242921593864 -0.0038668216890075046 0 0.00030218539468611117 -0.0038688732015199037 0 0.00034190783097400658 -0.0038135870336653255 0 0.00028713095303115646 -0.0037978862187629655 0 0.00030218539468611117 -0.0038688732015199037 0 0.00034190783097400658 -0.0038135870336653255 0 0.00038915170514677296 -0.0038525707915037658 0 0.00037683114445057259 -0.003838089809959156 0 0.00037079805566510554 -0.0038399100648693969 0 0.00034190783097400658 -0.0038135870336653255 0 0.00037683114445057259 -0.003838089809959156 0 0.00036875305531651741 -0.0037917234450794614 0 0.0003629242921593864 -0.0038668216890075046 0 0.00034190783097400658 -0.0038135870336653255 0 0.00037683114445057259 -0.003838089809959156 0 0.00037683114445057259 -0.003838089809959156 0 0.00037079805566510554 -0.0038399100648693969 0 0.00037076382868982285 -0.0038449013234141873 0 0.00037079805566510554 -0.0038399100648693969 0 0.00034219755398740551 -0.0038460982230690667 0 0.00037076382868982285 -0.0038449013234141873 0 0.00035707746012261852 -0.0041235032541019926 0 0.00036197314499106118 -0.0041861451348071425 0 0.00036315112179329521 -0.0041901040844250356 0 0.00038915170514677296 -0.0038525707915037658 0 0.00037079805566510554 -0.0038399100648693969 0 0.00034015724949469709 -0.0038087894942714796 0 0.0003592987288158328 -0.0039872281645564949 0 0.00034665199554329836 -0.0039871514371895619 0 0.00036888491309792018 -0.0042083064428422171 0 0.00036315112179329521 -0.0041901040844250356 0 0.00040720657978744675 -0.0041874687947336762 0 0.00036197314499106118 -0.0041861451348071425 0 0.00036888491309792018 -0.0042083064428422171 0 0.00036315112179329521 -0.0041901040844250356 0 0.00034015724949469709 -0.0038087894942714796 0 0.00034219755398740551 -0.0038460982230690667 0 0.00029522367612556277 -0.0038370621627054594 0 0.00037079805566510554 -0.0038399100648693969 0 0.00034015724949469709 -0.0038087894942714796 0 0.00034219755398740551 -0.0038460982230690667 0 0.00034219755398740551 -0.0038460982230690667 0 0.00029522367612556277 -0.0038370621627054594 0 0.00029155387123806222 -0.0038777069926229316 0 0.00024758137443834478 -0.0038528950592722198 0 0.00029522367612556277 -0.0038370621627054594 0 0.00029155387123806222 -0.0038777069926229316 0 0.00024758137443834478 -0.0038528950592722198 0 0.00029522367612556277 -0.0038370621627054594 0 0.00025323568003721186 -0.0037994887035950014 0 0.00024758137443834478 -0.0038528950592722198 0 0.00018475905254113114 -0.003830695096051938 0 0.00020788019199132865 -0.003921415583528408 0 0.00024758137443834478 -0.0038528950592722198 0 0.00018475905254113114 -0.003830695096051938 0 0.00025323568003721186 -0.0037994887035950014 0 0.00039534217129552656 -0.0042410602581972575 0 0.00038759260345228513 -0.004225327376590828 0 0.00038935257463090214 -0.0042493046435703209 0 0.00039534217129552656 -0.0042410602581972575 0 0.00038759260345228513 -0.004225327376590828 0 0.0003971719716084141 -0.0042412205450001921 0 0.00033211000580515203 -0.0042261402238137945 0 0.0003555145182307178 -0.0042124358396749507 0 0.00031916789889739047 -0.004218783053431866 0 0.00026075223784885959 -0.0040196359120369899 0 0.00034939988387468337 -0.0041213752160044904 0 0.00034939988387468337 -0.0041213752160044904 0 0.00037371751982361441 -0.0042185180426782473 0 0.00034015724949469709 -0.0038087894942714796 0 0.00029522367612556277 -0.0038370621627054594 0 0.00025323568003721186 -0.0037994887035950014 0 0.00036888491309792018 -0.0042083064428422171 0 0.00038759260345228513 -0.004225327376590828 0 0.00037300303760323645 -0.0042381842798863943 0 0.00034665199554329836 -0.0039871514371895619 0 0.00034939988387468337 -0.0041213752160044904 0 0.00037686613689097507 -0.0042195277844968683 0 0.00034939988387468337 -0.0041213752160044904 0 0.00038759260345228513 -0.004225327376590828 0 0.00037300303760323645 -0.0042381842798863943 0 0.00038935257463090214 -0.0042493046435703209 0 0.00037300303760323645 -0.0042381842798863943 0 0.00038935257463090214 -0.0042493046435703209 0 0.00036766457828193028 -0.0042968479999466918 0 0.00036507353420023699 -0.0042747620162072869 0 0.00037300303760323645 -0.0042381842798863943 0 0.00036766457828193028 -0.0042968479999466918 0 0.00039534217129552656 -0.0042410602581972575 0 0.00038935257463090214 -0.0042493046435703209 0 0.00039489100302027226 -0.0042477741144105923 0 0.00040264646505771027 -0.0042637996921014616 0 0.00033201339665005339 -0.0044451296007031373 0 0.00033201339665005339 -0.0044451296007031373 0 0.00039072497146839272 -0.0043912362474473861 0 0.00038935257463090214 -0.0042493046435703209 0 0.00049830680879328539 -0.0043073082190307633 0 0.00037370718318872898 -0.0043902805844097921 0 0.00027507541517521447 -0.0045334998927554094 0 0.00037370718318872898 -0.0043902805844097921 0 0.00021306921151256498 -0.004472860870572924 0 0.00038935257463090214 -0.0042493046435703209 0 0.00037370718318872898 -0.0043902805844097921 0 0.00036766457828193028 -0.0042968479999466918 0 0.00037370718318872898 -0.0043902805844097921 0 0.00036835304881617601 -0.0043272919050081444 0 0.00036766457828193028 -0.0042968479999466918 0 0.00036507353420023699 -0.0042747620162072869 0 0.00036835304881617601 -0.0043272919050081444 0 0.00036766457828193028 -0.0042968479999466918 0 0.00027507541517521447 -0.0045334998927554094 0 0.00010954716014310911 -0.0045585714272338325 0 0.00021306921151256498 -0.004472860870572924 0 0.00033201339665005339 -0.0044451296007031373 0 0.00014304858635881464 -0.0046091434914880694 0 0.00033201339665005339 -0.0044451296007031373 0 0.00030790540644971977 -0.0044379216076991558 0 0.00039534217129552656 -0.0042410602581972575 0 0.00039489100302027226 -0.0042477741144105923 0 0.00039523103911155423 -0.0042413581689837929 0 0.00023018538923849784 -0.0046336119437307317 0 0.00020830336887874766 -0.0046275540041485312 0 0.00021262408582637434 -0.0046470393048904093 0 0.00020830336887874766 -0.0046275540041485312 0 0.00021262408582637434 -0.0046470393048904093 0 0.00019887912618088478 -0.0046417886934740299 0 0.00021262408582637434 -0.0046470393048904093 0 0.00019727096533178501 -0.0046501814308038758 0 0.00019887912618088478 -0.0046417886934740299 0 0.00030790540644971977 -0.0044379216076991558 0 0.00025992988019707885 -0.0044926775986371317 0 0.00039523103911155423 -0.0042413581689837929 0 0.0003971719716084141 -0.0042412205450001921 0 0.00038730389079988164 -0.0042484027011137956 0 0.00039523103911155423 -0.0042413581689837929 0 0.00038730389079988164 -0.0042484027011137956 0 0.00038593869641636176 -0.0042479267591850169 0 0.00037371751982361441 -0.0042185180426782473 0 0.00028433861109467251 -0.0044227989735858442 0 0.00031916789889739047 -0.004218783053431866 0 0.00029974165383615759 -0.0042254575758576812 0 0.00028479932474621047 -0.0042257830345107904 0 0.00021262408582637434 -0.0046470393048904093 0 0.00019727096533178501 -0.0046501814308038758 0 0.00019636232344617756 -0.0046589508678903449 0 0.00039534217129552656 -0.0042410602581972575 0 0.00039523103911155423 -0.0042413581689837929 0 0.0003971719716084141 -0.0042412205450001921 0 0.00018475905254113114 -0.003830695096051938 0 0.00012466214811604267 -0.0038632396252275395 0 0.00020788019199132865 -0.003921415583528408 0 0.00026075223784885959 -0.0040196359120369899 0 0.00025270519136128884 -0.0041758706954412471 0 0.00033211000580515203 -0.0042261402238137945 0 0.00031916789889739047 -0.004218783053431866 0 0.00031045578916601932 -0.0042272437678576979 0 0.00033211000580515203 -0.0042261402238137945 0 0.00031045578916601932 -0.0042272437678576979 0 0.00030918531385556802 -0.0042384265099230239 0 0.00025123093960531859 -0.0042970007405888407 0 0.00034421868364549799 -0.0043565423080945374 0 0.0002225407847022809 -0.0044177394957201285 0 0.00029329208681423089 -0.0042303124052125328 0 0.00029974165383615759 -0.0042254575758576812 0 0.00028479932474621047 -0.0042257830345107904 0 0.0002828999130458879 -0.0043637423335484036 0 0.00031795374847245025 -0.0043072382067807762 0 0.00031045578916601932 -0.0042272437678576979 0 0.00029974165383615759 -0.0042254575758576812 0 0.00030918531385556802 -0.0042384265099230239 0 0.00031916789889739047 -0.004218783053431866 0 0.00031045578916601932 -0.0042272437678576979 0 0.00029974165383615759 -0.0042254575758576812 0 0.00029357815840864369 -0.0042293838478322373 0 0.00029974165383615759 -0.0042254575758576812 0 0.00030918531385556802 -0.0042384265099230239 0 0.0002828999130458879 -0.0043637423335484036 0 0.00025270519136128884 -0.0041758706954412471 0 0.00025123093960531859 -0.0042970007405888407 0 0.00013273459396934226 -0.0043679125323198608 0 0.0002225407847022809 -0.0044177394957201285 0 0.0002828999130458879 -0.0043637423335484036 0 0.0001001852050406223 -0.0046334630104533474 0 0.00027515490413130834 -0.0045612982829639683 0 0.00012239368350075224 -0.0046541171053978278 0 0.00021053330943317776 -0.0045202610738403586 0 0.00018955252421388013 -0.0045989465950016534 0 0.00028433861109467251 -0.0044227989735858442 0 0.0002828999130458879 -0.0043637423335484036 0 0.00028433861109467251 -0.0044227989735858442 0 0.00015498166735638795 -0.0045251011603222322 0 0.00012239368350075224 -0.0046541171053978278 0 9.4886047138115256e-05 -0.0045696799142984808 0 0.00015498166735638795 -0.0045251011603222322 0 0.00012239368350075224 -0.0046541171053978278 0 0.00021053330943317776 -0.0045202610738403586 0 0.00015213651600992506 -0.0047138105249424894 0 6.9437564950496764e-05 -0.0047749771163726092 0 5.2262894986632631e-05 -0.0047221361216729738 0 0.00018955252421388013 -0.0045989465950016534 0 5.8893020414348956e-05 -0.0048184621330685925 0 0.00018955252421388013 -0.0045989465950016534 0 5.9934274908340218e-05 -0.0048360109614466688 0 0.0001001852050406223 -0.0046334630104533474 0 5.8893020414348956e-05 -0.0048184621330685925 0 5.9934274908340218e-05 -0.0048360109614466688 0 -3.1801715246210785e-05 -0.0050209832142301845 0 1.7247642188858561e-05 -0.0049853266272399891 0 1.4147069457543543e-05 -0.0049743366010668649 0 -5.3110427915127797e-06 -0.0049921101779801299 0 -8.4153577640678097e-06 -0.0049940379846443103 0 -8.1913496064732538e-06 -0.0049949640220066016 0 -5.3110427915127797e-06 -0.0049921101779801299 0 5.8893020414348956e-05 -0.0048184621330685925 0 -4.1761800821575118e-05 -0.0050330325833601282 0 -8.1913496064732538e-06 -0.0049949640220066016 0 -3.2730843630992801e-06 -0.0049969823467124336 0 -5.3110427915127797e-06 -0.0049921101779801299 0 5.8893020414348956e-05 -0.0048184621330685925 0 5.9934274908340218e-05 -0.0048360109614466688 0 -2.0883466229343141e-06 -0.0049957778870772102 0 -2.388887634902716e-06 -0.0049966972314161272 0 -3.2730843630992801e-06 -0.0049969823467124336 0 -2.0883466229343141e-06 -0.0049957778870772102 0 -2.388887634902716e-06 -0.0049966972314161272 0 -2.0351692411402112e-06 -0.004996946893053163 0 5.9934274908340218e-05 -0.0048360109614466688 0 9.3180280658751474e-05 -0.0048220410870112897 0 0.00018766318565459361 -0.0046616199314878735 0 0.00018909348793877341 -0.004655257049026142 0 0.00018259034728841745 -0.004646244316508028 0 0.00019727096533178501 -0.0046501814308038758 0 0.00018909348793877341 -0.004655257049026142 0 0.0001913596479304299 -0.0046458527953201108 0 0.00023371190915477281 -0.0045080091289800891 0 0.00026958230666215702 -0.0045047842509616798 0 0.00025251669330543476 -0.0044940093508910118 0 0.00028433861109467251 -0.0044227989735858442 0 0.00025992988019707885 -0.0044926775986371317 0 0.00025992988019707885 -0.0044926775986371317 0 0.00022951196795696727 -0.004603709940959733 0 0.00019324353871242282 -0.0046605756989051396 0 0.00018766318565459361 -0.0046616199314878735 0 0.00018909348793877341 -0.004655257049026142 0 0.00018955252421388013 -0.0045989465950016534 0 0.00025992988019707885 -0.0044926775986371317 0 0.00019324353871242282 -0.0046605756989051396 0 0.00019548311509656302 -0.0046587477649710192 0 0.00018909348793877341 -0.004655257049026142 0 0.00019727096533178501 -0.0046501814308038758 0 0.00019636232344617756 -0.0046589508678903449 0 0.00018909348793877341 -0.004655257049026142 0 -5.1897395662267799e-09 -0.005000009429696005 0 -3.2730843630992801e-06 -0.0049969823467124336 0 -3.4591004858655576e-06 -0.0049977311189939675 0 -3.2730843630992801e-06 -0.0049969823467124336 0 -6.9333301191649714e-06 -0.0049954821468882896 0 -5.3110427915127797e-06 -0.0049921101779801299 0 -3.2730843630992801e-06 -0.0049969823467124336 0 -6.9333301191649714e-06 -0.0049954821468882896 0 -3.4591004858655576e-06 -0.0049977311189939675 0 -2.388887634902716e-06 -0.0049966972314161272 0 -1.4289601742904891e-06 -0.0049983970169496933 0 -2.0351692411402112e-06 -0.004996946893053163 0 -2.388887634902716e-06 -0.0049966972314161272 0 -3.2730843630992801e-06 -0.0049969823467124336 0 -1.4289601742904891e-06 -0.0049983970169496933 0 -5.1897395662267799e-09 -0.005000009429696005 0 4.9445672582824773e-10 -0.0049999951473128365 0 -1.4289601742904891e-06 -0.0049983970169496933 0 -5.1897395662267799e-09 -0.005000009429696005 0 -3.2730843630992801e-06 -0.0049969823467124336 0 -1.4289601742904891e-06 -0.0049983970169496933 0 4.9445672582824773e-10 -0.0049999951473128365 0 -1.4289601742904891e-06 -0.0049983970169496933 0 -5.5902918920731806e-07 -0.0049991611456691471 0 -1.4289601742904891e-06 -0.0049983970169496933 0 -2.0351692411402112e-06 -0.004996946893053163 0 -8.6996243150704421e-07 -0.004998051342823588 0 -5.5902918920731806e-07 -0.0049991611456691471 0 -8.6996243150704421e-07 -0.004998051342823588 0 -3.3325376585172651e-07 -0.0049991010667501719 0 -1.4289601742904891e-06 -0.0049983970169496933 0 -5.5902918920731806e-07 -0.0049991611456691471 0 -8.6996243150704421e-07 -0.004998051342823588 0 -5.5902918920731806e-07 -0.0049991611456691471 0 -6.2023997297481506e-10 -0.004999999451435322 0 -3.3325376585172651e-07 -0.0049991010667501719 0 4.9445672582824773e-10 -0.0049999951473128365 0 -5.5902918920731806e-07 -0.0049991611456691471 0 -6.2023997297481506e-10 -0.004999999451435322 0 0.00019887912618088478 -0.0046417886934740299 0 0.0001913596479304299 -0.0046458527953201108 0 0.00018918079368327454 -0.0046360664870983724 0 0.00019727096533178501 -0.0046501814308038758 0 0.00019887912618088478 -0.0046417886934740299 0 0.0001913596479304299 -0.0046458527953201108 0 0.00018909348793877341 -0.004655257049026142 0 0.0001913596479304299 -0.0046458527953201108 0 0.00018259034728841745 -0.004646244316508028 0 9.3180280658751474e-05 -0.0048220410870112897 0 8.752651892094536e-05 -0.0048115277074700499 0 0.0001913596479304299 -0.0046458527953201108 0 0.00018259034728841745 -0.004646244316508028 0 0.00018918079368327454 -0.0046360664870983724 0 0.0001775167059793365 -0.0046319150867780868 0 0.00018918079368327454 -0.0046360664870983724 0 0.00018865385515110596 -0.0046234574745644711 0 0.00018259034728841745 -0.004646244316508028 0 0.0001775167059793365 -0.0046319150867780868 0 0.00018918079368327454 -0.0046360664870983724 0 0.00020830336887874766 -0.0046275540041485312 0 0.00019887912618088478 -0.0046417886934740299 0 0.00018918079368327454 -0.0046360664870983724 0 0.00020830336887874766 -0.0046275540041485312 0 0.00018918079368327454 -0.0046360664870983724 0 0.00018865385515110596 -0.0046234574745644711 0 0.00014304858635881464 -0.0046091434914880694 0 9.0251277995160692e-05 -0.0045998732690074196 0 -1.5076006666124813e-05 -0.0046190547243640315 0 -2.1349627564433456e-05 -0.0046347701000028028 0 7.2051243360532049e-05 -0.0045359432429312582 0 -1.5076006666124813e-05 -0.0046190547243640315 0 1.0723472320129092e-05 -0.0047005843888294624 0 -2.1349627564433456e-05 -0.0046347701000028028 0 0.0001775167059793365 -0.0046319150867780868 0 0.00018865385515110596 -0.0046234574745644711 0 0.00017243924546297238 -0.004620259777856215 0 -1.5076006666124813e-05 -0.0046190547243640315 0 1.0723472320129092e-05 -0.0047005843888294624 0 8.0256407043310081e-05 -0.0047427795356505464 0 9.0251277995160692e-05 -0.0045998732690074196 0 8.4071527402956162e-05 -0.0048270801032794953 0 1.0723472320129092e-05 -0.0047005843888294624 0 1.4224992507868319e-05 -0.0048174390015888989 0 -2.1349627564433456e-05 -0.0046347701000028028 0 1.0723472320129092e-05 -0.0047005843888294624 0 1.4224992507868319e-05 -0.0048174390015888989 0 8.0256407043310081e-05 -0.0047427795356505464 0 1.4224992507868319e-05 -0.0048174390015888989 0 -2.1349627564433456e-05 -0.0046347701000028028 0 -6.2356521362829235e-05 -0.0048024479546244486 0 -6.2023997297481506e-10 -0.004999999451435322 0 -1.0784511392416735e-07 -0.0049995223745437313 0 -3.3325376585172651e-07 -0.0049991010667501719 0 -6.2023997297481506e-10 -0.004999999451435322 0 -1.0784511392416735e-07 -0.0049995223745437313 0 2.7702013776190429e-10 -0.0049999987767491436 0 -8.6996243150704421e-07 -0.004998051342823588 0 -3.3325376585172651e-07 -0.0049991010667501719 0 -1.3927594054888667e-07 -0.0049986394520122844 0 -1.0784511392416735e-07 -0.0049995223745437313 0 -3.3325376585172651e-07 -0.0049991010667501719 0 -1.3927594054888667e-07 -0.0049986394520122844 0 8.752651892094536e-05 -0.0048115277074700499 0 8.4071527402956162e-05 -0.0048270801032794953 0 8.4071527402956162e-05 -0.0048270801032794953 0 7.1554231915568238e-05 -0.0049071150558081672 0 1.4224992507868319e-05 -0.0048174390015888989 0 8.0256407043310081e-05 -0.0047427795356505464 0 6.0426170190094826e-05 -0.0049151147595051905 0 -1.0784511392416735e-07 -0.0049995223745437313 0 -1.3927594054888667e-07 -0.0049986394520122844 0 2.7702013776190429e-10 -0.0049999987767491436 0 8.4071527402956162e-05 -0.0048270801032794953 0 -3.6885906249869671e-09 -0.0050000807879903514 0 7.9320167072752612e-05 -0.004971369795703064 0 8.9746942857841826e-09 -0.0049998749131376198 0 6.0426170190094826e-05 -0.0049151147595051905 0 8.9746942857841826e-09 -0.0049998749131376198 0 3.2415599421739723e-05 -0.0049547937927225064 0 6.0426170190094826e-05 -0.0049151147595051905 0 8.9746942857841826e-09 -0.0049998749131376198 0 3.2415599421739723e-05 -0.0049547937927225064 0 3.741592299959539e-08 -0.0049999408600030649 0 3.2415599421739723e-05 -0.0049547937927225064 0 6.0426170190094826e-05 -0.0049151147595051905 0 9.1768298443217567e-06 -0.0049283146715759455 0 1.4224992507868319e-05 -0.0048174390015888989 0 6.0426170190094826e-05 -0.0049151147595051905 0 9.1768298443217567e-06 -0.0049283146715759455 0 3.2415599421739723e-05 -0.0049547937927225064 0 2.0257575160342519e-05 -0.004972815991008352 0 9.1768298443217567e-06 -0.0049283146715759455 0 3.2415599421739723e-05 -0.0049547937927225064 0 2.0257575160342519e-05 -0.004972815991008352 0 3.741592299959539e-08 -0.0049999408600030649 0 8.6563457458956258e-09 -0.0049999798472537549 0 2.0257575160342519e-05 -0.004972815991008352 0 3.741592299959539e-08 -0.0049999408600030649 0 1.4224992507868319e-05 -0.0048174390015888989 0 -2.5996475226994827e-05 -0.0048736150677659903 0 -6.2356521362829235e-05 -0.0048024479546244486 0 -2.5996475226994827e-05 -0.0048736150677659903 0 -6.2356521362829235e-05 -0.0048024479546244486 0 -7.359771563648759e-05 -0.0048706287519028821 0 1.4224992507868319e-05 -0.0048174390015888989 0 -2.5996475226994827e-05 -0.0048736150677659903 0 9.1768298443217567e-06 -0.0049283146715759455 0 -2.5996475226994827e-05 -0.0048736150677659903 0 9.1768298443217567e-06 -0.0049283146715759455 0 -3.5494637797066886e-05 -0.0049269753643080387 0 -2.5996475226994827e-05 -0.0048736150677659903 0 -3.5494637797066886e-05 -0.0049269753643080387 0 -7.359771563648759e-05 -0.0048706287519028821 0 -3.5494637797066886e-05 -0.0049269753643080387 0 -7.359771563648759e-05 -0.0048706287519028821 0 -8.3896624375893704e-05 -0.0049129061570383518 0 -0.00011731619777394208 -0.0049262153825410408 0 -8.3896624375893704e-05 -0.0049129061570383518 0 -0.00012835705327613682 -0.004882614904184515 0 -7.359771563648759e-05 -0.0048706287519028821 0 -0.00012835705327613682 -0.004882614904184515 0 -0.00011918149700733248 -0.004834304198701166 0 -7.359771563648759e-05 -0.0048706287519028821 0 -8.3896624375893704e-05 -0.0049129061570383518 0 -0.00012835705327613682 -0.004882614904184515 0 -6.2356521362829235e-05 -0.0048024479546244486 0 -7.359771563648759e-05 -0.0048706287519028821 0 -0.00011918149700733248 -0.004834304198701166 0 -6.2356521362829235e-05 -0.0048024479546244486 0 -0.00011918149700733248 -0.004834304198701166 0 -0.00015141423418436298 -0.0047576683319375057 0 -0.00011918149700733248 -0.004834304198701166 0 -0.00016731597556628923 -0.0048458687378963791 0 -0.00015141423418436298 -0.0047576683319375057 0 -0.00016731597556628923 -0.0048458687378963791 0 -0.00020130812995732282 -0.0048078293657211821 0 -0.00015141423418436298 -0.0047576683319375057 0 -0.00012835705327613682 -0.004882614904184515 0 -0.00011918149700733248 -0.004834304198701166 0 -0.00016731597556628923 -0.0048458687378963791 0 -0.00016731597556628923 -0.0048458687378963791 0 -0.00016738661352821719 -0.0048779306483034187 0 -0.0001935840780332331 -0.0048532285445660661 0 -0.00012835705327613682 -0.004882614904184515 0 -0.00016731597556628923 -0.0048458687378963791 0 -0.00016738661352821719 -0.0048779306483034187 0 -0.0001543946045676 -0.0049089837562302065 0 -0.00012835705327613682 -0.004882614904184515 0 -0.00016738661352821719 -0.0048779306483034187 0 -0.0001543946045676 -0.0049089837562302065 0 -0.00011731619777394208 -0.0049262153825410408 0 -0.00012835705327613682 -0.004882614904184515 0 -0.0001543946045676 -0.0049089837562302065 0 -0.00016738661352821719 -0.0048779306483034187 0 -0.00019048338322646342 -0.0048863749885683051 0 -0.00019048338322646342 -0.0048863749885683051 0 -0.00021717546832110746 -0.0048884987893756272 0 -0.00021462917550370747 -0.0048614313604767312 0 -0.00016738661352821719 -0.0048779306483034187 0 -0.00019048338322646342 -0.0048863749885683051 0 -0.0001935840780332331 -0.0048532285445660661 0 -0.00019048338322646342 -0.0048863749885683051 0 -0.00021462917550370747 -0.0048614313604767312 0 -0.0001935840780332331 -0.0048532285445660661 0 -0.00023885630792582258 -0.0048943463478451216 0 -0.00024774955366198737 -0.0048815023089147794 0 -0.00023916850894439241 -0.0048671572320827614 0 -0.00023885630792582258 -0.0048943463478451216 0 -0.00021717546832110746 -0.0048884987893756272 0 -0.00023916850894439241 -0.0048671572320827614 0 -0.00021717546832110746 -0.0048884987893756272 0 -0.00021462917550370747 -0.0048614313604767312 0 -0.00023916850894439241 -0.0048671572320827614 0 -0.00021462917550370747 -0.0048614313604767312 0 -0.00023916850894439241 -0.0048671572320827614 0 -0.00022790340933178838 -0.0048503635390208079 0 0.0003866144382384287 -0.0042824485277640793 0 0.00029319192886551022 -0.0043027153204488371 0 0.00034472877948117626 -0.0043211012592835538 0 -0.00024304188620632476 -0.0048396145712663145 0 -0.00021587914189728343 -0.0048387267070581054 0 -0.00020130812995732282 -0.0048078293657211821 0 0.00016838982544102937 -0.0044707113799622028 0 2.3526200597579263e-05 -0.0045694760546218767 0 -0.00023916850894439241 -0.0048671572320827614 0 -0.00022790340933178838 -0.0048503635390208079 0 -0.00024304188620632476 -0.0048396145712663145 0 -0.00021462917550370747 -0.0048614313604767312 0 -0.00022790340933178838 -0.0048503635390208079 0 -0.00021587914189728343 -0.0048387267070581054 0 -0.00022790340933178838 -0.0048503635390208079 0 -0.00024304188620632476 -0.0048396145712663145 0 -0.00021587914189728343 -0.0048387267070581054 0 0.00016838982544102937 -0.0044707113799622028 0 0.00040286236333179047 -0.0042637884768101045 0 0.00036397703372232862 -0.0043217210242264999 0 0.00036257560698841127 -0.0043225185912453574 0 0.00034472877948117626 -0.0043211012592835538 0 -0.00016731597556628923 -0.0048458687378963791 0 -0.0001935840780332331 -0.0048532285445660661 0 -0.00020130812995732282 -0.0048078293657211821 0 -0.0001935840780332331 -0.0048532285445660661 0 -0.00021587914189728343 -0.0048387267070581054 0 -0.00020130812995732282 -0.0048078293657211821 0 -0.00021462917550370747 -0.0048614313604767312 0 -0.0001935840780332331 -0.0048532285445660661 0 -0.00021587914189728343 -0.0048387267070581054 0 0.00029319192886551022 -0.0043027153204488371 0 0.00030477583260621761 -0.0043516601497960907 0 0.00034472877948117626 -0.0043211012592835538 0 0.00030477583260621761 -0.0043516601497960907 0 0.00034472877948117626 -0.0043211012592835538 0 0.00036771002577990316 -0.0043411074260826512 0 0.00036257560698841127 -0.0043225185912453574 0 0.00034472877948117626 -0.0043211012592835538 0 0.00036771002577990316 -0.0043411074260826512 0 0.00036619852237069627 -0.0043187178695060866 0 0.00036257560698841127 -0.0043225185912453574 0 0.00036771002577990316 -0.0043411074260826512 0 0.00037370718318872898 -0.0043902805844097921 0 0.00036835304881617601 -0.0043272919050081444 0 0.00036771002577990316 -0.0043411074260826512 0 0.00036667777865084501 -0.004296618910442529 0 0.00036835304881617601 -0.0043272919050081444 0 0.00036771002577990316 -0.0043411074260826512 0 0.00037370718318872898 -0.0043902805844097921 0 0.00036771002577990316 -0.0043411074260826512 0 0.00029994078559817381 -0.0043948267461911888 0 0.00030477583260621761 -0.0043516601497960907 0 0.00036771002577990316 -0.0043411074260826512 0 0.00029994078559817381 -0.0043948267461911888 0 0.00037370718318872898 -0.0043902805844097921 0 0.00029994078559817381 -0.0043948267461911888 0 0.00021306921151256498 -0.004472860870572924 0 0.00029994078559817381 -0.0043948267461911888 0 0.00021306921151256498 -0.004472860870572924 0 0.00014158772810088895 -0.0043917693683396316 0 0.00010954716014310911 -0.0045585714272338325 0 0.00021306921151256498 -0.004472860870572924 0 7.2051243360532049e-05 -0.0045359432429312582 0 0.00010954716014310911 -0.0045585714272338325 0 -1.5076006666124813e-05 -0.0046190547243640315 0 7.2051243360532049e-05 -0.0045359432429312582 0 0.00021306921151256498 -0.004472860870572924 0 7.2051243360532049e-05 -0.0045359432429312582 0 0.00014158772810088895 -0.0043917693683396316 0 -2.1349627564433456e-05 -0.0046347701000028028 0 -6.2356521362829235e-05 -0.0048024479546244486 0 -0.00015141423418436298 -0.0047576683319375057 0 -1.0975089375340918e-05 -0.0046191269474951556 0 1.0823232800521146e-05 -0.0045753866200976354 0 -2.1349627564433456e-05 -0.0046347701000028028 0 7.2051243360532049e-05 -0.0045359432429312582 0 0.00014158772810088895 -0.0043917693683396316 0 0.00030477583260621761 -0.0043516601497960907 0 0.00029994078559817381 -0.0043948267461911888 0 0.00014158772810088895 -0.0043917693683396316 0 2.3526200597579263e-05 -0.0045694760546218767 0 1.0823232800521146e-05 -0.0045753866200976354 0 0.00029319192886551022 -0.0043027153204488371 0 0.00030477583260621761 -0.0043516601497960907 0 0.00014158772810088895 -0.0043917693683396316 0 -3.359343960589423e-05 0.00010306778356930381 0 -9.0601085719836108e-06 0.00018040539170787294 0 1.4914447572757707e-05 0.00013884959558738524 0 -8.7835648176178707e-05 0.00011370478107263167 0 -3.359343960589423e-05 0.00010306778356930381 0 -9.0601085719836108e-06 0.00018040539170787294 0 -3.359343960589423e-05 0.00010306778356930381 0 1.4914447572757707e-05 0.00013884959558738524 0 4.4542579919718415e-05 9.8275540871231324e-05 0 -3.359343960589423e-05 0.00010306778356930381 0 4.4542579919718415e-05 9.8275540871231324e-05 0 -3.486332346133631e-05 5.0341524632586056e-05 0 -8.4787248283693233e-05 -0.00085959033362579488 0 -0.00011991030570333208 -0.0006645895770015656 0 -3.359343960589423e-05 0.00010306778356930381 0 -0.00010320615394348592 3.5930417076204733e-05 0 -3.486332346133631e-05 5.0341524632586056e-05 0 3.8761273221297309e-05 0.00032572878675492424 0 -0.00011991030570333208 -0.0006645895770015656 0 -8.7835648176178707e-05 0.00011370478107263167 0 -3.359343960589423e-05 0.00010306778356930381 0 -9.1936979226302416e-05 1.0170486712261197e-05 0 -6.2746833839030414e-05 -0.0018429606073824636 0 -6.9271094636180031e-05 -0.0017459035700002862 0 -6.7623593605152991e-06 -0.0017644999210957618 0 -6.2746833839030414e-05 -0.0018429606073824636 0 1.454959816770396e-05 -0.0018313806695800885 0 -6.7623593605152991e-06 -0.0017644999210957618 0 1.454959816770396e-05 -0.0018313806695800885 0 -6.7623593605152991e-06 -0.0017644999210957618 0 7.4460705834242483e-05 -0.0017966214832877204 0 1.454959816770396e-05 -0.0018313806695800885 0 6.1512929814525386e-05 -0.0018462771351480888 0 7.4460705834242483e-05 -0.0017966214832877204 0 1.454959816770396e-05 -0.0018313806695800885 0 3.9606986010650915e-05 -0.0018908382069944914 0 -2.1902397617219303e-05 -0.0018871218273058916 0 1.454959816770396e-05 -0.0018313806695800885 0 6.1512929814525386e-05 -0.0018462771351480888 0 3.9606986010650915e-05 -0.0018908382069944914 0 -6.2746833839030414e-05 -0.0018429606073824636 0 1.454959816770396e-05 -0.0018313806695800885 0 -2.1902397617219303e-05 -0.0018871218273058916 0 -6.2746833839030414e-05 -0.0018429606073824636 0 -2.1902397617219303e-05 -0.0018871218273058916 0 -5.6076615780410403e-05 -0.001925336208456446 0 3.9606986010650915e-05 -0.0018908382069944914 0 -2.1902397617219303e-05 -0.0018871218273058916 0 -2.0825279110058373e-05 -0.0019367855255133333 0 -2.1902397617219303e-05 -0.0018871218273058916 0 -2.0825279110058373e-05 -0.0019367855255133333 0 -5.6076615780410403e-05 -0.001925336208456446 0 -8.047470742465762e-05 -0.0019062505734186389 0 6.3368762824118563e-05 -0.0011003146591840158 0 -3.1219477139440582e-05 -0.0020016841753506872 0 -8.047470742465762e-05 -0.0019062505734186389 0 -6.9960179457276826e-05 -0.0020525137844442515 0 -0.00024976854038355896 -0.0022352137194556337 0 -7.3953696831183415e-05 -0.0022837208237265084 0 -6.9960179457276826e-05 -0.0020525137844442515 0 -7.3953696831183415e-05 -0.0022837208237265084 0 0.00012420712769384368 -0.0021940825435178271 0 -8.047470742465762e-05 -0.0019062505734186389 0 -6.5522237904606158e-05 -0.0021999168217322665 0 6.3497654161386573e-06 -0.0022981865334237221 0 -2.502442202345393e-05 -0.002291766184573097 0 -2.9918999520693636e-05 -0.0023905418637196452 0 -3.1523334247675778e-05 -0.0022207124370053652 0 -6.5522237904606158e-05 -0.0021999168217322665 0 -2.502442202345393e-05 -0.002291766184573097 0 -2.9918999520693636e-05 -0.0023905418637196452 0 -0.00011308714258003378 -0.0024250171164489046 0 6.3497654161386573e-06 -0.0022981865334237221 0 -2.9918999520693636e-05 -0.0023905418637196452 0 5.1044983247422502e-05 -0.0024349568672053187 0 -7.8766240131982195e-05 -0.0020142225305231991 0 -0.00010455707736472125 -0.0020089426173860534 0 -6.2178832411073352e-05 -0.0019864205739925224 0 -7.8766240131982195e-05 -0.0020142225305231991 0 -6.1810427621442033e-05 -0.0019965391221478273 0 -6.2178832411073352e-05 -0.0019864205739925224 0 -6.5522237904606158e-05 -0.0021999168217322665 0 -0.00016044592710484366 -0.0020543750174887893 0 -2.502442202345393e-05 -0.002291766184573097 0 -0.00025160899963696804 -0.0024094009303095268 0 -0.00011308714258003378 -0.0024250171164489046 0 -8.047470742465762e-05 -0.0019062505734186389 0 -3.3189884253040951e-05 -0.0017377828182037335 0 4.889151677623578e-05 -0.0015845290433767782 0 -1.3862970980773416e-05 -0.0016477479547977137 0 -1.5511898096843507e-05 -0.0015661939093887358 0 -3.3189884253040951e-05 -0.0017377828182037335 0 -0.00016044592710484366 -0.0020543750174887893 0 0.00012847995302120237 -0.0014935191473870121 0 -0.00018134979865878174 -0.0014335297373534463 0 -0.0001247567708744635 -0.0017516603129578876 0 0.00012847995302120237 -0.0014935191473870121 0 0.00012249372400074753 -0.0012140190774259951 0 -0.00018134979865878174 -0.0014335297373534463 0 -3.3189884253040951e-05 -0.0017377828182037335 0 6.3368762824118563e-05 -0.0011003146591840158 0 6.3368762824118563e-05 -0.0011003146591840158 0 -0.00019676839659418436 -0.00039005716571851923 0 -8.7835648176178707e-05 0.00011370478107263167 0 -8.3405014789099055e-05 0.00018195963591678227 0 -9.0601085719836108e-06 0.00018040539170787294 0 0.00012249372400074753 -0.0012140190774259951 0 -0.00036506907099032428 -0.0010871037959508487 0 -0.00018134979865878174 -0.0014335297373534463 0 -8.4787248283693233e-05 -0.00085959033362579488 0 6.3368762824118563e-05 -0.0011003146591840158 0 -0.00036506907099032428 -0.0010871037959508487 0 -0.00018134979865878174 -0.0014335297373534463 0 -0.00049500765787458749 -0.0015000738680767773 0 -0.00018134979865878174 -0.0014335297373534463 0 -0.0002881815176541668 -0.0016099189120418798 0 -0.0001247567708744635 -0.0017516603129578876 0 -0.00018134979865878174 -0.0014335297373534463 0 -0.00049500765787458749 -0.0015000738680767773 0 -0.0002881815176541668 -0.0016099189120418798 0 -0.00036506907099032428 -0.0010871037959508487 0 -0.00049500765787458749 -0.0015000738680767773 0 -0.00077229636097348429 -0.0013177132327701711 0 -0.00049500765787458749 -0.0015000738680767773 0 -0.00077229636097348429 -0.0013177132327701711 0 -0.00078128842497999184 -0.0017525500016999174 0 -0.00077229636097348429 -0.0013177132327701711 0 -0.0011241314355841447 -0.0014055992225884776 0 -0.00078128842497999184 -0.0017525500016999174 0 -0.00077229636097348429 -0.0013177132327701711 0 -0.0011241314355841447 -0.0014055992225884776 0 -0.00084057561134470379 -0.00096340569728631188 0 -0.00019676839659418436 -0.00039005716571851923 0 -0.00044285057259341724 -0.00040009837068782981 0 -0.00036506907099032428 -0.0010871037959508487 0 -0.00077229636097348429 -0.0013177132327701711 0 -0.00084057561134470379 -0.00096340569728631188 0 0.00029268480707912687 -3.8858965183728811e-05 0 0.00032288732603935448 -0.00016167695713844381 0 0.00023551030391291331 -0.000112168961434956 0 0.00037499066741318072 -8.1994379649357228e-05 0 0.00029268480707912687 -3.8858965183728811e-05 0 0.00032288732603935448 -0.00016167695713844381 0 -0.00042200170179128082 -0.00079585748338639522 0 -0.0002102729429320691 -0.00022885539482134297 0 0.00037499066741318072 -8.1994379649357228e-05 0 0.00029268480707912687 -3.8858965183728811e-05 0 0.00033648597388026948 5.1783708651849674e-05 0 -0.0011241314355841447 -0.0014055992225884776 0 -0.0013037566274032824 -0.00083536531849558269 0 -0.00084057561134470379 -0.00096340569728631188 0 0.00029268480707912687 -3.8858965183728811e-05 0 0.00033648597388026948 5.1783708651849674e-05 0 0.00024814511536168474 8.464474134098522e-05 0 0.00024315495704552615 9.1773977808069868e-05 0 0.00023079023795314927 0.00011568381634862703 0 0.00024814511536168474 8.464474134098522e-05 0 -0.0002102729429320691 -0.00022885539482134297 0 0.00041368873003228782 9.2247902919525022e-05 0 -0.0002102729429320691 -0.00022885539482134297 0 0.00025908707896549139 0.00020702201203132704 0 0.00018211346765273909 0.00017674526962228979 0 0.00023079023795314927 0.00011568381634862703 0 0.00012492611042409679 0.00010622126343063069 0 0.00023079023795314927 0.00011568381634862703 0 0.00025652269782959242 0.00011759491294533769 0 0.00025408584536927093 0.00011956594613498084 0 0.00023079023795314927 0.00011568381634862703 0 0.00024814511536168474 8.464474134098522e-05 0 0.00025408584536927093 0.00011956594613498084 0 1.4914447572757707e-05 0.00013884959558738524 0 7.9182408009196106e-05 0.00018138945791811619 0 4.4542579919718415e-05 9.8275540871231324e-05 0 -9.0601085719836108e-06 0.00018040539170787294 0 1.4914447572757707e-05 0.00013884959558738524 0 7.9182408009196106e-05 0.00018138945791811619 0 0.00018211346765273909 0.00017674526962228979 0 7.9182408009196106e-05 0.00018138945791811619 0 0.00012492611042409679 0.00010622126343063069 0 -0.0002102729429320691 -0.00022885539482134297 0 -0.00044285057259341724 -0.00040009837068782981 0 7.9182408009196106e-05 0.00018138945791811619 0 0.00012492611042409679 0.00010622126343063069 0 4.4542579919718415e-05 9.8275540871231324e-05 0 0.00012492611042409679 0.00010622126343063069 0 4.4542579919718415e-05 9.8275540871231324e-05 0 8.1000610707683673e-05 4.1555533702423311e-05 0 4.4542579919718415e-05 9.8275540871231324e-05 0 1.0978682773112053e-05 1.3463461874533909e-05 0 8.1000610707683673e-05 4.1555533702423311e-05 0 0.00012492611042409679 0.00010622126343063069 0 8.1000610707683673e-05 4.1555533702423311e-05 0 0.00013719999352501105 1.6057535615479844e-05 0 0.00013416264844671972 1.1079020014978668e-05 0 2.1421439590388705e-05 -0.00011618167832198496 0 8.1000610707683673e-05 4.1555533702423311e-05 0 0.00013719999352501105 1.6057535615479844e-05 0 7.2088523942870282e-05 -7.9796657123226309e-05 0 0.00013719999352501105 1.6057535615479844e-05 0 0.00018690330713842031 -7.0695540972712142e-05 0 -1.9837215903122302e-05 -0.0001306743490580868 0 1.0978682773112053e-05 1.3463461874533909e-05 0 7.2088523942870282e-05 -7.9796657123226309e-05 0 -3.8878232910519345e-05 -8.861852694178438e-05 0 1.0978682773112053e-05 1.3463461874533909e-05 0 8.1000610707683673e-05 4.1555533702423311e-05 0 7.2088523942870282e-05 -7.9796657123226309e-05 0 0.00023079023795314927 0.00011568381634862703 0 0.00025652269782959242 0.00011759491294533769 0 0.00022394801893473615 6.3883112005917329e-05 0 0.00025652269782959242 0.00011759491294533769 0 0.00022394801893473615 6.3883112005917329e-05 0 0.0002709259454424718 9.7516481504802277e-05 0 0.00023079023795314927 0.00011568381634862703 0 0.00022394801893473615 6.3883112005917329e-05 0 0.00013719999352501105 1.6057535615479844e-05 0 0.00023079023795314927 0.00011568381634862703 0 0.00012492611042409679 0.00010622126343063069 0 0.00013719999352501105 1.6057535615479844e-05 0 0.00022394801893473615 6.3883112005917329e-05 0 0.00013719999352501105 1.6057535615479844e-05 0 0.00018690330713842031 -7.0695540972712142e-05 0 0.00022394801893473615 6.3883112005917329e-05 0 0.00018690330713842031 -7.0695540972712142e-05 0 0.00029070843771204557 1.0146709320424529e-05 0 0.00022394801893473615 6.3883112005917329e-05 0 0.0002709259454424718 9.7516481504802277e-05 0 0.00029070843771204557 1.0146709320424529e-05 0 0.00028604839499785643 -0.00014939161183936551 0 0.00018690330713842031 -7.0695540972712142e-05 0 0.00029070843771204557 1.0146709320424529e-05 0 0.00028604839499785643 -0.00014939161183936551 0 0.00018690330713842031 -7.0695540972712142e-05 0 0.0001436522249816798 -0.00026112919983779765 0 0.00018690330713842031 -7.0695540972712142e-05 0 0.0001436522249816798 -0.00026112919983779765 0 -1.9837215903122302e-05 -0.0001306743490580868 0 0.00028604839499785643 -0.00014939161183936551 0 0.0001436522249816798 -0.00026112919983779765 0 0.00024588146280889536 -0.00037442773381343952 0 0.00028604839499785643 -0.00014939161183936551 0 0.00041115402480916395 -0.00025685106423749135 0 0.00024588146280889536 -0.00037442773381343952 0 2.1421439590388705e-05 -0.00011618167832198496 0 -9.739415114400627e-05 -0.00017564635450687284 0 0.0001436522249816798 -0.00026112919983779765 0 -9.0389856679500584e-06 -0.00037051366298340547 0 0.00012117766025124306 -0.00051365353577689061 0 0.0001436522249816798 -0.00026112919983779765 0 -1.9837215903122302e-05 -0.0001306743490580868 0 -9.0389856679500584e-06 -0.00037051366298340547 0 -1.9837215903122302e-05 -0.0001306743490580868 0 -9.0389856679500584e-06 -0.00037051366298340547 0 -0.0001980615405077192 -0.00030757448646253802 0 -9.0389856679500584e-06 -0.00037051366298340547 0 -0.0001980615405077192 -0.00030757448646253802 0 -0.00018774026603256283 -0.00051993329636714457 0 -9.739415114400627e-05 -0.00017564635450687284 0 -0.00018332955205575723 -0.00083506937869933136 0 -8.6269723093961132e-06 -0.00017697429763721651 0 -7.4805639208293961e-05 -0.0001975446119420397 0 -3.8878232910519345e-05 -8.861852694178438e-05 0 -8.6269723093961132e-06 -0.00017697429763721651 0 -7.4805639208293961e-05 -0.0001975446119420397 0 -0.00010614859608980482 -0.00027909815500289992 0 -0.00016659267696329311 -0.00091119419849949087 0 -0.00016276115438474428 -0.00091131604412604062 0 -0.00016814585415463393 -0.00090090298650421586 0 -7.4805639208293961e-05 -0.0001975446119420397 0 -0.00011932370537375056 -0.00014617009780568498 0 -0.00012173636406434603 -0.00025652210322228859 0 -0.00014185852278027325 -0.00048931973559240697 0 -0.00016591774559296838 -0.00082602802739775488 0 -0.00011932370537375056 -0.00014617009780568498 0 -3.8878232910519345e-05 -8.861852694178438e-05 0 -0.00011166864643889967 -4.865482592037678e-05 0 -0.00014185852278027325 -0.00048931973559240697 0 -0.0001382709694378832 -0.00044549044224513319 0 -0.00016659267696329311 -0.00091119419849949087 0 -0.00016243868217092095 -0.00091288400000050685 0 -0.00016388701469249227 -0.00091454614989235202 0 -7.4805639208293961e-05 -0.0001975446119420397 0 -0.00011932370537375056 -0.00014617009780568498 0 -3.8878232910519345e-05 -8.861852694178438e-05 0 7.2088523942870282e-05 -7.9796657123226309e-05 0 -8.6269723093961132e-06 -0.00017697429763721651 0 -3.8878232910519345e-05 -8.861852694178438e-05 0 1.0978682773112053e-05 1.3463461874533909e-05 0 -3.8878232910519345e-05 -8.861852694178438e-05 0 -5.5563048714858803e-05 -5.8188160342942233e-06 0 -3.8878232910519345e-05 -8.861852694178438e-05 0 -5.5563048714858803e-05 -5.8188160342942233e-06 0 -0.00011166864643889967 -4.865482592037678e-05 0 -0.0001382709694378832 -0.00044549044224513319 0 -0.00011991030570333208 -0.0006645895770015656 0 -5.5563048714858803e-05 -5.8188160342942233e-06 0 -0.00011166864643889967 -4.865482592037678e-05 0 -0.00010320615394348592 3.5930417076204733e-05 0 -5.5563048714858803e-05 -5.8188160342942233e-06 0 -0.00010320615394348592 3.5930417076204733e-05 0 -3.486332346133631e-05 5.0341524632586056e-05 0 4.4542579919718415e-05 9.8275540871231324e-05 0 1.0978682773112053e-05 1.3463461874533909e-05 0 -3.486332346133631e-05 5.0341524632586056e-05 0 1.0978682773112053e-05 1.3463461874533909e-05 0 -5.5563048714858803e-05 -5.8188160342942233e-06 0 -3.486332346133631e-05 5.0341524632586056e-05 0 -6.7623593605152991e-06 -0.0017644999210957618 0 7.8402507270801738e-05 -0.0017301291547093165 0 7.4460705834242483e-05 -0.0017966214832877204 0 -6.7623593605152991e-06 -0.0017644999210957618 0 -2.7900691056285554e-05 -0.0016944276897931721 0 7.8402507270801738e-05 -0.0017301291547093165 0 -6.9271094636180031e-05 -0.0017459035700002862 0 -6.7623593605152991e-06 -0.0017644999210957618 0 -2.7900691056285554e-05 -0.0016944276897931721 0 -0.00011991030570333208 -0.0006645895770015656 0 -0.00010351153979795879 -0.0013149953349204939 0 -0.00016458045925143137 -0.00091321318941669735 0 -0.00016367574348097986 -0.00091829811542120114 0 -0.00016388701469249227 -0.00091454614989235202 0 -0.00016243868217092095 -0.00091288400000050685 0 -0.00016458045925143137 -0.00091321318941669735 0 -0.00016388701469249227 -0.00091454614989235202 0 -0.00016243868217092095 -0.00091288400000050685 0 -0.00015996585176267792 -0.00090494961911539052 0 -0.00016458045925143137 -0.00091321318941669735 0 -0.00010351153979795879 -0.0013149953349204939 0 -0.00019421024491177242 -0.0017358799319277219 0 -0.00019421024491177242 -0.0017358799319277219 0 -0.00013864326531607974 -0.0024001804112937061 0 -0.00050571109228107574 -0.0027245548559528317 0 -0.00038351141026001 -0.0029066297420662986 0 -0.00034482751812821288 -0.0027596269228739906 0 -2.7900691056285554e-05 -0.0016944276897931721 0 1.5043512063442404e-05 -0.0016416709156787798 0 7.8402507270801738e-05 -0.0017301291547093165 0 -0.00021195322972696122 -0.0014059270418264028 0 -0.00022308511411251632 -0.0013820242858945129 0 -0.00019905565044787325 -0.0013876453344450468 0 -0.00019421024491177242 -0.0017358799319277219 0 -0.00030443487514314536 -0.002008240409032482 0 -0.00050571109228107574 -0.0027245548559528317 0 -0.00040361450219792593 -0.0026003489057634865 0 -0.00034482751812821288 -0.0027596269228739906 0 -0.00019421024491177242 -0.0017358799319277219 0 -0.00021233333515489826 -0.0011062936640823624 0 -0.00016367574348097986 -0.00091829811542120114 0 -0.00016388701469249227 -0.00091454614989235202 0 -0.00016276115438474428 -0.00091131604412604062 0 -0.00016659267696329311 -0.00091119419849949087 0 -0.00016388701469249227 -0.00091454614989235202 0 -0.00016276115438474428 -0.00091131604412604062 0 -0.00022308511411251632 -0.0013820242858945129 0 -0.00022265970698591317 -0.0013623483482955315 0 -0.00022841121513574199 -0.0013621872479268348 0 -0.00022308511411251632 -0.0013820242858945129 0 -0.00021378527041768973 -0.001362960625397333 0 -0.00022265970698591317 -0.0013623483482955315 0 -0.00021233333515489826 -0.0011062936640823624 0 -0.00016591774559296838 -0.00082602802739775488 0 -0.00022308511411251632 -0.0013820242858945129 0 -0.00020462666911389259 -0.0013710207676355887 0 -0.00021378527041768973 -0.001362960625397333 0 -0.00022308511411251632 -0.0013820242858945129 0 -0.00020462666911389259 -0.0013710207676355887 0 -0.00019905565044787325 -0.0013876453344450468 0 -0.00020462666911389259 -0.0013710207676355887 0 -0.00019905565044787325 -0.0013876453344450468 0 -0.00018494506165158214 -0.0013711050371883111 0 -0.00040361450219792593 -0.0026003489057634865 0 -0.0002814875520562317 -0.002645041035001339 0 -0.00030417520075593651 -0.0024770902318387842 0 -0.00030443487514314536 -0.002008240409032482 0 -0.00044739172770291057 -0.0021369232583730679 0 -0.00040361450219792593 -0.0026003489057634865 0 -0.0002814875520562317 -0.002645041035001339 0 -0.00034482751812821288 -0.0027596269228739906 0 -0.0002814875520562317 -0.002645041035001339 0 -0.00034482751812821288 -0.0027596269228739906 0 -0.0001961528371634538 -0.0027542478774005147 0 -0.0002814875520562317 -0.002645041035001339 0 -0.00019673244011891023 -0.0026393967356349935 0 -0.0001961528371634538 -0.0027542478774005147 0 -0.0002814875520562317 -0.002645041035001339 0 -0.00019673244011891023 -0.0026393967356349935 0 -0.00020404633387581983 -0.002545536613689457 0 -0.0002814875520562317 -0.002645041035001339 0 -0.00020404633387581983 -0.002545536613689457 0 -0.00030417520075593651 -0.0024770902318387842 0 -0.00060875684341759489 -0.0029614341174190499 0 -0.00044739172770291057 -0.0021369232583730679 0 -0.0010684809178677784 -0.0033988582956402378 0 -0.00083709221605492146 -0.0035405986715513955 0 -0.00086649787693179544 -0.0032854253570784799 0 -0.00083709221605492146 -0.0035405986715513955 0 -0.00086649787693179544 -0.0032854253570784799 0 -0.00064603361623884832 -0.0032255465803765885 0 -0.00051615067742853031 -0.003137379278246622 0 -0.00077828981634573996 -0.0034141438604410137 0 -0.00019673244011891023 -0.0026393967356349935 0 -0.00020404633387581983 -0.002545536613689457 0 -0.00010579327319856842 -0.0026128964406949714 0 -0.00060875684341759489 -0.0029614341174190499 0 -0.00051615067742853031 -0.003137379278246622 0 -0.00092026565587089175 -0.0036497150789114958 0 -0.00067801715856067376 -0.0036156589021694337 0 -0.00077514895559920895 -0.0034052801393043104 0 -0.00051615067742853031 -0.003137379278246622 0 -0.00037761806491055428 -0.003340658855549866 0 -0.00092026565587089175 -0.0036497150789114958 0 -0.00067801715856067376 -0.0036156589021694337 0 -0.00063462191735913303 -0.0038210523301161633 0 -0.0001963582240151142 -0.0027906071780682681 0 -0.00011136729109744796 -0.0028429203896119738 0 -0.00017557019355518187 -0.0028817096040155287 0 -0.00019673244011891023 -0.0026393967356349935 0 -0.00010579327319856842 -0.0026128964406949714 0 -0.0001961528371634538 -0.0027542478774005147 0 -0.0001963582240151142 -0.0027906071780682681 0 -0.00017557019355518187 -0.0028817096040155287 0 -0.00024221640332514277 -0.0028567353572622584 0 -0.00051615067742853031 -0.003137379278246622 0 -0.0001494260667975983 -0.0027082819022811559 0 -0.00017557019355518187 -0.0028817096040155287 0 -0.00022403332982759764 -0.0029147609551729787 0 -0.00024221640332514277 -0.0028567353572622584 0 -0.00011136729109744796 -0.0028429203896119738 0 -0.00017557019355518187 -0.0028817096040155287 0 -9.9017125887922608e-05 -0.0029274601939954597 0 -0.0001656251736257457 -0.002964843604959003 0 -9.9017125887922608e-05 -0.0029274601939954597 0 -5.1640589033289403e-05 -0.003000838138430488 0 -0.00017557019355518187 -0.0028817096040155287 0 -0.0001656251736257457 -0.002964843604959003 0 -9.9017125887922608e-05 -0.0029274601939954597 0 -0.00017557019355518187 -0.0028817096040155287 0 -0.0001656251736257457 -0.002964843604959003 0 -0.00022403332982759764 -0.0029147609551729787 0 -0.0001656251736257457 -0.002964843604959003 0 -0.00022403332982759764 -0.0029147609551729787 0 -0.0002400291127844108 -0.0029682379806093345 0 -0.0002400291127844108 -0.0029682379806093345 0 -0.00029861376442067203 -0.0029095929640030357 0 -0.00028728389681767643 -0.0030240822618509706 0 -0.00022403332982759764 -0.0029147609551729787 0 -0.0002400291127844108 -0.0029682379806093345 0 -0.00029861376442067203 -0.0029095929640030357 0 -0.00038351141026001 -0.0029066297420662986 0 -0.00029861376442067203 -0.0029095929640030357 0 -0.00028728389681767643 -0.0030240822618509706 0 -0.00038351141026001 -0.0029066297420662986 0 -0.00029861376442067203 -0.0029095929640030357 0 -0.00034482751812821288 -0.0027596269228739906 0 -0.00029861376442067203 -0.0029095929640030357 0 -0.00034482751812821288 -0.0027596269228739906 0 -0.0001961528371634538 -0.0027542478774005147 0 -0.00032008013521515189 -0.0029437382084082022 0 -0.0001494260667975983 -0.0027082819022811559 0 -0.00022403332982759764 -0.0029147609551729787 0 -0.00029861376442067203 -0.0029095929640030357 0 -0.00024221640332514277 -0.0028567353572622584 0 2.0589638567595396e-05 -0.0037434143209983672 0 -0.00011028614735878047 -0.0038507337805413541 0 -0.00010872474521864836 -0.0037024763840457125 0 2.0589638567595396e-05 -0.0037434143209983672 0 -0.00010872474521864836 -0.0037024763840457125 0 -5.1216968606008252e-05 -0.0036110878500931103 0 -0.00010872474521864836 -0.0037024763840457125 0 -0.00017715201296398544 -0.0035985304551514894 0 -5.1216968606008252e-05 -0.0036110878500931103 0 -0.00017715201296398544 -0.0035985304551514894 0 -0.0002436695504254372 -0.0037064918668092452 0 -0.00032586933295531149 -0.0034865587789123811 0 -0.00010872474521864836 -0.0037024763840457125 0 -0.00017715201296398544 -0.0035985304551514894 0 -0.0002436695504254372 -0.0037064918668092452 0 -0.00011028614735878047 -0.0038507337805413541 0 -0.00010872474521864836 -0.0037024763840457125 0 -0.0002436695504254372 -0.0037064918668092452 0 -0.0001337486341166313 -0.0038569754080686092 0 -0.00038874089330651464 -0.0038276453282372262 0 -0.00011028614735878047 -0.0038507337805413541 0 -0.0002436695504254372 -0.0037064918668092452 0 -0.00040056389346321736 -0.0038242264198456652 0 -0.0002436695504254372 -0.0037064918668092452 0 -0.00040056389346321736 -0.0038242264198456652 0 -0.00037927188998813932 -0.0036795235473576892 0 -0.00040056389346321736 -0.0038242264198456652 0 -0.00037927188998813932 -0.0036795235473576892 0 -0.00051347450591816227 -0.0037158327141715275 0 -0.00037927188998813932 -0.0036795235473576892 0 -0.00050199385344720847 -0.003583847751738979 0 -0.00032586933295531149 -0.0034865587789123811 0 -0.0002436695504254372 -0.0037064918668092452 0 -0.00037927188998813932 -0.0036795235473576892 0 -0.00032586933295531149 -0.0034865587789123811 0 -0.00067801715856067376 -0.0036156589021694337 0 -0.00050199385344720847 -0.003583847751738979 0 -0.00053960701776091578 -0.0033672275348763793 0 -0.00037927188998813932 -0.0036795235473576892 0 -0.00050199385344720847 -0.003583847751738979 0 -0.00051347450591816227 -0.0037158327141715275 0 -0.00067801715856067376 -0.0036156589021694337 0 -0.00050199385344720847 -0.003583847751738979 0 -0.00051347450591816227 -0.0037158327141715275 0 -0.00063462191735913303 -0.0038210523301161633 0 -0.00040056389346321736 -0.0038242264198456652 0 -0.00051347450591816227 -0.0037158327141715275 0 -0.00067801715856067376 -0.0036156589021694337 0 -0.00063462191735913303 -0.0038210523301161633 0 -0.00051347450591816227 -0.0037158327141715275 0 -0.00037761806491055428 -0.003340658855549866 0 -0.00020764736027823057 -0.0034251518267054831 0 -0.00063462191735913303 -0.0038210523301161633 0 -0.00040056389346321736 -0.0038242264198456652 0 -0.00038913720618684002 -0.0039519527835970118 0 -0.00011136729109744796 -0.0028429203896119738 0 -9.9017125887922608e-05 -0.0029274601939954597 0 -2.1705189938404187e-05 -0.0029031516613243634 0 -9.9017125887922608e-05 -0.0029274601939954597 0 -2.1705189938404187e-05 -0.0029031516613243634 0 -5.1640589033289403e-05 -0.003000838138430488 0 -2.1705189938404187e-05 -0.0029031516613243634 0 6.5025839884184832e-05 -0.0029654177389041672 0 -5.1640589033289403e-05 -0.003000838138430488 0 -0.00040056389346321736 -0.0038242264198456652 0 -0.00038913720618684002 -0.0039519527835970118 0 -0.00025074812808721658 -0.0039363819129114071 0 -0.00014782768348914357 -0.0038646793508758655 0 -0.00040056389346321736 -0.0038242264198456652 0 -0.00025074812808721658 -0.0039363819129114071 0 -0.00038913720618684002 -0.0039519527835970118 0 -0.00025074812808721658 -0.0039363819129114071 0 -0.00020595324101783892 -0.0040510651229056114 0 -0.00020764736027823057 -0.0034251518267054831 0 -6.9870565029670357e-05 -0.0035111018687994733 0 -4.9729948660257857e-05 -0.00413603802127256 0 -0.00020595324101783892 -0.0040510651229056114 0 -5.8501989498547167e-05 -0.0039971978840471767 0 -0.00025074812808721658 -0.0039363819129114071 0 -0.00020595324101783892 -0.0040510651229056114 0 -5.8501989498547167e-05 -0.0039971978840471767 0 4.6090051784846648e-05 -0.0035589674417106304 0 -6.9870565029670357e-05 -0.0035111018687994733 0 -0.00014782768348914357 -0.0038646793508758655 0 -0.00025074812808721658 -0.0039363819129114071 0 -5.8501989498547167e-05 -0.0039971978840471767 0 0.00014963916955558894 -0.0030270035353668861 0 0.00013374876415800382 -0.0031058017146542629 0 3.7452197109120943e-05 -0.0030664743242821346 0 0.00014963916955558894 -0.0030270035353668861 0 6.5025839884184832e-05 -0.0029654177389041672 0 3.7452197109120943e-05 -0.0030664743242821346 0 3.7452197109120943e-05 -0.0030664743242821346 0 5.3102981304808398e-06 -0.0031318425851458568 0 6.4742765165503045e-05 -0.0031271073375659032 0 0.00013374876415800382 -0.0031058017146542629 0 3.7452197109120943e-05 -0.0030664743242821346 0 6.4742765165503045e-05 -0.0031271073375659032 0 3.7452197109120943e-05 -0.0030664743242821346 0 -5.1640589033289403e-05 -0.003000838138430488 0 -6.7334467391840579e-05 -0.0031044530019312404 0 3.7452197109120943e-05 -0.0030664743242821346 0 -6.7334467391840579e-05 -0.0031044530019312404 0 5.3102981304808398e-06 -0.0031318425851458568 0 6.5025839884184832e-05 -0.0029654177389041672 0 3.7452197109120943e-05 -0.0030664743242821346 0 -5.1640589033289403e-05 -0.003000838138430488 0 -5.1640589033289403e-05 -0.003000838138430488 0 -6.7334467391840579e-05 -0.0031044530019312404 0 -0.00014602792079366244 -0.0030604851402087655 0 -6.7334467391840579e-05 -0.0031044530019312404 0 -9.621640588645036e-05 -0.003168767609274762 0 -3.7108315375395054e-05 -0.0031817245591617533 0 -9.621640588645036e-05 -0.003168767609274762 0 -7.5644619344736707e-05 -0.0031997201935818767 0 -3.7108315375395054e-05 -0.0031817245591617533 0 -9.621640588645036e-05 -0.003168767609274762 0 -7.5644619344736707e-05 -0.0031997201935818767 0 -0.00010156562654907447 -0.0032124373687930146 0 -7.5644619344736707e-05 -0.0031997201935818767 0 -6.791481488147614e-05 -0.0032357484011377594 0 -0.00010156562654907447 -0.0032124373687930146 0 -7.5644619344736707e-05 -0.0031997201935818767 0 -6.791481488147614e-05 -0.0032357484011377594 0 -3.7108315375395054e-05 -0.0031817245591617533 0 -6.791481488147614e-05 -0.0032357484011377594 0 -3.7108315375395054e-05 -0.0031817245591617533 0 1.230694092920102e-05 -0.003252223786404738 0 -3.7108315375395054e-05 -0.0031817245591617533 0 3.707873462591869e-05 -0.0031800394411670425 0 1.230694092920102e-05 -0.003252223786404738 0 -3.7108315375395054e-05 -0.0031817245591617533 0 5.3102981304808398e-06 -0.0031318425851458568 0 3.707873462591869e-05 -0.0031800394411670425 0 -6.7334467391840579e-05 -0.0031044530019312404 0 -3.7108315375395054e-05 -0.0031817245591617533 0 5.3102981304808398e-06 -0.0031318425851458568 0 6.4742765165503045e-05 -0.0031271073375659032 0 3.707873462591869e-05 -0.0031800394411670425 0 0.00011020056518039295 -0.0031515905224901429 0 5.3102981304808398e-06 -0.0031318425851458568 0 6.4742765165503045e-05 -0.0031271073375659032 0 3.707873462591869e-05 -0.0031800394411670425 0 3.707873462591869e-05 -0.0031800394411670425 0 0.00010144836292619491 -0.003198040093461941 0 9.9903921728990925e-05 -0.0032731087817238613 0 3.707873462591869e-05 -0.0031800394411670425 0 9.5538801390136698e-05 -0.0032610003371532042 0 1.230694092920102e-05 -0.003252223786404738 0 3.4474279062271083e-05 -0.0031344303702102389 0 7.2611172657648717e-05 -0.0034139467835381603 0 9.6284275281488307e-05 -0.0036602284677075842 0 9.0509749312144664e-05 -0.0036226972021015558 0 5.8702081861985392e-05 -0.0036688907806954516 0 0.00013553660625697459 -0.0034892423029064374 0 7.2611172657648717e-05 -0.0034139467835381603 0 0.00015896661818103034 -0.0031886306772393189 0 0.00010144836292619491 -0.003198040093461941 0 9.9903921728990925e-05 -0.0032731087817238613 0 0.00015160784365436159 -0.0031460310784804809 0 0.00015662322413122738 -0.003190324000889198 0 0.00011020056518039295 -0.0031515905224901429 0 0.00013553660625697459 -0.0034892423029064374 0 6.4445122187380802e-05 -0.0031499903588194382 0 0.00013374876415800382 -0.0031058017146542629 0 6.4742765165503045e-05 -0.0031271073375659032 0 0.00011020056518039295 -0.0031515905224901429 0 3.707873462591869e-05 -0.0031800394411670425 0 0.00010144836292619491 -0.003198040093461941 0 0.00011020056518039295 -0.0031515905224901429 0 0.00015896661818103034 -0.0031886306772393189 0 0.00010144836292619491 -0.003198040093461941 0 0.00011020056518039295 -0.0031515905224901429 0 0.00015160784365436159 -0.0031460310784804809 0 0.00013374876415800382 -0.0031058017146542629 0 0.00011020056518039295 -0.0031515905224901429 0 0.00014272854591666352 -0.0020092527187917622 0 0.0001777721245587006 -0.0018464194248948497 0 0.00034730310959557109 -0.002103935106560352 0 -5.970634978606261e-05 -0.0024213350137334425 0 5.5316263810758317e-05 -0.0026119583628125952 0 -0.00028728389681767643 -0.0030240822618509706 0 -0.00021113501188091391 -0.0030269458798248888 0 -0.00022090055797637705 -0.003114922311961216 0 6.1512929814525386e-05 -0.0018462771351480888 0 3.9606986010650915e-05 -0.0018908382069944914 0 0.00012104353010716185 -0.0018576522565188528 0 -6.9960179457276826e-05 -0.0020525137844442515 0 0.00014272854591666352 -0.0020092527187917622 0 0.00012104353010716185 -0.0018576522565188528 0 -3.1219477139440582e-05 -0.0020016841753506872 0 0.00012086087178107045 -0.0018505298261142647 0 0.00014272854591666352 -0.0020092527187917622 0 0.00012104353010716185 -0.0018576522565188528 0 0.0001777721245587006 -0.0018464194248948497 0 -0.00013864326531607974 -0.0024001804112937061 0 -5.970634978606261e-05 -0.0024213350137334425 0 0.00012104353010716185 -0.0018576522565188528 0 7.4460705834242483e-05 -0.0017966214832877204 0 0.0001777721245587006 -0.0018464194248948497 0 7.8402507270801738e-05 -0.0017301291547093165 0 7.4460705834242483e-05 -0.0017966214832877204 0 0.0001777721245587006 -0.0018464194248948497 0 6.1512929814525386e-05 -0.0018462771351480888 0 0.00012104353010716185 -0.0018576522565188528 0 7.4460705834242483e-05 -0.0017966214832877204 0 -0.0002400291127844108 -0.0029682379806093345 0 -0.00028728389681767643 -0.0030240822618509706 0 -0.00021113501188091391 -0.0030269458798248888 0 -0.0001656251736257457 -0.002964843604959003 0 -0.00021113501188091391 -0.0030269458798248888 0 -0.00014602792079366244 -0.0030604851402087655 0 -0.0001656251736257457 -0.002964843604959003 0 -0.0002400291127844108 -0.0029682379806093345 0 -0.00021113501188091391 -0.0030269458798248888 0 -0.0001656251736257457 -0.002964843604959003 0 -5.1640589033289403e-05 -0.003000838138430488 0 -0.00014602792079366244 -0.0030604851402087655 0 -6.7334467391840579e-05 -0.0031044530019312404 0 -0.00014602792079366244 -0.0030604851402087655 0 -0.00015672353459299088 -0.0031386891459203922 0 -0.00014602792079366244 -0.0030604851402087655 0 -0.00022090055797637705 -0.003114922311961216 0 -0.00015672353459299088 -0.0031386891459203922 0 -0.00021113501188091391 -0.0030269458798248888 0 -0.00014602792079366244 -0.0030604851402087655 0 -0.00022090055797637705 -0.003114922311961216 0 -0.00022090055797637705 -0.003114922311961216 0 -0.00015672353459299088 -0.0031386891459203922 0 -0.00015664435728661419 -0.0032063996005145166 0 5.5316263810758317e-05 -0.0026119583628125952 0 0.00022028109574248031 -0.0027529215550581411 0 -6.7334467391840579e-05 -0.0031044530019312404 0 -9.621640588645036e-05 -0.003168767609274762 0 -0.00015672353459299088 -0.0031386891459203922 0 -9.621640588645036e-05 -0.003168767609274762 0 -0.00015672353459299088 -0.0031386891459203922 0 -0.000128167737952305 -0.0031836693919726224 0 -0.00015672353459299088 -0.0031386891459203922 0 -0.000128167737952305 -0.0031836693919726224 0 -0.00015664435728661419 -0.0032063996005145166 0 -0.00015664435728661419 -0.0032063996005145166 0 -0.00013267105759184091 -0.0032066461068913027 0 -0.00010582948456107123 -0.0032778176943644827 0 -0.00013267105759184091 -0.0032066461068913027 0 -0.00010156562654907447 -0.0032124373687930146 0 -0.00010582948456107123 -0.0032778176943644827 0 -9.621640588645036e-05 -0.003168767609274762 0 -0.000128167737952305 -0.0031836693919726224 0 -0.00010156562654907447 -0.0032124373687930146 0 -0.000128167737952305 -0.0031836693919726224 0 -0.00013267105759184091 -0.0032066461068913027 0 -0.00010156562654907447 -0.0032124373687930146 0 -0.000128167737952305 -0.0031836693919726224 0 -0.00015664435728661419 -0.0032063996005145166 0 -0.00013267105759184091 -0.0032066461068913027 0 0.00048267520211057807 -0.0023333491401826825 0 0.00027759128424807505 -0.002296985307073349 0 0.00032027888859247647 -0.0024592042893293487 0 0.00034730310959557109 -0.002103935106560352 0 0.00048267520211057807 -0.0023333491401826825 0 0.00027759128424807505 -0.002296985307073349 0 0.00027759128424807505 -0.002296985307073349 0 0.00012480052997869095 -0.0023300677923617568 0 0.00018792051915941655 -0.0024528895160647788 0 0.00027759128424807505 -0.002296985307073349 0 0.00012420712769384368 -0.0021940825435178271 0 0.00012480052997869095 -0.0023300677923617568 0 0.00034730310959557109 -0.002103935106560352 0 0.00027759128424807505 -0.002296985307073349 0 0.00012420712769384368 -0.0021940825435178271 0 0.00014272854591666352 -0.0020092527187917622 0 0.00034730310959557109 -0.002103935106560352 0 0.00012420712769384368 -0.0021940825435178271 0 -6.9960179457276826e-05 -0.0020525137844442515 0 0.00014272854591666352 -0.0020092527187917622 0 0.00012420712769384368 -0.0021940825435178271 0 -6.5522237904606158e-05 -0.0021999168217322665 0 0.00010621556137144964 -0.0022130005047835328 0 6.3497654161386573e-06 -0.0022981865334237221 0 -2.8600549714178624e-05 -0.0022910211019359192 0 0.00012420712769384368 -0.0021940825435178271 0 6.3497654161386573e-06 -0.0022981865334237221 0 0.00012420712769384368 -0.0021940825435178271 0 0.00012480052997869095 -0.0023300677923617568 0 6.3497654161386573e-06 -0.0022981865334237221 0 0.00012480052997869095 -0.0023300677923617568 0 5.1044983247422502e-05 -0.0024349568672053187 0 5.1044983247422502e-05 -0.0024349568672053187 0 7.4443294390070486e-05 -0.0026238729064893096 0 0.00018792051915941655 -0.0024528895160647788 0 0.00012480052997869095 -0.0023300677923617568 0 5.1044983247422502e-05 -0.0024349568672053187 0 0.00018792051915941655 -0.0024528895160647788 0 7.4443294390070486e-05 -0.0026238729064893096 0 0.00024108142253790869 -0.002603740523332035 0 0.00018792051915941655 -0.0024528895160647788 0 7.4443294390070486e-05 -0.0026238729064893096 0 0.00024108142253790869 -0.002603740523332035 0 0.00016488566393206628 -0.0027838472231873348 0 0.00027759128424807505 -0.002296985307073349 0 0.00018792051915941655 -0.0024528895160647788 0 0.00032027888859247647 -0.0024592042893293487 0 0.00024108142253790869 -0.002603740523332035 0 0.00018792051915941655 -0.0024528895160647788 0 0.00032027888859247647 -0.0024592042893293487 0 0.00022028109574248031 -0.0027529215550581411 0 0.00039061878477734897 -0.0027529804744083988 0 0.00048267520211057807 -0.0023333491401826825 0 0.00032027888859247647 -0.0024592042893293487 0 0.00041296209470648322 -0.0026021378480415511 0 0.00032137716045782083 -0.0028976575774402342 0 0.00035490349586158633 -0.0029472642716103161 0 0.00030910388886388356 -0.0029757913052198904 0 0.00022028109574248031 -0.0027529215550581411 0 0.00012891445695249762 -0.0031546355413800743 0 0.00035490349586158633 -0.0029472642716103161 0 0.00030910388886388356 -0.0029757913052198904 0 0.00034616114658326451 -0.0030096204883382745 0 0.00024108142253790869 -0.002603740523332035 0 0.00032027888859247647 -0.0024592042893293487 0 0.00041296209470648322 -0.0026021378480415511 0 0.00039061878477734897 -0.0027529804744083988 0 0.00031491371942075105 -0.0029626102902057666 0 0.00030910388886388356 -0.0029757913052198904 0 0.00034616114658326451 -0.0030096204883382745 0 0.00029819289618558746 -0.0030472741561149048 0 0.00024108142253790869 -0.002603740523332035 0 0.00041296209470648322 -0.0026021378480415511 0 0.00034527122527907466 -0.0028586008061861055 0 0.00034616114658326451 -0.0030096204883382745 0 0.00035646535510190658 -0.0030557157548839172 0 0.00029819289618558746 -0.0030472741561149048 0 0.00034616114658326451 -0.0030096204883382745 0 0.00035646535510190658 -0.0030557157548839172 0 0.00037504283787262769 -0.0030325252309823902 0 0.00035646535510190658 -0.0030557157548839172 0 0.00029819289618558746 -0.0030472741561149048 0 0.00033405497718431428 -0.0030818164982700609 0 0.00035646535510190658 -0.0030557157548839172 0 0.00036011922373787447 -0.0030919356842578705 0 0.00033405497718431428 -0.0030818164982700609 0 0.00034527122527907466 -0.0028586008061861055 0 0.00016488566393206628 -0.0027838472231873348 0 0.0001560914203093209 -0.0029631026073555439 0 0.00016488566393206628 -0.0027838472231873348 0 0.0001560914203093209 -0.0029631026073555439 0 1.4679404424246465e-05 -0.0028673337187969761 0 7.4443294390070486e-05 -0.0026238729064893096 0 0.00016488566393206628 -0.0027838472231873348 0 1.4679404424246465e-05 -0.0028673337187969761 0 0.00024108142253790869 -0.002603740523332035 0 0.00034527122527907466 -0.0028586008061861055 0 0.00016488566393206628 -0.0027838472231873348 0 6.1254122878495282e-05 -0.003706505599228126 0 9.1512023519398384e-05 -0.0035075869722557868 0 9.1539561572356656e-05 -0.0035907062608825221 0 9.9083598463630608e-05 -0.0035881828094438562 0 8.9762113369379814e-05 -0.0035860110917002161 0 8.5796847178193621e-05 -0.0035887916944212419 0 9.1539561572356656e-05 -0.0035907062608825221 0 9.1445115186412969e-05 -0.0035950814133255639 0 8.5796847178193621e-05 -0.0035887916944212419 0 9.1539561572356656e-05 -0.0035907062608825221 0 8.9762113369379814e-05 -0.0035860110917002161 0 9.6284275281488307e-05 -0.0036602284677075842 0 5.8702081861985392e-05 -0.0036688907806954516 0 6.2364894982511158e-05 -0.003673844747640482 0 7.518189356800805e-05 -0.0036919329238040985 0 9.1512023519398384e-05 -0.0035075869722557868 0 6.0737903027667113e-05 -0.0034716183003136755 0 4.3981975375139371e-05 -0.0034489087424016047 0 7.3215217477035183e-05 -0.0034539208226360995 0 7.2611172657648717e-05 -0.0034139467835381603 0 9.1512023519398384e-05 -0.0035075869722557868 0 9.1512023519398384e-05 -0.0035075869722557868 0 7.6122498380364878e-05 -0.0034140520320412181 0 7.2611172657648717e-05 -0.0034139467835381603 0 7.6122498380364878e-05 -0.0034140520320412181 0 9.1539561572356656e-05 -0.0035907062608825221 0 9.1445115186412969e-05 -0.0035950814133255639 0 9.244596870399564e-05 -0.003595241116233831 0 9.1579770745635472e-05 -0.0032672640924087805 0 4.0299871794342976e-05 -0.0033399226829201492 0 1.3239473642572792e-05 -0.0032518455821435727 0 7.6122498380364878e-05 -0.0034140520320412181 0 1.0947467859693553e-05 -0.0032418557809869913 0 9.5538801390136698e-05 -0.0032610003371532042 0 9.0988265990697381e-05 -0.0032674595274269228 0 1.230694092920102e-05 -0.003252223786404738 0 7.6122498380364878e-05 -0.0034140520320412181 0 5.7812181625395768e-05 -0.0034856703711584587 0 9.1539561572356656e-05 -0.0035907062608825221 0 9.244596870399564e-05 -0.003595241116233831 0 9.9083598463630608e-05 -0.0035881828094438562 0 4.0299871794342976e-05 -0.0033399226829201492 0 -3.5069748926644292e-05 -0.0032905354798916098 0 -5.7145593643644316e-05 -0.0033457290796003215 0 4.0299871794342976e-05 -0.0033399226829201492 0 -3.5069748926644292e-05 -0.0032905354798916098 0 1.3239473642572792e-05 -0.0032518455821435727 0 -6.791481488147614e-05 -0.0032357484011377594 0 -3.5069748926644292e-05 -0.0032905354798916098 0 1.3239473642572792e-05 -0.0032518455821435727 0 -6.0684848032431275e-05 -0.0032388256392965526 0 1.0947467859693553e-05 -0.0032418557809869913 0 -6.791481488147614e-05 -0.0032357484011377594 0 -0.00010582948456107123 -0.0032778176943644827 0 -3.5069748926644292e-05 -0.0032905354798916098 0 -6.791481488147614e-05 -0.0032357484011377594 0 -0.00010156562654907447 -0.0032124373687930146 0 -0.00010582948456107123 -0.0032778176943644827 0 0.00012891445695249762 -0.0031546355413800743 0 0.00016108576421363071 -0.003142939470023125 0 -0.00010582948456107123 -0.0032778176943644827 0 -3.5069748926644292e-05 -0.0032905354798916098 0 -5.7145593643644316e-05 -0.0033457290796003215 0 0.00035490349586158633 -0.0029472642716103161 0 0.00034616114658326451 -0.0030096204883382745 0 0.000385710036700755 -0.0029952320051047014 0 0.00034616114658326451 -0.0030096204883382745 0 0.000385710036700755 -0.0029952320051047014 0 0.00037504283787262769 -0.0030325252309823902 0 0.00037504283787262769 -0.0030325252309823902 0 0.00038571589857802158 -0.0030515566550459883 0 0.00041534185446975088 -0.0030430142908325752 0 0.000385710036700755 -0.0029952320051047014 0 0.00037504283787262769 -0.0030325252309823902 0 0.00041534185446975088 -0.0030430142908325752 0 0.00035646535510190658 -0.0030557157548839172 0 0.00037504283787262769 -0.0030325252309823902 0 0.00038571589857802158 -0.0030515566550459883 0 0.00035646535510190658 -0.0030557157548839172 0 0.00037927754181972539 -0.0030724094987965157 0 0.00038571589857802158 -0.0030515566550459883 0 0.00035646535510190658 -0.0030557157548839172 0 0.00037927754181972539 -0.0030724094987965157 0 0.00036011922373787447 -0.0030919356842578705 0 0.00037927754181972539 -0.0030724094987965157 0 0.00039211514949179802 -0.0030650775079796876 0 0.00038571589857802158 -0.0030515566550459883 0 0.00037927754181972539 -0.0030724094987965157 0 0.00039547561025589362 -0.0030791688517069534 0 0.00039211514949179802 -0.0030650775079796876 0 0.00039547561025589362 -0.0030791688517069534 0 0.00039211514949179802 -0.0030650775079796876 0 0.00040040889626006832 -0.0030656466574119135 0 0.00039211514949179802 -0.0030650775079796876 0 0.00039774187827597106 -0.003057444569252791 0 0.00040040889626006832 -0.0030656466574119135 0 0.00039211514949179802 -0.0030650775079796876 0 0.00039774187827597106 -0.003057444569252791 0 0.00038571589857802158 -0.0030515566550459883 0 0.00039774187827597106 -0.003057444569252791 0 0.00040795208086709167 -0.0030544788816187886 0 0.00041534185446975088 -0.0030430142908325752 0 0.00040795208086709167 -0.0030544788816187886 0 0.00040707999824388238 -0.0030720197715182552 0 0.00043103131349927484 -0.0031042509878653197 0 0.00039774187827597106 -0.003057444569252791 0 0.00038571589857802158 -0.0030515566550459883 0 0.00041534185446975088 -0.0030430142908325752 0 7.2014683487281724e-05 -0.0035162618605970686 0 9.129313004002021e-05 -0.0035365534544667234 0 8.6277210954765742e-05 -0.0035445912465892088 0 7.2014683487281724e-05 -0.0035162618605970686 0 7.6469803347910237e-05 -0.0035093042059404257 0 9.129313004002021e-05 -0.0035365534544667234 0 0.00023818116979186767 -0.0033470319524913136 0 0.00025627608526309259 -0.0032879311168204162 0 0.00010756156180133245 -0.0035772527281852052 0 0.00010189356758258508 -0.0035738014535596076 0 0.00010187367312934105 -0.0035682253589754053 0 0.00011036675309255551 -0.0033968294074887577 0 0.0001037795491147722 -0.0035742766302099007 0 0.00023818116979186767 -0.0033470319524913136 0 0.00011036675309255551 -0.0033968294074887577 0 0.00039774187827597106 -0.003057444569252791 0 0.00040795208086709167 -0.0030544788816187886 0 0.00040040889626006832 -0.0030656466574119135 0 0.00039547561025589362 -0.0030791688517069534 0 0.00040707999824388238 -0.0030720197715182552 0 0.00040040889626006832 -0.0030656466574119135 0 0.00040795208086709167 -0.0030544788816187886 0 0.00040707999824388238 -0.0030720197715182552 0 0.00040040889626006832 -0.0030656466574119135 0 0.00039547561025589362 -0.0030791688517069534 0 0.00040707999824388238 -0.0030720197715182552 0 0.00040443219642619029 -0.0030874905278823039 0 4.0299871794342976e-05 -0.0033399226829201492 0 -5.7145593643644316e-05 -0.0033457290796003215 0 -1.0393207236389904e-05 -0.0034124978548694933 0 5.7812181625395768e-05 -0.0034856703711584587 0 0.00011036675309255551 -0.0033968294074887577 0 0.00016108576421363071 -0.003142939470023125 0 0.00011036675309255551 -0.0033968294074887577 0 9.9083598463630608e-05 -0.0035881828094438562 0 9.3262916716419831e-05 -0.0035818654188286931 0 8.9762113369379814e-05 -0.0035860110917002161 0 9.9083598463630608e-05 -0.0035881828094438562 0 9.7964628331886656e-05 -0.0035779143309898126 0 9.3262916716419831e-05 -0.0035818654188286931 0 9.9083598463630608e-05 -0.0035881828094438562 0 0.00010756156180133245 -0.0035772527281852052 0 9.7964628331886656e-05 -0.0035779143309898126 0 0.00010756156180133245 -0.0035772527281852052 0 0.00010189356758258508 -0.0035738014535596076 0 9.7964628331886656e-05 -0.0035779143309898126 0 0.00010189356758258508 -0.0035738014535596076 0 9.9379649035967777e-05 -0.0035728000053210866 0 9.7964628331886656e-05 -0.0035779143309898126 0 9.9379649035967777e-05 -0.0035728000053210866 0 9.5760144254828478e-05 -0.003571382808441778 0 0.00010187367312934105 -0.0035682253589754053 0 0.00010189356758258508 -0.0035738014535596076 0 9.9379649035967777e-05 -0.0035728000053210866 0 0.00010187367312934105 -0.0035682253589754053 0 9.5760144254828478e-05 -0.003571382808441778 0 9.7964628331886656e-05 -0.0035779143309898126 0 9.1463566536775719e-05 -0.0035760187888730136 0 9.7964628331886656e-05 -0.0035779143309898126 0 9.1463566536775719e-05 -0.0035760187888730136 0 9.3262916716419831e-05 -0.0035818654188286931 0 9.9379649035967777e-05 -0.0035728000053210866 0 9.5760144254828478e-05 -0.003571382808441778 0 9.7964628331886656e-05 -0.0035779143309898126 0 9.5760144254828478e-05 -0.003571382808441778 0 8.9658332508086482e-05 -0.0035708512104207228 0 9.0911308592207557e-05 -0.0035661844332893051 0 9.5760144254828478e-05 -0.003571382808441778 0 9.1463566536775719e-05 -0.0035760187888730136 0 8.9658332508086482e-05 -0.0035708512104207228 0 8.1741164548437595e-05 -0.0035706626315528778 0 8.9658332508086482e-05 -0.0035708512104207228 0 8.5369222126476841e-05 -0.0035743235800158755 0 9.1463566536775719e-05 -0.0035760187888730136 0 8.9658332508086482e-05 -0.0035708512104207228 0 8.5369222126476841e-05 -0.0035743235800158755 0 9.1463566536775719e-05 -0.0035760187888730136 0 8.5369222126476841e-05 -0.0035743235800158755 0 8.6492407140294458e-05 -0.0035798185498246314 0 8.2412785794943989e-05 -0.0035831555162623161 0 8.6492407140294458e-05 -0.0035798185498246314 0 8.9762113369379814e-05 -0.0035860110917002161 0 8.6492407140294458e-05 -0.0035798185498246314 0 9.3262916716419831e-05 -0.0035818654188286931 0 8.9762113369379814e-05 -0.0035860110917002161 0 9.1463566536775719e-05 -0.0035760187888730136 0 8.6492407140294458e-05 -0.0035798185498246314 0 9.3262916716419831e-05 -0.0035818654188286931 0 6.1254122878495282e-05 -0.003706505599228126 0 0.00011255279876972089 -0.0035886980281620118 0 1.9692275461496919e-05 -0.0037566385420247637 0 0.00017924814524282202 -0.0035324520037123895 0 8.9100095610061166e-05 -0.0035568245006541042 0 9.4206180893875588e-05 -0.0035558299846132997 0 9.445336013722714e-05 -0.0035568410649797406 0 5.4322424217893109e-06 -0.003911171887837692 0 3.2932212422695048e-07 -0.0039218621848044659 0 2.0740785952627759e-05 -0.003910058592956395 0 -3.8284666340637711e-06 -0.003913902689548803 0 5.4322424217893109e-06 -0.003911171887837692 0 3.2932212422695048e-07 -0.0039218621848044659 0 -3.8284666340637711e-06 -0.003913902689548803 0 5.4322424217893109e-06 -0.003911171887837692 0 -1.9297804918357566e-06 -0.0039078528169246268 0 8.9100095610061166e-05 -0.0035568245006541042 0 9.1341935625901765e-05 -0.0035610269903403372 0 9.4206180893875588e-05 -0.0035558299846132997 0 8.9100095610061166e-05 -0.0035568245006541042 0 8.732845311785609e-05 -0.003565293888288685 0 9.1341935625901765e-05 -0.0035610269903403372 0 8.3356536223739219e-05 -0.0035647562246174927 0 8.9100095610061166e-05 -0.0035568245006541042 0 8.732845311785609e-05 -0.003565293888288685 0 8.9658332508086482e-05 -0.0035708512104207228 0 8.732845311785609e-05 -0.003565293888288685 0 9.0911308592207557e-05 -0.0035661844332893051 0 8.1741164548437595e-05 -0.0035706626315528778 0 8.9658332508086482e-05 -0.0035708512104207228 0 8.732845311785609e-05 -0.003565293888288685 0 9.5760144254828478e-05 -0.003571382808441778 0 9.0911308592207557e-05 -0.0035661844332893051 0 9.48460260748264e-05 -0.0035646805408584225 0 8.732845311785609e-05 -0.003565293888288685 0 9.0911308592207557e-05 -0.0035661844332893051 0 9.1341935625901765e-05 -0.0035610269903403372 0 9.0911308592207557e-05 -0.0035661844332893051 0 9.1341935625901765e-05 -0.0035610269903403372 0 9.48460260748264e-05 -0.0035646805408584225 0 9.1341935625901765e-05 -0.0035610269903403372 0 9.48460260748264e-05 -0.0035646805408584225 0 9.4206180893875588e-05 -0.0035558299846132997 0 0.0001037795491147722 -0.0035742766302099007 0 9.0372637048355943e-05 -0.0035471092785324854 0 9.129313004002021e-05 -0.0035365534544667234 0 9.4206180893875588e-05 -0.0035558299846132997 0 8.6277210954765742e-05 -0.0035445912465892088 0 9.48460260748264e-05 -0.0035646805408584225 0 0.00010187367312934105 -0.0035682253589754053 0 9.4206180893875588e-05 -0.0035558299846132997 0 9.5760144254828478e-05 -0.003571382808441778 0 9.48460260748264e-05 -0.0035646805408584225 0 0.00010187367312934105 -0.0035682253589754053 0 9.4206180893875588e-05 -0.0035558299846132997 0 9.445336013722714e-05 -0.0035568410649797406 0 8.6277210954765742e-05 -0.0035445912465892088 0 0.00045288184588150653 -0.0031524713446742631 0 0.00041698486094420776 -0.003145840478489884 0 0.0004300874321824237 -0.003131754493806723 0 0.00017924814524282202 -0.0035324520037123895 0 0.00025627608526309259 -0.0032879311168204162 0 0.00045288184588150653 -0.0031524713446742631 0 0.0004300874321824237 -0.003131754493806723 0 0.00043103131349927484 -0.0031042509878653197 0 0.00041698486094420776 -0.003145840478489884 0 0.00036666477358380546 -0.0031489058005371492 0 0.00042718764285306547 -0.0031662378512847911 0 0.00045288184588150653 -0.0031524713446742631 0 0.00041698486094420776 -0.003145840478489884 0 0.00042718764285306547 -0.0031662378512847911 0 0.00040776440719734525 -0.0031298449777460097 0 0.0004300874321824237 -0.003131754493806723 0 0.00041993476031105094 -0.0031165317207494515 0 0.00041698486094420776 -0.003145840478489884 0 0.00040776440719734525 -0.0031298449777460097 0 0.0004300874321824237 -0.003131754493806723 0 0.0004300874321824237 -0.003131754493806723 0 0.00041993476031105094 -0.0031165317207494515 0 0.00043103131349927484 -0.0031042509878653197 0 0.00041993476031105094 -0.0031165317207494515 0 0.00043103131349927484 -0.0031042509878653197 0 0.00041372514459806224 -0.0030990027577201457 0 0.00040707999824388238 -0.0030720197715182552 0 0.00043103131349927484 -0.0031042509878653197 0 0.00041372514459806224 -0.0030990027577201457 0 0.00040707999824388238 -0.0030720197715182552 0 0.00040443219642619029 -0.0030874905278823039 0 0.00041372514459806224 -0.0030990027577201457 0 0.00039547561025589362 -0.0030791688517069534 0 0.00040443219642619029 -0.0030874905278823039 0 0.00039880731992681214 -0.0030988412865797987 0 0.00040443219642619029 -0.0030874905278823039 0 0.00041372514459806224 -0.0030990027577201457 0 0.00039880731992681214 -0.0030988412865797987 0 0.00039880731992681214 -0.0030988412865797987 0 0.00040896841949331861 -0.0031121705706288229 0 0.00038844990935400206 -0.0031179413537558739 0 0.00040776440719734525 -0.0031298449777460097 0 0.00040896841949331861 -0.0031121705706288229 0 0.00038844990935400206 -0.0031179413537558739 0 0.00041372514459806224 -0.0030990027577201457 0 0.00039880731992681214 -0.0030988412865797987 0 0.00040896841949331861 -0.0031121705706288229 0 0.00041993476031105094 -0.0031165317207494515 0 0.00041372514459806224 -0.0030990027577201457 0 0.00040896841949331861 -0.0031121705706288229 0 0.00040776440719734525 -0.0031298449777460097 0 0.00041993476031105094 -0.0031165317207494515 0 0.00040896841949331861 -0.0031121705706288229 0 0.00039880731992681214 -0.0030988412865797987 0 0.00038844990935400206 -0.0031179413537558739 0 0.00038175964884836373 -0.0030969208490956739 0 0.00039547561025589362 -0.0030791688517069534 0 0.00039880731992681214 -0.0030988412865797987 0 0.00038175964884836373 -0.0030969208490956739 0 0.00037927754181972539 -0.0030724094987965157 0 0.00039547561025589362 -0.0030791688517069534 0 0.00038175964884836373 -0.0030969208490956739 0 0.00037927754181972539 -0.0030724094987965157 0 0.00038175964884836373 -0.0030969208490956739 0 0.00036011922373787447 -0.0030919356842578705 0 0.00038175964884836373 -0.0030969208490956739 0 0.00036844798100294516 -0.0031172670711646319 0 0.00036011922373787447 -0.0030919356842578705 0 0.00038844990935400206 -0.0031179413537558739 0 0.00038175964884836373 -0.0030969208490956739 0 0.00036844798100294516 -0.0031172670711646319 0 0.00038844990935400206 -0.0031179413537558739 0 0.00036844798100294516 -0.0031172670711646319 0 0.00036666477358380546 -0.0031489058005371492 0 0.00040776440719734525 -0.0031298449777460097 0 0.00038844990935400206 -0.0031179413537558739 0 0.00036666477358380546 -0.0031489058005371492 0 0.00041698486094420776 -0.003145840478489884 0 0.00040776440719734525 -0.0031298449777460097 0 0.00036666477358380546 -0.0031489058005371492 0 0.00032362803973984343 -0.0032512888909848811 0 0.00037101974377764119 -0.003366782998805691 0 0.00026281953788178395 -0.0033318108718909081 0 0.00032362803973984343 -0.0032512888909848811 0 0.00037101974377764119 -0.003366782998805691 0 0.00050061581715903644 -0.003291243678500103 0 0.00036980739349142899 -0.0031797169959776146 0 0.00034297167324001573 -0.003406487698928937 0 0.00016914413818674561 -0.0035953636847333883 0 0.00015672723254137679 -0.0036095291863951382 0 0.00017051635577164969 -0.0035366216560525168 0 0.00015672723254137679 -0.0036095291863951382 0 0.00015018695370390167 -0.0036370356510412581 0 0.00015631409279514083 -0.0036377029444055291 0 0.00016914413818674561 -0.0035953636847333883 0 0.00015672723254137679 -0.0036095291863951382 0 0.00015167342091027079 -0.0036306897377736316 0 0.00025858789360095073 -0.0034868748290353213 0 0.00034297167324001573 -0.003406487698928937 0 0.00015672723254137679 -0.0036095291863951382 0 0.00015167342091027079 -0.0036306897377736316 0 0.00015018695370390167 -0.0036370356510412581 0 0.00015167342091027079 -0.0036306897377736316 0 0.00016214555094029595 -0.0036298857488594365 0 0.00015018695370390167 -0.0036370356510412581 0 0.00022086801759421353 -0.0035880598789548774 0 0.00026896655373250059 -0.0035600305120268082 0 0.00019794163046364454 -0.0035463444288486002 0 0.00034297167324001573 -0.003406487698928937 0 0.00015798752511820985 -0.0037451832401122018 0 0.00017924814524282202 -0.0035324520037123895 0 0.00034297167324001573 -0.003406487698928937 0 5.4322424217893109e-06 -0.003911171887837692 0 2.0740785952627759e-05 -0.003910058592956395 0 1.4126365460743018e-05 -0.0038997556023434082 0 0.00017924814524282202 -0.0035324520037123895 0 0.00015798752511820985 -0.0037451832401122018 0 0.00016214555094029595 -0.0036298857488594365 0 0.00015018695370390167 -0.0036370356510412581 0 0.00015190094105868338 -0.0036717323323527161 0 0.00015018695370390167 -0.0036370356510412581 0 0.00015631409279514083 -0.0036377029444055291 0 0.00015190094105868338 -0.0036717323323527161 0 0.00015798752511820985 -0.0037451832401122018 0 0.00016885533322327204 -0.0037433210539962458 0 0.00016214555094029595 -0.0036298857488594365 0 0.00015190094105868338 -0.0036717323323527161 0 0.00014863863877449414 -0.0037330176610402841 0 7.8663168950767143e-05 -0.0038800398499504868 0 0.00024893285780376741 -0.0039118116900609427 0 0.00014863863877449414 -0.0037330176610402841 0 2.8994085508505042e-05 -0.0039110940771860565 0 0.00015798752511820985 -0.0037451832401122018 0 -1.4198405667883412e-05 -0.0038998513511502293 0 1.4126365460743018e-05 -0.0038997556023434082 0 -1.9297804918357566e-06 -0.0039078528169246268 0 5.4322424217893109e-06 -0.003911171887837692 0 1.4126365460743018e-05 -0.0038997556023434082 0 -1.9297804918357566e-06 -0.0039078528169246268 0 0.00026823357925873011 -0.0031126118875897464 0 0.00010179051119129411 -0.0031127296048309157 0 0.00031178075953656738 -0.0031450768974090617 0 0.00011814619422720023 -0.0031991760128973323 0 0.00010179051119129411 -0.0031127296048309157 0 0.00018431096034502795 -0.0032160801044999608 0 0.00011814619422720023 -0.0031991760128973323 0 0.00018431096034502795 -0.0032160801044999608 0 0.00014564077555256891 -0.003258479324404252 0 0.00010594856846124857 -0.0031196760418556405 0 0.00023807615323693956 -0.0031778842926513647 0 0.00011814619422720023 -0.0031991760128973323 0 0.00010179051119129411 -0.0031127296048309157 0 3.2159219278273092e-05 -0.0031616205614301163 0 0.00010179051119129411 -0.0031127296048309157 0 3.2159219278273092e-05 -0.0031616205614301163 0 -1.7289804971222044e-05 -0.0030296369350405446 0 0.00011814619422720023 -0.0031991760128973323 0 8.5395949627479074e-05 -0.0032585662478885392 0 3.2159219278273092e-05 -0.0031616205614301163 0 0.0001560914203093209 -0.0029631026073555439 0 -1.7289804971222044e-05 -0.0030296369350405446 0 1.4679404424246465e-05 -0.0028673337187969761 0 0.00010179051119129411 -0.0031127296048309157 0 0.0001560914203093209 -0.0029631026073555439 0 -1.7289804971222044e-05 -0.0030296369350405446 0 0.00026823357925873011 -0.0031126118875897464 0 0.00010179051119129411 -0.0031127296048309157 0 0.0001560914203093209 -0.0029631026073555439 0 0.00034527122527907466 -0.0028586008061861055 0 0.00026823357925873011 -0.0031126118875897464 0 0.0001560914203093209 -0.0029631026073555439 0 0.00029819289618558746 -0.0030472741561149048 0 0.00026823357925873011 -0.0031126118875897464 0 0.00031234912495617156 -0.0031023385684091544 0 0.00029819289618558746 -0.0030472741561149048 0 0.00031234912495617156 -0.0031023385684091544 0 0.00033405497718431428 -0.0030818164982700609 0 0.00031491371942075105 -0.0029626102902057666 0 0.00027488671674300659 -0.0031016032750457541 0 0.00036011922373787447 -0.0030919356842578705 0 0.00033405497718431428 -0.0030818164982700609 0 0.00034492165236737842 -0.003115023332311311 0 0.00031234912495617156 -0.0031023385684091544 0 0.00033405497718431428 -0.0030818164982700609 0 0.00034492165236737842 -0.003115023332311311 0 0.00031234912495617156 -0.0031023385684091544 0 0.00034492165236737842 -0.003115023332311311 0 0.00033541777708808503 -0.0031299456663790707 0 0.00036844798100294516 -0.0031172670711646319 0 0.00036011922373787447 -0.0030919356842578705 0 0.00034492165236737842 -0.003115023332311311 0 0.00032362803973984343 -0.0032512888909848811 0 0.00018431096034502795 -0.0032160801044999608 0 0.00022452024172413105 -0.0032773136544031289 0 0.00036980739349142899 -0.0031797169959776146 0 0.00023807615323693956 -0.0031778842926513647 0 0.00036666477358380546 -0.0031489058005371492 0 0.00033541777708808503 -0.0031299456663790707 0 0.00031178075953656738 -0.0031450768974090617 0 0.00036666477358380546 -0.0031489058005371492 0 0.00034492165236737842 -0.003115023332311311 0 0.00033541777708808503 -0.0031299456663790707 0 0.00036844798100294516 -0.0031172670711646319 0 0.00036666477358380546 -0.0031489058005371492 0 0.00034492165236737842 -0.003115023332311311 0 0.00026823357925873011 -0.0031126118875897464 0 0.00031234912495617156 -0.0031023385684091544 0 0.00031178075953656738 -0.0031450768974090617 0 0.00031234912495617156 -0.0031023385684091544 0 0.00033541777708808503 -0.0031299456663790707 0 0.00031178075953656738 -0.0031450768974090617 0 0.00018431096034502795 -0.0032160801044999608 0 0.00017931803732941065 -0.0032654622842940152 0 0.00022452024172413105 -0.0032773136544031289 0 0.00018431096034502795 -0.0032160801044999608 0 0.00017931803732941065 -0.0032654622842940152 0 0.00014564077555256891 -0.003258479324404252 0 0.00017931803732941065 -0.0032654622842940152 0 0.00018295604103658812 -0.0033246727219575045 0 0.00014564077555256891 -0.003258479324404252 0 0.00017931803732941065 -0.0032654622842940152 0 0.00022452024172413105 -0.0032773136544031289 0 0.00018295604103658812 -0.0033246727219575045 0 0.00022452024172413105 -0.0032773136544031289 0 0.00018295604103658812 -0.0033246727219575045 0 0.00026281953788178395 -0.0033318108718909081 0 0.00032362803973984343 -0.0032512888909848811 0 0.00022452024172413105 -0.0032773136544031289 0 0.00026281953788178395 -0.0033318108718909081 0 0.00037101974377764119 -0.003366782998805691 0 0.00026281953788178395 -0.0033318108718909081 0 0.00020599561716635832 -0.0034676903079980869 0 0.00018295604103658812 -0.0033246727219575045 0 0.00026281953788178395 -0.0033318108718909081 0 0.00020599561716635832 -0.0034676903079980869 0 0.00025858789360095073 -0.0034868748290353213 0 0.00021149821175964784 -0.003475169121044658 0 0.00016914413818674561 -0.0035953636847333883 0 0.00020599561716635832 -0.0034676903079980869 0 0.00017051635577164969 -0.0035366216560525168 0 0.00018295604103658812 -0.0033246727219575045 0 0.00020599561716635832 -0.0034676903079980869 0 0.00015642316143785317 -0.0034165712544869096 0 0.00018295604103658812 -0.0033246727219575045 0 0.00015642316143785317 -0.0034165712544869096 0 0.00012167518422805707 -0.0033495153288200974 0 0.00015642316143785317 -0.0034165712544869096 0 0.00012167518422805707 -0.0033495153288200974 0 0.00012067823993117794 -0.0034112463101409708 0 0.00012167518422805707 -0.0033495153288200974 0 0.00012067823993117794 -0.0034112463101409708 0 8.7833321334694067e-05 -0.003398438064596142 0 0.00012167518422805707 -0.0033495153288200974 0 0.00014564077555256891 -0.003258479324404252 0 8.5395949627479074e-05 -0.0032585662478885392 0 0.00018295604103658812 -0.0033246727219575045 0 0.00012167518422805707 -0.0033495153288200974 0 0.00014564077555256891 -0.003258479324404252 0 0.00011814619422720023 -0.0031991760128973323 0 0.00014564077555256891 -0.003258479324404252 0 8.5395949627479074e-05 -0.0032585662478885392 0 0.00012167518422805707 -0.0033495153288200974 0 8.5395949627479074e-05 -0.0032585662478885392 0 5.9577688806865145e-05 -0.0033339922381102499 0 8.5395949627479074e-05 -0.0032585662478885392 0 1.8750155182128305e-05 -0.0032433419306800481 0 3.2159219278273092e-05 -0.0031616205614301163 0 8.5395949627479074e-05 -0.0032585662478885392 0 5.9577688806865145e-05 -0.0033339922381102499 0 1.8750155182128305e-05 -0.0032433419306800481 0 5.9577688806865145e-05 -0.0033339922381102499 0 3.8598100011070916e-05 -0.0034196178591529339 0 8.7833321334694067e-05 -0.003398438064596142 0 0.00012167518422805707 -0.0033495153288200974 0 5.9577688806865145e-05 -0.0033339922381102499 0 8.7833321334694067e-05 -0.003398438064596142 0 5.9577688806865145e-05 -0.0033339922381102499 0 -2.9763183239974649e-05 -0.0033045271039731927 0 3.8598100011070916e-05 -0.0034196178591529339 0 -2.9763183239974649e-05 -0.0033045271039731927 0 -7.2865383300553299e-05 -0.0033735867070230248 0 3.8598100011070916e-05 -0.0034196178591529339 0 -7.2865383300553299e-05 -0.0033735867070230248 0 -0.00012675727026968092 -0.0032792923343701076 0 -0.00018314688378272476 -0.0033465783411980431 0 -0.00024587581527640747 -0.0033342272933484752 0 -0.00029748590217504301 -0.0027854241906019534 0 -2.9763183239974649e-05 -0.0033045271039731927 0 -7.2865383300553299e-05 -0.0033735867070230248 0 -0.00012675727026968092 -0.0032792923343701076 0 -2.9763183239974649e-05 -0.0033045271039731927 0 -0.00012675727026968092 -0.0032792923343701076 0 -6.8247116188799032e-05 -0.0031601588462156485 0 -0.00012675727026968092 -0.0032792923343701076 0 -0.00018477559153140375 -0.0031488412638187788 0 -6.8247116188799032e-05 -0.0031601588462156485 0 -2.9763183239974649e-05 -0.0033045271039731927 0 1.8750155182128305e-05 -0.0032433419306800481 0 -6.8247116188799032e-05 -0.0031601588462156485 0 5.9577688806865145e-05 -0.0033339922381102499 0 -2.9763183239974649e-05 -0.0033045271039731927 0 1.8750155182128305e-05 -0.0032433419306800481 0 -0.00012018108769554291 -0.0012072385461961079 0 -0.00036116392655068363 -0.00133711547130912 0 0.00034072082238462836 -0.00033713070948085042 0 0.0003008552856044704 -0.00042480363732209155 0 0.00039140077061455185 -0.0004521696020068776 0 -0.00069509479913102345 -0.0020597531263532023 0 -0.00063243954581226869 -0.0021294358697370656 0 -0.00067218129264368293 -0.0019236861689622005 0 -0.00072238691787277084 -0.0020002572359020965 0 -0.00069509479913102345 -0.0020597531263532023 0 -0.00067218129264368293 -0.0019236861689622005 0 -0.00072238691787277084 -0.0020002572359020965 0 -0.00080083096829327931 -0.0019842056038219674 0 -0.00069509479913102345 -0.0020597531263532023 0 -0.00077222191257549663 -0.0020672907904534738 0 -0.00036116392655068363 -0.00133711547130912 0 -0.00072238691787277084 -0.0020002572359020965 0 -0.00080083096829327931 -0.0019842056038219674 0 -0.00063287477065451629 -0.0018842627222789041 0 -0.00080083096829327931 -0.0019842056038219674 0 -0.00063809750502386519 -0.0018602202035911028 0 -0.00063287477065451629 -0.0018842627222789041 0 -0.00029748590217504301 -0.0027854241906019534 0 -0.00055438358410558604 -0.0026389395996972657 0 -0.00080083096829327931 -0.0019842056038219674 0 -0.00069509479913102345 -0.0020597531263532023 0 -0.00070126925592116807 -0.0021630920131664542 0 -0.00012675727026968092 -0.0032792923343701076 0 -0.00021062729787367179 -0.0033739631284484609 0 -0.00033095484399406979 -0.0031785054741689015 0 -0.00012675727026968092 -0.0032792923343701076 0 -0.00033095484399406979 -0.0031785054741689015 0 -0.00018477559153140375 -0.0031488412638187788 0 -0.00069509479913102345 -0.0020597531263532023 0 -0.00063243954581226869 -0.0021294358697370656 0 -0.00070126925592116807 -0.0021630920131664542 0 -0.00012018108769554291 -0.0012072385461961079 0 -0.00017156908086840997 -0.0012793455340853828 0 -0.00033095484399406979 -0.0031785054741689015 0 -0.00034256826017222064 -0.002982878063704739 0 -0.00052822626287545786 -0.0028579912592220269 0 -0.00055438358410558604 -0.0026389395996972657 0 -0.00059021470329737524 -0.0025842079244576635 0 -0.00063243954581226869 -0.0021294358697370656 0 -0.00070126925592116807 -0.0021630920131664542 0 -0.00066859843598193508 -0.0022989649195141282 0 -0.00063243954581226869 -0.0021294358697370656 0 -0.00066859843598193508 -0.0022989649195141282 0 -0.00063421812334295844 -0.0022868058173650401 0 -0.00033095484399406979 -0.0031785054741689015 0 -0.00025480794294914169 -0.0030819112272577249 0 -0.00034256826017222064 -0.002982878063704739 0 -0.00033095484399406979 -0.0031785054741689015 0 -0.00018477559153140375 -0.0031488412638187788 0 -0.00025480794294914169 -0.0030819112272577249 0 -0.00025480794294914169 -0.0030819112272577249 0 -0.00016939188080413275 -0.0029970172382997877 0 -0.00034256826017222064 -0.002982878063704739 0 -0.00018477559153140375 -0.0031488412638187788 0 -0.00025480794294914169 -0.0030819112272577249 0 -0.00016939188080413275 -0.0029970172382997877 0 -0.00016503216771200866 -0.0029719938349783786 0 -0.00015795049990800086 -0.0026926280619828332 0 -0.00016939188080413275 -0.0029970172382997877 0 -0.00029585858211146734 -0.0027702067145952557 0 -9.8378125486177383e-05 -0.002539212749729138 0 -0.00029585858211146734 -0.0027702067145952557 0 -0.00034256826017222064 -0.002982878063704739 0 -0.00039360974014720303 -0.0028503282650237226 0 -0.00016939188080413275 -0.0029970172382997877 0 -0.00029585858211146734 -0.0027702067145952557 0 -0.00034256826017222064 -0.002982878063704739 0 -0.00034256826017222064 -0.002982878063704739 0 -0.00039360974014720303 -0.0028503282650237226 0 -0.00052822626287545786 -0.0028579912592220269 0 -0.00041487360376860489 -0.002765949507503091 0 -0.00039360974014720303 -0.0028503282650237226 0 -0.00052822626287545786 -0.0028579912592220269 0 -0.00029585858211146734 -0.0027702067145952557 0 -0.00041487360376860489 -0.002765949507503091 0 -0.00039360974014720303 -0.0028503282650237226 0 1.8750155182128305e-05 -0.0032433419306800481 0 3.2159219278273092e-05 -0.0031616205614301163 0 -6.8247116188799032e-05 -0.0031601588462156485 0 3.2159219278273092e-05 -0.0031616205614301163 0 -6.8247116188799032e-05 -0.0031601588462156485 0 -1.7289804971222044e-05 -0.0030296369350405446 0 -0.00018477559153140375 -0.0031488412638187788 0 -0.00016939188080413275 -0.0029970172382997877 0 -6.8247116188799032e-05 -0.0031601588462156485 0 -0.00016939188080413275 -0.0029970172382997877 0 -6.8247116188799032e-05 -0.0031601588462156485 0 -1.7289804971222044e-05 -0.0030296369350405446 0 -0.00016939188080413275 -0.0029970172382997877 0 -1.7289804971222044e-05 -0.0030296369350405446 0 -0.00010441608221960395 -0.0029129197655897044 0 -1.7289804971222044e-05 -0.0030296369350405446 0 1.4679404424246465e-05 -0.0028673337187969761 0 -0.00010441608221960395 -0.0029129197655897044 0 1.4679404424246465e-05 -0.0028673337187969761 0 -9.7054895602235205e-05 -0.0027123857778718506 0 -0.00010441608221960395 -0.0029129197655897044 0 7.4443294390070486e-05 -0.0026238729064893096 0 1.4679404424246465e-05 -0.0028673337187969761 0 -9.7054895602235205e-05 -0.0027123857778718506 0 -9.7054895602235205e-05 -0.0027123857778718506 0 -0.00021019419141368284 -0.002849131646028923 0 -0.00023968543582416729 -0.0026327802801960872 0 -9.7054895602235205e-05 -0.0027123857778718506 0 -0.00010441608221960395 -0.0029129197655897044 0 -0.00021019419141368284 -0.002849131646028923 0 -0.00016939188080413275 -0.0029970172382997877 0 -0.00010441608221960395 -0.0029129197655897044 0 -0.00021019419141368284 -0.002849131646028923 0 -0.00029585858211146734 -0.0027702067145952557 0 -9.8378125486177383e-05 -0.002539212749729138 0 -0.00030287519543945577 -0.0023979128556376279 0 -0.00041487360376860489 -0.002765949507503091 0 -0.00052822626287545786 -0.0028579912592220269 0 -0.0004482426940843866 -0.0025660918342907588 0 -0.00052822626287545786 -0.0028579912592220269 0 -0.0004482426940843866 -0.0025660918342907588 0 -0.00054326842900297232 -0.0024739229420833232 0 -0.00029585858211146734 -0.0027702067145952557 0 -0.0004482426940843866 -0.0025660918342907588 0 -0.00030287519543945577 -0.0023979128556376279 0 -0.00029585858211146734 -0.0027702067145952557 0 -0.00041487360376860489 -0.002765949507503091 0 -0.0004482426940843866 -0.0025660918342907588 0 -0.0004482426940843866 -0.0025660918342907588 0 -0.00054326842900297232 -0.0024739229420833232 0 -0.00044489324334125971 -0.0024015326585288218 0 -0.0004175297055259419 -0.0022832938666094973 0 -0.00030287519543945577 -0.0023979128556376279 0 -0.00033347448256058573 -0.002142504616918704 0 -0.00054326842900297232 -0.0024739229420833232 0 -0.00044489324334125971 -0.0024015326585288218 0 -0.00054426828651689234 -0.0022862902447329486 0 -0.00044489324334125971 -0.0024015326585288218 0 -0.0004175297055259419 -0.0022832938666094973 0 -0.00030287519543945577 -0.0023979128556376279 0 -0.0004482426940843866 -0.0025660918342907588 0 -0.00044489324334125971 -0.0024015326585288218 0 -0.00030287519543945577 -0.0023979128556376279 0 -0.00044489324334125971 -0.0024015326585288218 0 -0.0004175297055259419 -0.0022832938666094973 0 -0.00054426828651689234 -0.0022862902447329486 0 -0.0004175297055259419 -0.0022832938666094973 0 -0.00054426828651689234 -0.0022862902447329486 0 -0.0004647570961197685 -0.0021573810127795512 0 -0.00015795049990800086 -0.0026926280619828332 0 -0.00017559182624274445 -0.0023856188755073003 0 -0.00030287519543945577 -0.0023979128556376279 0 -0.00010775316901509567 -0.0021250898240800214 0 -0.00033347448256058573 -0.002142504616918704 0 -9.8378125486177383e-05 -0.002539212749729138 0 -0.00030287519543945577 -0.0023979128556376279 0 -0.00010775316901509567 -0.0021250898240800214 0 -0.00010775316901509567 -0.0021250898240800214 0 -0.00033347448256058573 -0.002142504616918704 0 -0.00025880015652873128 -0.0019492572593396056 0 -0.00054426828651689234 -0.0022862902447329486 0 -0.0004647570961197685 -0.0021573810127795512 0 -0.00058229893701279426 -0.0021358310163870423 0 -0.0004647570961197685 -0.0021573810127795512 0 -0.00042302674350403488 -0.0020685043105665665 0 -0.00048479866397943967 -0.0020309935451649354 0 -0.0004647570961197685 -0.0021573810127795512 0 -0.00048479866397943967 -0.0020309935451649354 0 -0.00058229893701279426 -0.0021358310163870423 0 -0.0004175297055259419 -0.0022832938666094973 0 -0.0004647570961197685 -0.0021573810127795512 0 -0.00033347448256058573 -0.002142504616918704 0 -0.0004647570961197685 -0.0021573810127795512 0 -0.00033347448256058573 -0.002142504616918704 0 -0.00042302674350403488 -0.0020685043105665665 0 -0.00033347448256058573 -0.002142504616918704 0 -0.00037613979146559011 -0.0020068508551039483 0 -0.00042302674350403488 -0.0020685043105665665 0 -0.00033347448256058573 -0.002142504616918704 0 -0.00037613979146559011 -0.0020068508551039483 0 -0.00025880015652873128 -0.0019492572593396056 0 -0.00037613979146559011 -0.0020068508551039483 0 -0.00042302674350403488 -0.0020685043105665665 0 -0.00048479866397943967 -0.0020309935451649354 0 -0.0002881815176541668 -0.0016099189120418798 0 -0.00046787887574144629 -0.0017208315199308594 0 -0.0001247567708744635 -0.0017516603129578876 0 -0.00018008702058208977 -0.0018203510069523445 0 -0.00062540717793473912 -0.0019841301679315109 0 -0.00046787887574144629 -0.0017208315199308594 0 -0.0001247567708744635 -0.0017516603129578876 0 -0.0006344157904893433 -0.0019951970855521051 0 -0.00048479866397943967 -0.0020309935451649354 0 -0.00030573660869890007 -0.0018519447062896458 0 -0.0006344157904893433 -0.0019951970855521051 0 -0.00037613979146559011 -0.0020068508551039483 0 -0.00048479866397943967 -0.0020309935451649354 0 -0.00030573660869890007 -0.0018519447062896458 0 -0.00049500765787458749 -0.0015000738680767773 0 -0.0002881815176541668 -0.0016099189120418798 0 -0.00046787887574144629 -0.0017208315199308594 0 -0.00017559182624274445 -0.0023856188755073003 0 -0.00016044592710484366 -0.0020543750174887893 0 -0.00010775316901509567 -0.0021250898240800214 0 -0.00025880015652873128 -0.0019492572593396056 0 -0.0001234930432595588 -0.0017629461115979818 0 -0.00037613979146559011 -0.0020068508551039483 0 -0.00025880015652873128 -0.0019492572593396056 0 -0.00030573660869890007 -0.0018519447062896458 0 -3.3189884253040951e-05 -0.0017377828182037335 0 -0.00018008702058208977 -0.0018203510069523445 0 -0.00025880015652873128 -0.0019492572593396056 0 -0.00030573660869890007 -0.0018519447062896458 0 -0.0001234930432595588 -0.0017629461115979818 0 -0.00018008702058208977 -0.0018203510069523445 0 -0.00016044592710484366 -0.0020543750174887893 0 -0.0001286038906881471 -0.0018546794369347281 0 -0.00015366405373656432 -0.0018801384140508508 0 -0.00012842559594959164 -0.0018679231713508301 0 -0.00023968543582416729 -0.0026327802801960872 0 -0.00025160899963696804 -0.0024094009303095268 0 -0.0001549903728886232 -0.0025393203173067714 0 -0.00025160899963696804 -0.0024094009303095268 0 -0.0001549903728886232 -0.0025393203173067714 0 -0.00011308714258003378 -0.0024250171164489046 0 -0.0001549903728886232 -0.0025393203173067714 0 -0.00011308714258003378 -0.0024250171164489046 0 -4.5552998955425772e-05 -0.0025190834753585677 0 -2.9918999520693636e-05 -0.0023905418637196452 0 -0.00011308714258003378 -0.0024250171164489046 0 -4.5552998955425772e-05 -0.0025190834753585677 0 5.1044983247422502e-05 -0.0024349568672053187 0 7.4443294390070486e-05 -0.0026238729064893096 0 -4.5552998955425772e-05 -0.0025190834753585677 0 -2.9918999520693636e-05 -0.0023905418637196452 0 5.1044983247422502e-05 -0.0024349568672053187 0 -4.5552998955425772e-05 -0.0025190834753585677 0 7.4443294390070486e-05 -0.0026238729064893096 0 -9.7054895602235205e-05 -0.0027123857778718506 0 -4.5552998955425772e-05 -0.0025190834753585677 0 -9.7054895602235205e-05 -0.0027123857778718506 0 -0.00023968543582416729 -0.0026327802801960872 0 -0.0001549903728886232 -0.0025393203173067714 0 -9.7054895602235205e-05 -0.0027123857778718506 0 -0.0001549903728886232 -0.0025393203173067714 0 -4.5552998955425772e-05 -0.0025190834753585677 0 0.00024807357884403501 -0.00016386591097923941 0 0.00027396121832337861 -0.00019283720442003229 0 0.00024759218746202207 -0.00021597762149983243 0 0.00024807357884403501 -0.00016386591097923941 0 0.00024759218746202207 -0.00021597762149983243 0 0.00021730183074818315 -0.00018747875736763552 0 0.00024807357884403501 -0.00016386591097923941 0 0.00021730183074818315 -0.00018747875736763552 0 0.00021258603335563256 -0.00012221032501400473 0 0.0003510124932225316 -9.6947014894050056e-05 0 0.00021162825818470075 -0.00012079926156782311 0 0.0003510124932225316 -9.6947014894050056e-05 0 -0.00016980140635267348 -0.00097762139969544224 0 0.00037499066741318072 -8.1994379649357228e-05 0 0.00032288732603935448 -0.00016167695713844381 0 0.00041100855710253959 -0.00021279528472566684 0 -0.0011241314355841447 -0.0014055992225884776 0 -0.00078128842497999184 -0.0017525500016999174 0 -0.00093221775055732175 -0.0019891062710982064 0 -0.00042200170179128082 -0.00079585748338639522 0 -0.00016980140635267348 -0.00097762139969544224 0 -0.00078128842497999184 -0.0017525500016999174 0 -0.00093221775055732175 -0.0019891062710982064 0 -0.00083995948195279629 -0.0020314911073556811 0 -0.00049500765787458749 -0.0015000738680767773 0 -0.00046787887574144629 -0.0017208315199308594 0 -0.00078128842497999184 -0.0017525500016999174 0 -0.00046787887574144629 -0.0017208315199308594 0 -0.00078128842497999184 -0.0017525500016999174 0 -0.0006344157904893433 -0.0019951970855521051 0 -0.00078128842497999184 -0.0017525500016999174 0 -0.0006344157904893433 -0.0019951970855521051 0 -0.00083995948195279629 -0.0020314911073556811 0 -0.0006344157904893433 -0.0019951970855521051 0 -0.0006852231416202213 -0.0020930388323329606 0 -0.00058229893701279426 -0.0021358310163870423 0 -0.00048479866397943967 -0.0020309935451649354 0 -0.0006344157904893433 -0.0019951970855521051 0 -0.00058229893701279426 -0.0021358310163870423 0 -0.0006344157904893433 -0.0019951970855521051 0 -0.0006852231416202213 -0.0020930388323329606 0 -0.00083995948195279629 -0.0020314911073556811 0 -0.0006852231416202213 -0.0020930388323329606 0 -0.00083995948195279629 -0.0020314911073556811 0 -0.00069805390293421006 -0.0022042342123149762 0 -0.0006852231416202213 -0.0020930388323329606 0 -0.00058229893701279426 -0.0021358310163870423 0 -0.00069805390293421006 -0.0022042342123149762 0 -0.00058229893701279426 -0.0021358310163870423 0 -0.00062166516467163481 -0.002232830850782512 0 -0.00069805390293421006 -0.0022042342123149762 0 -0.00091131638866267964 -0.0020014203094345915 0 -0.00083995948195279629 -0.0020314911073556811 0 -0.0007138823916853919 -0.0024008327154401714 0 -0.00016980140635267348 -0.00097762139969544224 0 -0.00038262053598189317 -0.0011505529570507639 0 0.00028056428174280451 -0.00023651793334488844 0 0.00025948182061786629 -0.00025072008177349012 0 0.00024759218746202207 -0.00021597762149983243 0 0.00027396121832337861 -0.00019283720442003229 0 0.00028056428174280451 -0.00023651793334488844 0 0.00024759218746202207 -0.00021597762149983243 0 -0.00016980140635267348 -0.00097762139969544224 0 -0.00023478817443252156 -0.0013280277272415689 0 -0.00083995948195279629 -0.0020314911073556811 0 -0.00069805390293421006 -0.0022042342123149762 0 -0.0007138823916853919 -0.0024008327154401714 0 -0.00054426828651689234 -0.0022862902447329486 0 -0.00058229893701279426 -0.0021358310163870423 0 -0.00062166516467163481 -0.002232830850782512 0 -0.00054426828651689234 -0.0022862902447329486 0 -0.00062166516467163481 -0.002232830850782512 0 -0.00065716277292039065 -0.0023169819130325437 0 -0.00062166516467163481 -0.002232830850782512 0 -0.00065716277292039065 -0.0023169819130325437 0 -0.00069805390293421006 -0.0022042342123149762 0 -0.00065716277292039065 -0.0023169819130325437 0 -0.00069805390293421006 -0.0022042342123149762 0 -0.0007138823916853919 -0.0024008327154401714 0 -0.00065716277292039065 -0.0023169819130325437 0 -0.0007138823916853919 -0.0024008327154401714 0 -0.00069544932230935087 -0.0023980286309824121 0 -0.00054326842900297232 -0.0024739229420833232 0 -0.00054426828651689234 -0.0022862902447329486 0 -0.00061140724799199761 -0.0023681034052376979 0 -0.00054326842900297232 -0.0024739229420833232 0 -0.00069544932230935087 -0.0023980286309824121 0 -0.00061140724799199761 -0.0023681034052376979 0 -0.00065716277292039065 -0.0023169819130325437 0 -0.00069544932230935087 -0.0023980286309824121 0 -0.00061140724799199761 -0.0023681034052376979 0 -0.00054426828651689234 -0.0022862902447329486 0 -0.00065716277292039065 -0.0023169819130325437 0 -0.00061140724799199761 -0.0023681034052376979 0 -0.00059021470329737524 -0.0025842079244576635 0 -0.00068916071237426295 -0.0024111293014156014 0 -0.0007138823916853919 -0.0024008327154401714 0 -0.00069544932230935087 -0.0023980286309824121 0 -0.00063421812334295844 -0.0022868058173650401 0 -0.00066859843598193508 -0.0022989649195141282 0 -0.00069544932230935087 -0.0023980286309824121 0 -0.00063421812334295844 -0.0022868058173650401 0 -0.00052822626287545786 -0.0028579912592220269 0 -0.00054326842900297232 -0.0024739229420833232 0 -0.00069544932230935087 -0.0023980286309824121 0 -0.00023478817443252156 -0.0013280277272415689 0 -0.00017156908086840997 -0.0012793455340853828 0 0.00028056428174280451 -0.00023651793334488844 0 0.00025948182061786629 -0.00025072008177349012 0 0.0002990086153942557 -0.00027345991146137186 0 0.00025948182061786629 -0.00025072008177349012 0 0.00024759218746202207 -0.00021597762149983243 0 0.00023205208060929765 -0.00025313109167959645 0 0.00024759218746202207 -0.00021597762149983243 0 0.00022035339201030227 -0.0002299705544474903 0 0.00021730183074818315 -0.00018747875736763552 0 0.00024759218746202207 -0.00021597762149983243 0 0.00022035339201030227 -0.0002299705544474903 0 0.00023205208060929765 -0.00025313109167959645 0 0.00022035339201030227 -0.0002299705544474903 0 0.00023205208060929765 -0.00025313109167959645 0 0.0002111096845811645 -0.00024934688794099418 0 0.00023205208060929765 -0.00025313109167959645 0 0.00022123585194108229 -0.00027684382841246745 0 0.0002111096845811645 -0.00024934688794099418 0 0.00025948182061786629 -0.00025072008177349012 0 0.00023205208060929765 -0.00025313109167959645 0 0.00024812378162598854 -0.00027782714482108727 0 0.00023205208060929765 -0.00025313109167959645 0 0.00022123585194108229 -0.00027684382841246745 0 0.00024812378162598854 -0.00027782714482108727 0 0.00022123585194108229 -0.00027684382841246745 0 0.00024812378162598854 -0.00027782714482108727 0 0.0002198099824203658 -0.0003116385836900867 0 0.00025948182061786629 -0.00025072008177349012 0 0.0002990086153942557 -0.00027345991146137186 0 0.00024812378162598854 -0.00027782714482108727 0 0.0002990086153942557 -0.00027345991146137186 0 0.00024812378162598854 -0.00027782714482108727 0 0.00027559358681176333 -0.00032832903997952862 0 0.00024812378162598854 -0.00027782714482108727 0 0.00027559358681176333 -0.00032832903997952862 0 0.0002198099824203658 -0.0003116385836900867 0 0.00034072082238462836 -0.00033713070948085042 0 0.0002990086153942557 -0.00027345991146137186 0 0.00027559358681176333 -0.00032832903997952862 0 0.00034072082238462836 -0.00033713070948085042 0 0.00027559358681176333 -0.00032832903997952862 0 0.0003008552856044704 -0.00042480363732209155 0 0.00027559358681176333 -0.00032832903997952862 0 0.0002198099824203658 -0.0003116385836900867 0 0.00020996635839194512 -0.00042624566514062081 0 0.00027559358681176333 -0.00032832903997952862 0 0.0003008552856044704 -0.00042480363732209155 0 0.00020996635839194512 -0.00042624566514062081 0 0.00022123585194108229 -0.00027684382841246745 0 0.0002198099824203658 -0.0003116385836900867 0 0.00022065484406496761 -0.00028050121388756023 0 0.0002198099824203658 -0.0003116385836900867 0 0.00022087305350480964 -0.00027802012484042573 0 0.00022065484406496761 -0.00028050121388756023 0 0.0002198099824203658 -0.0003116385836900867 0 0.00020727767570027906 -0.0002767780216579462 0 0.00022087305350480964 -0.00027802012484042573 0 0.00021637354019076818 -0.00031734359401616263 0 0.00021098794787564456 -0.00034840169196002322 0 0.00022087305350480964 -0.00027802012484042573 0 0.00022591445461624365 -0.00026294993848222808 0 0.00022065484406496761 -0.00028050121388756023 0 0.00022038514153787124 -0.00026279136191408877 0 0.00022591445461624365 -0.00026294993848222808 0 0.00022494790394145579 -0.00025743806780164291 0 0.00022087305350480964 -0.00027802012484042573 0 0.00022038514153787124 -0.00026279136191408877 0 0.00022591445461624365 -0.00026294993848222808 0 0.00020727767570027906 -0.0002767780216579462 0 0.00021438734121576009 -0.00026041675766813707 0 0.00020783461999077563 -0.00026145467628624071 0 0.00020727767570027906 -0.0002767780216579462 0 0.00022087305350480964 -0.00027802012484042573 0 0.00022038514153787124 -0.00026279136191408877 0 0.00020727767570027906 -0.0002767780216579462 0 0.00022038514153787124 -0.00026279136191408877 0 0.00021438734121576009 -0.00026041675766813707 0 0.00021438734121576009 -0.00026041675766813707 0 0.00022202031565095423 -0.00025184958406514749 0 0.00021228037967923542 -0.00025446620344420767 0 0.00021438734121576009 -0.00026041675766813707 0 0.00021228037967923542 -0.00025446620344420767 0 0.00020783461999077563 -0.00026145467628624071 0 0.00022038514153787124 -0.00026279136191408877 0 0.00021438734121576009 -0.00026041675766813707 0 0.00022202031565095423 -0.00025184958406514749 0 0.00022038514153787124 -0.00026279136191408877 0 0.00022202031565095423 -0.00025184958406514749 0 0.00022494790394145579 -0.00025743806780164291 0 0.00055291296366058115 0.00026486704714517818 0 0.00055775758037869452 0.00031792240454145789 0 0.00060868811245552029 0.00030157946936654688 0 0.00055291296366058115 0.00026486704714517818 0 0.00050774245985841615 0.0003110650353428722 0 0.00055775758037869452 0.00031792240454145789 0 0.00038775179723578637 5.8831088046878361e-05 0 0.00030576701108627884 -0.00033350760989961099 0 0.00022202031565095423 -0.00025184958406514749 0 0.00021228037967923542 -0.00025446620344420767 0 0.00020823973999779718 -0.00024996283921381119 0 0.00055291296366058115 0.00026486704714517818 0 0.00050774245985841615 0.0003110650353428722 0 0.00044238289786898186 0.00027896896759330224 0 0.00048686324482606185 0.00032656647735145429 0 0.00044238289786898186 0.00027896896759330224 0 0.00049494866445388367 0.00037564720903607979 0 0.00050774245985841615 0.0003110650353428722 0 0.00048686324482606185 0.00032656647735145429 0 0.00044238289786898186 0.00027896896759330224 0 0.00050774245985841615 0.0003110650353428722 0 0.00048686324482606185 0.00032656647735145429 0 0.00050064501455836978 0.00033714979064052714 0 0.00048686324482606185 0.00032656647735145429 0 0.00050064501455836978 0.00033714979064052714 0 0.00049494866445388367 0.00037564720903607979 0 0.00050064501455836978 0.00033714979064052714 0 0.00052604627143494902 0.00035238321910200618 0 0.00049494866445388367 0.00037564720903607979 0 0.00050774245985841615 0.0003110650353428722 0 0.00050064501455836978 0.00033714979064052714 0 0.00052604627143494902 0.00035238321910200618 0 0.00052604627143494902 0.00035238321910200618 0 0.00055775758037869452 0.00031792240454145789 0 0.00056061475606514134 0.00036653278604516031 0 0.00055775758037869452 0.00031792240454145789 0 0.00056061475606514134 0.00036653278604516031 0 0.00058688491913643978 0.00033714499595958384 0 0.00055775758037869452 0.00031792240454145789 0 0.00058688491913643978 0.00033714499595958384 0 0.00060868811245552029 0.00030157946936654688 0 0.00050774245985841615 0.0003110650353428722 0 0.00052604627143494902 0.00035238321910200618 0 0.00055775758037869452 0.00031792240454145789 0 0.00038176967560694318 -0.00091849546502456841 0 0.00048266773420993427 -0.0010927043154347362 0 0.00010405836571033503 -0.0010038202660147362 0 0.00038176967560694318 -0.00091849546502456841 0 0.00059814689101995815 -0.00091068984416072711 0 0.00045252147883823485 -0.00077207780125314708 0 0.00038176967560694318 -0.00091849546502456841 0 0.00059814689101995815 -0.00091068984416072711 0 0.00048266773420993427 -0.0010927043154347362 0 0.00048977033687545889 -0.00028408840003954071 0 0.00030576701108627884 -0.00033350760989961099 0 0.00030576701108627884 -0.00033350760989961099 0 0.00053273973428258077 0.00040799150552916737 0 0.00036796385886026417 0.00015961277871563121 0 0.00039285727128232818 -4.9672419535136972e-06 0 0.00049959214369738449 0.00023429493567639887 0 0.00049235621684252798 -0.00058098043519632411 0 0.00042051740174850558 -0.00082157899001312107 0 0.00054968778312470114 -0.00096955434335279744 0 0.00048977033687545889 -0.00028408840003954071 0 0.00048563513199627187 -0.0016460353646820065 0 0.00049235621684252798 -0.00058098043519632411 0 0.00042051740174850558 -0.00082157899001312107 0 0.00030042946942094396 -0.00089936002321478999 0 0.00042051740174850558 -0.00082157899001312107 0 0.00034862100489613154 -0.00090950383351397744 0 0.00030042946942094396 -0.00089936002321478999 0 0.00050462983944571361 -0.0011202028343417925 0 0.00044272417311454865 -0.0012876780304376992 0 0.00021228037967923542 -0.00025446620344420767 0 0.00020823973999779718 -0.00024996283921381119 0 0.00020783461999077563 -0.00026145467628624071 0 0.00042051740174850558 -0.00082157899001312107 0 0.00034892342487304441 -0.00090750772297681177 0 0.00054968778312470114 -0.00096955434335279744 0 0.00030576701108627884 -0.00033350760989961099 0 0.00020885451935253647 -0.00040949349260998609 0 0.00020573059756697236 -0.00072138679222664677 0 0.00016273897177402402 -0.00074508145394453136 0 0.00020766480206321173 -0.00067184025001275241 0 0.00044272417311454865 -0.0012876780304376992 0 0.00030576701108627884 -0.00033350760989961099 0 0.00022662530618552834 -0.00076232514044606873 0 0.00020573059756697236 -0.00072138679222664677 0 0.00016273897177402402 -0.00074508145394453136 0 0.00016273897177402402 -0.00074508145394453136 0 0.00020766480206321173 -0.00067184025001275241 0 0.0002162192192774045 -0.00062963301252338163 0 0.00030576701108627884 -0.00033350760989961099 0 0.00021191348985914767 -0.00063726800636797827 0 0.00020573059756697236 -0.00072138679222664677 0 0.00020766480206321173 -0.00067184025001275241 0 0.00027822123778012777 -0.00069453826359200399 0 0.00020766480206321173 -0.00067184025001275241 0 0.00027822123778012777 -0.00069453826359200399 0 0.00030797696315032399 -0.00065054496471424097 0 0.00044133273869360992 -0.0032115762338402196 0 0.00040599035128033089 -0.0032775434980557121 0 0.00032295366088135556 -0.0032695098458601921 0 0.00044272417311454865 -0.0012876780304376992 0 0.00021762008893415715 -0.0019001576377071579 0 0.00048563513199627187 -0.0016460353646820065 0 0.00021762008893415715 -0.0019001576377071579 0 0.00049150385444901156 -0.0014427794713589772 0 0.00041045566281537328 -0.0014258901825827228 0 0.00015976101898335115 -0.0018403936508696712 0 0.00022662530618552834 -0.00076232514044606873 0 0.00020573059756697236 -0.00072138679222664677 0 0.00027822123778012777 -0.00069453826359200399 0 0.00044272417311454865 -0.0012876780304376992 0 0.00048563513199627187 -0.0016460353646820065 0 0.00040599035128033089 -0.0032775434980557121 0 0.00036030117459179479 -0.0033357895164056119 0 0.00032295366088135556 -0.0032695098458601921 0 0.00021762008893415715 -0.0019001576377071579 0 0.00021965854818945844 -0.0013731142108834239 0 0.00021762008893415715 -0.0019001576377071579 0 -1.8120916174157548e-05 -0.0021248081316159032 0 0.000330220481893434 -0.00063399401966842783 0 0.00021965854818945844 -0.0013731142108834239 0 0.00020766480206321173 -0.00067184025001275241 0 0.0003271599351889986 -0.00061094635508993891 0 0.0002162192192774045 -0.00062963301252338163 0 0.00021064411300392513 -0.0018463207504440067 0 0.00020626785270719822 -0.0018463459487355715 0 0.00020460109901629226 -0.001846235366927817 0 0.0003271599351889986 -0.00061094635508993891 0 0.00027901640860758948 -0.00051299932227851105 0 0.00036277771084860687 -0.00051448365105936076 0 0.00021965854818945844 -0.0013731142108834239 0 -1.8120916174157548e-05 -0.0021248081316159032 0 0.0003271599351889986 -0.00061094635508993891 0 0.0002162192192774045 -0.00062963301252338163 0 0.00027901640860758948 -0.00051299932227851105 0 0.00021191348985914767 -0.00063726800636797827 0 0.00027862569930368094 -0.00050818167719211393 0 0.0002357922701658291 -0.00058808424520182066 0 0.00025364003832057622 -0.00055055461961661461 0 0.00022077592226110384 -0.00052649603918256734 0 0.00025364003832057622 -0.00055055461961661461 0 0.00025038908059850487 -0.00051740278546087151 0 0.00022077592226110384 -0.00052649603918256734 0 0.00025364003832057622 -0.00055055461961661461 0 0.00025038908059850487 -0.00051740278546087151 0 0.00027901640860758948 -0.00051299932227851105 0 0.00020996635839194512 -0.00042624566514062081 0 0.00022077592226110384 -0.00052649603918256734 0 0.00024828474843203882 -0.00047658139899850932 0 0.00021098794787564456 -0.00034840169196002322 0 0.00020885451935253647 -0.00040949349260998609 0 0.0003008552856044704 -0.00042480363732209155 0 0.00020996635839194512 -0.00042624566514062081 0 0.00024828474843203882 -0.00047658139899850932 0 0.00025038908059850487 -0.00051740278546087151 0 0.00022077592226110384 -0.00052649603918256734 0 0.00024828474843203882 -0.00047658139899850932 0 0.00025038908059850487 -0.00051740278546087151 0 0.00024828474843203882 -0.00047658139899850932 0 0.00027901640860758948 -0.00051299932227851105 0 0.0003008552856044704 -0.00042480363732209155 0 0.00027901640860758948 -0.00051299932227851105 0 0.00036277771084860687 -0.00051448365105936076 0 0.0003008552856044704 -0.00042480363732209155 0 0.00024828474843203882 -0.00047658139899850932 0 0.00027901640860758948 -0.00051299932227851105 0 0.0003008552856044704 -0.00042480363732209155 0 0.00036277771084860687 -0.00051448365105936076 0 0.00039140077061455185 -0.0004521696020068776 0 -0.00049095653843894162 -0.0016933128581026852 0 -0.00062894219982274836 -0.0017568629475570331 0 -0.00063809750502386519 -0.0018602202035911028 0 -2.441324358310119e-05 -0.0010499293510654198 0 -0.00036116392655068363 -0.00133711547130912 0 -0.00049095653843894162 -0.0016933128581026852 0 -0.00063809750502386519 -0.0018602202035911028 0 -0.00062874562046414946 -0.0018881088136340214 0 -0.00035743150585549119 -0.00140377809250904 0 -0.00036116392655068363 -0.00133711547130912 0 -0.00014459016820719711 -0.0028043444965358986 0 -0.00012827705427555098 -0.0026829541638746369 0 -0.00021252561116889767 -0.0026688547110715992 0 -0.00080083096829327931 -0.0019842056038219674 0 -0.00062894219982274836 -0.0017568629475570331 0 -0.00063809750502386519 -0.0018602202035911028 0 -0.00029748590217504301 -0.0027854241906019534 0 -0.00034384196410314395 -0.0021655513921073487 0 -0.00014459016820719711 -0.0028043444965358986 0 -4.0937884509200154e-05 -0.0026806545872363782 0 -0.00012827705427555098 -0.0026829541638746369 0 -0.00012827705427555098 -0.0026829541638746369 0 -7.6463353092125392e-05 -0.0026103143489756568 0 -0.00021252561116889767 -0.0026688547110715992 0 -4.0937884509200154e-05 -0.0026806545872363782 0 -0.00012827705427555098 -0.0026829541638746369 0 -7.6463353092125392e-05 -0.0026103143489756568 0 0.00025206280149039402 -0.003388027035231422 0 0.0001490145279879138 -0.0034321586701317485 0 0.00018114423801255704 -0.0033678615349324154 0 0.00025206280149039402 -0.003388027035231422 0 0.00018114423801255704 -0.0033678615349324154 0 0.00020327133826646292 -0.0032929042643013696 0 8.6964617624973994e-05 -0.003036400780148323 0 3.5185193203934794e-05 -0.0032296988896786537 0 6.5953569299532439e-05 -0.0025486277833839817 0 -4.0937884509200154e-05 -0.0026806545872363782 0 -7.6463353092125392e-05 -0.0026103143489756568 0 -0.00039418576716350749 -0.0014972488766105991 0 -0.00049095653843894162 -0.0016933128581026852 0 -0.00062894219982274836 -0.0017568629475570331 0 -1.8120916174157548e-05 -0.0021248081316159032 0 8.6964617624973994e-05 -0.003036400780148323 0 -1.8120916174157548e-05 -0.0021248081316159032 0 -0.00034384196410314395 -0.0021655513921073487 0 0.00036030117459179479 -0.0033357895164056119 0 0.00025206280149039402 -0.003388027035231422 0 0.00032295366088135556 -0.0032695098458601921 0 0.00021965854818945844 -0.0013731142108834239 0 -2.441324358310119e-05 -0.0010499293510654198 0 -0.00034887181193573745 -0.0014810400454775816 0 -0.00039418576716350749 -0.0014972488766105991 0 -0.00049095653843894162 -0.0016933128581026852 0 8.569487300763191e-06 -0.0034623505241870287 0 3.5185193203934794e-05 -0.0032296988896786537 0 -7.2865383300553299e-05 -0.0033735867070230248 0 3.8598100011070916e-05 -0.0034196178591529339 0 -0.00011461489897049007 -0.0034804968938982866 0 3.8598100011070916e-05 -0.0034196178591529339 0 0.0001217063938657407 -0.0034047178387564977 0 0.00010903477812030417 -0.0033649633573115869 0 -0.00029748590217504301 -0.0027854241906019534 0 3.5185193203934794e-05 -0.0032296988896786537 0 -7.2865383300553299e-05 -0.0033735867070230248 0 -0.00018314688378272476 -0.0033465783411980431 0 -0.00011461489897049007 -0.0034804968938982866 0 0.00018114423801255704 -0.0033678615349324154 0 0.00010903477812030417 -0.0033649633573115869 0 0.00020327133826646292 -0.0032929042643013696 0 0.0001490145279879138 -0.0034321586701317485 0 0.00018114423801255704 -0.0033678615349324154 0 0.00010903477812030417 -0.0033649633573115869 0 3.5185193203934794e-05 -0.0032296988896786537 0 0.00014212470803453496 -0.0034311448146325768 0 3.8598100011070916e-05 -0.0034196178591529339 0 0.00010903477812030417 -0.0033649633573115869 0 4.7489716659315522e-05 -0.0034108838489188224 0 0.00010903477812030417 -0.0033649633573115869 0 8.6716561739699584e-05 -0.0032831313692703668 0 4.7489716659315522e-05 -0.0034108838489188224 0 0.00010903477812030417 -0.0033649633573115869 0 8.6716561739699584e-05 -0.0032831313692703668 0 0.00020327133826646292 -0.0032929042643013696 0 8.6716561739699584e-05 -0.0032831313692703668 0 0.00013395239292657169 -0.0031917134472332549 0 0.00020327133826646292 -0.0032929042643013696 0 -7.0397865427666457e-05 -0.0019845390344573224 0 -0.00014965898571187925 -0.002440819677651136 0 8.6716561739699584e-05 -0.0032831313692703668 0 0.00013395239292657169 -0.0031917134472332549 0 -1.5622455521425603e-05 -0.0031598789452263218 0 0.00044133273869360992 -0.0032115762338402196 0 0.00032295366088135556 -0.0032695098458601921 0 0.00027626067637952153 -0.0032012858763819725 0 0.00032295366088135556 -0.0032695098458601921 0 0.00020327133826646292 -0.0032929042643013696 0 0.00027626067637952153 -0.0032012858763819725 0 0.00025206280149039402 -0.003388027035231422 0 0.00032295366088135556 -0.0032695098458601921 0 0.00020327133826646292 -0.0032929042643013696 0 0.00013395239292657169 -0.0031917134472332549 0 0.00020327133826646292 -0.0032929042643013696 0 0.00027626067637952153 -0.0032012858763819725 0 -7.0397865427666457e-05 -0.0019845390344573224 0 0.00020352936346307586 -0.0021847918748512793 0 -0.00021694345111529826 -0.00092573025703143166 0 0.00010405836571033503 -0.0010038202660147362 0 -2.3289168220354181e-05 -0.00079510353920775204 0 0.00038176967560694318 -0.00091849546502456841 0 0.00010405836571033503 -0.0010038202660147362 0 0.00024926442429676864 -0.000790086453280769 0 0.00048563513199627187 -0.0016460353646820065 0 0.00020352936346307586 -0.0021847918748512793 0 0.00024926442429676864 -0.000790086453280769 0 0.00013661017383620122 -0.00059752667944482269 0 0.00040893057892677219 -0.00063982260056708712 0 0.00010405836571033503 -0.0010038202660147362 0 0.00024926442429676864 -0.000790086453280769 0 -2.3289168220354181e-05 -0.00079510353920775204 0 0.00024926442429676864 -0.000790086453280769 0 -2.3289168220354181e-05 -0.00079510353920775204 0 0.00013661017383620122 -0.00059752667944482269 0 -0.0001053251029440016 -0.0004730479429145007 0 -0.00056683184095116933 -0.00043438776796352762 0 -0.00045588659247066651 -0.00025195726988497242 0 -2.3289168220354181e-05 -0.00079510353920775204 0 0.00013661017383620122 -0.00059752667944482269 0 -0.00017345786911746421 -0.00066120844686694171 0 2.9669777399842806e-05 -0.00053170542232445367 0 -0.00036713130219702351 -0.00055534057587414652 0 -0.00021694345111529826 -0.00092573025703143166 0 -0.0004322643146281809 -0.00080675489304281268 0 -0.00046690772759101079 -0.00086267055648981544 0 -0.00021694345111529826 -0.00092573025703143166 0 -0.00029080106563501265 -0.00077910442425592702 0 -0.0004322643146281809 -0.00080675489304281268 0 -0.00029080106563501265 -0.00077910442425592702 0 -0.0004322643146281809 -0.00080675489304281268 0 -0.00043496135792768189 -0.00070434586892799043 0 -0.00021694345111529826 -0.00092573025703143166 0 -2.3289168220354181e-05 -0.00079510353920775204 0 -0.00017805640304155876 -0.00079016285931437873 0 -0.00029080106563501265 -0.00077910442425592702 0 -0.00017805640304155876 -0.00079016285931437873 0 -0.00017345786911746421 -0.00066120844686694171 0 -0.00021694345111529826 -0.00092573025703143166 0 -0.00029080106563501265 -0.00077910442425592702 0 -0.00017805640304155876 -0.00079016285931437873 0 -2.3289168220354181e-05 -0.00079510353920775204 0 -0.00017805640304155876 -0.00079016285931437873 0 -0.00017345786911746421 -0.00066120844686694171 0 -0.00056683184095116933 -0.00043438776796352762 0 -0.00058464667311209501 -0.00028980243053417258 0 -0.00045588659247066651 -0.00025195726988497242 0 -0.00056683184095116933 -0.00043438776796352762 0 -0.0007071936644835905 -0.00030965801529212318 0 -0.00058464667311209501 -0.00028980243053417258 0 -0.00056683184095116933 -0.00043438776796352762 0 -0.0007071936644835905 -0.00030965801529212318 0 -0.00084200781106037942 -0.00042768516997580727 0 -0.00029080106563501265 -0.00077910442425592702 0 -0.00017345786911746421 -0.00066120844686694171 0 -0.00043496135792768189 -0.00070434586892799043 0 -0.00036713130219702351 -0.00055534057587414652 0 -0.0006304287163949973 -0.00051488219932322094 0 -0.0007071936644835905 -0.00030965801529212318 0 -0.00084200781106037942 -0.00042768516997580727 0 -0.00083201128572867825 -0.00018530432929113598 0 -0.0007071936644835905 -0.00030965801529212318 0 -0.00069921834545008763 -0.00017237145238366847 0 -0.00083201128572867825 -0.00018530432929113598 0 -0.0007071936644835905 -0.00030965801529212318 0 -0.00069921834545008763 -0.00017237145238366847 0 -0.00059984125553105058 -0.00017426483900572219 0 -0.00059984125553105058 -0.00017426483900572219 0 -0.00052684796979826436 -6.7653709436318757e-05 0 -0.00045588659247066651 -0.00025195726988497242 0 -0.0007071936644835905 -0.00030965801529212318 0 -0.00059984125553105058 -0.00017426483900572219 0 -0.00058464667311209501 -0.00028980243053417258 0 -0.00059984125553105058 -0.00017426483900572219 0 -0.00058464667311209501 -0.00028980243053417258 0 -0.00045588659247066651 -0.00025195726988497242 0 -0.00052684796979826436 -6.7653709436318757e-05 0 -0.00065790447173087144 -2.6810462427511897e-05 0 -0.00050153489820467642 0.00010486406596034804 0 -0.00059984125553105058 -0.00017426483900572219 0 -0.00052684796979826436 -6.7653709436318757e-05 0 -0.00065790447173087144 -2.6810462427511897e-05 0 -0.00031314590631393918 -0.00042078959824123105 0 -0.00027027502338736431 -0.0010069198754773206 0 2.7819190857933574e-06 -0.00093128702856457913 0 6.1412091048099521e-06 -0.00092790532062866145 0 1.2163695717314139e-05 -0.00094055048069377001 0 -0.00069921834545008763 -0.00017237145238366847 0 -0.00065790447173087144 -2.6810462427511897e-05 0 -0.00083201128572867825 -0.00018530432929113598 0 -0.00069921834545008763 -0.00017237145238366847 0 -0.00059984125553105058 -0.00017426483900572219 0 -0.00065790447173087144 -2.6810462427511897e-05 0 -0.0001053251029440016 -0.0004730479429145007 0 -0.00018929507546979908 -1.5293183088458662e-06 0 0.00017164177172168348 -0.00023986451931090836 0 -0.00018929507546979908 -1.5293183088458662e-06 0 0.00013546292535645049 0.00010078160837859485 0 0.00017164177172168348 -0.00023986451931090836 0 -0.0001053251029440016 -0.0004730479429145007 0 -0.00018929507546979908 -1.5293183088458662e-06 0 -0.00045588659247066651 -0.00025195726988497242 0 -0.00018929507546979908 -1.5293183088458662e-06 0 -0.00045588659247066651 -0.00025195726988497242 0 -0.00034733812390343654 0.00034608993007804534 0 -0.0004586944928243422 -0.00028942132917499709 0 -0.00038704419695262328 0.00030751872506786648 0 -0.00018929507546979908 -1.5293183088458662e-06 0 -0.00034733812390343654 0.00034608993007804534 0 -8.3118340004993923e-06 0.0003624509600000861 0 -0.00052684796979826436 -6.7653709436318757e-05 0 -0.00045588659247066651 -0.00025195726988497242 0 -0.00041816894296488625 -1.452903988749954e-06 0 -0.00018929507546979908 -1.5293183088458662e-06 0 0.00013546292535645049 0.00010078160837859485 0 -8.3118340004993923e-06 0.0003624509600000861 0 0.00042269063546513552 0.00022985657069208169 0 0.00035264054635876697 0.00050640169993171487 0 0.00013546292535645049 0.00010078160837859485 0 -8.3118340004993923e-06 0.0003624509600000861 0 0.00033911187555171746 0.00052702101276811428 0 0.00013546292535645049 0.00010078160837859485 0 0.0004698554670588794 -1.0520731223821526e-05 0 0.00033911187555171746 0.00052702101276811428 0 0.0004698554670588794 -1.0520731223821526e-05 0 0.00017164177172168348 -0.00023986451931090836 0 0.00050422361668030734 -0.00049894290961681605 0 0.00013546292535645049 0.00010078160837859485 0 0.0004698554670588794 -1.0520731223821526e-05 0 0.00017164177172168348 -0.00023986451931090836 0 0.00038896584221267716 0.00046079228952481733 0 0.00046350443504005015 0.00046649668707667561 0 0.00046617344726906939 0.00040311222960136761 0 0.00042269063546513552 0.00022985657069208169 0 0.00047893073204860156 -0.00011759138412375238 0 0.00046350443504005015 0.00046649668707667561 0 0.00041900966909242337 0.00051050587200139488 0 0.00048281281907569046 0.00050940305306148767 0 0.00038896584221267716 0.00046079228952481733 0 0.00041900966909242337 0.00051050587200139488 0 0.00033911187555171746 0.00052702101276811428 0 0.00038896584221267716 0.00046079228952481733 0 0.00046350443504005015 0.00046649668707667561 0 0.00041900966909242337 0.00051050587200139488 0 0.00041900966909242337 0.00051050587200139488 0 0.00048281281907569046 0.00050940305306148767 0 0.00048895073932749933 0.00057592652555797793 0 0.00054166737740616905 0.00053610904210672338 0 0.00048281281907569046 0.00050940305306148767 0 0.00048895073932749933 0.00057592652555797793 0 0.00054166737740616905 0.00053610904210672338 0 0.0005662652691572369 0.00049559260136342238 0 0.00051821149216633208 0.0004783778100794311 0 0.00054166737740616905 0.00053610904210672338 0 0.00048281281907569046 0.00050940305306148767 0 0.00051821149216633208 0.0004783778100794311 0 0.00046350443504005015 0.00046649668707667561 0 0.00048281281907569046 0.00050940305306148767 0 0.00051821149216633208 0.0004783778100794311 0 0.00060652962919260044 0.00054464882911091914 0 0.0005662652691572369 0.00049559260136342238 0 0.00058476381704743164 0.00044943458053654898 0 0.00036616078579385195 0.001163189724496552 0 0.00043885396184521806 0.00073892845279799368 0 0.00045168295897207261 0.0011302948794050618 0 0.00048903908402787486 0.00083816185670702436 0 0.0005173837813533446 0.00060244245222256074 0 0.00041811751419353304 0.0011666861493115257 0 0.00036616078579385195 0.001163189724496552 0 0.00045168295897207261 0.0011302948794050618 0 0.00045906258292079886 0.0011349585158928811 0 0.00046441355759448409 0.0011276438194244749 0 0.00060652962919260044 0.00054464882911091914 0 0.00057293213442433837 0.00053753253011026934 0 0.0005662652691572369 0.00049559260136342238 0 0.00054166737740616905 0.00053610904210672338 0 0.00057293213442433837 0.00053753253011026934 0 0.0005662652691572369 0.00049559260136342238 0 0.00060652962919260044 0.00054464882911091914 0 0.00057293213442433837 0.00053753253011026934 0 0.00057599762993936138 0.00058035188048782328 0 0.00054166737740616905 0.00053610904210672338 0 0.00057293213442433837 0.00053753253011026934 0 0.00057599762993936138 0.00058035188048782328 0 0.0005662652691572369 0.00049559260136342238 0 0.00058476381704743164 0.00044943458053654898 0 0.00054713521567629456 0.00045241045544081363 0 0.00058476381704743164 0.00044943458053654898 0 0.00054713521567629456 0.00045241045544081363 0 0.00054464484778849701 0.00041536854301432822 0 0.00046350443504005015 0.00046649668707667561 0 0.00051821149216633208 0.0004783778100794311 0 0.00050974703513231975 0.00043718384283259934 0 0.00054713521567629456 0.00045241045544081363 0 0.00051821149216633208 0.0004783778100794311 0 0.00050974703513231975 0.00043718384283259934 0 0.0005662652691572369 0.00049559260136342238 0 0.00054713521567629456 0.00045241045544081363 0 0.00051821149216633208 0.0004783778100794311 0 0.00054713521567629456 0.00045241045544081363 0 0.00050974703513231975 0.00043718384283259934 0 0.00054464484778849701 0.00041536854301432822 0 0.00046350443504005015 0.00046649668707667561 0 0.00050974703513231975 0.00043718384283259934 0 0.00046617344726906939 0.00040311222960136761 0 0.00050974703513231975 0.00043718384283259934 0 0.00054464484778849701 0.00041536854301432822 0 0.00046617344726906939 0.00040311222960136761 0 0.00054464484778849701 0.00041536854301432822 0 0.00046907820048291044 0.00031335356992864979 0 0.00046617344726906939 0.00040311222960136761 0 0.00054464484778849701 0.00041536854301432822 0 0.00053830715155626138 0.00039322593406486336 0 0.0005720749233396183 0.00043665273659056268 0 0.00058476381704743164 0.00044943458053654898 0 0.00054464484778849701 0.00041536854301432822 0 0.0005720749233396183 0.00043665273659056268 0 0.00053830715155626138 0.00039322593406486336 0 0.00056061475606514134 0.00036653278604516031 0 0.0005720749233396183 0.00043665273659056268 0 0.00052604627143494902 0.00035238321910200618 0 0.00053830715155626138 0.00039322593406486336 0 0.00056061475606514134 0.00036653278604516031 0 0.00054464484778849701 0.00041536854301432822 0 0.00053830715155626138 0.00039322593406486336 0 0.00049494866445388367 0.00037564720903607979 0 0.00054464484778849701 0.00041536854301432822 0 0.00046907820048291044 0.00031335356992864979 0 0.00049959214369738449 0.00023429493567639887 0 0.00052354832267679835 0.00036299640285845865 0 0.00053273973428258077 0.00040799150552916737 0 0.00052604627143494902 0.00035238321910200618 0 0.00053830715155626138 0.00039322593406486336 0 0.00049494866445388367 0.00037564720903607979 0 0.00048977033687545889 -0.00028408840003954071 0 0.00050515091553644819 0.0004249644124178141 0 0.00041226014369520419 0.00021018857106267378 0 0.00046907820048291044 0.00031335356992864979 0 0.00039700207934030422 0.00035085306319948279 0 0.00036796385886026417 0.00015961277871563121 0 0.00046907820048291044 0.00031335356992864979 0 0.00049959214369738449 0.00023429493567639887 0 0.00059814689101995815 -0.00091068984416072711 0 0.00045252147883823485 -0.00077207780125314708 0 0.00055619111350546473 -0.00056169756473631771 0 0.00048977033687545889 -0.00028408840003954071 0 0.00047893073204860156 -0.00011759138412375238 0 0.00038176967560694318 -0.00091849546502456841 0 0.00024926442429676864 -0.000790086453280769 0 0.00045252147883823485 -0.00077207780125314708 0 0.00024926442429676864 -0.000790086453280769 0 0.00045252147883823485 -0.00077207780125314708 0 0.00040893057892677219 -0.00063982260056708712 0 0.00045252147883823485 -0.00077207780125314708 0 0.00040893057892677219 -0.00063982260056708712 0 0.00055619111350546473 -0.00056169756473631771 0 0.00040893057892677219 -0.00063982260056708712 0 0.00050422361668030734 -0.00049894290961681605 0 0.00055619111350546473 -0.00056169756473631771 0 0.00013661017383620122 -0.00059752667944482269 0 0.00040893057892677219 -0.00063982260056708712 0 0.00050422361668030734 -0.00049894290961681605 0 -0.0001053251029440016 -0.0004730479429145007 0 0.00017164177172168348 -0.00023986451931090836 0 0.00050422361668030734 -0.00049894290961681605 0 2.9669777399842806e-05 -0.00053170542232445367 0 0.00048397456595600263 -0.00050300880046330696 0 0.0004698554670588794 -1.0520731223821526e-05 0 0.00050422361668030734 -0.00049894290961681605 0 0.00055619111350546473 -0.00056169756473631771 0 0.00038896584221267716 0.00046079228952481733 0 0.00046617344726906939 0.00040311222960136761 0 0.00039700207934030422 0.00035085306319948279 0 0.00046907820048291044 0.00031335356992864979 0 0.00046617344726906939 0.00040311222960136761 0 0.00039700207934030422 0.00035085306319948279 0 -0.000119610088756803 -0.0035277846075953533 0 -0.00010327351784052518 -0.0035346067592680222 0 -0.00011134791166304122 -0.0035225233180737445 0 0.00011988944549560113 -0.0035849826094451693 0 0.00013029110151023971 -0.0035950973132551863 0 0.00010358711845361699 -0.0036016055134770147 0 0.00011471562219553835 -0.0035800742180712893 0 4.8531382954931607e-05 -0.0035705787324562207 0 9.4479990178935347e-05 -0.0035894981699798253 0 0.00011988944549560113 -0.0035849826094451693 0 0.00010358711845361699 -0.0036016055134770147 0 -0.00010327351784052518 -0.0035346067592680222 0 -8.1640972533930461e-05 -0.0035258395531139147 0 -9.6553295155779112e-05 -0.0035169032697128983 0 4.8531382954931607e-05 -0.0035705787324562207 0 2.8077660124642397e-05 -0.0035804952081878363 0 0.00012378812797315879 -0.0035850972418124856 0 0.00013778395484893472 -0.003587627211406489 0 0.00014595183627193667 -0.0035857110139853369 0 0.00013778395484893472 -0.003587627211406489 0 0.00013029110151023971 -0.0035950973132551863 0 0.00014474292200029336 -0.0035937762372862357 0 0.00013778395484893472 -0.003587627211406489 0 0.00014474292200029336 -0.0035937762372862357 0 0.00014595183627193667 -0.0035857110139853369 0 4.8531382954931607e-05 -0.0035705787324562207 0 0.00015006047360184737 -0.0035806592648203513 0 0.00011988944549560113 -0.0035849826094451693 0 0.00013778395484893472 -0.003587627211406489 0 0.00013029110151023971 -0.0035950973132551863 0 0.00013029110151023971 -0.0035950973132551863 0 0.00013653138760690348 -0.0036087684407533167 0 0.00010358711845361699 -0.0036016055134770147 0 0.00013029110151023971 -0.0035950973132551863 0 0.00013653138760690348 -0.0036087684407533167 0 0.00014474292200029336 -0.0035937762372862357 0 0.00014526221383088416 -0.0036232003201621182 0 0.00013494731004714226 -0.0036254726339365224 0 0.00015991441497034361 -0.0036446012477663998 0 0.00013176127295265081 -0.0036386729286041366 0 0.00014643227049865036 -0.0036591049935362566 0 0.00011677874157088288 -0.0036769812583677445 0 0.00013176127295265081 -0.0036386729286041366 0 0.00014643227049865036 -0.0036591049935362566 0 0.00014643227049865036 -0.0036591049935362566 0 0.00014004831662339098 -0.0036830434109576897 0 0.00015997629363655435 -0.003650644926208816 0 0.00011677874157088288 -0.0036769812583677445 0 0.00014643227049865036 -0.0036591049935362566 0 0.00014004831662339098 -0.0036830434109576897 0 0.00010748131237405027 -0.0037224434670859352 0 0.00011677874157088288 -0.0036769812583677445 0 0.00014004831662339098 -0.0036830434109576897 0 0.00015190094105868338 -0.0036717323323527161 0 0.00014863863877449414 -0.0037330176610402841 0 0.00015997629363655435 -0.003650644926208816 0 0.00014004831662339098 -0.0036830434109576897 0 0.00014863863877449414 -0.0037330176610402841 0 0.00015997629363655435 -0.003650644926208816 0 0.00010748131237405027 -0.0037224434670859352 0 0.00014004831662339098 -0.0036830434109576897 0 0.00014863863877449414 -0.0037330176610402841 0 0.00015631409279514083 -0.0036377029444055291 0 0.00015190094105868338 -0.0036717323323527161 0 0.00015997629363655435 -0.003650644926208816 0 0.00015991441497034361 -0.0036446012477663998 0 0.00015997629363655435 -0.003650644926208816 0 0.00016230510151335475 -0.0036097684899977244 0 0.00015991441497034361 -0.0036446012477663998 0 0.00014643227049865036 -0.0036591049935362566 0 0.00015997629363655435 -0.003650644926208816 0 0.00015997629363655435 -0.003650644926208816 0 0.00016230510151335475 -0.0036097684899977244 0 0.00016535448768109764 -0.0036004218683967399 0 0.00015672723254137679 -0.0036095291863951382 0 0.00015631409279514083 -0.0036377029444055291 0 0.00016535448768109764 -0.0036004218683967399 0 0.00015631409279514083 -0.0036377029444055291 0 0.00015997629363655435 -0.003650644926208816 0 0.00016535448768109764 -0.0036004218683967399 0 0.00015672723254137679 -0.0036095291863951382 0 0.00016535448768109764 -0.0036004218683967399 0 0.00017051635577164969 -0.0035366216560525168 0 0.00016535448768109764 -0.0036004218683967399 0 0.00017051635577164969 -0.0035366216560525168 0 0.00016569042899834891 -0.0035907527542608569 0 0.00016230510151335475 -0.0036097684899977244 0 0.00016569042899834891 -0.0035907527542608569 0 0.00016033644016247371 -0.0035997246222170191 0 0.00016230510151335475 -0.0036097684899977244 0 0.00016535448768109764 -0.0036004218683967399 0 0.00016569042899834891 -0.0035907527542608569 0 0.00016569042899834891 -0.0035907527542608569 0 0.00016033644016247371 -0.0035997246222170191 0 0.00015349278438970494 -0.00359789829863634 0 0.00016033644016247371 -0.0035997246222170191 0 0.00015395875879747637 -0.0035993187068161219 0 0.00015467856254279923 -0.0035922073436296127 0 0.00013653138760690348 -0.0036087684407533167 0 0.00015395875879747637 -0.0035993187068161219 0 0.00014474292200029336 -0.0035937762372862357 0 0.00014526221383088416 -0.0036232003201621182 0 0.00016320315983239117 -0.0036157928013681689 0 0.00013653138760690348 -0.0036087684407533167 0 0.00016230510151335475 -0.0036097684899977244 0 0.00015395875879747637 -0.0035993187068161219 0 0.00016230510151335475 -0.0036097684899977244 0 0.00016033644016247371 -0.0035997246222170191 0 0.00015395875879747637 -0.0035993187068161219 0 0.00015467856254279923 -0.0035922073436296127 0 0.00014595183627193667 -0.0035857110139853369 0 0.00015572999267702084 -0.0035878701302960963 0 0.00015395875879747637 -0.0035993187068161219 0 0.00015467856254279923 -0.0035922073436296127 0 0.00014474292200029336 -0.0035937762372862357 0 0.00015467856254279923 -0.0035922073436296127 0 0.00014474292200029336 -0.0035937762372862357 0 0.00014595183627193667 -0.0035857110139853369 0 0.00016033644016247371 -0.0035997246222170191 0 0.00015467856254279923 -0.0035922073436296127 0 0.00015664120510340082 -0.0035961871638835493 0 0.00015467856254279923 -0.0035922073436296127 0 0.00015664120510340082 -0.0035961871638835493 0 0.00015572999267702084 -0.0035878701302960963 0 8.7188550529667988e-05 -0.0033784247450144521 0 -4.5610227527813761e-05 -0.003158607101744908 0 -1.3390858710407633e-05 -0.0031331129578227737 0 9.7018378875558177e-05 -0.0030747966972749278 0 6.4590388303042162e-05 -0.0029740996625329322 0 8.7188550529667988e-05 -0.0033784247450144521 0 0.0001187655798704004 -0.003463591369236295 0 7.1037431338838295e-05 -0.0033973297753622563 0 1.474427773462368e-05 -0.0026422449838547479 0 -1.3390858710407633e-05 -0.0031331129578227737 0 0.00011482178103760558 -0.003234375315496463 0 0.00014362208614091673 -0.0031922813785563737 0 -1.3390858710407633e-05 -0.0031331129578227737 0 9.7018378875558177e-05 -0.0030747966972749278 0 0.00014362208614091673 -0.0031922813785563737 0 9.7018378875558177e-05 -0.0030747966972749278 0 0.00014362208614091673 -0.0031922813785563737 0 0.00019389152431008823 -0.0029999622020156036 0 0.00014966443553862308 -0.0034785058294299546 0 0.0001491818244826003 -0.003475046036046159 0 0.00016752450816271691 -0.0034660753689789115 0 8.1010783004324761e-05 -0.0034453150363345638 0 8.9790789298394309e-05 -0.0034521092112785672 0 9.8304327212011256e-05 -0.0034202716032777042 0 0.0001187655798704004 -0.003463591369236295 0 7.1037431338838295e-05 -0.0033973297753622563 0 0.00014966443553862308 -0.0034785058294299546 0 0.00014832905215620199 -0.0034773162258469469 0 0.0001491818244826003 -0.003475046036046159 0 0.0001187655798704004 -0.003463591369236295 0 0.00011212374813615559 -0.0034637722266957741 0 0.00011212374813615559 -0.0034637722266957741 0 0.00011450748305817586 -0.0034651346592438981 0 0.00011212374813615559 -0.0034637722266957741 0 7.1037431338838295e-05 -0.0033973297753622563 0 0.00013868007782467831 -0.0034759394583788513 0 0.00013492246910920967 -0.0034843198937419173 0 0.00012784586319115044 -0.0034767522541206573 0 0.00013868007782467831 -0.0034759394583788513 0 0.00012784586319115044 -0.0034767522541206573 0 0.00013547441206766665 -0.0034727587969428028 0 0.00012784586319115044 -0.0034767522541206573 0 0.00013547441206766665 -0.0034727587969428028 0 0.00011851051658843338 -0.003467391333411245 0 0.00013547441206766665 -0.0034727587969428028 0 0.00013687477021783671 -0.0034634386287784222 0 0.00011851051658843338 -0.003467391333411245 0 0.00011212374813615559 -0.0034637722266957741 0 0.00012761496885631802 -0.0034734948552688676 0 0.00013547441206766665 -0.0034727587969428028 0 0.00014317346838829142 -0.0034692874539732389 0 0.0001491818244826003 -0.003475046036046159 0 0.0001472327093065966 -0.003482036239932183 0 0.00013547441206766665 -0.0034727587969428028 0 0.0001491818244826003 -0.003475046036046159 0 0.00014317346838829142 -0.0034692874539732389 0 0.00015130079007785101 -0.0034668661494187099 0 0.00013687477021783671 -0.0034634386287784222 0 0.00013547441206766665 -0.0034727587969428028 0 0.00014317346838829142 -0.0034692874539732389 0 0.00013687477021783671 -0.0034634386287784222 0 0.00014317346838829142 -0.0034692874539732389 0 0.0001491818244826003 -0.003475046036046159 0 0.00015130079007785101 -0.0034668661494187099 0 0.0001187655798704004 -0.003463591369236295 0 0.00015855399735897736 -0.003538544276049244 0 0.00015079122343231665 -0.0035976019887052715 0 0.00015349278438970494 -0.00359789829863634 0 0.00014719395810481049 -0.0035915107321827155 0 0.00015664120510340082 -0.0035961871638835493 0 0.00015079122343231665 -0.0035976019887052715 0 0.00015349278438970494 -0.00359789829863634 0 0.00016033644016247371 -0.0035997246222170191 0 0.00015664120510340082 -0.0035961871638835493 0 0.00015349278438970494 -0.00359789829863634 0 0.00017051635577164969 -0.0035366216560525168 0 0.00016569042899834891 -0.0035907527542608569 0 0.00014719395810481049 -0.0035915107321827155 0 0.00016569042899834891 -0.0035907527542608569 0 0.00015349278438970494 -0.00359789829863634 0 0.00014719395810481049 -0.0035915107321827155 0 0.00020599561716635832 -0.0034676903079980869 0 0.00017051635577164969 -0.0035366216560525168 0 0.00017578301461472978 -0.003465378798284873 0 0.00017051635577164969 -0.0035366216560525168 0 0.00016752450816271691 -0.0034660753689789115 0 0.00017578301461472978 -0.003465378798284873 0 0.00017085473339283912 -0.003528067853332365 0 0.00015855399735897736 -0.003538544276049244 0 0.00020599561716635832 -0.0034676903079980869 0 0.00015642316143785317 -0.0034165712544869096 0 0.00017578301461472978 -0.003465378798284873 0 0.00015642316143785317 -0.0034165712544869096 0 0.00017578301461472978 -0.003465378798284873 0 0.00013378154458661162 -0.0034355314276288736 0 0.00017578301461472978 -0.003465378798284873 0 0.0001367276095106613 -0.0034502052845971224 0 0.00013378154458661162 -0.0034355314276288736 0 0.00017578301461472978 -0.003465378798284873 0 0.0001552490771208123 -0.0034613580308334008 0 0.0001367276095106613 -0.0034502052845971224 0 0.00016752450816271691 -0.0034660753689789115 0 0.00017578301461472978 -0.003465378798284873 0 0.0001552490771208123 -0.0034613580308334008 0 0.00016752450816271691 -0.0034660753689789115 0 0.0001552490771208123 -0.0034613580308334008 0 0.00015130079007785101 -0.0034668661494187099 0 0.0001491818244826003 -0.003475046036046159 0 0.00016752450816271691 -0.0034660753689789115 0 0.00015130079007785101 -0.0034668661494187099 0 0.0001552490771208123 -0.0034613580308334008 0 0.00013687477021783671 -0.0034634386287784222 0 0.0001367276095106613 -0.0034502052845971224 0 0.0001552490771208123 -0.0034613580308334008 0 0.00015130079007785101 -0.0034668661494187099 0 0.00013687477021783671 -0.0034634386287784222 0 0.00013687477021783671 -0.0034634386287784222 0 0.00011317084777870009 -0.0034524835762192903 0 0.00011851051658843338 -0.003467391333411245 0 0.00011317084777870009 -0.0034524835762192903 0 9.0566981915311863e-05 -0.0034239585674677967 0 8.7496066829839274e-05 -0.003453075802370613 0 0.00013687477021783671 -0.0034634386287784222 0 0.00011317084777870009 -0.0034524835762192903 0 0.0001367276095106613 -0.0034502052845971224 0 0.00011317084777870009 -0.0034524835762192903 0 0.0001367276095106613 -0.0034502052845971224 0 9.0566981915311863e-05 -0.0034239585674677967 0 0.0001367276095106613 -0.0034502052845971224 0 0.00013378154458661162 -0.0034355314276288736 0 9.0566981915311863e-05 -0.0034239585674677967 0 0.00013378154458661162 -0.0034355314276288736 0 9.0566981915311863e-05 -0.0034239585674677967 0 0.00012067823993117794 -0.0034112463101409708 0 9.0566981915311863e-05 -0.0034239585674677967 0 0.00012067823993117794 -0.0034112463101409708 0 8.7833321334694067e-05 -0.003398438064596142 0 0.00015642316143785317 -0.0034165712544869096 0 0.00013378154458661162 -0.0034355314276288736 0 0.00012067823993117794 -0.0034112463101409708 0 3.8598100011070916e-05 -0.0034196178591529339 0 9.0566981915311863e-05 -0.0034239585674677967 0 4.7489716659315522e-05 -0.0034108838489188224 0 3.8598100011070916e-05 -0.0034196178591529339 0 9.0566981915311863e-05 -0.0034239585674677967 0 8.7833321334694067e-05 -0.003398438064596142 0 9.0566981915311863e-05 -0.0034239585674677967 0 4.7489716659315522e-05 -0.0034108838489188224 0 8.7496066829839274e-05 -0.003453075802370613 0 4.7489716659315522e-05 -0.0034108838489188224 0 7.187469998924476e-05 -0.0034818651338890385 0 8.7496066829839274e-05 -0.003453075802370613 0 8.6716561739699584e-05 -0.0032831313692703668 0 4.7489716659315522e-05 -0.0034108838489188224 0 -5.4144769572514525e-07 -0.0032769695168868001 0 3.7868715448594761e-05 -0.0033385146291848703 0 5.7790961118815537e-05 -0.0035553385358089978 0 7.187469998924476e-05 -0.0034818651338890385 0 8.7496066829839274e-05 -0.003453075802370613 0 0.00010710580883933541 -0.0034825822627872773 0 8.7496066829839274e-05 -0.003453075802370613 0 0.00011851051658843338 -0.003467391333411245 0 0.00010710580883933541 -0.0034825822627872773 0 0.00011317084777870009 -0.0034524835762192903 0 8.7496066829839274e-05 -0.003453075802370613 0 0.00011851051658843338 -0.003467391333411245 0 0.00012784586319115044 -0.0034767522541206573 0 0.00011851051658843338 -0.003467391333411245 0 0.00010710580883933541 -0.0034825822627872773 0 0.00013492246910920967 -0.0034843198937419173 0 0.00012784586319115044 -0.0034767522541206573 0 0.00010710580883933541 -0.0034825822627872773 0 7.187469998924476e-05 -0.0034818651338890385 0 0.00010710580883933541 -0.0034825822627872773 0 9.7382929665610496e-05 -0.0034961161783790243 0 7.1037431338838295e-05 -0.0033973297753622563 0 -2.3868267986732244e-05 -0.0027389890943332038 0 -9.7403707056683848e-05 -0.0032442430980352071 0 0.00019578479264995897 -0.0028176495876485511 0 2.5321779625527263e-05 -0.0027817916193120379 0 0.00013492246910920967 -0.0034843198937419173 0 9.7382929665610496e-05 -0.0034961161783790243 0 0.00010370735775111022 -0.0035099552120130295 0 0.00013492246910920967 -0.0034843198937419173 0 0.00010710580883933541 -0.0034825822627872773 0 9.7382929665610496e-05 -0.0034961161783790243 0 9.7382929665610496e-05 -0.0034961161783790243 0 8.1796247140628845e-05 -0.003504347472495084 0 0.00010370735775111022 -0.0035099552120130295 0 5.7790961118815537e-05 -0.0035553385358089978 0 -0.00014965898571187925 -0.002440819677651136 0 7.187469998924476e-05 -0.0034818651338890385 0 9.7382929665610496e-05 -0.0034961161783790243 0 8.1796247140628845e-05 -0.003504347472495084 0 8.6716561739699584e-05 -0.0032831313692703668 0 -5.4144769572514525e-07 -0.0032769695168868001 0 -1.5622455521425603e-05 -0.0031598789452263218 0 -0.00014965898571187925 -0.002440819677651136 0 -0.00018906421821713519 -0.001217361829977384 0 -0.0004322643146281809 -0.00080675489304281268 0 -0.00046690772759101079 -0.00086267055648981544 0 -0.00044136101027904523 -0.00078333610411163764 0 2.5002002448878244e-05 -0.0021750245094573082 0 0.00012964939209953071 -0.0023746506208919935 0 9.9344155074567312e-05 -0.0020195419463318555 0 -0.0004322643146281809 -0.00080675489304281268 0 -0.00044136101027904523 -0.00078333610411163764 0 -0.00044615622288258534 -0.00078622524908825262 0 -0.00051559426781913186 -0.00081076139874381001 0 -0.0006304287163949973 -0.00051488219932322094 0 2.5002002448878244e-05 -0.0021750245094573082 0 0.00012964939209953071 -0.0023746506208919935 0 -0.00017522916410722813 -0.0023117463242765374 0 -0.00014965898571187925 -0.002440819677651136 0 -2.3868267986732244e-05 -0.0027389890943332038 0 -2.3868267986732244e-05 -0.0027389890943332038 0 1.474427773462368e-05 -0.0026422449838547479 0 -2.8843445649673219e-05 -0.0021353491778614729 0 1.474427773462368e-05 -0.0026422449838547479 0 -0.00016796522337638671 -0.002311380151439221 0 -0.00018451893737180845 -0.0021453247276737005 0 -0.00034478423903337859 -0.0022743650483823142 0 -0.00018451893737180845 -0.0021453247276737005 0 -0.00027217492628291872 -0.0020012661031384008 0 -0.00034478423903337859 -0.0022743650483823142 0 -0.00016796522337638671 -0.002311380151439221 0 -0.00018451893737180845 -0.0021453247276737005 0 4.634924785740482e-05 -0.0019944498618611642 0 -2.3868267986732244e-05 -0.0027389890943332038 0 7.0014619279429858e-05 -0.0019506462765922867 0 2.5002002448878244e-05 -0.0021750245094573082 0 -0.00017522916410722813 -0.0023117463242765374 0 4.634924785740482e-05 -0.0019944498618611642 0 -2.8843445649673219e-05 -0.0021353491778614729 0 6.5088234788251677e-05 -0.0021276329140452574 0 -2.8843445649673219e-05 -0.0021353491778614729 0 -3.679421681441435e-05 -0.0016215148750648683 0 -0.00027217492628291872 -0.0020012661031384008 0 4.634924785740482e-05 -0.0019944498618611642 0 6.7517635134565666e-05 -0.0016694799458022874 0 -0.00018451893737180845 -0.0021453247276737005 0 -0.00027217492628291872 -0.0020012661031384008 0 4.634924785740482e-05 -0.0019944498618611642 0 -0.0006304287163949973 -0.00051488219932322094 0 -0.00027027502338736431 -0.0010069198754773206 0 -0.00044136101027904523 -0.00078333610411163764 0 -0.00044615622288258534 -0.00078622524908825262 0 -0.0004253097953541962 -0.00083102670490875876 0 -0.00018906421821713519 -0.001217361829977384 0 -3.679421681441435e-05 -0.0016215148750648683 0 4.634924785740482e-05 -0.0019944498618611642 0 9.9344155074567312e-05 -0.0020195419463318555 0 6.7517635134565666e-05 -0.0016694799458022874 0 2.5002002448878244e-05 -0.0021750245094573082 0 4.634924785740482e-05 -0.0019944498618611642 0 9.9344155074567312e-05 -0.0020195419463318555 0 0.00010737670218178925 -0.0019116711298565057 0 7.1626366197865876e-05 -0.0019499165585505694 0 0.00011242959729958825 -0.0019849874689460518 0 -0.00044615622288258534 -0.00078622524908825262 0 -0.0004253097953541962 -0.00083102670490875876 0 -0.00044942053162763212 -0.00085594458860337034 0 -3.679421681441435e-05 -0.0016215148750648683 0 7.3873159888120934e-05 -0.0020530829092073491 0 -3.679421681441435e-05 -0.0016215148750648683 0 -0.00027027502338736431 -0.0010069198754773206 0 -0.00027027502338736431 -0.0010069198754773206 0 9.6413246681059558e-05 -0.0015951717755424552 0 7.3873159888120934e-05 -0.0020530829092073491 0 7.1574721491672155e-05 -0.0020539143751131593 0 7.1626366197865876e-05 -0.0019499165585505694 0 0.00011242959729958825 -0.0019849874689460518 0 9.5576584721989273e-05 -0.002059885319225018 0 2.9613099594405621e-05 -0.0020190221220837651 0 3.6634338730674107e-05 -0.0020114503928900631 0 3.2312050758474055e-05 -0.0020358057827561346 0 8.1497974699468187e-05 -0.0022250246474352893 0 2.3303033696931212e-05 -0.0021065221482921672 0 0.00010243635481443884 -0.0021033624916304634 0 6.5088234788251677e-05 -0.0021276329140452574 0 7.1574721491672155e-05 -0.0020539143751131593 0 8.1497974699468187e-05 -0.0022250246474352893 0 3.6785563687432188e-06 -0.0022438979046762154 0 2.3303033696931212e-05 -0.0021065221482921672 0 3.9289707666218095e-05 -0.0019938821947771404 0 2.8660353538707878e-05 -0.0020036883559170241 0 3.6634338730674107e-05 -0.0020114503928900631 0 2.8660353538707878e-05 -0.0020036883559170241 0 2.9613099594405621e-05 -0.0020190221220837651 0 3.6634338730674107e-05 -0.0020114503928900631 0 5.4246263793158977e-05 -0.0023496393602641659 0 8.1497974699468187e-05 -0.0022250246474352893 0 3.6785563687432188e-06 -0.0022438979046762154 0 3.6785563687432188e-06 -0.0022438979046762154 0 -6.7772666422911038e-05 -0.0022027655354983633 0 -9.5865005486941862e-06 -0.0023265354785513329 0 3.6785563687432188e-06 -0.0022438979046762154 0 -6.7772666422911038e-05 -0.0022027655354983633 0 2.3303033696931212e-05 -0.0021065221482921672 0 -6.0425106595809414e-05 -0.0022282723373638108 0 -4.4828906571731305e-05 -0.0020918733735323736 0 -5.3353955166358119e-05 -0.0022511169700970561 0 -0.00010954300033879908 -0.0022793557314288067 0 -9.7807388589150638e-05 -0.0021718709774118275 0 -5.3353955166358119e-05 -0.0022511169700970561 0 -7.4796302997315599e-05 -0.0023593617451845516 0 -0.00010954300033879908 -0.0022793557314288067 0 -6.0425106595809414e-05 -0.0022282723373638108 0 -7.4018496840954725e-05 -0.0023520844506919342 0 -6.7772666422911038e-05 -0.0022027655354983633 0 -7.4796302997315599e-05 -0.0023593617451845516 0 -9.5865005486941862e-06 -0.0023265354785513329 0 -7.4796302997315599e-05 -0.0023593617451845516 0 -0.00010471266821022313 -0.002359804822760693 0 -0.00011515227506975805 -0.0023358554379938408 0 -7.4796302997315599e-05 -0.0023593617451845516 0 -9.9096209898133367e-05 -0.0023816256687222651 0 -0.00010471266821022313 -0.002359804822760693 0 -7.4796302997315599e-05 -0.0023593617451845516 0 -9.5865005486941862e-06 -0.0023265354785513329 0 -3.0748375098915827e-05 -0.0023701952848846639 0 5.4246263793158977e-05 -0.0023496393602641659 0 3.6785563687432188e-06 -0.0022438979046762154 0 -9.5865005486941862e-06 -0.0023265354785513329 0 5.4246263793158977e-05 -0.0023496393602641659 0 -9.5865005486941862e-06 -0.0023265354785513329 0 9.0650866698450023e-06 -0.0023675751055402625 0 -9.5865005486941862e-06 -0.0023265354785513329 0 -1.0137410064667406e-05 -0.0023617643536641745 0 -3.0748375098915827e-05 -0.0023701952848846639 0 -9.5865005486941862e-06 -0.0023265354785513329 0 9.0650866698450023e-06 -0.0023675751055402625 0 -1.0137410064667406e-05 -0.0023617643536641745 0 -6.0729502252942375e-06 -0.0023815078050621846 0 3.684391892312497e-05 -0.0024138199438090576 0 -3.7638098211400053e-05 -0.0023963590824932742 0 -3.0748375098915827e-05 -0.0023701952848846639 0 -6.0729502252942375e-06 -0.0023815078050621846 0 -3.7638098211400053e-05 -0.0023963590824932742 0 1.474427773462368e-05 -0.0026422449838547479 0 1.217535991604497e-05 -0.0025476553921327844 0 -1.0137410064667406e-05 -0.0023617643536641745 0 -3.0748375098915827e-05 -0.0023701952848846639 0 -6.0729502252942375e-06 -0.0023815078050621846 0 9.0650866698450023e-06 -0.0023675751055402625 0 -1.0137410064667406e-05 -0.0023617643536641745 0 -6.0729502252942375e-06 -0.0023815078050621846 0 5.4246263793158977e-05 -0.0023496393602641659 0 9.0650866698450023e-06 -0.0023675751055402625 0 3.684391892312497e-05 -0.0024138199438090576 0 9.0650866698450023e-06 -0.0023675751055402625 0 -6.0729502252942375e-06 -0.0023815078050621846 0 3.684391892312497e-05 -0.0024138199438090576 0 9.7018378875558177e-05 -0.0030747966972749278 0 0.00019389152431008823 -0.0029999622020156036 0 6.4590388303042162e-05 -0.0029740996625329322 0 1.217535991604497e-05 -0.0025476553921327844 0 -4.5610227527813761e-05 -0.003158607101744908 0 -7.7452258842899036e-05 -0.0023976115408745505 0 -3.3143863920655525e-06 -0.0024160929112697119 0 -0.00012238144382496392 -0.0024449595610789667 0 -1.3390858710407633e-05 -0.0031331129578227737 0 6.4590388303042162e-05 -0.0029740996625329322 0 -0.00014011298691453205 -0.0030343208205176738 0 -7.4796302997315599e-05 -0.0023593617451845516 0 -9.9096209898133367e-05 -0.0023816256687222651 0 -3.7638098211400053e-05 -0.0023963590824932742 0 -9.9997259199887843e-05 -0.0023928407586854511 0 1.217535991604497e-05 -0.0025476553921327844 0 -7.4796302997315599e-05 -0.0023593617451845516 0 -3.0748375098915827e-05 -0.0023701952848846639 0 -3.7638098211400053e-05 -0.0023963590824932742 0 -7.7452258842899036e-05 -0.0023976115408745505 0 -0.00012238144382496392 -0.0024449595610789667 0 -0.00014906877148709326 -0.0023794234397430244 0 -9.9997259199887843e-05 -0.0023928407586854511 0 -0.00013888719374801866 -0.0023809789208162967 0 2.8077660124642397e-05 -0.0035804952081878363 0 -4.5610227527813761e-05 -0.003158607101744908 0 -8.1640972533930461e-05 -0.0035258395531139147 0 -6.0896551051835464e-05 -0.0035158144244831335 0 -8.3428253146024299e-05 -0.0035016078849532456 0 -0.00012238144382496392 -0.0024449595610789667 0 -0.00021170749485025222 -0.0023653766768441981 0 -0.00014906877148709326 -0.0023794234397430244 0 -4.5610227527813761e-05 -0.003158607101744908 0 -0.00016197895144505863 -0.0029026226818266439 0 -0.00021170749485025222 -0.0023653766768441981 0 -0.00016172518895040704 -0.0023221774577967397 0 -0.00021042148433281097 -0.0023036678856051462 0 -0.00021170749485025222 -0.0023653766768441981 0 -0.00016172518895040704 -0.0023221774577967397 0 -0.00014906877148709326 -0.0023794234397430244 0 -7.4796302997315599e-05 -0.0023593617451845516 0 -0.00011515227506975805 -0.0023358554379938408 0 -0.00010954300033879908 -0.0022793557314288067 0 -0.00016172518895040704 -0.0023221774577967397 0 -0.00014906877148709326 -0.0023794234397430244 0 -0.00011515227506975805 -0.0023358554379938408 0 -9.9096209898133367e-05 -0.0023816256687222651 0 -0.00014906877148709326 -0.0023794234397430244 0 -0.00010471266821022313 -0.002359804822760693 0 -0.00014906877148709326 -0.0023794234397430244 0 -0.00010471266821022313 -0.002359804822760693 0 -0.00011515227506975805 -0.0023358554379938408 0 -0.00016172518895040704 -0.0023221774577967397 0 -0.00010954300033879908 -0.0022793557314288067 0 -0.00017535032537579652 -0.0022732913258423299 0 -0.00016172518895040704 -0.0023221774577967397 0 -0.00011515227506975805 -0.0023358554379938408 0 -0.00010954300033879908 -0.0022793557314288067 0 -0.00010954300033879908 -0.0022793557314288067 0 -0.00015807537102063265 -0.002204839042544017 0 -0.00017535032537579652 -0.0022732913258423299 0 -0.00010954300033879908 -0.0022793557314288067 0 -0.00015807537102063265 -0.002204839042544017 0 -9.7807388589150638e-05 -0.0021718709774118275 0 -0.00015807537102063265 -0.002204839042544017 0 -0.00017535032537579652 -0.0022732913258423299 0 -0.00022162634184324289 -0.0022437458105172385 0 -0.00015807537102063265 -0.002204839042544017 0 -0.00022162634184324289 -0.0022437458105172385 0 -0.00020661382458821471 -0.002172388618728237 0 -0.00017535032537579652 -0.0022732913258423299 0 -0.00021042148433281097 -0.0023036678856051462 0 -0.00022162634184324289 -0.0022437458105172385 0 -0.00016172518895040704 -0.0023221774577967397 0 -0.00017535032537579652 -0.0022732913258423299 0 -0.00021042148433281097 -0.0023036678856051462 0 -0.00021042148433281097 -0.0023036678856051462 0 -0.00022162634184324289 -0.0022437458105172385 0 -0.00028217181680965502 -0.0023046414836080391 0 -0.00022162634184324289 -0.0022437458105172385 0 -0.00027985910257871156 -0.0022129950971202677 0 -0.00020661382458821471 -0.002172388618728237 0 -0.00022162634184324289 -0.0022437458105172385 0 -0.00027985910257871156 -0.0022129950971202677 0 -0.00028217181680965502 -0.0023046414836080391 0 -0.00014887454358138432 -0.002779522293136378 0 -0.00019451321663150643 -0.002418803498031529 0 -0.00034990799029695446 -0.0022529468911637834 0 -0.00027985910257871156 -0.0022129950971202677 0 -0.00028217181680965502 -0.0023046414836080391 0 -9.9692965858725241e-05 -0.0026667164566787139 0 -0.0001060716927294969 -0.0026676895617181616 0 -0.00010276449519447536 -0.0026726416452012877 0 -0.00014887454358138432 -0.002779522293136378 0 -0.00020240367964217894 -0.0029075867454536816 0 -0.00012691516922718252 -0.0034818105426920494 0 -0.00010400446698587461 -0.003484528071053566 0 -0.0001094397800013959 -0.0035082886106265585 0 -0.00021170749485025222 -0.0023653766768441981 0 -0.00021042148433281097 -0.0023036678856051462 0 -0.00028217181680965502 -0.0023046414836080391 0 -0.00016197895144505863 -0.0029026226818266439 0 -0.00020240367964217894 -0.0029075867454536816 0 -8.3428253146024299e-05 -0.0035016078849532456 0 -0.00010400446698587461 -0.003484528071053566 0 -0.0001094397800013959 -0.0035082886106265585 0 -8.1640972533930461e-05 -0.0035258395531139147 0 -8.3428253146024299e-05 -0.0035016078849532456 0 -9.6553295155779112e-05 -0.0035169032697128983 0 -8.3428253146024299e-05 -0.0035016078849532456 0 -0.0001094397800013959 -0.0035082886106265585 0 -9.6553295155779112e-05 -0.0035169032697128983 0 -0.00010327351784052518 -0.0035346067592680222 0 -9.6553295155779112e-05 -0.0035169032697128983 0 -0.00011134791166304122 -0.0035225233180737445 0 -0.00012101978657664375 -0.0035208659178408638 0 -0.0001094397800013959 -0.0035082886106265585 0 -0.00011134791166304122 -0.0035225233180737445 0 -0.0001094397800013959 -0.0035082886106265585 0 -9.6553295155779112e-05 -0.0035169032697128983 0 -0.00011134791166304122 -0.0035225233180737445 0 -5.173328801122485e-06 -0.0021351463423846533 0 -0.00015358773962025185 -0.0021298864446569867 0 -7.8081727543120083e-05 -0.0023341308513582858 0 -0.00014630447934240362 -0.0021185616561016324 0 -0.00015390555751132467 -0.0021120342921630919 0 -0.00015358773962025185 -0.0021298864446569867 0 -0.00016346043996751827 -0.0020674254902748094 0 -0.00016048407478437326 -0.0020405041800552657 0 -0.00015358773962025185 -0.0021298864446569867 0 -0.00013162841118142366 -0.0020591087968102836 0 -0.00016346043996751827 -0.0020674254902748094 0 -4.9220595856874725e-05 -0.0023948606282101657 0 -0.0001061669359238279 -0.0023835841134473485 0 -5.173328801122485e-06 -0.0021351463423846533 0 -0.00015358773962025185 -0.0021298864446569867 0 -0.00013162841118142366 -0.0020591087968102836 0 -0.00010167331144579732 -0.0026757218823708915 0 -0.00010556157670538331 -0.0026752534981661115 0 -0.00010276449519447536 -0.0026726416452012877 0 -0.0001060716927294969 -0.0026676895617181616 0 -0.00010556157670538331 -0.0026752534981661115 0 -0.00010276449519447536 -0.0026726416452012877 0 -0.00019451321663150643 -0.002418803498031529 0 -0.00017976118909628376 -0.0023087475738388665 0 -0.0001060716927294969 -0.0026676895617181616 0 -0.00010556157670538331 -0.0026752534981661115 0 -0.00011381531516187133 -0.0026667956942906376 0 -0.0001061669359238279 -0.0023835841134473485 0 -0.00017976118909628376 -0.0023087475738388665 0 -0.00013162841118142366 -0.0020591087968102836 0 -0.00016346043996751827 -0.0020674254902748094 0 -0.00016195276363550502 -0.002077461591368829 0 -0.00016346043996751827 -0.0020674254902748094 0 -0.0001437465994947848 -0.002093025686350742 0 -0.00016048407478437326 -0.0020405041800552657 0 -0.00016346043996751827 -0.0020674254902748094 0 -0.00016195276363550502 -0.002077461591368829 0 -0.0001437465994947848 -0.002093025686350742 0 -0.00017976118909628376 -0.0023087475738388665 0 -0.00013160523248653157 -0.0020708853773595401 0 -0.00015807537102063265 -0.002204839042544017 0 -0.0002377060133941058 -0.0021378311570305337 0 -0.0001437465994947848 -0.002093025686350742 0 -0.00019678133116029072 -0.0021663443807932634 0 -0.00017976118909628376 -0.0023087475738388665 0 -0.00015807537102063265 -0.002204839042544017 0 -9.7807388589150638e-05 -0.0021718709774118275 0 -0.0001437465994947848 -0.002093025686350742 0 -0.0001437465994947848 -0.002093025686350742 0 -0.00010867842120395234 -0.0020390567293300365 0 -4.1295056042317349e-05 -0.0021184754807942623 0 -0.0001437465994947848 -0.002093025686350742 0 -0.00010867842120395234 -0.0020390567293300365 0 -0.00016048407478437326 -0.0020405041800552657 0 -0.00015358773962025185 -0.0021298864446569867 0 -0.00016048407478437326 -0.0020405041800552657 0 -0.00019152262708299104 -0.0019481142830139707 0 -0.00016048407478437326 -0.0020405041800552657 0 -0.00010954039081926225 -0.0019177744864499102 0 -0.00019152262708299104 -0.0019481142830139707 0 -0.00010867842120395234 -0.0020390567293300365 0 -0.00016048407478437326 -0.0020405041800552657 0 -0.00010954039081926225 -0.0019177744864499102 0 -3.8908228345804492e-05 -0.0019807066870529176 0 -1.7023029372913484e-05 -0.0018138697864426426 0 -0.00010954039081926225 -0.0019177744864499102 0 -0.00010867842120395234 -0.0020390567293300365 0 -3.8908228345804492e-05 -0.0019807066870529176 0 -0.00010954039081926225 -0.0019177744864499102 0 -3.8908228345804492e-05 -0.0019807066870529176 0 5.6129079919379583e-05 -0.0019224823278399029 0 -1.7023029372913484e-05 -0.0018138697864426426 0 1.8269832837837178e-05 -0.0020105512829130781 0 -3.8908228345804492e-05 -0.0019807066870529176 0 5.6129079919379583e-05 -0.0019224823278399029 0 -3.8301064280785682e-05 -0.0019862881741881558 0 -4.4828906571731305e-05 -0.0020918733735323736 0 -0.00010867842120395234 -0.0020390567293300365 0 -3.8908228345804492e-05 -0.0019807066870529176 0 -4.1295056042317349e-05 -0.0021184754807942623 0 -9.7807388589150638e-05 -0.0021718709774118275 0 -0.0001437465994947848 -0.002093025686350742 0 -4.1295056042317349e-05 -0.0021184754807942623 0 -5.3353955166358119e-05 -0.0022511169700970561 0 -9.7807388589150638e-05 -0.0021718709774118275 0 -4.1295056042317349e-05 -0.0021184754807942623 0 -4.6701378482115107e-05 -0.002066237628045307 0 2.3303033696931212e-05 -0.0021065221482921672 0 4.4959481052125571e-05 -0.002053802481652539 0 -6.7772666422911038e-05 -0.0022027655354983633 0 -4.6701378482115107e-05 -0.002066237628045307 0 2.3303033696931212e-05 -0.0021065221482921672 0 1.8269832837837178e-05 -0.0020105512829130781 0 -3.8908228345804492e-05 -0.0019807066870529176 0 -4.6701378482115107e-05 -0.002066237628045307 0 1.8269832837837178e-05 -0.0020105512829130781 0 -4.6701378482115107e-05 -0.002066237628045307 0 4.4959481052125571e-05 -0.002053802481652539 0 1.8269832837837178e-05 -0.0020105512829130781 0 8.4916576724262203e-05 -0.0020207950382396455 0 4.4959481052125571e-05 -0.002053802481652539 0 8.4916576724262203e-05 -0.0020207950382396455 0 4.4959481052125571e-05 -0.002053802481652539 0 9.2912064073590801e-05 -0.0020605311880323102 0 2.3303033696931212e-05 -0.0021065221482921672 0 4.4959481052125571e-05 -0.002053802481652539 0 9.2912064073590801e-05 -0.0020605311880323102 0 2.3303033696931212e-05 -0.0021065221482921672 0 9.2912064073590801e-05 -0.0020605311880323102 0 0.00010243635481443884 -0.0021033624916304634 0 0.00011242959729958825 -0.0019849874689460518 0 0.00011069041237051757 -0.0020434262403154903 0 9.5576584721989273e-05 -0.002059885319225018 0 9.2912064073590801e-05 -0.0020605311880323102 0 0.00011069041237051757 -0.0020434262403154903 0 9.5576584721989273e-05 -0.002059885319225018 0 8.3033088107389944e-05 -0.0020630431933053766 0 7.1574721491672155e-05 -0.0020539143751131593 0 8.4916576724262203e-05 -0.0020207950382396455 0 9.5576584721989273e-05 -0.002059885319225018 0 0.00013503710680762754 -0.0019821599431306589 0 9.6413246681059558e-05 -0.0015951717755424552 0 7.0900578529694652e-05 -0.0014474607455184181 0 8.4916576724262203e-05 -0.0020207950382396455 0 9.2912064073590801e-05 -0.0020605311880323102 0 9.5576584721989273e-05 -0.002059885319225018 0 8.4916576724262203e-05 -0.0020207950382396455 0 0.00013503710680762754 -0.0019821599431306589 0 5.6129079919379583e-05 -0.0019224823278399029 0 1.8269832837837178e-05 -0.0020105512829130781 0 8.4916576724262203e-05 -0.0020207950382396455 0 5.6129079919379583e-05 -0.0019224823278399029 0 7.0900578529694652e-05 -0.0014474607455184181 0 9.2047243697928937e-05 -0.0014164932485691575 0 0.00013503710680762754 -0.0019821599431306589 0 5.6129079919379583e-05 -0.0019224823278399029 0 0.00015603126669324198 -0.0018392768696221266 0 5.6129079919379583e-05 -0.0019224823278399029 0 0.00015603126669324198 -0.0018392768696221266 0 5.9457205363867727e-05 -0.0017344426307932463 0 5.6129079919379583e-05 -0.0019224823278399029 0 5.9457205363867727e-05 -0.0017344426307932463 0 -1.7023029372913484e-05 -0.0018138697864426426 0 5.9457205363867727e-05 -0.0017344426307932463 0 -1.4243477473219226e-05 -0.0016213334440157825 0 -1.7023029372913484e-05 -0.0018138697864426426 0 0.00015603126669324198 -0.0018392768696221266 0 5.9457205363867727e-05 -0.0017344426307932463 0 0.00016150757771953584 -0.0016364277310682599 0 9.2047243697928937e-05 -0.0014164932485691575 0 8.6870473872367195e-05 -0.0013281100752460348 0 5.9457205363867727e-05 -0.0017344426307932463 0 0.00016150757771953584 -0.0016364277310682599 0 2.7526656869566868e-05 -0.001506127946373344 0 8.6870473872367195e-05 -0.0013281100752460348 0 3.7266925666387857e-08 -0.0012463518780151336 0 2.7526656869566868e-05 -0.001506127946373344 0 -6.7644929435172152e-08 -0.0014323613747502868 0 3.2867966016354638e-07 -0.0012466667850727577 0 0.00016150757771953584 -0.0016364277310682599 0 2.7526656869566868e-05 -0.001506127946373344 0 3.2867966016354638e-07 -0.0012466667850727577 0 2.7526656869566868e-05 -0.001506127946373344 0 -6.7644929435172152e-08 -0.0014323613747502868 0 -1.4243477473219226e-05 -0.0016213334440157825 0 -6.7644929435172152e-08 -0.0014323613747502868 0 -1.4243477473219226e-05 -0.0016213334440157825 0 -9.8368441345424717e-08 -0.0016177621503366043 0 5.9457205363867727e-05 -0.0017344426307932463 0 2.7526656869566868e-05 -0.001506127946373344 0 -1.4243477473219226e-05 -0.0016213334440157825 0 -1.4243477473219226e-05 -0.0016213334440157825 0 -7.6638124478314612e-05 -0.0016518973974814289 0 -7.6382918000333859e-05 -0.0017601769582861338 0 -2.3797664299468754e-08 -0.001618285888087387 0 -2.8823227929415676e-05 -0.0018442096100651285 0 -1.4243477473219226e-05 -0.0016213334440157825 0 -9.8368441345424717e-08 -0.0016177621503366043 0 -7.6638124478314612e-05 -0.0016518973974814289 0 2.4197425128100085e-07 -0.001618531303381794 0 4.9076381208602332e-05 -0.0020216997162370953 0 -5.7526072143722517e-08 -0.0019101254532977203 0 -7.6638124478314612e-05 -0.0016518973974814289 0 -7.6382918000333859e-05 -0.0017601769582861338 0 -0.00015589069736245584 -0.0017865710992017469 0 -1.4243477473219226e-05 -0.0016213334440157825 0 -7.6382918000333859e-05 -0.0017601769582861338 0 -1.7023029372913484e-05 -0.0018138697864426426 0 -7.6382918000333859e-05 -0.0017601769582861338 0 -1.7023029372913484e-05 -0.0018138697864426426 0 -0.00010954039081926225 -0.0019177744864499102 0 -0.00010954039081926225 -0.0019177744864499102 0 -0.00019152262708299104 -0.0019481142830139707 0 -0.00015589069736245584 -0.0017865710992017469 0 -0.00015390555751132467 -0.0021120342921630919 0 -9.028176111888741e-05 -0.0020150826182978501 0 -0.00013651420983788008 -0.0022955300974789967 0 -2.3935746741120965e-05 -0.0022561740924631072 0 -0.00010089588991243244 -0.0023086921375920417 0 -7.6382918000333859e-05 -0.0017601769582861338 0 -0.00010954039081926225 -0.0019177744864499102 0 -0.00015589069736245584 -0.0017865710992017469 0 4.9076381208602332e-05 -0.0020216997162370953 0 -2.3935746741120965e-05 -0.0022561740924631072 0 -4.3434670605350179e-05 -0.0021601095440723045 0 -2.8823227929415676e-05 -0.0018442096100651285 0 -9.028176111888741e-05 -0.0020150826182978501 0 4.9076381208602332e-05 -0.0020216997162370953 0 -5.7526072143722517e-08 -0.0019101254532977203 0 -4.3434670605350179e-05 -0.0021601095440723045 0 -5.7526072143722517e-08 -0.0019101254532977203 0 -4.3434670605350179e-05 -0.0021601095440723045 0 -1.1516766599067263e-07 -0.0022020333115344475 0 -2.3935746741120965e-05 -0.0022561740924631072 0 -4.3434670605350179e-05 -0.0021601095440723045 0 -0.00010089588991243244 -0.0023086921375920417 0 -4.3434670605350179e-05 -0.0021601095440723045 0 -1.1516766599067263e-07 -0.0022020333115344475 0 -6.465020008890592e-05 -0.0023996903253153353 0 -4.3434670605350179e-05 -0.0021601095440723045 0 -6.465020008890592e-05 -0.0023996903253153353 0 -0.00010089588991243244 -0.0023086921375920417 0 -1.1516766599067263e-07 -0.0022020333115344475 0 -6.610622620313905e-08 -0.0024938365165697654 0 -6.465020008890592e-05 -0.0023996903253153353 0 -6.465020008890592e-05 -0.0023996903253153353 0 -0.00010089588991243244 -0.0023086921375920417 0 -7.8081727543120083e-05 -0.0023341308513582858 0 -0.00015358773962025185 -0.0021298864446569867 0 -0.00013651420983788008 -0.0022955300974789967 0 -7.8081727543120083e-05 -0.0023341308513582858 0 -0.00013651420983788008 -0.0022955300974789967 0 -0.00010089588991243244 -0.0023086921375920417 0 -7.8081727543120083e-05 -0.0023341308513582858 0 0.00034675558854840231 0.001015452033272361 0 0.00051434140119976154 0.0008297697505686881 0 0.0003902619363454706 0.00082112095728171933 0 0.00034675558854840231 0.001015452033272361 0 0.00038586063584192563 0.0010781517413583931 0 0.00038155700267891816 0.0010732406298384852 0 0.00034213976127214877 0.0010235439611821166 0 0.00045947846402162818 0.00093040102169819193 0 0.00034675558854840231 0.001015452033272361 0 0.0003902619363454706 0.00082112095728171933 0 0.00027175288901401225 0.00082729596043361645 0 0.00034675558854840231 0.001015452033272361 0 0.00027175288901401225 0.00082729596043361645 0 0.0001288501149961234 0.00095141707983495308 0 0.00016974138951005301 0.00037104714928693161 0 4.4386244710703271e-05 0.0001622748301438478 0 -2.2151201645552945e-05 -0.00040156835819942405 0 2.0731047005381316e-05 -0.00034901825772078377 0 2.9233037338800234e-05 -0.00041402370681310578 0 0.00034675558854840231 0.001015452033272361 0 0.00034947705599103326 0.0011074920522016183 0 0.0001288501149961234 0.00095141707983495308 0 0.00034947705599103326 0.0011074920522016183 0 0.0003824882357834725 0.0010871282519546019 0 0.00038520022990924901 0.0010966150291187892 0 0.00034675558854840231 0.001015452033272361 0 0.0003824882357834725 0.0010871282519546019 0 0.00038586063584192563 0.0010781517413583931 0 0.00034675558854840231 0.001015452033272361 0 0.00034947705599103326 0.0011074920522016183 0 0.0003824882357834725 0.0010871282519546019 0 0.00039338419768260589 0.0010994811128772898 0 0.0003824882357834725 0.0010871282519546019 0 0.00038520022990924901 0.0010966150291187892 0 0.00039338419768260589 0.0010994811128772898 0 0.0003824882357834725 0.0010871282519546019 0 0.00038586063584192563 0.0010781517413583931 0 0.00039338419768260589 0.0010994811128772898 0 0.0003853788723036402 0.0011064460151745609 0 0.00038520022990924901 0.0010966150291187892 0 0.00039338419768260589 0.0010994811128772898 0 0.0003853788723036402 0.0011064460151745609 0 0.00038642178309805181 0.0011202016283978606 0 0.00038642178309805181 0.0011202016283978606 0 0.00040329652347973399 0.0011031054732718413 0 0.000381847848262415 0.0011494836167507869 0 0.00039338419768260589 0.0010994811128772898 0 0.00038642178309805181 0.0011202016283978606 0 0.00040329652347973399 0.0011031054732718413 0 0.00039338419768260589 0.0010994811128772898 0 0.00038586063584192563 0.0010781517413583931 0 0.00040329652347973399 0.0011031054732718413 0 0.00038586063584192563 0.0010781517413583931 0 0.00040329652347973399 0.0011031054732718413 0 0.00038155700267891816 0.0010732406298384852 0 0.00045947846402162818 0.00093040102169819193 0 0.0004572188300211703 0.0010289396920918426 0 0.00051434140119976154 0.0008297697505686881 0 0.00051941138042292613 0.00068215525414402054 0 0.00061424373605000544 0.00069483937551461717 0 0.00040329652347973399 0.0011031054732718413 0 0.00038155700267891816 0.0010732406298384852 0 0.000420618985487698 0.001045926633463575 0 0.00051434140119976154 0.0008297697505686881 0 0.00051941138042292613 0.00068215525414402054 0 0.00042704594463145799 0.00070002272792821371 0 0.00041022581425376636 0.0011797704238296646 0 0.00038331348509178665 0.0012121263335538261 0 0.00037908938366508016 0.0011841767203629864 0 0.00039525185742671773 0.0011396975092670359 0 0.0004572188300211703 0.0010289396920918426 0 0.00040329652347973399 0.0011031054732718413 0 0.00041022581425376636 0.0011797704238296646 0 0.000381847848262415 0.0011494836167507869 0 0.00041022581425376636 0.0011797704238296646 0 0.000381847848262415 0.0011494836167507869 0 0.00037908938366508016 0.0011841767203629864 0 0.0004572188300211703 0.0010289396920918426 0 0.0003761824172472312 0.0012330649727644561 0 0.00036616078579385195 0.001163189724496552 0 0.00035079757788093068 0.0012549116369910554 0 0.00042563348270500322 0.0012012649609629323 0 0.00060652962919260044 0.00054464882911091914 0 0.00061424373605000544 0.00069483937551461717 0 0.00057599762993936138 0.00058035188048782328 0 0.00048903908402787486 0.00083816185670702436 0 0.0004572188300211703 0.0010289396920918426 0 0.00061424373605000544 0.00069483937551461717 0 0.00057599762993936138 0.00058035188048782328 0 0.00054897000817377771 0.00060949904408143306 0 0.00041811751419353304 0.0011666861493115257 0 0.00036616078579385195 0.001163189724496552 0 0.00042563348270500322 0.0012012649609629323 0 0.00051941138042292613 0.00068215525414402054 0 0.00054897000817377771 0.00060949904408143306 0 0.00048895073932749933 0.00057592652555797793 0 0.00051941138042292613 0.00068215525414402054 0 0.00048895073932749933 0.00057592652555797793 0 0.0004645130879091151 0.00063312620500901424 0 0.00051941138042292613 0.00068215525414402054 0 0.00061424373605000544 0.00069483937551461717 0 0.00054897000817377771 0.00060949904408143306 0 0.00054166737740616905 0.00053610904210672338 0 0.00054897000817377771 0.00060949904408143306 0 0.00048895073932749933 0.00057592652555797793 0 0.00054166737740616905 0.00053610904210672338 0 0.00057599762993936138 0.00058035188048782328 0 0.00054897000817377771 0.00060949904408143306 0 0.00048895073932749933 0.00057592652555797793 0 0.00041591041485298402 0.00058229191175658947 0 0.0004645130879091151 0.00063312620500901424 0 0.00041900966909242337 0.00051050587200139488 0 0.00048895073932749933 0.00057592652555797793 0 0.00041591041485298402 0.00058229191175658947 0 0.00041900966909242337 0.00051050587200139488 0 0.00041591041485298402 0.00058229191175658947 0 0.00033911187555171746 0.00052702101276811428 0 0.00041591041485298402 0.00058229191175658947 0 0.0003338654817207975 0.0006877717453988351 0 0.00033911187555171746 0.00052702101276811428 0 0.00041591041485298402 0.00058229191175658947 0 0.00042704594463145799 0.00070002272792821371 0 0.0003338654817207975 0.0006877717453988351 0 0.00041591041485298402 0.00058229191175658947 0 0.0004645130879091151 0.00063312620500901424 0 0.00042704594463145799 0.00070002272792821371 0 0.00051941138042292613 0.00068215525414402054 0 0.0004645130879091151 0.00063312620500901424 0 0.00042704594463145799 0.00070002272792821371 0 0.00042704594463145799 0.00070002272792821371 0 0.0003902619363454706 0.00082112095728171933 0 0.0003338654817207975 0.0006877717453988351 0 0.00051434140119976154 0.0008297697505686881 0 0.00042704594463145799 0.00070002272792821371 0 0.0003902619363454706 0.00082112095728171933 0 0.00027175288901401225 0.00082729596043361645 0 0.0001654726610334495 0.00065493990613629902 0 0.0001288501149961234 0.00095141707983495308 0 0.0003902619363454706 0.00082112095728171933 0 0.00027175288901401225 0.00082729596043361645 0 0.0003338654817207975 0.0006877717453988351 0 0.00027175288901401225 0.00082729596043361645 0 0.0003338654817207975 0.0006877717453988351 0 0.0001654726610334495 0.00065493990613629902 0 -8.3118340004993923e-06 0.0003624509600000861 0 0.0001654726610334495 0.00065493990613629902 0 0.00033911187555171746 0.00052702101276811428 0 0.0003338654817207975 0.0006877717453988351 0 0.0001654726610334495 0.00065493990613629902 0 0.00033911187555171746 0.00052702101276811428 0 -8.3118340004993923e-06 0.0003624509600000861 0 0.0001654726610334495 0.00065493990613629902 0 -9.7777790816251184e-05 0.00056021803574752053 0 -0.00034733812390343654 0.00034608993007804534 0 -8.3118340004993923e-06 0.0003624509600000861 0 -9.7777790816251184e-05 0.00056021803574752053 0 -0.00034733812390343654 0.00034608993007804534 0 -9.7777790816251184e-05 0.00056021803574752053 0 -0.00020481489305302237 0.00087483456688809593 0 -0.00041816894296488625 -1.452903988749954e-06 0 -0.00036245707537663137 0.00023138728322752531 0 -0.00050153489820467642 0.00010486406596034804 0 -0.00038704419695262328 0.00030751872506786648 0 -0.00014464693795136158 -6.5330195131823148e-05 0 -1.6172364442245425e-05 -0.00093982557648334796 0 -5.2630619078409602e-06 -0.00093491108228280911 0 -6.034672410218834e-06 -0.00094264245646531546 0 -0.00014464693795136158 -6.5330195131823148e-05 0 -0.00028418001794287411 -0.00046520387452800543 0 -1.6172364442245425e-05 -0.00093982557648334796 0 -6.034672410218834e-06 -0.00094264245646531546 0 -6.6151776055822951e-06 -0.00095130130974186594 0 0.0001654726610334495 0.00065493990613629902 0 -9.7777790816251184e-05 0.00056021803574752053 0 -0.00020481489305302237 0.00087483456688809593 0 0.00014200675776459399 0.0010321296951909741 0 4.4386244710703271e-05 0.0001622748301438478 0 0.0001654726610334495 0.00065493990613629902 0 -0.00020481489305302237 0.00087483456688809593 0 5.7903446569736401e-05 0.0011166744475156649 0 2.7819190857933574e-06 -0.00093128702856457913 0 1.2163695717314139e-05 -0.00094055048069377001 0 4.2265906665978783e-06 -0.00094501705330125862 0 -0.00052684796979826436 -6.7653709436318757e-05 0 -0.00041816894296488625 -1.452903988749954e-06 0 -0.00050153489820467642 0.00010486406596034804 0 2.7819190857933574e-06 -0.00093128702856457913 0 -5.2630619078409602e-06 -0.00093491108228280911 0 4.2265906665978783e-06 -0.00094501705330125862 0 -0.00031314590631393918 -0.00042078959824123105 0 -0.00028418001794287411 -0.00046520387452800543 0 -5.2630619078409602e-06 -0.00093491108228280911 0 -6.034672410218834e-06 -0.00094264245646531546 0 4.2265906665978783e-06 -0.00094501705330125862 0 -6.034672410218834e-06 -0.00094264245646531546 0 4.2265906665978783e-06 -0.00094501705330125862 0 -6.6151776055822951e-06 -0.00095130130974186594 0 1.2163695717314139e-05 -0.00094055048069377001 0 1.9743067474884909e-05 -0.00095897560052429266 0 4.2265906665978783e-06 -0.00094501705330125862 0 1.9743067474884909e-05 -0.00095897560052429266 0 4.2265906665978783e-06 -0.00094501705330125862 0 7.9446748629727479e-06 -0.00096161495042324636 0 4.2265906665978783e-06 -0.00094501705330125862 0 7.9446748629727479e-06 -0.00096161495042324636 0 -6.6151776055822951e-06 -0.00095130130974186594 0 7.9446748629727479e-06 -0.00096161495042324636 0 -6.6151776055822951e-06 -0.00095130130974186594 0 -1.8891543890687203e-06 -0.00097069001915124165 0 1.9743067474884909e-05 -0.00095897560052429266 0 2.5896561738666678e-05 -0.00098742458958329515 0 7.9446748629727479e-06 -0.00096161495042324636 0 2.5896561738666678e-05 -0.00098742458958329515 0 7.9446748629727479e-06 -0.00096161495042324636 0 -1.8891543890687203e-06 -0.00097069001915124165 0 -2.8051223612922015e-06 -0.00085271191099624689 0 -7.4206246544766794e-05 -0.00084508078300494463 0 -2.9150375407559518e-05 -0.00094461819233714387 0 -0.00014464693795136158 -6.5330195131823148e-05 0 4.4386244710703271e-05 0.0001622748301438478 0 2.1539139827719239e-05 -0.00073082618126109247 0 -2.8051223612922015e-06 -0.00085271191099624689 0 -7.4206246544766794e-05 -0.00084508078300494463 0 -1.6172364442245425e-05 -0.00093982557648334796 0 -6.6151776055822951e-06 -0.00095130130974186594 0 -2.0042275860750803e-05 -0.00095089734276458031 0 -0.00014464693795136158 -6.5330195131823148e-05 0 -4.8452304430016219e-05 -0.0010095103651019419 0 -6.6151776055822951e-06 -0.00095130130974186594 0 -2.0042275860750803e-05 -0.00095089734276458031 0 -1.4778865558221041e-05 -0.0009579580400064662 0 -2.0042275860750803e-05 -0.00095089734276458031 0 -1.4778865558221041e-05 -0.0009579580400064662 0 -2.9150375407559518e-05 -0.00094461819233714387 0 -6.6151776055822951e-06 -0.00095130130974186594 0 -1.8891543890687203e-06 -0.00097069001915124165 0 -1.4778865558221041e-05 -0.0009579580400064662 0 -1.8891543890687203e-06 -0.00097069001915124165 0 -1.4778865558221041e-05 -0.0009579580400064662 0 -1.3671283437004077e-05 -0.00097510913280413416 0 -1.4778865558221041e-05 -0.0009579580400064662 0 -1.3671283437004077e-05 -0.00097510913280413416 0 -2.9150375407559518e-05 -0.00094461819233714387 0 -1.3671283437004077e-05 -0.00097510913280413416 0 -2.9150375407559518e-05 -0.00094461819233714387 0 -3.1315441574976041e-05 -0.00099591873038128143 0 4.4386244710703271e-05 0.0001622748301438478 0 3.8470435936522237e-06 -0.00087262381577406733 0 -7.4206246544766794e-05 -0.00084508078300494463 0 -2.9150375407559518e-05 -0.00094461819233714387 0 -3.1315441574976041e-05 -0.00099591873038128143 0 -4.8452304430016219e-05 -0.0010095103651019419 0 -1.8334822002145744e-05 -0.0009064047712146557 0 -1.3671283437004077e-05 -0.00097510913280413416 0 -3.1315441574976041e-05 -0.00099591873038128143 0 -8.9799336253639545e-06 -0.0010012499006887775 0 -1.8891543890687203e-06 -0.00097069001915124165 0 -1.3671283437004077e-05 -0.00097510913280413416 0 -8.9799336253639545e-06 -0.0010012499006887775 0 -8.9799336253639545e-06 -0.0010012499006887775 0 -2.2279010686785239e-05 -0.0010172923049477098 0 2.6470172471663766e-06 -0.0010226288610528773 0 -3.1315441574976041e-05 -0.00099591873038128143 0 -8.9799336253639545e-06 -0.0010012499006887775 0 2.6470172471663766e-06 -0.0010226288610528773 0 2.9233037338800234e-05 -0.00041402370681310578 0 4.6970420022590424e-05 -0.00049936919024159802 0 -2.4919632329628593e-05 -0.00044463941084398371 0 3.8470435936522237e-06 -0.00087262381577406733 0 1.5207414616883478e-05 -0.00071982465620971697 0 2.5896561738666678e-05 -0.00098742458958329515 0 -1.8891543890687203e-06 -0.00097069001915124165 0 -8.9799336253639545e-06 -0.0010012499006887775 0 2.5896561738666678e-05 -0.00098742458958329515 0 2.7528973598114965e-05 -0.0010115242809994806 0 -8.9799336253639545e-06 -0.0010012499006887775 0 2.7528973598114965e-05 -0.0010115242809994806 0 -8.9799336253639545e-06 -0.0010012499006887775 0 -2.2279010686785239e-05 -0.0010172923049477098 0 2.7528973598114965e-05 -0.0010115242809994806 0 -2.2279010686785239e-05 -0.0010172923049477098 0 -2.3594395335118396e-05 -0.001071796425083601 0 -2.2279010686785239e-05 -0.0010172923049477098 0 -2.3031916039662761e-05 -0.00097749844297510997 0 -2.3594395335118396e-05 -0.001071796425083601 0 -2.3031916039662761e-05 -0.00097749844297510997 0 -1.5868547772371808e-07 -0.00096740652922516312 0 -2.3594395335118396e-05 -0.001071796425083601 0 -1.5868547772371808e-07 -0.00096740652922516312 0 1.5719164266620406e-07 -0.0012459001040238241 0 -2.3594395335118396e-05 -0.001071796425083601 0 2.7528973598114965e-05 -0.0010115242809994806 0 1.5719164266620406e-07 -0.0012459001040238241 0 -2.3594395335118396e-05 -0.001071796425083601 0 -2.2279010686785239e-05 -0.0010172923049477098 0 -2.3031916039662761e-05 -0.00097749844297510997 0 2.6470172471663766e-06 -0.0010226288610528773 0 1.5207414616883478e-05 -0.00071982465620971697 0 7.5357072162837438e-06 -0.00084299353449051565 0 -2.3031916039662761e-05 -0.00097749844297510997 0 2.6470172471663766e-06 -0.0010226288610528773 0 1.5804822765004778e-07 -0.00083803125984104347 0 -2.3031916039662761e-05 -0.00097749844297510997 0 -1.5868547772371808e-07 -0.00096740652922516312 0 1.5804822765004778e-07 -0.00083803125984104347 0 4.6970420022590424e-05 -0.00049936919024159802 0 2.8108559454343065e-07 -0.00083709205261569143 0 -9.8190905254426775e-08 -0.00068862903987547755 0 4.6970420022590424e-05 -0.00049936919024159802 0 -9.8190905254426775e-08 -0.00068862903987547755 0 -2.7897220473288518e-05 -0.00049638659932151866 0 -9.8190905254426775e-08 -0.00068862903987547755 0 -1.3729139304510819e-07 -0.00040936638055186328 0 -2.7897220473288518e-05 -0.00049638659932151866 0 -1.3729139304510819e-07 -0.00040936638055186328 0 -3.2619356473770878e-05 -0.00039814661255685462 0 -2.7897220473288518e-05 -0.00049638659932151866 0 -3.2619356473770878e-05 -0.00039814661255685462 0 -2.7897220473288518e-05 -0.00049638659932151866 0 -2.4919632329628593e-05 -0.00044463941084398371 0 4.6970420022590424e-05 -0.00049936919024159802 0 -2.7897220473288518e-05 -0.00049638659932151866 0 -2.4919632329628593e-05 -0.00044463941084398371 0 -3.2619356473770878e-05 -0.00039814661255685462 0 -2.4919632329628593e-05 -0.00044463941084398371 0 -1.575216679024271e-05 -0.00043925718608085502 0 -2.2151201645552945e-05 -0.00040156835819942405 0 -2.4919632329628593e-05 -0.00044463941084398371 0 -1.575216679024271e-05 -0.00043925718608085502 0 0.00016974138951005301 0.00037104714928693161 0 0.0002010623983592449 0.00033248738368437292 0 -2.2151201645552945e-05 -0.00040156835819942405 0 2.9233037338800234e-05 -0.00041402370681310578 0 -2.4919632329628593e-05 -0.00044463941084398371 0 0.00034671428795837961 0.0010661312177531563 0 0.00038520022990924901 0.0010966150291187892 0 0.00026822899356588096 0.0010661111798122111 0 0.0003853788723036402 0.0011064460151745609 0 0.00038520022990924901 0.0010966150291187892 0 0.00037886738267609656 0.0010923686422545894 0 0.000408180833572719 0.0011257369691339244 0 0.00027087127309765723 0.00097421037334569148 0 0.00034947705599103326 0.0011074920522016183 0 0.00038520022990924901 0.0010966150291187892 0 0.00039023222152285937 0.0010711299116202087 0 0.00034671428795837961 0.0010661312177531563 0 0.00038520022990924901 0.0010966150291187892 0 0.00039023222152285937 0.0010711299116202087 0 0.00034671428795837961 0.0010661312177531563 0 0.00039023222152285937 0.0010711299116202087 0 0.00033182883283637202 0.0010386189969028492 0 0.00039023222152285937 0.0010711299116202087 0 0.00033182883283637202 0.0010386189969028492 0 0.00030336876926365363 0.00095030278849192386 0 0.00033182883283637202 0.0010386189969028492 0 0.00030336876926365363 0.00095030278849192386 0 0.00026822899356588096 0.0010661111798122111 0 0.00034671428795837961 0.0010661312177531563 0 0.00033182883283637202 0.0010386189969028492 0 0.00026822899356588096 0.0010661111798122111 0 0.0002010623983592449 0.00033248738368437292 0 0.00012132641099564252 0.00019180922343030635 0 0.00012132641099564252 0.00019180922343030635 0 0.00027087127309765723 0.00097421037334569148 0 0.00012132641099564252 0.00019180922343030635 0 7.3585142718193892e-05 0.0002006023832568194 0 -3.2619356473770878e-05 -0.00039814661255685462 0 -1.575216679024271e-05 -0.00043925718608085502 0 8.7979728282748418e-05 -0.00037652399601950887 0 -3.2619356473770878e-05 -0.00039814661255685462 0 8.7979728282748418e-05 -0.00037652399601950887 0 2.0764271118087315e-07 -0.00013120216670277335 0 -1.3729139304510819e-07 -0.00040936638055186328 0 -3.2619356473770878e-05 -0.00039814661255685462 0 2.0764271118087315e-07 -0.00013120216670277335 0 2.9412737320096338e-07 -0.00013022803767629692 0 -6.8609605210541308e-06 0.00017456645123867113 0 2.2450431183161059e-05 0.00021574186502440246 0 9.4544781907225675e-05 0.00028267161692548961 0 2.9412737320096338e-07 -0.00013022803767629692 0 2.2450431183161059e-05 0.00021574186502440246 0 0.00012132641099564252 0.00019180922343030635 0 7.8276798738875736e-08 -0.00013090155289980631 0 2.9412737320096338e-07 -0.00013022803767629692 0 -6.8609605210541308e-06 0.00017456645123867113 0 -1.1115335234620677e-07 0.0001135033948941815 0 -6.8609605210541308e-06 0.00017456645123867113 0 -1.1115335234620677e-07 0.0001135033948941815 0 -2.6804171536213761e-05 0.00028577556546107591 0 -1.1115335234620677e-07 0.0001135033948941815 0 -2.6804171536213761e-05 0.00028577556546107591 0 -5.0800063204938254e-08 0.00035759975489007206 0 -2.6804171536213761e-05 0.00028577556546107591 0 -1.7560467278041701e-05 0.00027146890619874009 0 -3.9604538876140497e-05 0.00032999457562820213 0 -1.7560467278041701e-05 0.00027146890619874009 0 4.767399469791598e-06 0.00030482636836389864 0 -3.9604538876140497e-05 0.00032999457562820213 0 -2.6804171536213761e-05 0.00028577556546107591 0 -1.9829207657557409e-05 0.00040451133673116224 0 -3.9604538876140497e-05 0.00032999457562820213 0 2.2450431183161059e-05 0.00021574186502440246 0 -1.7560467278041701e-05 0.00027146890619874009 0 4.767399469791598e-06 0.00030482636836389864 0 6.0834147018878314e-05 0.00025975455925296355 0 2.2450431183161059e-05 0.00021574186502440246 0 4.767399469791598e-06 0.00030482636836389864 0 -6.8609605210541308e-06 0.00017456645123867113 0 -2.6804171536213761e-05 0.00028577556546107591 0 -1.7560467278041701e-05 0.00027146890619874009 0 -6.8609605210541308e-06 0.00017456645123867113 0 2.2450431183161059e-05 0.00021574186502440246 0 -1.7560467278041701e-05 0.00027146890619874009 0 1.1533552702546613e-08 0.0006018030126618679 0 -1.9829207657557409e-05 0.00040451133673116224 0 -1.1000815069765749e-06 0.00047653856823838835 0 1.1533552702546613e-08 0.0006018030126618679 0 -1.9829207657557409e-05 0.00040451133673116224 0 -5.0800063204938254e-08 0.00035759975489007206 0 -2.6804171536213761e-05 0.00028577556546107591 0 -1.9829207657557409e-05 0.00040451133673116224 0 -5.0800063204938254e-08 0.00035759975489007206 0 -1.9829207657557409e-05 0.00040451133673116224 0 -1.1000815069765749e-06 0.00047653856823838835 0 -3.9604538876140497e-05 0.00032999457562820213 0 0.00011000391994865885 0.00075456403484978841 0 0.00012519413884115114 0.00067268014616588163 0 0.00024172562235518768 0.0010129742624659904 0 0.00020971925537540832 0.0011511241024669144 0 0.00014022214624084445 0.0011113161545120377 0 0.00024172562235518768 0.0010129742624659904 0 0.00027722955818240843 0.0011065892555840032 0 0.00020971925537540832 0.0011511241024669144 0 0.00027722955818240843 0.0011065892555840032 0 0.00029938992536849212 0.0011735127313109745 0 0.00033708114094170235 0.0010866015995637667 0 0.00024172562235518768 0.0010129742624659904 0 0.00027722955818240843 0.0011065892555840032 0 0.00033708114094170235 0.0010866015995637667 0 0.00027722955818240843 0.0011065892555840032 0 0.00029938992536849212 0.0011735127313109745 0 0.00020971925537540832 0.0011511241024669144 0 0.00029938992536849212 0.0011735127313109745 0 0.00020971925537540832 0.0011511241024669144 0 0.00014303856190485634 0.0012379934518115527 0 0.00031584372835811504 0.0011530450373290141 0 0.00020766470056631601 0.0011973491456859582 0 4.767399469791598e-06 0.00030482636836389864 0 -3.9604538876140497e-05 0.00032999457562820213 0 2.4334992045170131e-05 0.00035458211667828107 0 0.00033708114094170235 0.0010866015995637667 0 0.00037393913616792036 0.0011217718606029048 0 0.00038844594338256988 0.0011184497268268796 0 6.0834147018878314e-05 0.00025975455925296355 0 4.767399469791598e-06 0.00030482636836389864 0 2.4334992045170131e-05 0.00035458211667828107 0 0.00012519413884115114 0.00067268014616588163 0 0.00027087127309765723 0.00097421037334569148 0 0.00029938992536849212 0.0011735127313109745 0 0.00033708114094170235 0.0010866015995637667 0 0.00037393913616792036 0.0011217718606029048 0 0.00031584372835811504 0.0011530450373290141 0 0.00037043712006410427 0.0011253169152155697 0 0.00033417683479732669 0.0011327128786826435 0 0.00037393913616792036 0.0011217718606029048 0 0.00035351053855103522 0.0011405186461461994 0 0.00037393913616792036 0.0011217718606029048 0 0.00037080832991800115 0.0011307830184542787 0 0.00035351053855103522 0.0011405186461461994 0 0.00037393913616792036 0.0011217718606029048 0 0.00038844594338256988 0.0011184497268268796 0 0.00037080832991800115 0.0011307830184542787 0 0.0003853788723036402 0.0011064460151745609 0 0.00037886738267609656 0.0010923686422545894 0 0.00037080832991800115 0.0011307830184542787 0 0.00027087127309765723 0.00097421037334569148 0 0.00039156832486039641 0.0011740633618021303 0 0.00038642178309805181 0.0011202016283978606 0 0.00037080832991800115 0.0011307830184542787 0 0.00036734047447361319 0.0011518026045746073 0 0.0003853788723036402 0.0011064460151745609 0 0.00038642178309805181 0.0011202016283978606 0 0.00037080832991800115 0.0011307830184542787 0 0.000381847848262415 0.0011494836167507869 0 0.00036734047447361319 0.0011518026045746073 0 0.00035916929534689424 0.0011785393463690261 0 0.00038642178309805181 0.0011202016283978606 0 0.000381847848262415 0.0011494836167507869 0 0.00036734047447361319 0.0011518026045746073 0 0.00037080832991800115 0.0011307830184542787 0 0.00036734047447361319 0.0011518026045746073 0 0.00034816199184399055 0.0011610918459574789 0 0.00034816199184399055 0.0011610918459574789 0 0.0003338235405707672 0.0011933714412088107 0 0.00035916929534689424 0.0011785393463690261 0 0.00036734047447361319 0.0011518026045746073 0 0.00034816199184399055 0.0011610918459574789 0 0.00035916929534689424 0.0011785393463690261 0 0.00037080832991800115 0.0011307830184542787 0 0.00034816199184399055 0.0011610918459574789 0 0.00035351053855103522 0.0011405186461461994 0 0.00033417683479732669 0.0011327128786826435 0 0.00035351053855103522 0.0011405186461461994 0 0.00033007630438883082 0.0011631269910803187 0 0.00033417683479732669 0.0011327128786826435 0 0.00033007630438883082 0.0011631269910803187 0 0.00030399820306646266 0.0011825913331407149 0 0.00034816199184399055 0.0011610918459574789 0 0.00035351053855103522 0.0011405186461461994 0 0.00033007630438883082 0.0011631269910803187 0 0.00033417683479732669 0.0011327128786826435 0 0.00030399820306646266 0.0011825913331407149 0 0.00027872806764186493 0.0011557961738851055 0 0.00030399820306646266 0.0011825913331407149 0 0.00031269795617065878 0.0011957541066782498 0 0.00028099950039550101 0.0012192399773974993 0 0.00033007630438883082 0.0011631269910803187 0 0.00030399820306646266 0.0011825913331407149 0 0.00031269795617065878 0.0011957541066782498 0 0.00031269795617065878 0.0011957541066782498 0 0.00028099950039550101 0.0012192399773974993 0 0.00029083728475004007 0.0012154856805377621 0 0.00034816199184399055 0.0011610918459574789 0 0.00033007630438883082 0.0011631269910803187 0 0.00031269795617065878 0.0011957541066782498 0 0.00034816199184399055 0.0011610918459574789 0 0.00031269795617065878 0.0011957541066782498 0 0.0003338235405707672 0.0011933714412088107 0 0.0003338235405707672 0.0011933714412088107 0 0.00030420013814910844 0.0012176657533388303 0 0.00034255390082840915 0.0012114731582235287 0 0.00031269795617065878 0.0011957541066782498 0 0.0003338235405707672 0.0011933714412088107 0 0.00030420013814910844 0.0012176657533388303 0 0.00031269795617065878 0.0011957541066782498 0 0.00030420013814910844 0.0012176657533388303 0 0.00029083728475004007 0.0012154856805377621 0 0.00030420013814910844 0.0012176657533388303 0 0.00029083728475004007 0.0012154856805377621 0 0.00028220844694010981 0.0012183734803360572 0 0.00030420013814910844 0.0012176657533388303 0 0.00031761490244768258 0.0012401263628133658 0 0.00028513476415004108 0.0012433251813074133 0 0.00035557611382284283 0.0012271165923887133 0 0.0003279184734491138 0.0014024860671093395 0 0.00034255390082840915 0.0012114731582235287 0 0.00031761490244768258 0.0012401263628133658 0 0.00037678599411976218 0.0012241849657884281 0 0.00030420013814910844 0.0012176657533388303 0 0.00034255390082840915 0.0012114731582235287 0 0.00031761490244768258 0.0012401263628133658 0 0.00035557611382284283 0.0012271165923887133 0 0.00037512499679722816 0.0012318747260936069 0 0.00034255390082840915 0.0012114731582235287 0 0.00037678599411976218 0.0012241849657884281 0 0.0003702058002147203 0.0012004005296643661 0 0.00037678599411976218 0.0012241849657884281 0 0.00037801985023956696 0.0012159486661875831 0 0.0003702058002147203 0.0012004005296643661 0 0.00037678599411976218 0.0012241849657884281 0 0.00037801985023956696 0.0012159486661875831 0 0.00038325395873921422 0.0012257329176639249 0 0.00037801985023956696 0.0012159486661875831 0 0.00038331348509178665 0.0012121263335538261 0 0.00038325395873921422 0.0012257329176639249 0 0.00042563348270500322 0.0012012649609629323 0 0.00038325395873921422 0.0012257329176639249 0 0.00040812412405825677 0.0012086323801601653 0 0.0003761824172472312 0.0012330649727644561 0 0.00039480688299997754 0.0012157532960224136 0 0.00041811751419353304 0.0011666861493115257 0 0.00042563348270500322 0.0012012649609629323 0 0.00041741906624992263 0.001194232833376867 0 0.00042563348270500322 0.0012012649609629323 0 0.00041741906624992263 0.001194232833376867 0 0.00040812412405825677 0.0012086323801601653 0 0.00037801985023956696 0.0012159486661875831 0 0.00038331348509178665 0.0012121263335538261 0 0.0003702058002147203 0.0012004005296643661 0 0.00038331348509178665 0.0012121263335538261 0 0.00037908938366508016 0.0011841767203629864 0 0.0003702058002147203 0.0012004005296643661 0 0.00037908938366508016 0.0011841767203629864 0 0.00035916929534689424 0.0011785393463690261 0 0.0003702058002147203 0.0012004005296643661 0 0.000381847848262415 0.0011494836167507869 0 0.00037908938366508016 0.0011841767203629864 0 0.00035916929534689424 0.0011785393463690261 0 0.0003338235405707672 0.0011933714412088107 0 0.00034255390082840915 0.0012114731582235287 0 0.00035916929534689424 0.0011785393463690261 0 0.00034255390082840915 0.0012114731582235287 0 0.00035916929534689424 0.0011785393463690261 0 0.0003702058002147203 0.0012004005296643661 0 0.0001538325756633847 0.0015823107608121719 0 0.00015978769917518839 0.001538954280440168 0 0.00015770493694390418 0.0015855849026530321 0 0.0001538325756633847 0.0015823107608121719 0 0.00015286545651512892 0.0015973490361212805 0 0.00015770493694390418 0.0015855849026530321 0 0.0001538325756633847 0.0015823107608121719 0 0.00015139873540101812 0.0016010927253301002 0 0.0001508262396636131 0.0015996364700441416 0 0.0001538325756633847 0.0015823107608121719 0 0.00015286545651512892 0.0015973490361212805 0 0.00015139873540101812 0.0016010927253301002 0 0.00015286545651512892 0.0015973490361212805 0 0.00015064288963504013 0.0016217577875466817 0 0.00015139873540101812 0.0016010927253301002 0 0.00015286545651512892 0.0015973490361212805 0 0.00015064288963504013 0.0016217577875466817 0 0.000140910304335387 0.0015902753768149954 0 0.00015064288963504013 0.0016217577875466817 0 0.00015416098312527994 0.0016073551938313583 0 0.00017509565602670768 0.0016230418212026267 0 0.00015064288963504013 0.0016217577875466817 0 0.00015139873540101812 0.0016010927253301002 0 0.00015416098312527994 0.0016073551938313583 0 0.00015139873540101812 0.0016010927253301002 0 0.00015416098312527994 0.0016073551938313583 0 0.0001508262396636131 0.0015996364700441416 0 0.00015416098312527994 0.0016073551938313583 0 0.0001508262396636131 0.0015996364700441416 0 0.00015824992402522679 0.0015923807418598214 0 0.00015416098312527994 0.0016073551938313583 0 0.00017509565602670768 0.0016230418212026267 0 0.00015824992402522679 0.0015923807418598214 0 0.0001508262396636131 0.0015996364700441416 0 0.00015616653746844023 0.0016143709374813846 0 0.00015824992402522679 0.0015923807418598214 0 0.0001538325756633847 0.0015823107608121719 0 0.0001508262396636131 0.0015996364700441416 0 0.00015903293369997653 0.0015853028878019813 0 0.0001508262396636131 0.0015996364700441416 0 0.00015903293369997653 0.0015853028878019813 0 0.00015616653746844023 0.0016143709374813846 0 0.00019943932643282984 0.0015916803832962312 0 0.00024213561426273417 0.0016351082137584922 0 0.00015616653746844023 0.0016143709374813846 0 0.00019943932643282984 0.0015916803832962312 0 0.00015903293369997653 0.0015853028878019813 0 0.00015616653746844023 0.0016143709374813846 0 0.00030420013814910844 0.0012176657533388303 0 0.00028513476415004108 0.0012433251813074133 0 0.00028220844694010981 0.0012183734803360572 0 0.00019943932643282984 0.0015916803832962312 0 0.00024213561426273417 0.0016351082137584922 0 0.00026393839267278168 0.0015324624054859862 0 0.0003279184734491138 0.0014024860671093395 0 0.00026267833473689735 0.0013764776886776675 0 0.00028099950039550101 0.0012192399773974993 0 0.00029083728475004007 0.0012154856805377621 0 0.00028220844694010981 0.0012183734803360572 0 0.0001538325756633847 0.0015823107608121719 0 0.00015903293369997653 0.0015853028878019813 0 0.00015978769917518839 0.001538954280440168 0 0.00019943932643282984 0.0015916803832962312 0 0.00015903293369997653 0.0015853028878019813 0 0.00015978769917518839 0.001538954280440168 0 0.00019943932643282984 0.0015916803832962312 0 0.00026393839267278168 0.0015324624054859862 0 0.00015978769917518839 0.001538954280440168 0 0.00026393839267278168 0.0015324624054859862 0 0.00015978769917518839 0.001538954280440168 0 0.00012529672741044609 0.0013659851934432095 0 0.00015652411865813958 0.0015366526353724395 0 7.8258020767071272e-05 0.0014660888494324575 0 0.00015978769917518839 0.001538954280440168 0 0.00012529672741044609 0.0013659851934432095 0 -1.2359809326561645e-05 0.0013421578835951732 0 0.00026267833473689735 0.0013764776886776675 0 0.00024785035044003786 0.0012497627860088758 0 0.00026393839267278168 0.0015324624054859862 0 0.00012529672741044609 0.0013659851934432095 0 0.00024213192943277502 0.0012463412155812453 0 0.00028099950039550101 0.0012192399773974993 0 0.00028220844694010981 0.0012183734803360572 0 0.00024213192943277502 0.0012463412155812453 0 0.00030399820306646266 0.0011825913331407149 0 0.00028099950039550101 0.0012192399773974993 0 0.00024213192943277502 0.0012463412155812453 0 0.00030399820306646266 0.0011825913331407149 0 0.00024213192943277502 0.0012463412155812453 0 0.00027872806764186493 0.0011557961738851055 0 0.00012529672741044609 0.0013659851934432095 0 0.00024213192943277502 0.0012463412155812453 0 2.8493208853236649e-05 0.0012525297129754348 0 0.00020766470056631601 0.0011973491456859582 0 4.0311756820730706e-05 0.0012482115280231004 0 0.00014303856190485634 0.0012379934518115527 0 2.8493208853236649e-05 0.0012525297129754348 0 6.1990379950541577e-05 0.00120567332155365 0 0.00024213192943277502 0.0012463412155812453 0 0.00027872806764186493 0.0011557961738851055 0 2.8493208853236649e-05 0.0012525297129754348 0 2.8493208853236649e-05 0.0012525297129754348 0 -1.2359809326561645e-05 0.0013421578835951732 0 -6.3974565144581314e-05 0.0012567620326043901 0 2.8493208853236649e-05 0.0012525297129754348 0 -6.3974565144581314e-05 0.0012567620326043901 0 -1.3773260657777657e-05 0.0012179844489513276 0 0.00012529672741044609 0.0013659851934432095 0 2.8493208853236649e-05 0.0012525297129754348 0 -1.2359809326561645e-05 0.0013421578835951732 0 0.00015770493694390418 0.0015855849026530321 0 0.000140910304335387 0.0015902753768149954 0 0.00013029374519313416 0.0015592404071331398 0 0.00015064288963504013 0.0016217577875466817 0 0.000140910304335387 0.0015902753768149954 0 0.00010664089494473351 0.0015858484769155545 0 0.00015286545651512892 0.0015973490361212805 0 0.00015770493694390418 0.0015855849026530321 0 0.000140910304335387 0.0015902753768149954 0 0.000140910304335387 0.0015902753768149954 0 0.00013029374519313416 0.0015592404071331398 0 0.00010664089494473351 0.0015858484769155545 0 7.8258020767071272e-05 0.0014660888494324575 0 3.2947385462079249e-05 0.0014109385480182805 0 -6.3974565144581314e-05 0.0012567620326043901 0 -1.3773260657777657e-05 0.0012179844489513276 0 -6.2104586487602109e-05 0.0012187174033716722 0 2.8493208853236649e-05 0.0012525297129754348 0 -1.3773260657777657e-05 0.0012179844489513276 0 6.1990379950541577e-05 0.00120567332155365 0 -1.3773260657777657e-05 0.0012179844489513276 0 -2.3484703262630344e-07 0.0011527862866811483 0 6.1990379950541577e-05 0.00120567332155365 0 -2.3484703262630344e-07 0.0011527862866811483 0 -6.2104586487602109e-05 0.0012187174033716722 0 -5.3487124347909266e-05 0.0011438319696874687 0 -1.3773260657777657e-05 0.0012179844489513276 0 -2.3484703262630344e-07 0.0011527862866811483 0 -6.2104586487602109e-05 0.0012187174033716722 0 -2.3484703262630344e-07 0.0011527862866811483 0 -5.3487124347909266e-05 0.0011438319696874687 0 -1.1408892358197187e-05 0.0010402399830413327 0 -6.2104586487602109e-05 0.0012187174033716722 0 -5.3487124347909266e-05 0.0011438319696874687 0 -5.8222525957021275e-05 0.0013068594030157886 0 0.00014303856190485634 0.0012379934518115527 0 0.00012019617421768752 0.0011757919935791779 0 6.1990379950541577e-05 0.00120567332155365 0 0.00020971925537540832 0.0011511241024669144 0 0.00012019617421768752 0.0011757919935791779 0 0.00014022214624084445 0.0011113161545120377 0 0.00020971925537540832 0.0011511241024669144 0 0.00014303856190485634 0.0012379934518115527 0 0.00012019617421768752 0.0011757919935791779 0 0.00012019617421768752 0.0011757919935791779 0 6.1990379950541577e-05 0.00120567332155365 0 7.5642312160216843e-05 0.0011430757177179594 0 -2.3484703262630344e-07 0.0011527862866811483 0 6.1990379950541577e-05 0.00120567332155365 0 7.5642312160216843e-05 0.0011430757177179594 0 -2.3484703262630344e-07 0.0011527862866811483 0 6.7253895387953127e-05 0.0010462114924492617 0 -1.1408892358197187e-05 0.0010402399830413327 0 -2.3484703262630344e-07 0.0011527862866811483 0 7.5642312160216843e-05 0.0011430757177179594 0 6.7253895387953127e-05 0.0010462114924492617 0 0.00024172562235518768 0.0010129742624659904 0 0.00014022214624084445 0.0011113161545120377 0 6.7253895387953127e-05 0.0010462114924492617 0 0.00012019617421768752 0.0011757919935791779 0 7.5642312160216843e-05 0.0011430757177179594 0 0.00014022214624084445 0.0011113161545120377 0 7.5642312160216843e-05 0.0011430757177179594 0 0.00014022214624084445 0.0011113161545120377 0 6.7253895387953127e-05 0.0010462114924492617 0 0.00011000391994865885 0.00075456403484978841 0 2.4559660472470897e-05 0.00082021612539915712 0 0.00024172562235518768 0.0010129742624659904 0 6.7253895387953127e-05 0.0010462114924492617 0 3.5090138572695729e-05 0.00085015607714977715 0 6.7253895387953127e-05 0.0010462114924492617 0 3.5090138572695729e-05 0.00085015607714977715 0 -1.1408892358197187e-05 0.0010402399830413327 0 1.0853774263082284e-07 0.00084556961416490427 0 3.5090138572695729e-05 0.00085015607714977715 0 -6.0737019056778221e-05 0.0010039070952596984 0 1.1533552702546613e-08 0.0006018030126618679 0 -1.1000815069765749e-06 0.00047653856823838835 0 3.5090138572695729e-05 0.00085015607714977715 0 1.1533552702546613e-08 0.0006018030126618679 0 1.0853774263082284e-07 0.00084556961416490427 0 3.5090138572695729e-05 0.00085015607714977715 0 -5.3487124347909266e-05 0.0011438319696874687 0 -6.0737019056778221e-05 0.0010039070952596984 0 -5.8222525957021275e-05 0.0013068594030157886 0 -2.8920925367897781e-05 0.001097934694482801 0 -5.4609389397704679e-05 0.0012702585294720459 0 1.0119848555649445e-05 0.0011874367595258353 0 -2.6662438082145904e-05 0.0012737746304598912 0 -5.8222525957021275e-05 0.0013068594030157886 0 3.5090138572695729e-05 0.00085015607714977715 0 -1.1408892358197187e-05 0.0010402399830413327 0 -6.0737019056778221e-05 0.0010039070952596984 0 -5.3487124347909266e-05 0.0011438319696874687 0 -1.1408892358197187e-05 0.0010402399830413327 0 -6.0737019056778221e-05 0.0010039070952596984 0 -2.0200811661662162e-08 0.00084592670600659573 0 -2.8920925367897781e-05 0.001097934694482801 0 1.120548372955705e-07 0.00084601934198098383 0 1.0119848555649445e-05 0.0011874367595258353 0 -4.0349791903413912e-08 0.0011000089169329341 0 1.0119848555649445e-05 0.0011874367595258353 0 -2.6662438082145904e-05 0.0012737746304598912 0 -4.0349791903413912e-08 0.0011000089169329341 0 -2.6662438082145904e-05 0.0012737746304598912 0 -4.0349791903413912e-08 0.0011000089169329341 0 -7.6104877574466661e-08 0.0013541032848278923 0 -2.6662438082145904e-05 0.0012737746304598912 0 -7.6104877574466661e-08 0.0013541032848278923 0 -1.8315342664819466e-05 0.0014458748577649671 0 -2.6662438082145904e-05 0.0012737746304598912 0 -5.8222525957021275e-05 0.0013068594030157886 0 -1.8315342664819466e-05 0.0014458748577649671 0 -5.8222525957021275e-05 0.0013068594030157886 0 -1.8315342664819466e-05 0.0014458748577649671 0 1.2357257923163461e-05 0.0014805021388057654 0 -7.6104877574466661e-08 0.0013541032848278923 0 -1.8315342664819466e-05 0.0014458748577649671 0 5.9994976897552245e-09 0.0016081468147569559 0 5.9994976897552245e-09 0.0016081468147569559 0 -1.4551672038160879e-07 0.0018623098010930308 0 -9.4551958197633993e-06 0.0016018025512439772 0 -1.8315342664819466e-05 0.0014458748577649671 0 5.9994976897552245e-09 0.0016081468147569559 0 -9.4551958197633993e-06 0.0016018025512439772 0 -1.4551672038160879e-07 0.0018623098010930308 0 -7.823415192119366e-07 0.0016416324680757122 0 -9.4551958197633993e-06 0.0016018025512439772 0 -1.8315342664819466e-05 0.0014458748577649671 0 -9.4551958197633993e-06 0.0016018025512439772 0 1.2357257923163461e-05 0.0014805021388057654 0 -7.823415192119366e-07 0.0016416324680757122 0 -9.4551958197633993e-06 0.0016018025512439772 0 1.2357257923163461e-05 0.0014805021388057654 0 -7.823415192119366e-07 0.0016416324680757122 0 1.2357257923163461e-05 0.0014805021388057654 0 1.1937674929204262e-05 0.0015556473362505674 0 1.1937674929204262e-05 0.0015556473362505674 0 8.1816548422217054e-05 0.0015335660746647148 0 3.9652622674804512e-05 0.0015726257267050618 0 -7.823415192119366e-07 0.0016416324680757122 0 1.1937674929204262e-05 0.0015556473362505674 0 4.1697759530247071e-05 0.0015777846032306148 0 1.1937674929204262e-05 0.0015556473362505674 0 4.1697759530247071e-05 0.0015777846032306148 0 3.9652622674804512e-05 0.0015726257267050618 0 1.2357257923163461e-05 0.0014805021388057654 0 1.1937674929204262e-05 0.0015556473362505674 0 8.1816548422217054e-05 0.0015335660746647148 0 -6.3974565144581314e-05 0.0012567620326043901 0 -6.2104586487602109e-05 0.0012187174033716722 0 -4.742467722297789e-05 0.0012816520551141566 0 3.2947385462079249e-05 0.0014109385480182805 0 1.3071325128511813e-05 0.0014119828655941487 0 -6.2104586487602109e-05 0.0012187174033716722 0 -5.8222525957021275e-05 0.0013068594030157886 0 -4.742467722297789e-05 0.0012816520551141566 0 -5.8222525957021275e-05 0.0013068594030157886 0 1.2357257923163461e-05 0.0014805021388057654 0 -4.742467722297789e-05 0.0012816520551141566 0 1.3123554590021887e-05 0.001463746613548326 0 1.3071325128511813e-05 0.0014119828655941487 0 -2.4306156690543404e-05 0.002453334158562589 0 5.2258010524159601e-05 0.0024038374916647057 0 -1.8972139360823785e-05 0.002487555732024695 0 -2.4306156690543404e-05 0.002453334158562589 0 -1.8968447949272424e-07 0.002360777271895194 0 1.0821528312697829e-07 0.0026049162530463492 0 -1.8968447949272424e-07 0.002360777271895194 0 5.2258010524159601e-05 0.0024038374916647057 0 3.1565517362274272e-07 0.0021169733029334512 0 -2.4306156690543404e-05 0.002453334158562589 0 -1.8968447949272424e-07 0.002360777271895194 0 5.2258010524159601e-05 0.0024038374916647057 0 0.00014853785717435457 0.0017481023852979477 0 1.5122367955490357e-05 0.0018128262492730577 0 7.6088857191179319e-05 0.0016053686734751839 0 9.1236781035843739e-05 0.0020828434849117705 0 3.8019251920133097e-08 0.0021164554499338547 0 0.00014853785717435457 0.0017481023852979477 0 4.2358276549963092e-07 0.0021159047106315593 0 1.5122367955490357e-05 0.0018128262492730577 0 -1.4551672038160879e-07 0.0018623098010930308 0 4.2358276549963092e-07 0.0021159047106315593 0 1.5122367955490357e-05 0.0018128262492730577 0 -1.4551672038160879e-07 0.0018623098010930308 0 -7.823415192119366e-07 0.0016416324680757122 0 1.5122367955490357e-05 0.0018128262492730577 0 -7.823415192119366e-07 0.0016416324680757122 0 1.5122367955490357e-05 0.0018128262492730577 0 7.6088857191179319e-05 0.0016053686734751839 0 -7.823415192119366e-07 0.0016416324680757122 0 4.1697759530247071e-05 0.0015777846032306148 0 7.6088857191179319e-05 0.0016053686734751839 0 4.1697759530247071e-05 0.0015777846032306148 0 7.6088857191179319e-05 0.0016053686734751839 0 8.6787661220637984e-05 0.0015852117978892623 0 7.6088857191179319e-05 0.0016053686734751839 0 0.00010100238665064655 0.0015901993981599647 0 8.6787661220637984e-05 0.0015852117978892623 0 7.6088857191179319e-05 0.0016053686734751839 0 0.00013354743272663016 0.0016120062736770422 0 0.00010100238665064655 0.0015901993981599647 0 0.00014853785717435457 0.0017481023852979477 0 7.6088857191179319e-05 0.0016053686734751839 0 0.00013354743272663016 0.0016120062736770422 0 5.2258010524159601e-05 0.0024038374916647057 0 7.3436777439157234e-05 0.002565900652136451 0 -1.8972139360823785e-05 0.002487555732024695 0 9.1236781035843739e-05 0.0020828434849117705 0 0.00010178609611854999 0.0020863226520100061 0 0.00010178609611854999 0.0020863226520100061 0 6.1772534238865268e-05 0.0022026426532339547 0 7.3436777439157234e-05 0.002565900652136451 0 8.2454606281634977e-06 0.0026293479039567018 0 4.1424271710133426e-05 0.00273888844509432 0 8.2454606281634977e-06 0.0026293479039567018 0 -1.8972139360823785e-05 0.002487555732024695 0 -5.9741523980373572e-05 0.002591318356815784 0 7.3436777439157234e-05 0.002565900652136451 0 8.2454606281634977e-06 0.0026293479039567018 0 -1.8972139360823785e-05 0.002487555732024695 0 8.2454606281634977e-06 0.0026293479039567018 0 -5.1256093839184902e-05 0.0026870463421959393 0 -5.9741523980373572e-05 0.002591318356815784 0 6.1772534238865268e-05 0.0022026426532339547 0 1.3342481307901499e-05 0.0020202110142150112 0 7.3298012295725729e-06 0.0027697368850596272 0 3.0353336972489414e-05 0.0027487284643719686 0 1.6027943472087844e-05 0.002779418490298783 0 3.0353336972489414e-05 0.0027487284643719686 0 4.1424271710133426e-05 0.00273888844509432 0 1.6027943472087844e-05 0.002779418490298783 0 8.0370531444288321e-05 0.00260103322607409 0 -1.5973939747673336e-05 0.0028144956248626063 0 -2.4496639901172893e-05 0.002833618335451107 0 3.0353336972489414e-05 0.0027487284643719686 0 -1.5441707388722936e-05 0.0027821668166576699 0 3.0353336972489414e-05 0.0027487284643719686 0 -9.9837588456053454e-06 0.002755827221673883 0 -1.5441707388722936e-05 0.0027821668166576699 0 -2.4496639901172893e-05 0.002833618335451107 0 -1.5441707388722936e-05 0.0027821668166576699 0 -4.8256828964299033e-05 0.0027711768719623549 0 -9.9837588456053454e-06 0.002755827221673883 0 -1.5441707388722936e-05 0.0027821668166576699 0 -4.8256828964299033e-05 0.0027711768719623549 0 8.2454606281634977e-06 0.0026293479039567018 0 -4.8177609991620987e-06 0.002718006470145677 0 4.1424271710133426e-05 0.00273888844509432 0 -9.9837588456053454e-06 0.002755827221673883 0 -4.8256828964299033e-05 0.0027711768719623549 0 -4.8177609991620987e-06 0.002718006470145677 0 -4.8256828964299033e-05 0.0027711768719623549 0 -5.1256093839184902e-05 0.0026870463421959393 0 -4.8177609991620987e-06 0.002718006470145677 0 8.2454606281634977e-06 0.0026293479039567018 0 -5.1256093839184902e-05 0.0026870463421959393 0 -4.8177609991620987e-06 0.002718006470145677 0 -4.8177609991620987e-06 0.002718006470145677 0 1.5763536074844313e-05 0.0027399887196789354 0 4.1424271710133426e-05 0.00273888844509432 0 -9.9837588456053454e-06 0.002755827221673883 0 -4.8177609991620987e-06 0.002718006470145677 0 1.5763536074844313e-05 0.0027399887196789354 0 3.0353336972489414e-05 0.0027487284643719686 0 -9.9837588456053454e-06 0.002755827221673883 0 1.5763536074844313e-05 0.0027399887196789354 0 3.0353336972489414e-05 0.0027487284643719686 0 1.5763536074844313e-05 0.0027399887196789354 0 4.1424271710133426e-05 0.00273888844509432 0 0.00013354743272663016 0.0016120062736770422 0 8.7785476785937161e-05 0.0015871533397649794 0 0.00010100238665064655 0.0015901993981599647 0 8.7785476785937161e-05 0.0015871533397649794 0 9.5614877558628273e-05 0.0015895565004845236 0 0.00010100238665064655 0.0015901993981599647 0 8.3495341192145418e-05 0.0016034337203347992 0 9.3476769483588106e-05 0.0016095006931970304 0 9.5614877558628273e-05 0.0015895565004845236 0 8.7785476785937161e-05 0.0015871533397649794 0 8.3495341192145418e-05 0.0016034337203347992 0 4.8550284219285159e-05 0.0016339732992749539 0 8.3495341192145418e-05 0.0016034337203347992 0 9.3476769483588106e-05 0.0016095006931970304 0 4.8550284219285159e-05 0.0016339732992749539 0 8.7785476785937161e-05 0.0015871533397649794 0 8.3495341192145418e-05 0.0016034337203347992 0 9.5614877558628273e-05 0.0015895565004845236 0 0.00011618919642416482 0.0015958965631560204 0 9.5614877558628273e-05 0.0015895565004845236 0 8.6787661220637984e-05 0.0015852117978892623 0 9.3476769483588106e-05 0.0016095006931970304 0 0.00011618919642416482 0.0015958965631560204 0 9.5614877558628273e-05 0.0015895565004845236 0 9.5614877558628273e-05 0.0015895565004845236 0 0.00010100238665064655 0.0015901993981599647 0 8.6787661220637984e-05 0.0015852117978892623 0 4.1697759530247071e-05 0.0015777846032306148 0 8.6787661220637984e-05 0.0015852117978892623 0 6.3125518056490179e-05 0.0015858563217543292 0 0.00011618919642416482 0.0015958965631560204 0 6.3125518056490179e-05 0.0015858563217543292 0 4.9774143824263061e-05 0.001580379897219156 0 0.00011618919642416482 0.0015958965631560204 0 8.6787661220637984e-05 0.0015852117978892623 0 6.3125518056490179e-05 0.0015858563217543292 0 0.00011536860476099418 0.001597512468443131 0 0.00013784390611406983 0.0016124172091998676 0 0.00011618919642416482 0.0015958965631560204 0 0.00017283370635110985 0.0016777395777029555 0 0.00022941000465687654 0.0016425799015011761 0 0.00017283370635110985 0.0016777395777029555 0 0.00022586702843977501 0.0017059841140994406 0 0.00022799571995761681 0.0017859823373272889 0 0.00017283370635110985 0.0016777395777029555 0 9.5606345034516697e-05 0.0017002864948814911 0 0.00022799571995761681 0.0017859823373272889 0 0.00017283370635110985 0.0016777395777029555 0 9.5606345034516697e-05 0.0017002864948814911 0 0.00010918360754991661 0.0016449223147746834 0 0.00011618919642416482 0.0015958965631560204 0 0.00017283370635110985 0.0016777395777029555 0 0.00010918360754991661 0.0016449223147746834 0 9.3476769483588106e-05 0.0016095006931970304 0 0.00011618919642416482 0.0015958965631560204 0 0.00010918360754991661 0.0016449223147746834 0 9.5606345034516697e-05 0.0017002864948814911 0 0.00010918360754991661 0.0016449223147746834 0 4.8550284219285159e-05 0.0016339732992749539 0 9.3476769483588106e-05 0.0016095006931970304 0 0.00010918360754991661 0.0016449223147746834 0 4.8550284219285159e-05 0.0016339732992749539 0 0.00023987128542148921 0.0017396979861194512 0 1.3342481307901499e-05 0.0020202110142150112 0 0.00036606841400424391 0.0018898573880347805 0 0.00029954803481891854 0.0018570573102167616 0 0.0002895444914909188 0.0017526583036768684 0 0.00036606841400424391 0.0018898573880347805 0 0.00029954803481891854 0.0018570573102167616 0 0.00039708024330653032 0.0019114516023826581 0 0.00029954803481891854 0.0018570573102167616 0 0.00019267340270901609 0.0018660679471801493 0 0.0002043921634051494 0.0019686210610963734 0 0.00029954803481891854 0.0018570573102167616 0 0.00024625018136438677 0.0017952476624537152 0 0.00019267340270901609 0.0018660679471801493 0 0.00025060631178094227 0.0017167386704410911 0 0.00024625018136438677 0.0017952476624537152 0 0.00017596089483719698 0.00178840565474904 0 0.00029954803481891854 0.0018570573102167616 0 0.00024625018136438677 0.0017952476624537152 0 0.0002895444914909188 0.0017526583036768684 0 8.0370531444288321e-05 0.00260103322607409 0 1.3342481307901499e-05 0.0020202110142150112 0 0.00025060631178094227 0.0017167386704410911 0 0.00024625018136438677 0.0017952476624537152 0 0.0002895444914909188 0.0017526583036768684 0 7.8885868655780215e-05 0.0015686734494442349 0 3.9652622674804512e-05 0.0015726257267050618 0 6.8962289718151089e-05 0.0016050997067668274 0 0.00010664089494473351 0.0015858484769155545 0 7.8885868655780215e-05 0.0015686734494442349 0 6.8962289718151089e-05 0.0016050997067668274 0 0.00013029374519313416 0.0015592404071331398 0 0.00010664089494473351 0.0015858484769155545 0 7.8885868655780215e-05 0.0015686734494442349 0 0.00013029374519313416 0.0015592404071331398 0 8.1816548422217054e-05 0.0015335660746647148 0 7.8885868655780215e-05 0.0015686734494442349 0 8.1816548422217054e-05 0.0015335660746647148 0 7.8885868655780215e-05 0.0015686734494442349 0 3.9652622674804512e-05 0.0015726257267050618 0 4.1697759530247071e-05 0.0015777846032306148 0 6.3125518056490179e-05 0.0015858563217543292 0 3.9652622674804512e-05 0.0015726257267050618 0 6.3125518056490179e-05 0.0015858563217543292 0 3.9652622674804512e-05 0.0015726257267050618 0 4.9774143824263061e-05 0.001580379897219156 0 3.9652622674804512e-05 0.0015726257267050618 0 4.9774143824263061e-05 0.001580379897219156 0 6.8962289718151089e-05 0.0016050997067668274 0 0.00013784390611406983 0.0016124172091998676 0 0.00015142885096444369 0.0016330907617882401 0 0.00022941000465687654 0.0016425799015011761 0 0.00023777765533823146 0.001672998407894144 0 0.00023155178900984691 0.0016682035079843866 0 0.00017283370635110985 0.0016777395777029555 0 0.00022941000465687654 0.0016425799015011761 0 0.00022586702843977501 0.0017059841140994406 0 0.00022941000465687654 0.0016425799015011761 0 0.00022586702843977501 0.0017059841140994406 0 0.00023777765533823146 0.001672998407894144 0 0.00022586702843977501 0.0017059841140994406 0 0.00023777765533823146 0.001672998407894144 0 0.00023844356860282809 0.0016981874747349433 0 0.00023777765533823146 0.001672998407894144 0 0.00022133451282900214 0.0016541324338486243 0 0.00023297207574346398 0.001663909880448984 0 0.00023777765533823146 0.001672998407894144 0 0.00023297207574346398 0.001663909880448984 0 0.00023844356860282809 0.0016981874747349433 0 0.00023777765533823146 0.001672998407894144 0 0.00022133451282900214 0.0016541324338486243 0 0.00023155178900984691 0.0016682035079843866 0 0.00022133451282900214 0.0016541324338486243 0 0.00023155178900984691 0.0016682035079843866 0 0.00017509565602670768 0.0016230418212026267 0 0.00015064288963504013 0.0016217577875466817 0 0.00023155178900984691 0.0016682035079843866 0 0.00017509565602670768 0.0016230418212026267 0 0.00015261619435032127 0.001625388953754901 0 0.00015142885096444369 0.0016330907617882401 0 0.00015064288963504013 0.0016217577875466817 0 0.00010664089494473351 0.0015858484769155545 0 6.8962289718151089e-05 0.0016050997067668274 0 0.00022133451282900214 0.0016541324338486243 0 0.00017509565602670768 0.0016230418212026267 0 0.00023297207574346398 0.001663909880448984 0 0.00017509565602670768 0.0016230418212026267 0 0.00020939016045630661 0.0015880901915604926 0 0.00015824992402522679 0.0015923807418598214 0 0.00013934661017299548 0.0016539999332502934 0 0.00032756484755440732 0.001583393498726289 0 0.00032756484755440732 0.001583393498726289 0 0.00036628166004719207 0.0014922668988785286 0 0.00055663236001445569 0.0014065834423926925 0 0.00053610821626885665 0.0014140707718266175 0 0.00053864727875639281 0.0013987042905524822 0 0.00055663236001445569 0.0014065834423926925 0 0.00053864727875639281 0.0013987042905524822 0 0.00055532288430917484 0.0014137047068764686 0 0.00055663236001445569 0.0014065834423926925 0 0.00054529631739909075 0.0014218518738968739 0 0.00057077848910268422 0.0013932850897856149 0 0.00055663236001445569 0.0014065834423926925 0 0.00053610821626885665 0.0014140707718266175 0 0.00054529631739909075 0.0014218518738968739 0 0.00053610821626885665 0.0014140707718266175 0 0.00051196331581726269 0.001413230561710888 0 0.00052221592905509991 0.0014479681882421701 0 0.00053610821626885665 0.0014140707718266175 0 0.00054529631739909075 0.0014218518738968739 0 0.00052221592905509991 0.0014479681882421701 0 0.00032756484755440732 0.001583393498726289 0 0.00038629222803022599 0.0015630418024126379 0 0.00053610821626885665 0.0014140707718266175 0 0.00053864727875639281 0.0013987042905524822 0 0.00051196331581726269 0.001413230561710888 0 0.00027696419346153904 0.0016953480793253119 0 0.00023844356860282809 0.0016981874747349433 0 0.00023529409342047366 0.0017369523375423039 0 0.00032756484755440732 0.001583393498726289 0 0.00021387598238069053 0.0016850043285116458 0 0.00023844356860282809 0.0016981874747349433 0 0.00022485447089071306 0.0017479626399618782 0 0.00023529409342047366 0.0017369523375423039 0 0.00022586702843977501 0.0017059841140994406 0 0.00023844356860282809 0.0016981874747349433 0 0.00022485447089071306 0.0017479626399618782 0 0.00022586702843977501 0.0017059841140994406 0 0.00022485447089071306 0.0017479626399618782 0 0.00022799571995761681 0.0017859823373272889 0 0.00022485447089071306 0.0017479626399618782 0 0.00022570986524385084 0.0017210922497424641 0 0.0002682876483755275 0.0017331093735215145 0 0.00022485447089071306 0.0017479626399618782 0 0.00023529409342047366 0.0017369523375423039 0 0.00022570986524385084 0.0017210922497424641 0 0.00051196331581726269 0.001413230561710888 0 0.00050207987032067697 0.0014451056000766487 0 0.00044676997182082728 0.0014492382084392219 0 0.00038629222803022599 0.0015630418024126379 0 0.00033517547745145007 0.0015921791769834296 0 0.00051196331581726269 0.001413230561710888 0 0.00050207987032067697 0.0014451056000766487 0 0.00052221592905509991 0.0014479681882421701 0 0.00050207987032067697 0.0014451056000766487 0 0.00050657480379748829 0.001501107752102872 0 0.00052221592905509991 0.0014479681882421701 0 0.00050657480379748829 0.001501107752102872 0 0.00051156030870372522 0.001472973486347167 0 0.00052221592905509991 0.0014479681882421701 0 0.00050207987032067697 0.0014451056000766487 0 0.00050657480379748829 0.001501107752102872 0 0.00044676997182082728 0.0014492382084392219 0 0.00033517547745145007 0.0015921791769834296 0 0.00030130129601629835 0.0016383282880038123 0 0.00050657480379748829 0.001501107752102872 0 0.00044676997182082728 0.0014492382084392219 0 0.00029820618142125326 0.0016472214852231125 0 0.00050678194084063531 0.0015042942759051032 0 0.00048576599146392673 0.0015779839583549371 0 0.00050657480379748829 0.001501107752102872 0 0.00029820618142125326 0.0016472214852231125 0 0.00042241278934637076 0.0017240482608516846 0 0.00050657480379748829 0.001501107752102872 0 0.00051156030870372522 0.001472973486347167 0 0.00055103896348136978 0.0014403387332820651 0 0.00051156030870372522 0.001472973486347167 0 0.0005370456480373692 0.0014641694405915476 0 0.00050855709577411941 0.0014503287579692918 0 0.00051156030870372522 0.001472973486347167 0 0.0005370456480373692 0.0014641694405915476 0 0.00052221592905509991 0.0014479681882421701 0 0.00058959147568194564 0.0013852008745741311 0 0.00057101522646778151 0.0013708170457938556 0 0.00058959147568194564 0.0013852008745741311 0 0.00057346913699582924 0.0013954570521151196 0 0.0005370456480373692 0.0014641694405915476 0 0.00054529631739909075 0.0014218518738968739 0 0.00057077848910268422 0.0013932850897856149 0 0.0005370456480373692 0.0014641694405915476 0 0.00054529631739909075 0.0014218518738968739 0 0.00052221592905509991 0.0014479681882421701 0 0.00024634475022220018 0.0022334399503866178 0 0.00039708024330653032 0.0019114516023826581 0 0.0002043921634051494 0.0019686210610963734 0 0.00029954803481891854 0.0018570573102167616 0 0.00039708024330653032 0.0019114516023826581 0 0.0002043921634051494 0.0019686210610963734 0 0.00036606841400424391 0.0018898573880347805 0 0.00039708024330653032 0.0019114516023826581 0 0.00030799111042859354 0.00179726331051537 0 0.00040597892778899134 0.0019236011609462856 0 0.00044300417484503427 0.0020520018487256843 0 0.00039708024330653032 0.0019114516023826581 0 0.00030799111042859354 0.00179726331051537 0 0.00034611700902568759 0.0017025968407855254 0 0.00024634475022220018 0.0022334399503866178 0 0.00039708024330653032 0.0019114516023826581 0 0.00055652656491177654 0.002404179060247807 0 0.00030799111042859354 0.00179726331051537 0 0.00022799571995761681 0.0017859823373272889 0 0.0002682876483755275 0.0017331093735215145 0 0.00023987128542148921 0.0017396979861194512 0 0.00022753946351205276 0.0018021667158662216 0 0.00036606841400424391 0.0018898573880347805 0 0.00030799111042859354 0.00179726331051537 0 0.00022799571995761681 0.0017859823373272889 0 0.00022485447089071306 0.0017479626399618782 0 0.00022799571995761681 0.0017859823373272889 0 0.0002682876483755275 0.0017331093735215145 0 0.00022570986524385084 0.0017210922497424641 0 0.0002682876483755275 0.0017331093735215145 0 0.00029820618142125326 0.0016472214852231125 0 0.0002682876483755275 0.0017331093735215145 0 0.00029820618142125326 0.0016472214852231125 0 0.00030199768698281257 0.0016797492955679149 0 0.00029820618142125326 0.0016472214852231125 0 0.00030199768698281257 0.0016797492955679149 0 0.00029837825019567334 0.0016946125147004373 0 0.00030199768698281257 0.0016797492955679149 0 0.00027696698207060042 0.0016982395075716076 0 0.00029837825019567334 0.0016946125147004373 0 0.00030199768698281257 0.0016797492955679149 0 0.00034611700902568759 0.0017025968407855254 0 0.00027696698207060042 0.0016982395075716076 0 0.0002682876483755275 0.0017331093735215145 0 0.00030199768698281257 0.0016797492955679149 0 0.00034611700902568759 0.0017025968407855254 0 0.00030799111042859354 0.00179726331051537 0 0.0002682876483755275 0.0017331093735215145 0 0.00034611700902568759 0.0017025968407855254 0 0.00055652656491177654 0.002404179060247807 0 0.00029935806489435085 0.0027334819671685916 0 0.00061357949740954937 0.002798624750380133 0 0.00044300417484503427 0.0020520018487256843 0 0.0004632217291516086 0.0022711706263723545 0 0.00055652656491177654 0.002404179060247807 0 0.00028567085604197084 0.0024851057965469703 0 0.00029935806489435085 0.0027334819671685916 0 0.00024634475022220018 0.0022334399503866178 0 0.00055652656491177654 0.002404179060247807 0 0.00028567085604197084 0.0024851057965469703 0 0.00029796428033009638 0.0029426250727208735 0 0.00047345663390271035 0.0029969972367228982 0 0.00034230243259979198 0.0031650201194948755 0 0.00029796428033009638 0.0029426250727208735 0 0.00041944674532091086 0.0028693546126057879 0 0.00047345663390271035 0.0029969972367228982 0 0.00029796428033009638 0.0029426250727208735 0 0.00029935806489435085 0.0027334819671685916 0 0.00041944674532091086 0.0028693546126057879 0 0.00029935806489435085 0.0027334819671685916 0 0.00041944674532091086 0.0028693546126057879 0 0.00061357949740954937 0.002798624750380133 0 0.00041944674532091086 0.0028693546126057879 0 0.00061357949740954937 0.002798624750380133 0 0.00047345663390271035 0.0029969972367228982 0 0.00061357949740954937 0.002798624750380133 0 0.00047345663390271035 0.0029969972367228982 0 0.00064644313643957168 0.0031266750479160411 0 0.00027696698207060042 0.0016982395075716076 0 0.00029360545645538516 0.0017501152063251588 0 0.00026384435733696888 0.0018131303899576433 0 0.00035413236149028736 0.0016086424960516316 0 0.00035173530868768961 0.0023850193700088065 0 0.0004632217291516086 0.0022711706263723545 0 0.00035173530868768961 0.0023850193700088065 0 0.00029360545645538516 0.0017501152063251588 0 0.00032450216470876719 0.0017937417852390933 0 0.00026160494966324434 0.0018207077685955106 0 0.00027696698207060042 0.0016982395075716076 0 0.00029360545645538516 0.0017501152063251588 0 0.00029837825019567334 0.0016946125147004373 0 0.00029360545645538516 0.0017501152063251588 0 0.00029837825019567334 0.0016946125147004373 0 0.00034620510341232675 0.0017468962980749807 0 0.00029820618142125326 0.0016472214852231125 0 0.00034620510341232675 0.0017468962980749807 0 0.00042241278934637076 0.0017240482608516846 0 0.00029820618142125326 0.0016472214852231125 0 0.00029837825019567334 0.0016946125147004373 0 0.00034620510341232675 0.0017468962980749807 0 0.00034620510341232675 0.0017468962980749807 0 0.00032450216470876719 0.0017937417852390933 0 0.00038710488947119807 0.0018098796368667903 0 0.00029360545645538516 0.0017501152063251588 0 0.00034620510341232675 0.0017468962980749807 0 0.00032450216470876719 0.0017937417852390933 0 0.00032450216470876719 0.0017937417852390933 0 0.00032719942440341218 0.0018492575471860311 0 0.00038710488947119807 0.0018098796368667903 0 0.00032719942440341218 0.0018492575471860311 0 0.00036437768477387642 0.0019070040161686399 0 0.00038710488947119807 0.0018098796368667903 0 0.00032719942440341218 0.0018492575471860311 0 0.00036437768477387642 0.0019070040161686399 0 0.00027734227201790129 0.0019162802271367862 0 0.00036437768477387642 0.0019070040161686399 0 0.00027734227201790129 0.0019162802271367862 0 0.00032402958967290668 0.0019501902553270469 0 0.00030808917025745158 0.0026298298421046752 0 0.00030801880095076759 0.0026061546631267439 0 0.00029995469076550042 0.0026283744513086039 0 0.00032719942440341218 0.0018492575471860311 0 0.00027734227201790129 0.0019162802271367862 0 0.00026160494966324434 0.0018207077685955106 0 0.00032450216470876719 0.0017937417852390933 0 0.00032719942440341218 0.0018492575471860311 0 0.00026160494966324434 0.0018207077685955106 0 0.00028190966586413293 0.0022232394437988389 0 0.00035173530868768961 0.0023850193700088065 0 0.00064644313643957168 0.0031266750479160411 0 0.00048369690096280261 0.0032002025559654101 0 0.00053923479695931233 0.0033389932686114726 0 0.00035173530868768961 0.0023850193700088065 0 0.00041482851305582879 0.0030775733558232499 0 0.00047345663390271035 0.0029969972367228982 0 0.00064644313643957168 0.0031266750479160411 0 0.00048369690096280261 0.0032002025559654101 0 0.00048369690096280261 0.0032002025559654101 0 0.00053923479695931233 0.0033389932686114726 0 0.00038826516640104729 0.003354913824789195 0 0.00030808917025745158 0.0026298298421046752 0 0.00029995469076550042 0.0026283744513086039 0 0.00030307883771017106 0.0026309761050372898 0 0.00043783638571011721 0.003506731408859964 0 0.00034934111217176507 0.0031610160768786003 0 0.00046309921719703273 0.0035232823906437981 0 0.00025135506932841766 0.0034557398404868136 0 0.00034292851739175161 0.0037420212111683002 0 0.00046309921719703273 0.0035232823906437981 0 0.00034230243259979198 0.0031650201194948755 0 0.00025135506932841766 0.0034557398404868136 0 0.00048369690096280261 0.0032002025559654101 0 0.00038826516640104729 0.003354913824789195 0 0.00034230243259979198 0.0031650201194948755 0 0.00047345663390271035 0.0029969972367228982 0 0.00048369690096280261 0.0032002025559654101 0 0.00034230243259979198 0.0031650201194948755 0 0.00061000902336311202 0.0013528764295481829 0 0.00066466361147610674 0.0012794416373640119 0 0.00063750496388324297 0.0014020118525322615 0 0.0006687091989281247 0.0012813502801097072 0 0.00068878314508639103 0.0012771697961705291 0 0.00066466361147610674 0.0012794416373640119 0 0.00074484839934218703 0.0011541350386404723 0 0.0006290483317407024 0.0011460739153969653 0 0.00065097943370634622 0.0013107265783266887 0 0.00066466361147610674 0.0012794416373640119 0 0.00061362497295483324 0.001287116581126603 0 0.00061000902336311202 0.0013528764295481829 0 0.00066466361147610674 0.0012794416373640119 0 0.00062897618848124998 0.0012863151207884137 0 0.00065097943370634622 0.0013107265783266887 0 0.00066466361147610674 0.0012794416373640119 0 0.00062897618848124998 0.0012863151207884137 0 0.00050855709577411941 0.0014503287579692918 0 0.00055103896348136978 0.0014403387332820651 0 0.00054937516738696817 0.0013878236973882895 0 0.00051156030870372522 0.001472973486347167 0 0.00050855709577411941 0.0014503287579692918 0 0.00055103896348136978 0.0014403387332820651 0 0.00055103896348136978 0.0014403387332820651 0 0.00054937516738696817 0.0013878236973882895 0 0.00054195536381706219 0.0013927582654457119 0 0.00034620510341232675 0.0017468962980749807 0 0.00042241278934637076 0.0017240482608516846 0 0.00038710488947119807 0.0018098796368667903 0 0.00048576599146392673 0.0015779839583549371 0 0.00046529547929584619 0.0016033441912808783 0 0.00057101522646778151 0.0013708170457938556 0 0.00055102948119345387 0.0013851557919987531 0 0.00061000902336311202 0.0013528764295481829 0 0.00054937516738696817 0.0013878236973882895 0 0.00063750496388324297 0.0014020118525322615 0 0.00061000902336311202 0.0013528764295481829 0 0.00062897618848124998 0.0012863151207884137 0 0.00054937516738696817 0.0013878236973882895 0 0.00054937516738696817 0.0013878236973882895 0 0.00056169680047387077 0.0014330126636604851 0 0.00063750496388324297 0.0014020118525322615 0 0.00050898593953897754 0.0014610944279682737 0 0.00054195536381706219 0.0013927582654457119 0 0.00056169680047387077 0.0014330126636604851 0 0.00043497173684927136 0.0016925497719255901 0 0.00046529547929584619 0.0016033441912808783 0 0.00054937516738696817 0.0013878236973882895 0 0.00054195536381706219 0.0013927582654457119 0 0.00056169680047387077 0.0014330126636604851 0 0.00050898593953897754 0.0014610944279682737 0 0.00056169680047387077 0.0014330126636604851 0 0.0005385870175351337 0.0015068820211746839 0 0.00056169680047387077 0.0014330126636604851 0 0.00060300725881612383 0.0014764542811483389 0 0.0005385870175351337 0.0015068820211746839 0 0.00056169680047387077 0.0014330126636604851 0 0.00060300725881612383 0.0014764542811483389 0 0.00063750496388324297 0.0014020118525322615 0 0.00069808330175109043 0.0012645997821711286 0 0.00068878314508639103 0.0012771697961705291 0 0.00079275888090251051 0.0010513240291802641 0 0.00074484839934218703 0.0011541350386404723 0 0.00069748943195929866 0.0010547191460020683 0 0.00074484839934218703 0.0011541350386404723 0 0.00069748943195929866 0.0010547191460020683 0 0.0006290483317407024 0.0011460739153969653 0 0.00069748943195929866 0.0010547191460020683 0 0.0006290483317407024 0.0011460739153969653 0 0.00063491584971053783 0.0010455046731636007 0 0.00057019477501648425 0.0010749619137651973 0 0.0006290483317407024 0.0011460739153969653 0 0.00063491584971053783 0.0010455046731636007 0 0.00057019477501648425 0.0010749619137651973 0 0.00052183840518679866 0.0010569744564167015 0 0.00054795104724102823 0.00101736269334253 0 0.00057019477501648425 0.0010749619137651973 0 0.00054654545795898145 0.0011562687628253929 0 0.00052379936804363293 0.0010903484694764203 0 0.00053183015992507325 0.0011793776190176537 0 0.00062657096663525915 0.0011443234704771237 0 0.00057019477501648425 0.0010749619137651973 0 0.00054654545795898145 0.0011562687628253929 0 0.0006290483317407024 0.0011460739153969653 0 0.00052157440874222682 0.0011822118905097784 0 0.0006290483317407024 0.0011460739153969653 0 0.00060182033428470472 0.001234065316637521 0 0.00066466361147610674 0.0012794416373640119 0 0.0006290483317407024 0.0011460739153969653 0 0.00060182033428470472 0.001234065316637521 0 0.00052157440874222682 0.0011822118905097784 0 0.00060182033428470472 0.001234065316637521 0 0.00054299379605428127 0.0012369274331552008 0 0.00052157440874222682 0.0011822118905097784 0 0.00054299379605428127 0.0012369274331552008 0 0.00050063343648049671 0.0012468005687214314 0 0.00054299379605428127 0.0012369274331552008 0 0.00054973331471767049 0.0012794067553167237 0 0.00050063343648049671 0.0012468005687214314 0 0.00060182033428470472 0.001234065316637521 0 0.00054299379605428127 0.0012369274331552008 0 0.00054973331471767049 0.0012794067553167237 0 0.00060182033428470472 0.001234065316637521 0 0.00054973331471767049 0.0012794067553167237 0 0.00061362497295483324 0.001287116581126603 0 0.00066466361147610674 0.0012794416373640119 0 0.00060182033428470472 0.001234065316637521 0 0.00061362497295483324 0.001287116581126603 0 0.00045797655600855335 0.0012730100356849589 0 0.0004608535680718528 0.0011073689159079875 0 0.00045123805884876507 0.0012274297055249364 0 0.00041862182867386584 0.0012137037503341954 0 0.00041409351844281806 0.0012596521565813471 0 0.00046523866158781386 0.0012789145534996447 0 0.00050063343648049671 0.0012468005687214314 0 0.00044741888343436856 0.0012069479413361311 0 0.00045123805884876507 0.0012274297055249364 0 0.0004383280988149414 0.0011794172695023669 0 0.00041862182867386584 0.0012137037503341954 0 0.00046523866158781386 0.0012789145534996447 0 0.00050063343648049671 0.0012468005687214314 0 0.00049750949743003817 0.0013021279337507223 0 0.00054973331471767049 0.0012794067553167237 0 0.00050063343648049671 0.0012468005687214314 0 0.00049750949743003817 0.0013021279337507223 0 0.00053183015992507325 0.0011793776190176537 0 0.0004608535680718528 0.0011073689159079875 0 0.00052157440874222682 0.0011822118905097784 0 0.00050063343648049671 0.0012468005687214314 0 0.00044741888343436856 0.0012069479413361311 0 0.0004608535680718528 0.0011073689159079875 0 0.00044948596878801965 0.00082698832511672908 0 0.00049547394929385215 0.00078142753199955542 0 0.00051133632155358599 0.00081057843400815196 0 0.00050121508763587626 0.00081291190786532462 0 0.00045473578431602852 0.0011758444597304734 0 0.00044517444965331681 0.0011215281401069483 0 0.00048397573483749303 0.0011416150898213399 0 0.00044517444965331681 0.0011215281401069483 0 0.00048397573483749303 0.0011416150898213399 0 0.00048983604270604714 0.0011130631346194038 0 0.00044948596878801965 0.00082698832511672908 0 0.00045415366059029487 0.0010499838152551917 0 0.00044478075990525909 0.0011184331575696113 0 0.00048983604270604714 0.0011130631346194038 0 0.00044865998004984793 0.0010894468273856498 0 0.00037169211597968117 0.00052865625738539811 0 0.00044948596878801965 0.00082698832511672908 0 0.0004415892968525356 0.0011005003017524443 0 0.00044478075990525909 0.0011184331575696113 0 0.00044865998004984793 0.0010894468273856498 0 0.00037169211597968117 0.00052865625738539811 0 0.00031639852015019062 0.00023834170506345512 0 0.00031256072733061303 0.00035861584160181337 0 0.00035563498105900559 0.00029121418090364588 0 0.00031639674580283755 0.00038015811830363242 0 0.00048443889218714281 0.0005516423846108902 0 0.00044948596878801965 0.00082698832511672908 0 0.00037169211597968117 0.00052865625738539811 0 0.00048443889218714281 0.0005516423846108902 0 0.00037438833989452585 0.00065561873417868341 0 0.00039965211859102607 0.0006169198875820214 0 0.00036886834844099134 0.00062349028153285734 0 0.00054654545795898145 0.0011562687628253929 0 0.00045473578431602852 0.0011758444597304734 0 0.00048397573483749303 0.0011416150898213399 0 0.00054654545795898145 0.0011562687628253929 0 0.00048397573483749303 0.0011416150898213399 0 0.00048983604270604714 0.0011130631346194038 0 0.00054654545795898145 0.0011562687628253929 0 0.00048983604270604714 0.0011130631346194038 0 0.00052379936804363293 0.0010903484694764203 0 0.00048983604270604714 0.0011130631346194038 0 0.00052379936804363293 0.0010903484694764203 0 0.00048050882276380597 0.0010733861466928547 0 0.00052379936804363293 0.0010903484694764203 0 0.00052183840518679866 0.0010569744564167015 0 0.00048050882276380597 0.0010733861466928547 0 0.00052183840518679866 0.0010569744564167015 0 0.00048050882276380597 0.0010733861466928547 0 0.00048819786683011702 0.0010263983431258795 0 0.00057019477501648425 0.0010749619137651973 0 0.00052379936804363293 0.0010903484694764203 0 0.00052183840518679866 0.0010569744564167015 0 0.00031639852015019062 0.00023834170506345512 0 0.00016205548272129578 -0.00038747294794212712 0 0.00020010362117882914 -0.00019217384035148335 0 0.00019980050884058548 -0.00020359821229242681 0 0.00020472424906813218 -0.00021171382114540816 0 0.00035108798708076151 0.00049961622640349245 0 0.00034601651902215673 0.00040416299598952817 0 0.0001964856509863801 -0.00018995598964508635 0 0.00019980050884058548 -0.00020359821229242681 0 0.00019594701523046305 -0.00021920654265951046 0 0.00045022616323454949 0.0010877254257086629 0 0.00048050882276380597 0.0010733861466928547 0 0.00048819786683011702 0.0010263983431258795 0 0.0001964856509863801 -0.00018995598964508635 0 0.00020010362117882914 -0.00019217384035148335 0 0.00019980050884058548 -0.00020359821229242681 0 0.0004847658516638832 0.00030650891058034972 0 0.00050421081513287119 0.00041688782975401149 0 0.00036591408350435556 0.00049192221902496125 0 0.00037169211597968117 0.00052865625738539811 0 0.00035108798708076151 0.00049961622640349245 0 0.00031639852015019062 0.00023834170506345512 0 0.00035108798708076151 0.00049961622640349245 0 0.00035108798708076151 0.00049961622640349245 0 0.0003472234661857672 0.00088262564643808682 0 0.00048983604270604714 0.0011130631346194038 0 0.00044865998004984793 0.0010894468273856498 0 0.00048050882276380597 0.0010733861466928547 0 0.00019254376089569716 -0.00024008847103397456 0 0.00020709372480098883 -0.00023751952324505853 0 0.00019594701523046305 -0.00021920654265951046 0 0.00020709372480098883 -0.00023751952324505853 0 0.00021207011629876927 -0.00025165181168782343 0 0.00022068034811244459 -0.00024856767690628574 0 0.00020709372480098883 -0.00023751952324505853 0 0.00022068034811244459 -0.00024856767690628574 0 0.00020672194372817548 -0.00022593010517187365 0 0.00051147553269489433 0.0001343798171619331 0 0.00042470979103476683 -2.8506289942527437e-05 0 0.00019254376089569716 -0.00024008847103397456 0 0.00020709372480098883 -0.00023751952324505853 0 0.00021207011629876927 -0.00025165181168782343 0 0.00058484373427817736 0.00034213273062219765 0 0.00062237327376013496 0.00033166111465685229 0 0.00061137792435442804 0.00030372362487944977 0 0.00035563498105900559 0.00029121418090364588 0 0.00031639674580283755 0.00038015811830363242 0 0.00055810541712843394 0.00024711167673438392 0 0.00048443889218714281 0.0005516423846108902 0 0.00051147553269489433 0.0001343798171619331 0 0.00031639852015019062 0.00023834170506345512 0 0.00051147553269489433 0.0001343798171619331 0 0.00022591445461624365 -0.00026294993848222808 0 0.00022517190445042152 -0.00025539546169941872 0 0.00022494790394145579 -0.00025743806780164291 0 0.00022591445461624365 -0.00026294993848222808 0 0.00022068034811244459 -0.00024856767690628574 0 0.00022517190445042152 -0.00025539546169941872 0 0.00022591445461624365 -0.00026294993848222808 0 0.00022068034811244459 -0.00024856767690628574 0 0.00021929682009928179 -0.0002287092371193234 0 0.00021207011629876927 -0.00025165181168782343 0 0.00022068034811244459 -0.00024856767690628574 0 0.00022678208752015936 -0.00025621949619680171 0 0.00022068034811244459 -0.00024856767690628574 0 0.00022517190445042152 -0.00025539546169941872 0 0.00022678208752015936 -0.00025621949619680171 0 0.00022202031565095423 -0.00025184958406514749 0 0.00022494790394145579 -0.00025743806780164291 0 0.00022678208752015936 -0.00025621949619680171 0 0.00022517190445042152 -0.00025539546169941872 0 0.00022494790394145579 -0.00025743806780164291 0 0.00022678208752015936 -0.00025621949619680171 0 0.00038775179723578637 5.8831088046878361e-05 0 0.00042470979103476683 -2.8506289942527437e-05 0 0.00067007286152979213 0.00029274399821963731 0 0.00060544869458640236 0.00030109944235266268 0 0.00064943840605850129 0.0003021587042423481 0 0.00063610778273770225 0.0003102491812208612 0 0.00060868811245552029 0.00030157946936654688 0 0.00055291296366058115 0.00026486704714517818 0 0.00064230647177057338 0.0002496805388051168 0 0.00060868811245552029 0.00030157946936654688 0 0.00064230647177057338 0.0002496805388051168 0 0.00065883896503082231 0.00026127923621769021 0 0.00060868811245552029 0.00030157946936654688 0 0.00069550719335655575 0.00023769319267255996 0 0.00064230647177057338 0.0002496805388051168 0 0.00065883896503082231 0.00026127923621769021 0 0.00064943840605850129 0.0003021587042423481 0 0.00063610778273770225 0.0003102491812208612 0 0.00064488487531518999 0.00030037192993799804 0 0.00068677232732618362 0.00033662019062709623 0 0.00063610778273770225 0.0003102491812208612 0 0.00073466819838761271 0.00029391000036408434 0 0.00062658123889508478 0.00031359966421416302 0 0.00072415653700895423 0.00027793907720841831 0 0.00071996627491694907 0.00035531641177579781 0 0.00068677232732618362 0.00033662019062709623 0 0.00073466819838761271 0.00029391000036408434 0 0.00071996627491694907 0.00035531641177579781 0 0.00068677232732618362 0.00033662019062709623 0 0.00068976333271722305 0.00037310962366482388 0 0.00068677232732618362 0.00033662019062709623 0 0.00064837009186848277 0.00035399757386974707 0 0.00068976333271722305 0.00037310962366482388 0 0.00068677232732618362 0.00033662019062709623 0 0.00063610778273770225 0.0003102491812208612 0 0.00064837009186848277 0.00035399757386974707 0 0.00063610778273770225 0.0003102491812208612 0 0.00061642968225734441 0.00033296093992273815 0 0.00060868811245552029 0.00030157946936654688 0 0.00063610778273770225 0.0003102491812208612 0 0.00061642968225734441 0.00033296093992273815 0 0.00064837009186848277 0.00035399757386974707 0 0.00061642968225734441 0.00033296093992273815 0 0.00064837009186848277 0.00035399757386974707 0 0.00060543240043944369 0.00036869970240978946 0 0.00061642968225734441 0.00033296093992273815 0 0.00058688491913643978 0.00033714499595958384 0 0.00060543240043944369 0.00036869970240978946 0 0.00056061475606514134 0.00036653278604516031 0 0.00058688491913643978 0.00033714499595958384 0 0.00060543240043944369 0.00036869970240978946 0 0.00061642968225734441 0.00033296093992273815 0 0.00058688491913643978 0.00033714499595958384 0 0.00060868811245552029 0.00030157946936654688 0 0.0004383280988149414 0.0011794172695023669 0 0.00040314094373142012 0.001193500358924247 0 0.00041862182867386584 0.0012137037503341954 0 0.00048443889218714281 0.0005516423846108902 0 0.00057137521329029075 0.00064104043383287875 0 0.0004608535680718528 0.0011073689159079875 0 0.00057137521329029075 0.00064104043383287875 0 0.00049547394929385215 0.00078142753199955542 0 0.00051133632155358599 0.00081057843400815196 0 0.00053822804909211565 0.00076898559152438289 0 0.00062237327376013496 0.00033166111465685229 0 0.00061137792435442804 0.00030372362487944977 0 0.00063352895897818653 0.00030958448700755826 0 0.00062237327376013496 0.00033166111465685229 0 0.00064943840605850129 0.0003021587042423481 0 0.00063352895897818653 0.00030958448700755826 0 0.00061137792435442804 0.00030372362487944977 0 0.00063352895897818653 0.00030958448700755826 0 0.00064488487531518999 0.00030037192993799804 0 0.00057137521329029075 0.00064104043383287875 0 0.00072415653700895423 0.00027793907720841831 0 0.00051147553269489433 0.0001343798171619331 0 0.00067007286152979213 0.00029274399821963731 0 0.00064943840605850129 0.0003021587042423481 0 0.00063352895897818653 0.00030958448700755826 0 0.00064488487531518999 0.00030037192993799804 0 0.00057137521329029075 0.00064104043383287875 0 0.00057954086462612484 0.00080882259145915233 0 0.00080026971616278559 0.00028165762545213311 0 0.00073466819838761271 0.00029391000036408434 0 0.00075830519951375895 0.00035583605170389025 0 0.00071996627491694907 0.00035531641177579781 0 0.00073466819838761271 0.00029391000036408434 0 0.00075830519951375895 0.00035583605170389025 0 0.00040314094373142012 0.001193500358924247 0 0.00041862182867386584 0.0012137037503341954 0 0.00039713301839918266 0.0012374969705945575 0 0.00040314094373142012 0.001193500358924247 0 0.00039954064430854932 0.0012317401728812068 0 0.00039713301839918266 0.0012374969705945575 0 0.00041862182867386584 0.0012137037503341954 0 0.00039713301839918266 0.0012374969705945575 0 0.00041409351844281806 0.0012596521565813471 0 0.00039713301839918266 0.0012374969705945575 0 0.00039511295217072311 0.0012705546540060014 0 0.00041409351844281806 0.0012596521565813471 0 0.00039713301839918266 0.0012374969705945575 0 0.00038390233663615221 0.0012728551342017429 0 0.00039511295217072311 0.0012705546540060014 0 0.00039954064430854932 0.0012317401728812068 0 0.00041063182123289859 0.001194749083263003 0 0.00043117244820005369 0.0011991248455098288 0 0.00039954064430854932 0.0012317401728812068 0 0.00039713301839918266 0.0012374969705945575 0 0.00041063182123289859 0.001194749083263003 0 0.00057954086462612484 0.00080882259145915233 0 0.00058339925729372437 0.00083506065112991614 0 0.00039761117414823975 0.0012362542776195829 0 0.00039933540683181163 0.0012317408947601187 0 0.00071996627491694907 0.00035531641177579781 0 0.00075830519951375895 0.00035583605170389025 0 0.00071588033628234606 0.00039132241900840376 0 0.00038390233663615221 0.0012728551342017429 0 0.00038976545214077678 0.0012720330642148553 0 0.00039511295217072311 0.0012705546540060014 0 0.00038390233663615221 0.0012728551342017429 0 0.00038792094828284937 0.0012634359388436892 0 0.00038820799238698786 0.0012697088608990587 0 0.00038390233663615221 0.0012728551342017429 0 0.00038976545214077678 0.0012720330642148553 0 0.00038820799238698786 0.0012697088608990587 0 0.00038976545214077678 0.0012720330642148553 0 0.0003946487097008055 0.0012761737337220129 0 0.00038820799238698786 0.0012697088608990587 0 0.00038976545214077678 0.0012720330642148553 0 0.00039511295217072311 0.0012705546540060014 0 0.0003946487097008055 0.0012761737337220129 0 0.00039511295217072311 0.0012705546540060014 0 0.0003946487097008055 0.0012761737337220129 0 0.00041095122555914894 0.00129820805279725 0 0.00039511295217072311 0.0012705546540060014 0 0.00041409351844281806 0.0012596521565813471 0 0.00041095122555914894 0.00129820805279725 0 0.00056061475606514134 0.00036653278604516031 0 0.00060543240043944369 0.00036869970240978946 0 0.0005720749233396183 0.00043665273659056268 0 0.00064837009186848277 0.00035399757386974707 0 0.00060543240043944369 0.00036869970240978946 0 0.00065736625277266461 0.00041094261201279978 0 0.00060543240043944369 0.00036869970240978946 0 0.00065736625277266461 0.00041094261201279978 0 0.0005720749233396183 0.00043665273659056268 0 0.00075830519951375895 0.00035583605170389025 0 0.00071588033628234606 0.00039132241900840376 0 0.00073778565333789434 0.00046476352873443393 0 0.00065736625277266461 0.00041094261201279978 0 0.00071588033628234606 0.00039132241900840376 0 0.00073778565333789434 0.00046476352873443393 0 0.00065736625277266461 0.00041094261201279978 0 0.00068976333271722305 0.00037310962366482388 0 0.00071588033628234606 0.00039132241900840376 0 0.00064837009186848277 0.00035399757386974707 0 0.00065736625277266461 0.00041094261201279978 0 0.00068976333271722305 0.00037310962366482388 0 0.00071996627491694907 0.00035531641177579781 0 0.00068976333271722305 0.00037310962366482388 0 0.00071588033628234606 0.00039132241900840376 0 0.00073778565333789434 0.00046476352873443393 0 0.00064070838577318502 0.00054277181129642614 0 0.00066101609908112726 0.00072733426917960162 0 0.00041063182123289859 0.001194749083263003 0 0.00043117244820005369 0.0011991248455098288 0 0.0004562614909526034 0.0011382262826042776 0 0.00058339925729372437 0.00083506065112991614 0 0.00056212747407062948 0.00093517854209513598 0 0.00039933540683181163 0.0012317408947601187 0 0.000424715452124231 0.0012007004411933692 0 0.00065736625277266461 0.00041094261201279978 0 0.00073778565333789434 0.00046476352873443393 0 0.00064070838577318502 0.00054277181129642614 0 0.0005173837813533446 0.00060244245222256074 0 0.00056284685218937309 0.0004496903005808665 0 0.00043885396184521806 0.00073892845279799368 0 0.00064070838577318502 0.00054277181129642614 0 0.0005720749233396183 0.00043665273659056268 0 0.00065736625277266461 0.00041094261201279978 0 0.00064070838577318502 0.00054277181129642614 0 0.0005720749233396183 0.00043665273659056268 0 0.0004683932093456046 0.001141761324168044 0 0.0004562614909526034 0.0011382262826042776 0 0.00050409987844210046 0.0010874708752848486 0 0.00043885396184521806 0.00073892845279799368 0 0.00066101609908112726 0.00072733426917960162 0 0.00045168295897207261 0.0011302948794050618 0 0.00043885396184521806 0.00073892845279799368 0 0.00064070838577318502 0.00054277181129642614 0 0.00066101609908112726 0.00072733426917960162 0 0.00039773051083850821 0.0012589372768970449 0 0.0003954500596810633 0.0012398711281934732 0 0.00040343300901674907 0.0012294139646587144 0 0.00043117244820005369 0.0011991248455098288 0 0.0004683932093456046 0.001141761324168044 0 0.0004562614909526034 0.0011382262826042776 0 0.00038390233663615221 0.0012728551342017429 0 0.00039773051083850821 0.0012589372768970449 0 0.00038792094828284937 0.0012634359388436892 0 0.00039295951482290991 0.001249025918507832 0 0.00039773051083850821 0.0012589372768970449 0 0.00038910558137058638 0.0012543738930326561 0 0.00039295951482290991 0.001249025918507832 0 0.00039773051083850821 0.0012589372768970449 0 0.0003954500596810633 0.0012398711281934732 0 0.00039295951482290991 0.001249025918507832 0 0.00038910558137058638 0.0012543738930326561 0 0.00038967483064527089 0.0012428384333364074 0 0.00039773051083850821 0.0012589372768970449 0 0.00038792094828284937 0.0012634359388436892 0 0.00038910558137058638 0.0012543738930326561 0 0.00038910558137058638 0.0012543738930326561 0 0.00038655045959436836 0.0012476083927520228 0 0.00038967483064527089 0.0012428384333364074 0 0.00038655045959436836 0.0012476083927520228 0 0.00038472224674050048 0.0012360094851428134 0 0.0003858199877565098 0.0012454530825649441 0 0.00038655045959436836 0.0012476083927520228 0 0.00038472224674050048 0.0012360094851428134 0 0.00038967483064527089 0.0012428384333364074 0 0.00037678599411976218 0.0012241849657884281 0 0.00038472224674050048 0.0012360094851428134 0 0.0003858199877565098 0.0012454530825649441 0 0.00037678599411976218 0.0012241849657884281 0 0.00038472224674050048 0.0012360094851428134 0 0.00038325395873921422 0.0012257329176639249 0 0.00038325395873921422 0.0012257329176639249 0 0.00039178428189968383 0.0012315507594040727 0 0.00040252643881610092 0.0012192328138525962 0 0.00038472224674050048 0.0012360094851428134 0 0.00038325395873921422 0.0012257329176639249 0 0.00039178428189968383 0.0012315507594040727 0 0.00038472224674050048 0.0012360094851428134 0 0.00039178428189968383 0.0012315507594040727 0 0.00038967483064527089 0.0012428384333364074 0 0.00039295951482290991 0.001249025918507832 0 0.00038967483064527089 0.0012428384333364074 0 0.0003954500596810633 0.0012398711281934732 0 0.00039178428189968383 0.0012315507594040727 0 0.00038967483064527089 0.0012428384333364074 0 0.0003954500596810633 0.0012398711281934732 0 0.00039178428189968383 0.0012315507594040727 0 0.0003954500596810633 0.0012398711281934732 0 0.00040343300901674907 0.0012294139646587144 0 0.00039773051083850821 0.0012589372768970449 0 0.00041128055069012174 0.0012123967209953048 0 0.00042097851354735668 0.0011939369357271763 0 0.000424715452124231 0.0012007004411933692 0 0.00046441355759448409 0.0011276438194244749 0 0.00056212747407062948 0.00093517854209513598 0 0.00046441355759448409 0.0011276438194244749 0 0.00039773051083850821 0.0012589372768970449 0 0.00040343300901674907 0.0012294139646587144 0 0.00041128055069012174 0.0012123967209953048 0 0.00040343300901674907 0.0012294139646587144 0 0.00040632810239539784 0.001218883235837918 0 0.00040252643881610092 0.0012192328138525962 0 0.00040343300901674907 0.0012294139646587144 0 0.00040632810239539784 0.001218883235837918 0 0.00041128055069012174 0.0012123967209953048 0 0.00039178428189968383 0.0012315507594040727 0 0.00040343300901674907 0.0012294139646587144 0 0.00040252643881610092 0.0012192328138525962 0 0.00038325395873921422 0.0012257329176639249 0 0.00040252643881610092 0.0012192328138525962 0 0.00040812412405825677 0.0012086323801601653 0 0.00040252643881610092 0.0012192328138525962 0 0.00040812412405825677 0.0012086323801601653 0 0.00040958668270572093 0.0012081748719762443 0 0.00040252643881610092 0.0012192328138525962 0 0.00040958668270572093 0.0012081748719762443 0 0.00040786419473950731 0.0012143944733750077 0 0.00040632810239539784 0.001218883235837918 0 0.00040252643881610092 0.0012192328138525962 0 0.00040786419473950731 0.0012143944733750077 0 0.00040958668270572093 0.0012081748719762443 0 0.00040786419473950731 0.0012143944733750077 0 0.00041128055069012174 0.0012123967209953048 0 0.00040632810239539784 0.001218883235837918 0 0.00040786419473950731 0.0012143944733750077 0 0.00041128055069012174 0.0012123967209953048 0 0.00040958668270572093 0.0012081748719762443 0 0.00041128055069012174 0.0012123967209953048 0 0.00041369577104233653 0.0011991908002607038 0 0.00041128055069012174 0.0012123967209953048 0 0.00041369577104233653 0.0011991908002607038 0 0.00042097851354735668 0.0011939369357271763 0 0.00041741906624992263 0.001194232833376867 0 0.00040812412405825677 0.0012086323801601653 0 0.00040958668270572093 0.0012081748719762443 0 0.00041741906624992263 0.001194232833376867 0 0.00040958668270572093 0.0012081748719762443 0 0.00041369577104233653 0.0011991908002607038 0 0.00041741906624992263 0.001194232833376867 0 0.00041369577104233653 0.0011991908002607038 0 0.00041644688993782352 0.0011889826581495801 0 0.00041369577104233653 0.0011991908002607038 0 0.00041644688993782352 0.0011889826581495801 0 0.00042097851354735668 0.0011939369357271763 0 0.00041811751419353304 0.0011666861493115257 0 0.00041741906624992263 0.001194232833376867 0 0.00041644688993782352 0.0011889826581495801 0 0.00041811751419353304 0.0011666861493115257 0 0.00041644688993782352 0.0011889826581495801 0 0.00042097851354735668 0.0011939369357271763 0 0.0003946487097008055 0.0012761737337220129 0 0.00038441443858474033 0.001267799397553975 0 0.00041095122555914894 0.00129820805279725 0 0.0003946487097008055 0.0012761737337220129 0 0.0003874682057493818 0.0012597151518422196 0 0.00038782087597655159 0.001259217952676666 0 0.0003946487097008055 0.0012761737337220129 0 0.00038782087597655159 0.001259217952676666 0 0.00038441443858474033 0.001267799397553975 0 0.0003946487097008055 0.0012761737337220129 0 0.00038820799238698786 0.0012697088608990587 0 0.0003874682057493818 0.0012597151518422196 0 0.00038792094828284937 0.0012634359388436892 0 0.00038820799238698786 0.0012697088608990587 0 0.0003874682057493818 0.0012597151518422196 0 0.00038792094828284937 0.0012634359388436892 0 0.00038910558137058638 0.0012543738930326561 0 0.0003874682057493818 0.0012597151518422196 0 0.00038910558137058638 0.0012543738930326561 0 0.00038655045959436836 0.0012476083927520228 0 0.0003874682057493818 0.0012597151518422196 0 0.00038777834340190172 0.0012503989723927295 0 0.00037678599411976218 0.0012241849657884281 0 0.0003858199877565098 0.0012454530825649441 0 0.0003874682057493818 0.0012597151518422196 0 0.0003858199877565098 0.0012454530825649441 0 0.00038782087597655159 0.001259217952676666 0 0.00038777834340190172 0.0012503989723927295 0 0.0003858199877565098 0.0012454530825649441 0 0.00038782087597655159 0.001259217952676666 0 0.00038655045959436836 0.0012476083927520228 0 0.0003874682057493818 0.0012597151518422196 0 0.0003858199877565098 0.0012454530825649441 0 0.00038777834340190172 0.0012503989723927295 0 0.000381036987406592 0.0012558331744806726 0 0.00038782087597655159 0.001259217952676666 0 0.000381036987406592 0.0012558331744806726 0 0.00038782087597655159 0.001259217952676666 0 0.00038441443858474033 0.001267799397553975 0 0.0003279184734491138 0.0014024860671093395 0 0.00040901537901795926 0.0013188846165351944 0 0.0004377675710323349 0.0014502778937356673 0 0.00042556958861301471 0.0013905732135188332 0 0.00046849194130787211 0.0014125525057409115 0 0.00042556958861301471 0.0013905732135188332 0 0.00046815612772565049 0.0013643543290422278 0 0.00041095122555914894 0.00129820805279725 0 0.00040901537901795926 0.0013188846165351944 0 0.00040835723085936421 0.0013024487993488498 0 0.00042556958861301471 0.0013905732135188332 0 0.00046815612772565049 0.0013643543290422278 0 0.00046849194130787211 0.0014125525057409115 0 0.00046815612772565049 0.0013643543290422278 0 0.00049889345642749078 0.0013930601790047847 0 0.00050863006201788273 0.0013543045129312124 0 0.00046815612772565049 0.0013643543290422278 0 0.00049889345642749078 0.0013930601790047847 0 0.00046849194130787211 0.0014125525057409115 0 0.00049889345642749078 0.0013930601790047847 0 0.00046849194130787211 0.0014125525057409115 0 0.00051709204145445849 0.0014373547980884756 0 0.0004377675710323349 0.0014502778937356673 0 0.00046849194130787211 0.0014125525057409115 0 0.00051709204145445849 0.0014373547980884756 0 0.0003279184734491138 0.0014024860671093395 0 0.00033761719398654624 0.0015421106428763389 0 0.00051709204145445849 0.0014373547980884756 0 0.00055532288430917484 0.0014137047068764686 0 0.00054516271504169141 0.0014030203133912683 0 0.00049889345642749078 0.0013930601790047847 0 0.00051709204145445849 0.0014373547980884756 0 0.00054516271504169141 0.0014030203133912683 0 0.00033761719398654624 0.0015421106428763389 0 0.00036628166004719207 0.0014922668988785286 0 0.00055663236001445569 0.0014065834423926925 0 0.00055532288430917484 0.0014137047068764686 0 0.00054516271504169141 0.0014030203133912683 0 0.00055663236001445569 0.0014065834423926925 0 0.00054516271504169141 0.0014030203133912683 0 0.00057077848910268422 0.0013932850897856149 0 0.00054516271504169141 0.0014030203133912683 0 0.00057077848910268422 0.0013932850897856149 0 0.00050863006201788273 0.0013543045129312124 0 0.00049889345642749078 0.0013930601790047847 0 0.00054516271504169141 0.0014030203133912683 0 0.00050863006201788273 0.0013543045129312124 0 0.00057077848910268422 0.0013932850897856149 0 0.00053970515224232337 0.0013296790912210859 0 0.00050863006201788273 0.0013543045129312124 0 0.00053970515224232337 0.0013296790912210859 0 0.00049750949743003817 0.0013021279337507223 0 0.00050863006201788273 0.0013543045129312124 0 0.00065097943370634622 0.0013107265783266887 0 0.00057077848910268422 0.0013932850897856149 0 0.00058620548717731012 0.001321426937083218 0 0.00057077848910268422 0.0013932850897856149 0 0.00058620548717731012 0.001321426937083218 0 0.00053970515224232337 0.0013296790912210859 0 0.00054973331471767049 0.0012794067553167237 0 0.00061362497295483324 0.001287116581126603 0 0.00058620548717731012 0.001321426937083218 0 0.00065097943370634622 0.0013107265783266887 0 0.00061362497295483324 0.001287116581126603 0 0.00058620548717731012 0.001321426937083218 0 0.00054973331471767049 0.0012794067553167237 0 0.00058620548717731012 0.001321426937083218 0 0.00053970515224232337 0.0013296790912210859 0 0.00054973331471767049 0.0012794067553167237 0 0.00053970515224232337 0.0013296790912210859 0 0.00049750949743003817 0.0013021279337507223 0 0.00046523866158781386 0.0012789145534996447 0 0.00049750949743003817 0.0013021279337507223 0 0.00047102447175882738 0.0013191046164416976 0 0.00045797655600855335 0.0012730100356849589 0 0.0004695288395952208 0.001307581215157785 0 0.00045123805884876507 0.0012274297055249364 0 0.00041409351844281806 0.0012596521565813471 0 0.00047102447175882738 0.0013191046164416976 0 0.00041409351844281806 0.0012596521565813471 0 0.00041095122555914894 0.00129820805279725 0 0.00047102447175882738 0.0013191046164416976 0 0.00046815612772565049 0.0013643543290422278 0 0.00041095122555914894 0.00129820805279725 0 0.00047102447175882738 0.0013191046164416976 0 0.00049750949743003817 0.0013021279337507223 0 0.00050863006201788273 0.0013543045129312124 0 0.00047102447175882738 0.0013191046164416976 0 0.00046815612772565049 0.0013643543290422278 0 0.00050863006201788273 0.0013543045129312124 0 0.00047102447175882738 0.0013191046164416976 0 -1.5578178359229376e-05 0.0044891958629282476 0 -6.8590934119629865e-05 0.004487229099372941 0 -6.7412727105186455e-05 0.0045729135771146933 0 -1.5578178359229376e-05 0.0044891958629282476 0 -6.7412727105186455e-05 0.0045729135771146933 0 1.4627634468744775e-05 0.0045888762381616635 0 3.4979946725091015e-06 0.0049999930524846758 0 5.0862611350849761e-06 0.0049998346392154426 0 1.4157556265297721e-08 0.0049999570950859914 0 -3.4217422055792777e-06 0.0047436960077372461 0 9.8473989102502224e-06 0.004793321394378448 0 3.4979946725091015e-06 0.0049999930524846758 0 5.0862611350849761e-06 0.0049998346392154426 0 2.0950482257020475e-05 0.0049917334744469521 0 5.0862611350849761e-06 0.0049998346392154426 0 1.4157556265297721e-08 0.0049999570950859914 0 -1.8983111441489888e-08 0.005000154910829919 0 3.4979946725091015e-06 0.0049999930524846758 0 1.4157556265297721e-08 0.0049999570950859914 0 1.7857274868778455e-06 0.0049987596186015061 0 -6.8590934119629865e-05 0.004487229099372941 0 -0.00010829757829424182 0.0044571134352965752 0 -3.4027746358810656e-05 0.0044173672401657278 0 -1.5578178359229376e-05 0.0044891958629282476 0 -6.8590934119629865e-05 0.004487229099372941 0 -3.4027746358810656e-05 0.0044173672401657278 0 -3.4217422055792777e-06 0.0047436960077372461 0 -2.776233494513837e-05 0.0047116886420086115 0 6.8373790970484467e-05 0.004202933855445087 0 -2.776233494513837e-05 0.0047116886420086115 0 6.8373790970484467e-05 0.004202933855445087 0 9.1960645632669947e-05 0.0041101517557968013 0 0.00026156655645515102 0.0037421450072911088 0 0.00025793760624392417 0.0037373279292996927 0 0.00025618723724311464 0.0037442909364787075 0 -8.7347335730792521e-05 0.0045096069101131543 0 -9.3216687392018181e-05 0.0045266199935130409 0 -8.4855016648421885e-05 0.0044986010732137776 0 -9.3216687392018181e-05 0.0045266199935130409 0 -8.8373580647225751e-05 0.0044724778687923123 0 -8.4855016648421885e-05 0.0044986010732137776 0 -6.8590934119629865e-05 0.004487229099372941 0 -0.00010829757829424182 0.0044571134352965752 0 -9.3216687392018181e-05 0.0045266199935130409 0 6.8373790970484467e-05 0.004202933855445087 0 -9.9964841613519578e-05 0.0046180948748228692 0 -6.8590934119629865e-05 0.004487229099372941 0 -9.3216687392018181e-05 0.0045266199935130409 0 -6.7412727105186455e-05 0.0045729135771146933 0 -9.3216687392018181e-05 0.0045266199935130409 0 -8.2068532465170006e-05 0.0045958982134433161 0 -6.7412727105186455e-05 0.0045729135771146933 0 -9.3216687392018181e-05 0.0045266199935130409 0 -8.8373580647225751e-05 0.0044724778687923123 0 -8.2068532465170006e-05 0.0045958982134433161 0 -8.8373580647225751e-05 0.0044724778687923123 0 -7.1818255871592668e-05 0.0044932480398951827 0 -6.0763834427882965e-05 0.0043656747640117444 0 -8.8373580647225751e-05 0.0044724778687923123 0 -8.2068532465170006e-05 0.0045958982134433161 0 -7.1818255871592668e-05 0.0044932480398951827 0 -8.2068532465170006e-05 0.0045958982134433161 0 -6.0770262098173808e-05 0.004714490395391774 0 -7.4130901963230866e-05 0.0046523637377163824 0 -6.0770262098173808e-05 0.004714490395391774 0 -6.3276491433108207e-06 0.004898804031250063 0 -7.4130901963230866e-05 0.0046523637377163824 0 -8.2068532465170006e-05 0.0045958982134433161 0 -6.0770262098173808e-05 0.004714490395391774 0 -6.7412727105186455e-05 0.0045729135771146933 0 -6.0770262098173808e-05 0.004714490395391774 0 -6.7412727105186455e-05 0.0045729135771146933 0 1.4627634468744775e-05 0.0045888762381616635 0 -1.8983111441489888e-08 0.005000154910829919 0 2.0950482257020475e-05 0.0049917334744469521 0 -6.3276491433108207e-06 0.004898804031250063 0 5.0862611350849761e-06 0.0049998346392154426 0 -1.8983111441489888e-08 0.005000154910829919 0 2.0950482257020475e-05 0.0049917334744469521 0 -6.0770262098173808e-05 0.004714490395391774 0 1.4627634468744775e-05 0.0045888762381616635 0 -6.3276491433108207e-06 0.004898804031250063 0 -1.8983111441489888e-08 0.005000154910829919 0 -6.3276491433108207e-06 0.004898804031250063 0 -8.889348506319547e-09 0.0049991628206082104 0 9.8473989102502224e-06 0.004793321394378448 0 2.899519893923603e-06 0.0048821238736968661 0 9.0959347605510484e-09 0.0049998941286618212 0 -2.5048597227730352e-05 0.0047701954080487984 0 -3.4621899351117505e-08 0.0049997573898985471 0 -3.1844334271356902e-08 0.004999671379315008 0 -1.5371199680433259e-05 0.0048115713399603877 0 -3.1844334271356902e-08 0.004999671379315008 0 -1.5371199680433259e-05 0.0048115713399603877 0 -6.5489995913888564e-08 0.0042598403131174096 0 -3.4621899351117505e-08 0.0049997573898985471 0 5.4655471936359392e-07 0.0048900499217074574 0 -1.5371199680433259e-05 0.0048115713399603877 0 -6.3276491433108207e-06 0.004898804031250063 0 -8.889348506319547e-09 0.0049991628206082104 0 -7.4130901963230866e-05 0.0046523637377163824 0 5.4655471936359392e-07 0.0048900499217074574 0 -1.5371199680433259e-05 0.0048115713399603877 0 -6.4222360969863391e-06 0.004718053120070064 0 -1.5371199680433259e-05 0.0048115713399603877 0 -6.4222360969863391e-06 0.004718053120070064 0 -1.4207740567537366e-05 0.0043846285041908703 0 -1.5371199680433259e-05 0.0048115713399603877 0 -1.4207740567537366e-05 0.0043846285041908703 0 -6.5489995913888564e-08 0.0042598403131174096 0 -4.261099427312391e-05 0.004580788504567084 0 -1.8419532379798189e-05 0.0044216683421332845 0 -6.6240251678746545e-05 0.0044440217926263598 0 -4.4996610704640491e-05 0.0043814334678681241 0 -1.4207740567537366e-05 0.0043846285041908703 0 -6.6240251678746545e-05 0.0044440217926263598 0 -7.1818255871592668e-05 0.0044932480398951827 0 -4.4996610704640491e-05 0.0043814334678681241 0 -2.5048597227730352e-05 0.0047701954080487984 0 -4.261099427312391e-05 0.004580788504567084 0 -8.2068532465170006e-05 0.0045958982134433161 0 -7.4130901963230866e-05 0.0046523637377163824 0 -7.1818255871592668e-05 0.0044932480398951827 0 -7.4130901963230866e-05 0.0046523637377163824 0 -6.6240251678746545e-05 0.0044440217926263598 0 -7.1818255871592668e-05 0.0044932480398951827 0 -7.1818255871592668e-05 0.0044932480398951827 0 -6.0763834427882965e-05 0.0043656747640117444 0 -4.4996610704640491e-05 0.0043814334678681241 0 -6.0763834427882965e-05 0.0043656747640117444 0 -4.5230041775441226e-05 0.0042561217953216383 0 -4.4996610704640491e-05 0.0043814334678681241 0 -6.0763834427882965e-05 0.0043656747640117444 0 -3.8017984116470639e-05 0.0042262205143920855 0 -5.0554943369141231e-05 0.0043469991970596653 0 -6.0763834427882965e-05 0.0043656747640117444 0 -4.5230041775441226e-05 0.0042561217953216383 0 -3.8017984116470639e-05 0.0042262205143920855 0 -4.5230041775441226e-05 0.0042561217953216383 0 -4.4996610704640491e-05 0.0043814334678681241 0 -1.4207740567537366e-05 0.0043846285041908703 0 -4.5230041775441226e-05 0.0042561217953216383 0 -1.4207740567537366e-05 0.0043846285041908703 0 -2.5532930838842206e-05 0.0041062237695993356 0 -1.4207740567537366e-05 0.0043846285041908703 0 -6.5489995913888564e-08 0.0042598403131174096 0 -2.5532930838842206e-05 0.0041062237695993356 0 -2.5532930838842206e-05 0.0041062237695993356 0 -1.1241312823984584e-05 0.0039141914297043121 0 -4.8606666521655252e-08 0.0037096885466382182 0 -6.5489995913888564e-08 0.0042598403131174096 0 -2.5532930838842206e-05 0.0041062237695993356 0 -4.8606666521655252e-08 0.0037096885466382182 0 -2.5532930838842206e-05 0.0041062237695993356 0 -1.1241312823984584e-05 0.0039141914297043121 0 -2.6220081655186224e-05 0.004089872562481371 0 -1.1241312823984584e-05 0.0039141914297043121 0 -2.6220081655186224e-05 0.004089872562481371 0 7.4279103434635502e-06 0.00393863403993469 0 -2.6220081655186224e-05 0.004089872562481371 0 2.4585027825298513e-06 0.004091657530332608 0 7.4279103434635502e-06 0.00393863403993469 0 -4.5230041775441226e-05 0.0042561217953216383 0 -2.6220081655186224e-05 0.004089872562481371 0 -3.8017984116470639e-05 0.0042262205143920855 0 -4.5230041775441226e-05 0.0042561217953216383 0 -2.5532930838842206e-05 0.0041062237695993356 0 -2.6220081655186224e-05 0.004089872562481371 0 -2.6220081655186224e-05 0.004089872562481371 0 -3.8017984116470639e-05 0.0042262205143920855 0 2.4585027825298513e-06 0.004091657530332608 0 -3.8017984116470639e-05 0.0042262205143920855 0 2.4585027825298513e-06 0.004091657530332608 0 -5.6652492342028924e-06 0.0042076111990272573 0 2.4585027825298513e-06 0.004091657530332608 0 -5.6652492342028924e-06 0.0042076111990272573 0 2.924951461031781e-05 0.0041063905388148622 0 -5.6652492342028924e-06 0.0042076111990272573 0 4.4866165221639457e-05 0.004186054154317019 0 2.924951461031781e-05 0.0041063905388148622 0 -5.6652492342028924e-06 0.0042076111990272573 0 -9.7469142879798906e-06 0.0043349566372528408 0 4.4866165221639457e-05 0.004186054154317019 0 0.00011773118206039675 0.0040517093348038892 0 0.00013178514551211734 0.0040053450947123582 0 0.00025354702056845272 0.0037631254629465409 0 0.00023120119678240639 0.0037480083359448242 0 0.00024448849288132436 0.0038191502944940406 0 0.00011773118206039675 0.0040517093348038892 0 9.2888321452443693e-05 0.0040974460390399764 0 -5.6652492342028924e-06 0.0042076111990272573 0 -9.7469142879798906e-06 0.0043349566372528408 0 -5.0554943369141231e-05 0.0043469991970596653 0 -3.8017984116470639e-05 0.0042262205143920855 0 -5.6652492342028924e-06 0.0042076111990272573 0 -5.0554943369141231e-05 0.0043469991970596653 0 -8.8373580647225751e-05 0.0044724778687923123 0 -6.0763834427882965e-05 0.0043656747640117444 0 -5.0554943369141231e-05 0.0043469991970596653 0 -8.8373580647225751e-05 0.0044724778687923123 0 -5.0554943369141231e-05 0.0043469991970596653 0 -5.6963921545753935e-05 0.0044420899083408459 0 -9.7469142879798906e-06 0.0043349566372528408 0 -5.0554943369141231e-05 0.0043469991970596653 0 -5.6963921545753935e-05 0.0044420899083408459 0 0.00025228291679219337 0.0037490231094520583 0 0.00025258080858215563 0.0037355635007780955 0 0.00024724810796595675 0.0037385008820554257 0 0.00025228291679219337 0.0037490231094520583 0 0.00025618723724311464 0.0037442909364787075 0 0.00025258080858215563 0.0037355635007780955 0 9.2888321452443693e-05 0.0040974460390399764 0 9.1960645632669947e-05 0.0041101517557968013 0 -8.8373580647225751e-05 0.0044724778687923123 0 -5.6963921545753935e-05 0.0044420899083408459 0 -8.4855016648421885e-05 0.0044986010732137776 0 0.00025793760624392417 0.0037373279292996927 0 0.00025618723724311464 0.0037442909364787075 0 0.00025258080858215563 0.0037355635007780955 0 0.00025258080858215563 0.0037355635007780955 0 0.00024724810796595675 0.0037385008820554257 0 0.00024244450902023129 0.0037256568574766794 0 0.00024724810796595675 0.0037385008820554257 0 0.00023432450323676411 0.0037320434234516114 0 0.00024244450902023129 0.0037256568574766794 0 0.00023432450323676411 0.0037320434234516114 0 0.00022896481536651561 0.0037191083432767287 0 0.00024244450902023129 0.0037256568574766794 0 0.00023432450323676411 0.0037320434234516114 0 0.00022044415215591895 0.0037203882564337443 0 0.00022896481536651561 0.0037191083432767287 0 0.00025354702056845272 0.0037631254629465409 0 0.00023432450323676411 0.0037320434234516114 0 0.00023120119678240639 0.0037480083359448242 0 0.00023432450323676411 0.0037320434234516114 0 0.00021954514764697554 0.0037273929671075698 0 0.00023120119678240639 0.0037480083359448242 0 0.00025354702056845272 0.0037631254629465409 0 0.00025228291679219337 0.0037490231094520583 0 0.00024724810796595675 0.0037385008820554257 0 0.00025354702056845272 0.0037631254629465409 0 0.00024724810796595675 0.0037385008820554257 0 0.00023432450323676411 0.0037320434234516114 0 0.00029267925467607082 0.0033378508898964936 0 -6.4429792651705817e-05 0.0035893576443679171 0 0.0001916133306041845 0.0037156418750387806 0 0.00024618596036023004 0.00353137964880725 0 0.00020357475146677296 0.0037003336444504423 0 0.00021954514764697554 0.0037273929671075698 0 0.0001916133306041845 0.0037156418750387806 0 0.00023120119678240639 0.0037480083359448242 0 0.00021954514764697554 0.0037273929671075698 0 0.00021315853672692389 0.0037224279148469802 0 0.0001916133306041845 0.0037156418750387806 0 0.00021954514764697554 0.0037273929671075698 0 0.00022044415215591895 0.0037203882564337443 0 0.00021315853672692389 0.0037224279148469802 0 0.00023432450323676411 0.0037320434234516114 0 0.00021954514764697554 0.0037273929671075698 0 0.00022044415215591895 0.0037203882564337443 0 0.00029267925467607082 0.0033378508898964936 0 -3.7906476041906862e-06 0.0031442160439611832 0 -6.4429792651705817e-05 0.0035893576443679171 0 0.0001142972488878341 0.002731417533008661 0 -1.208724666274803e-05 0.0027670798400849504 0 0.00013580749352266728 0.002882339942389788 0 6.1424471451024961e-05 0.0029362946199946779 0 4.0991053325266065e-05 0.0032377174086858857 0 -1.208724666274803e-05 0.0027670798400849504 0 0.00013580749352266728 0.002882339942389788 0 1.9132065683580495e-05 0.0029951936778616051 0 -1.208724666274803e-05 0.0027670798400849504 0 1.9132065683580495e-05 0.0029951936778616051 0 -0.00010181817455647226 0.0028790666468728665 0 -6.4429792651705817e-05 0.0035893576443679171 0 -3.1205067489689059e-05 0.0038317248056284098 0 7.3693896756525944e-05 0.0037943413661669324 0 0.00013580749352266728 0.002882339942389788 0 1.9132065683580495e-05 0.0029951936778616051 0 0.00016018905551456989 0.0032542859312975144 0 4.0991053325266065e-05 0.0032377174086858857 0 5.1021029271546319e-05 0.0035454229789771679 0 1.9132065683580495e-05 0.0029951936778616051 0 -0.00014602870807875075 0.0032328739270555957 0 -0.00010181817455647226 0.0028790666468728665 0 1.9132065683580495e-05 0.0029951936778616051 0 -0.00014602870807875075 0.0032328739270555957 0 0.00016018905551456989 0.0032542859312975144 0 -8.810379078219219e-05 0.0030748550465363252 0 -2.588572471366673e-05 0.0033841829414864291 0 -1.4821162866822546e-05 0.0035437723349878839 0 0.00016018905551456989 0.0032542859312975144 0 -2.9019645534982813e-05 0.0038687362690131601 0 -3.1205067489689059e-05 0.0038317248056284098 0 -8.2817380457592917e-07 0.003870584370933983 0 -2.9019645534982813e-05 0.0038687362690131601 0 -4.5326414229027895e-05 0.0028922814268887869 0 1.5193184215074e-05 0.0029723532238065831 0 -4.4116980028752598e-05 0.002935454146922159 0 -0.00014602870807875075 0.0032328739270555957 0 -1.4821162866822546e-05 0.0035437723349878839 0 -6.4545553464284683e-05 0.0037920461726657904 0 5.1021029271546319e-05 0.0035454229789771679 0 -1.7668743973860763e-05 0.0038449419472654928 0 -0.00014602870807875075 0.0032328739270555957 0 -1.4821162866822546e-05 0.0035437723349878839 0 0.00016018905551456989 0.0032542859312975144 0 -3.1205067489689059e-05 0.0038317248056284098 0 5.8878849301618888e-05 0.0038748645085130398 0 7.3693896756525944e-05 0.0037943413661669324 0 -3.1205067489689059e-05 0.0038317248056284098 0 2.5991896880726258e-05 0.0038832203790460291 0 -8.2817380457592917e-07 0.003870584370933983 0 2.5991896880726258e-05 0.0038832203790460291 0 5.8878849301618888e-05 0.0038748645085130398 0 6.8827978492002169e-05 0.0039201460382602268 0 -3.1205067489689059e-05 0.0038317248056284098 0 2.5991896880726258e-05 0.0038832203790460291 0 5.8878849301618888e-05 0.0038748645085130398 0 5.8878849301618888e-05 0.0038748645085130398 0 9.794459011776296e-05 0.0039654721647735822 0 6.8827978492002169e-05 0.0039201460382602268 0 5.8878849301618888e-05 0.0038748645085130398 0 0.00015246970374259406 0.0038299543577310353 0 9.794459011776296e-05 0.0039654721647735822 0 5.8878849301618888e-05 0.0038748645085130398 0 0.00015246970374259406 0.0038299543577310353 0 7.3693896756525944e-05 0.0037943413661669324 0 0.00015246970374259406 0.0038299543577310353 0 0.0001916133306041845 0.0037156418750387806 0 0.0002088736736549293 0.0037739432459658563 0 -6.4429792651705817e-05 0.0035893576443679171 0 7.3693896756525944e-05 0.0037943413661669324 0 0.0001916133306041845 0.0037156418750387806 0 0.00015246970374259406 0.0038299543577310353 0 7.3693896756525944e-05 0.0037943413661669324 0 0.0001916133306041845 0.0037156418750387806 0 0.0002088736736549293 0.0037739432459658563 0 0.00023120119678240639 0.0037480083359448242 0 0.00024448849288132436 0.0038191502944940406 0 0.0001916133306041845 0.0037156418750387806 0 0.0002088736736549293 0.0037739432459658563 0 0.00023120119678240639 0.0037480083359448242 0 0.00015246970374259406 0.0038299543577310353 0 0.00024448849288132436 0.0038191502944940406 0 9.794459011776296e-05 0.0039654721647735822 0 4.4866165221639457e-05 0.004186054154317019 0 7.3416987753861671e-05 0.0040303276511928282 0 9.794459011776296e-05 0.0039654721647735822 0 0.00013178514551211734 0.0040053450947123582 0 9.4865176906185062e-05 0.0039806911167421053 0 0.00015246970374259406 0.0038299543577310353 0 0.0002088736736549293 0.0037739432459658563 0 0.00024448849288132436 0.0038191502944940406 0 4.4866165221639457e-05 0.004186054154317019 0 2.924951461031781e-05 0.0041063905388148622 0 7.3416987753861671e-05 0.0040303276511928282 0 2.4585027825298513e-06 0.004091657530332608 0 2.924951461031781e-05 0.0041063905388148622 0 3.6071718166101438e-05 0.0040243407930663335 0 2.924951461031781e-05 0.0041063905388148622 0 7.3416987753861671e-05 0.0040303276511928282 0 3.6071718166101438e-05 0.0040243407930663335 0 7.3416987753861671e-05 0.0040303276511928282 0 3.6071718166101438e-05 0.0040243407930663335 0 4.6468104733985017e-05 0.0039534651336573011 0 2.4585027825298513e-06 0.004091657530332608 0 3.6071718166101438e-05 0.0040243407930663335 0 7.4279103434635502e-06 0.00393863403993469 0 7.3416987753861671e-05 0.0040303276511928282 0 4.6468104733985017e-05 0.0039534651336573011 0 0.0001014033654728054 0.0039388703241790097 0 8.3640763094262264e-05 0.0039981444234707666 0 7.3738183374162783e-05 0.0039875048141255571 0 7.3416987753861671e-05 0.0040303276511928282 0 9.794459011776296e-05 0.0039654721647735822 0 9.4961469558451774e-05 0.0039260871192065248 0 9.794459011776296e-05 0.0039654721647735822 0 9.4961469558451774e-05 0.0039260871192065248 0 6.8827978492002169e-05 0.0039201460382602268 0 4.6468104733985017e-05 0.0039534651336573011 0 4.4776087043306115e-05 0.0037848088998981848 0 7.4279103434635502e-06 0.00393863403993469 0 4.6468104733985017e-05 0.0039534651336573011 0 4.4776087043306115e-05 0.0037848088998981848 0 0.0001014033654728054 0.0039388703241790097 0 3.6071718166101438e-05 0.0040243407930663335 0 4.6468104733985017e-05 0.0039534651336573011 0 7.4279103434635502e-06 0.00393863403993469 0 1.4313565429286454e-05 0.0036819278914161546 0 -4.8606666521655252e-08 0.0037096885466382182 0 1.1352126019803943e-07 0.0033008729543699371 0 -1.1241312823984584e-05 0.0039141914297043121 0 7.4279103434635502e-06 0.00393863403993469 0 1.4313565429286454e-05 0.0036819278914161546 0 4.4776087043306115e-05 0.0037848088998981848 0 7.4279103434635502e-06 0.00393863403993469 0 1.4313565429286454e-05 0.0036819278914161546 0 4.4776087043306115e-05 0.0037848088998981848 0 1.4313565429286454e-05 0.0036819278914161546 0 7.6352465357007313e-05 0.0034711204414492715 0 -1.1241312823984584e-05 0.0039141914297043121 0 1.4313565429286454e-05 0.0036819278914161546 0 -4.8606666521655252e-08 0.0037096885466382182 0 4.388507173166276e-06 0.0032564485687162355 0 1.1352126019803943e-07 0.0033008729543699371 0 3.7265941793792865e-08 0.0029976970177836831 0 4.388507173166276e-06 0.0032564485687162355 0 1.1352126019803943e-07 0.0033008729543699371 0 7.6352465357007313e-05 0.0034711204414492715 0 1.4313565429286454e-05 0.0036819278914161546 0 1.1352126019803943e-07 0.0033008729543699371 0 7.6352465357007313e-05 0.0034711204414492715 0 9.9025206386476737e-05 0.0034929970245461688 0 8.13381971294708e-05 0.0035207658870360136 0 4.4776087043306115e-05 0.0037848088998981848 0 7.6352465357007313e-05 0.0034711204414492715 0 0.00022638862919681577 0.0037769419307000156 0 4.388507173166276e-06 0.0032564485687162355 0 7.6352465357007313e-05 0.0034711204414492715 0 -2.6265751420475039e-06 0.0033031263007843757 0 8.13381971294708e-05 0.0035207658870360136 0 1.181687092099426e-05 0.0031562180316643167 0 7.6352465357007313e-05 0.0034711204414492715 0 6.2637499381323393e-05 0.0033230386659343428 0 -2.6265751420475039e-06 0.0033031263007843757 0 4.1478426390556623e-05 0.0030453184354443091 0 6.8364169383726408e-06 0.0030155085903711461 0 -1.9615535954792863e-06 0.0030805451483390698 0 4.1478426390556623e-05 0.0030453184354443091 0 6.8364169383726408e-06 0.0030155085903711461 0 1.5193184215074e-05 0.0029723532238065831 0 8.13381971294708e-05 0.0035207658870360136 0 7.3738183374162783e-05 0.0039875048141255571 0 4.4904304368688577e-06 0.0040742799680220602 0 9.4961469558451774e-05 0.0039260871192065248 0 3.5409428198493088e-05 0.0039055107197756692 0 4.4776087043306115e-05 0.0037848088998981848 0 0.00022638862919681577 0.0037769419307000156 0 0.0001014033654728054 0.0039388703241790097 0 9.4961469558451774e-05 0.0039260871192065248 0 3.5409428198493088e-05 0.0039055107197756692 0 6.8827978492002169e-05 0.0039201460382602268 0 3.5409428198493088e-05 0.0039055107197756692 0 -8.2817380457592917e-07 0.003870584370933983 0 -2.9019645534982813e-05 0.0038687362690131601 0 2.5991896880726258e-05 0.0038832203790460291 0 3.5409428198493088e-05 0.0039055107197756692 0 -8.2817380457592917e-07 0.003870584370933983 0 2.5991896880726258e-05 0.0038832203790460291 0 3.5409428198493088e-05 0.0039055107197756692 0 6.8827978492002169e-05 0.0039201460382602268 0 8.13381971294708e-05 0.0035207658870360136 0 -2.588572471366673e-05 0.0033841829414864291 0 4.4904304368688577e-06 0.0040742799680220602 0 3.5409428198493088e-05 0.0039055107197756692 0 -2.9019645534982813e-05 0.0038687362690131601 0 4.4904304368688577e-06 0.0040742799680220602 0 -2.9019645534982813e-05 0.0038687362690131601 0 -6.4545553464284683e-05 0.0037920461726657904 0 6.8364169383726408e-06 0.0030155085903711461 0 1.5193184215074e-05 0.0029723532238065831 0 -2.5934322973432638e-05 0.0029818376311566037 0 -1.4821162866822546e-05 0.0035437723349878839 0 -2.9019645534982813e-05 0.0038687362690131601 0 -6.4545553464284683e-05 0.0037920461726657904 0 1.5193184215074e-05 0.0029723532238065831 0 -2.5934322973432638e-05 0.0029818376311566037 0 -4.4116980028752598e-05 0.002935454146922159 0 -6.9538523134009755e-05 0.0029494348082925404 0 -2.5934322973432638e-05 0.0029818376311566037 0 -4.4116980028752598e-05 0.002935454146922159 0 -6.9538523134009755e-05 0.0029494348082925404 0 -5.1901610615193143e-05 0.0029947494705701064 0 -2.5934322973432638e-05 0.0029818376311566037 0 -5.1901610615193143e-05 0.0029947494705701064 0 -2.5934322973432638e-05 0.0029818376311566037 0 -2.2092067929969776e-05 0.0030253581139962093 0 6.8364169383726408e-06 0.0030155085903711461 0 -2.5934322973432638e-05 0.0029818376311566037 0 -2.2092067929969776e-05 0.0030253581139962093 0 -8.9038319831528541e-05 0.0029955079658711956 0 -0.00014315949206130575 0.0029542627610261471 0 -0.00011748640612785684 0.0029191587260340808 0 -6.9538523134009755e-05 0.0029494348082925404 0 -8.9038319831528541e-05 0.0029955079658711956 0 -0.00011748640612785684 0.0029191587260340808 0 -6.9538523134009755e-05 0.0029494348082925404 0 -5.1901610615193143e-05 0.0029947494705701064 0 -8.9038319831528541e-05 0.0029955079658711956 0 -8.9038319831528541e-05 0.0029955079658711956 0 -3.9961411937365796e-05 0.0030482018889804586 0 -6.6740431231642031e-05 0.0030600572366105399 0 -8.9038319831528541e-05 0.0029955079658711956 0 -6.6740431231642031e-05 0.0030600572366105399 0 -0.00012174088119709424 0.0030240232062888539 0 -5.1901610615193143e-05 0.0029947494705701064 0 -8.9038319831528541e-05 0.0029955079658711956 0 -3.9961411937365796e-05 0.0030482018889804586 0 -3.9961411937365796e-05 0.0030482018889804586 0 -2.2092067929969776e-05 0.0030253581139962093 0 -1.9615535954792863e-06 0.0030805451483390698 0 6.8364169383726408e-06 0.0030155085903711461 0 -2.2092067929969776e-05 0.0030253581139962093 0 -1.9615535954792863e-06 0.0030805451483390698 0 -5.1901610615193143e-05 0.0029947494705701064 0 -3.9961411937365796e-05 0.0030482018889804586 0 -2.2092067929969776e-05 0.0030253581139962093 0 -3.9961411937365796e-05 0.0030482018889804586 0 -1.9615535954792863e-06 0.0030805451483390698 0 -2.6282802800214821e-05 0.0030852177786735106 0 -1.9615535954792863e-06 0.0030805451483390698 0 -2.6282802800214821e-05 0.0030852177786735106 0 -1.4393640340900359e-06 0.00313137383337376 0 1.181687092099426e-05 0.0031562180316643167 0 -1.7136095131385354e-05 0.0031609779218366623 0 -2.6265751420475039e-06 0.0033031263007843757 0 -1.4393640340900359e-06 0.00313137383337376 0 -3.4322148011527143e-06 0.0031652636116298208 0 -3.9961411937365796e-05 0.0030482018889804586 0 -6.6740431231642031e-05 0.0030600572366105399 0 -2.6282802800214821e-05 0.0030852177786735106 0 -6.6740431231642031e-05 0.0030600572366105399 0 -2.6282802800214821e-05 0.0030852177786735106 0 -4.3920123196577593e-05 0.0031026416528848982 0 -2.6282802800214821e-05 0.0030852177786735106 0 -4.3920123196577593e-05 0.0031026416528848982 0 -1.4393640340900359e-06 0.00313137383337376 0 -1.4393640340900359e-06 0.00313137383337376 0 -2.1916693579291989e-05 0.0031387379179054265 0 3.7265941793792865e-08 0.0029976970177836831 0 -1.6936181107330269e-05 0.0029720025322903521 0 -7.0520926593919792e-08 0.0029970527416458958 0 -1.1605085707215771e-05 0.0027818304934515629 0 6.4223221265928865e-08 0.0029970138565436556 0 -6.4370611414493911e-08 0.002801033989992604 0 -4.3920123196577593e-05 0.0031026416528848982 0 -1.4393640340900359e-06 0.00313137383337376 0 -2.1916693579291989e-05 0.0031387379179054265 0 -1.4393640340900359e-06 0.00313137383337376 0 3.7265941793792865e-08 0.0029976970177836831 0 -3.4322148011527143e-06 0.0031652636116298208 0 4.388507173166276e-06 0.0032564485687162355 0 3.7265941793792865e-08 0.0029976970177836831 0 -3.4322148011527143e-06 0.0031652636116298208 0 4.388507173166276e-06 0.0032564485687162355 0 -2.6265751420475039e-06 0.0033031263007843757 0 -3.4322148011527143e-06 0.0031652636116298208 0 4.6655744400292235e-08 0.0026051408398398293 0 -5.0187089142460949e-05 0.0026908110456376178 0 -2.4306156690543404e-05 0.002453334158562589 0 1.0821528312697829e-07 0.0026049162530463492 0 1.9102354672322711e-05 0.0024588098511606035 0 -1.1605085707215771e-05 0.0027818304934515629 0 6.3913004343444688e-08 0.0026056080586851563 0 1.6447071639686788e-05 0.0027570508325110085 0 -1.1605085707215771e-05 0.0027818304934515629 0 6.3913004343444688e-08 0.0026056080586851563 0 -6.4370611414493911e-08 0.002801033989992604 0 -6.6740431231642031e-05 0.0030600572366105399 0 -4.3920123196577593e-05 0.0031026416528848982 0 -0.00012480891677548302 0.0030966631381994275 0 -1.6936181107330269e-05 0.0029720025322903521 0 -5.0187089142460949e-05 0.0026908110456376178 0 -4.3920123196577593e-05 0.0031026416528848982 0 -2.1916693579291989e-05 0.0031387379179054265 0 -0.00012480891677548302 0.0030966631381994275 0 -6.6740431231642031e-05 0.0030600572366105399 0 -0.00012480891677548302 0.0030966631381994275 0 -0.00012174088119709424 0.0030240232062888539 0 -5.0187089142460949e-05 0.0026908110456376178 0 -0.00016292935597830014 0.0027962948280142973 0 -4.2202676673439951e-05 0.0024061416809655544 0 -5.0187089142460949e-05 0.0026908110456376178 0 -2.4306156690543404e-05 0.002453334158562589 0 -1.8972139360823785e-05 0.002487555732024695 0 1.9102354672322711e-05 0.0024588098511606035 0 -1.8972139360823785e-05 0.002487555732024695 0 -0.00015279782210404037 0.002422931068912954 0 -0.00010944637653790785 0.0025360802757904951 0 -1.8972139360823785e-05 0.002487555732024695 0 -0.00010944637653790785 0.0025360802757904951 0 -5.9741523980373572e-05 0.002591318356815784 0 -0.00015279782210404037 0.002422931068912954 0 -0.00010944637653790785 0.0025360802757904951 0 -0.00018713166420759791 0.0025383975841165181 0 -0.00018713166420759791 0.0025383975841165181 0 -0.00020727657038872247 0.002685583024318353 0 -0.00012515913179786633 0.0026594015378319019 0 -8.9038319831528541e-05 0.0029955079658711956 0 -0.00012174088119709424 0.0030240232062888539 0 -0.00014315949206130575 0.0029542627610261471 0 -0.00016292935597830014 0.0027962948280142973 0 -0.00016939448100709238 0.0028105227556085716 0 -0.00010944637653790785 0.0025360802757904951 0 -0.00018713166420759791 0.0025383975841165181 0 -0.00012515913179786633 0.0026594015378319019 0 -0.00010944637653790785 0.0025360802757904951 0 -5.9741523980373572e-05 0.002591318356815784 0 -0.00012515913179786633 0.0026594015378319019 0 -5.1256093839184902e-05 0.0026870463421959393 0 -5.9741523980373572e-05 0.002591318356815784 0 -0.00012515913179786633 0.0026594015378319019 0 -4.8256828964299033e-05 0.0027711768719623549 0 -8.9867132931492215e-05 0.002722679277579063 0 -0.00013899359470480451 0.0027672144710249578 0 -5.1256093839184902e-05 0.0026870463421959393 0 -0.00012515913179786633 0.0026594015378319019 0 -8.9867132931492215e-05 0.002722679277579063 0 -0.00012515913179786633 0.0026594015378319019 0 -8.9867132931492215e-05 0.002722679277579063 0 -0.00013899359470480451 0.0027672144710249578 0 -4.8256828964299033e-05 0.0027711768719623549 0 -5.1256093839184902e-05 0.0026870463421959393 0 -8.9867132931492215e-05 0.002722679277579063 0 -0.00010575858948530448 0.0028225367476224076 0 -0.00013899359470480451 0.0027672144710249578 0 -0.00013232439933909563 0.0028275571093537696 0 -0.00013899359470480451 0.0027672144710249578 0 -0.00015809271303726135 0.0028179823613683742 0 -0.00013232439933909563 0.0028275571093537696 0 -2.4496639901172893e-05 0.002833618335451107 0 -4.8256828964299033e-05 0.0027711768719623549 0 -0.00013899359470480451 0.0027672144710249578 0 8.0370531444288321e-05 0.00260103322607409 0 -0.00016865669761542343 0.0028314196134642724 0 -0.00013899359470480451 0.0027672144710249578 0 -0.00015809271303726135 0.0028179823613683742 0 -0.00016995674580507015 0.0028412364140982917 0 -0.00015809271303726135 0.0028179823613683742 0 -0.00016995674580507015 0.0028412364140982917 0 -0.00017262670088569356 0.0028247036871614012 0 -0.00016939448100709238 0.0028105227556085716 0 -0.00017059157814755993 0.0028320158043928546 0 -0.00020727657038872247 0.002685583024318353 0 -0.00013899359470480451 0.0027672144710249578 0 -0.00016995674580507015 0.0028412364140982917 0 -0.00020727657038872247 0.002685583024318353 0 -0.00012515913179786633 0.0026594015378319019 0 -0.00013899359470480451 0.0027672144710249578 0 -0.00014315949206130575 0.0029542627610261471 0 -0.00011748640612785684 0.0029191587260340808 0 -0.00016995674580507015 0.0028412364140982917 0 -6.9538523134009755e-05 0.0029494348082925404 0 -0.00011748640612785684 0.0029191587260340808 0 -9.219342455970795e-05 0.0028845247028062566 0 -0.00011748640612785684 0.0029191587260340808 0 -9.219342455970795e-05 0.0028845247028062566 0 -0.00016995674580507015 0.0028412364140982917 0 -6.9538523134009755e-05 0.0029494348082925404 0 -4.4116980028752598e-05 0.002935454146922159 0 -9.219342455970795e-05 0.0028845247028062566 0 -4.5326414229027895e-05 0.0028922814268887869 0 -4.4116980028752598e-05 0.002935454146922159 0 -9.219342455970795e-05 0.0028845247028062566 0 -8.810379078219219e-05 0.0030748550465363252 0 -0.00010666876376613861 0.0029064347550468387 0 -9.219342455970795e-05 0.0028845247028062566 0 -0.00013991231578430318 0.0028448124751521437 0 -0.00010181817455647226 0.0028790666468728665 0 -4.5326414229027895e-05 0.0028922814268887869 0 -9.219342455970795e-05 0.0028845247028062566 0 -0.00010181817455647226 0.0028790666468728665 0 -0.00016995674580507015 0.0028412364140982917 0 -0.00013991231578430318 0.0028448124751521437 0 -0.00017262670088569356 0.0028247036871614012 0 -9.219342455970795e-05 0.0028845247028062566 0 -0.00016995674580507015 0.0028412364140982917 0 -0.00013991231578430318 0.0028448124751521437 0 -0.00013991231578430318 0.0028448124751521437 0 -0.00015210395588303863 0.0028009739890699189 0 -0.0001095038070613977 0.0028015067906429253 0 -0.00013991231578430318 0.0028448124751521437 0 -0.00015210395588303863 0.0028009739890699189 0 -0.00017262670088569356 0.0028247036871614012 0 -1.208724666274803e-05 0.0027670798400849504 0 -0.00010181817455647226 0.0028790666468728665 0 -0.0001095038070613977 0.0028015067906429253 0 -0.00013991231578430318 0.0028448124751521437 0 -0.00010181817455647226 0.0028790666468728665 0 -0.0001095038070613977 0.0028015067906429253 0 -0.00015210395588303863 0.0028009739890699189 0 -0.0001095038070613977 0.0028015067906429253 0 -0.0001062320144623485 0.0027281365394876004 0 -1.208724666274803e-05 0.0027670798400849504 0 -0.0001095038070613977 0.0028015067906429253 0 -0.0001062320144623485 0.0027281365394876004 0 -0.00015210395588303863 0.0028009739890699189 0 -0.00017329355483034967 0.0027232648714812383 0 -0.0001881980128896558 0.0027766972256896452 0 -0.00015210395588303863 0.0028009739890699189 0 -0.0001062320144623485 0.0027281365394876004 0 -0.00017329355483034967 0.0027232648714812383 0 -0.00017329355483034967 0.0027232648714812383 0 -0.0001881980128896558 0.0027766972256896452 0 -0.00024096329442155464 0.0027333742125250208 0 -6.7997195049871958e-05 0.0024100038130504082 0 -0.0001698506819925663 0.0028786442224438533 0 -0.0001881980128896558 0.0027766972256896452 0 -0.00024096329442155464 0.0027333742125250208 0 -0.00020711631128646137 0.0028043431979447651 0 -0.00013611341504400561 0.002834986052543364 0 -0.00013126969275703123 0.0028384727720767739 0 -0.00013926181940443575 0.0028378713655864193 0 6.4001348594849993e-05 0.0018768413510563511 0 0.00019267340270901609 0.0018660679471801493 0 0.00017596089483719698 0.00178840565474904 0 0.00024625018136438677 0.0017952476624537152 0 0.00019267340270901609 0.0018660679471801493 0 0.00017596089483719698 0.00178840565474904 0 -6.7997195049871958e-05 0.0024100038130504082 0 5.0312730364667368e-05 0.0022659555300977995 0 -0.00015809271303726135 0.0028179823613683742 0 -0.00013232439933909563 0.0028275571093537696 0 -0.00013926181940443575 0.0028378713655864193 0 -0.00013126969275703123 0.0028384727720767739 0 -0.00013232439933909563 0.0028275571093537696 0 -0.00013926181940443575 0.0028378713655864193 0 -0.00010575858948530448 0.0028225367476224076 0 -0.00013126969275703123 0.0028384727720767739 0 -0.00013232439933909563 0.0028275571093537696 0 8.0370531444288321e-05 0.00260103322607409 0 5.0312730364667368e-05 0.0022659555300977995 0 -0.00016432299338160915 0.0027930894549500181 0 -0.0001698506819925663 0.0028786442224438533 0 -0.00015809271303726135 0.0028179823613683742 0 -0.00017262670088569356 0.0028247036871614012 0 -0.00020711631128646137 0.0028043431979447651 0 -0.0001881980128896558 0.0027766972256896452 0 -0.00017262670088569356 0.0028247036871614012 0 -0.00020711631128646137 0.0028043431979447651 0 -0.00015210395588303863 0.0028009739890699189 0 -0.0001881980128896558 0.0027766972256896452 0 -0.00017262670088569356 0.0028247036871614012 0 -7.3835258002145121e-05 0.0024035360285326792 0 1.5104828585698448e-05 0.0024415402608192233 0 -5.4628219309461372e-05 0.0025085057409010166 0 0.00024634475022220018 0.0022334399503866178 0 1.7582004819829647e-05 0.0021346443723653081 0 0.0002043921634051494 0.0019686210610963734 0 6.4001348594849993e-05 0.0018768413510563511 0 1.7582004819829647e-05 0.0021346443723653081 0 0.0002043921634051494 0.0019686210610963734 0 -6.7997195049871958e-05 0.0024100038130504082 0 2.9860424587452682e-05 0.0022237198456287574 0 6.4001348594849993e-05 0.0018768413510563511 0 0.00019267340270901609 0.0018660679471801493 0 0.0002043921634051494 0.0019686210610963734 0 7.6708675721068687e-06 0.0022886914772189105 0 -7.3835258002145121e-05 0.0024035360285326792 0 1.5104828585698448e-05 0.0024415402608192233 0 -0.00017329355483034967 0.0027232648714812383 0 -0.00024096329442155464 0.0027333742125250208 0 -0.0002030115056152357 0.0026251363297711242 0 -6.7997195049871958e-05 0.0024100038130504082 0 -0.00015069056812573201 0.0025358544615958576 0 -0.0001062320144623485 0.0027281365394876004 0 -0.00017329355483034967 0.0027232648714812383 0 -0.00014606123126879381 0.0026632247960615626 0 -0.00017329355483034967 0.0027232648714812383 0 -0.0002030115056152357 0.0026251363297711242 0 -0.00014606123126879381 0.0026632247960615626 0 -0.0001062320144623485 0.0027281365394876004 0 -0.00014606123126879381 0.0026632247960615626 0 -6.0538016025208174e-05 0.0026718267716025874 0 -0.00014606123126879381 0.0026632247960615626 0 -6.0538016025208174e-05 0.0026718267716025874 0 -0.0001004445559458624 0.0026238246729442453 0 -1.208724666274803e-05 0.0027670798400849504 0 -0.0001062320144623485 0.0027281365394876004 0 -6.0538016025208174e-05 0.0026718267716025874 0 -6.0538016025208174e-05 0.0026718267716025874 0 -0.0001004445559458624 0.0026238246729442453 0 -2.7633804212374301e-05 0.0025831338595993644 0 -0.00017483536499290057 0.0025685630655186168 0 -0.0001842246313140686 0.0025642549728887493 0 -0.0001004445559458624 0.0026238246729442453 0 -0.00016823026855336103 0.0025734705016015112 0 -2.7633804212374301e-05 0.0025831338595993644 0 -7.3835258002145121e-05 0.0024035360285326792 0 -0.00017814671673082179 0.0025573163256623222 0 -5.4628219309461372e-05 0.0025085057409010166 0 -0.0002030115056152357 0.0026251363297711242 0 -0.00016823026855336103 0.0025734705016015112 0 -0.00017814671673082179 0.0025573163256623222 0 -0.00015069056812573201 0.0025358544615958576 0 -0.00016821179258228507 0.0025455446218689282 0 -0.0002030115056152357 0.0026251363297711242 0 -0.00014606123126879381 0.0026632247960615626 0 -0.00016823026855336103 0.0025734705016015112 0 -0.00014606123126879381 0.0026632247960615626 0 -0.0001004445559458624 0.0026238246729442453 0 -0.00016823026855336103 0.0025734705016015112 0 -0.00017814671673082179 0.0025573163256623222 0 -9.9487689747852643e-05 0.0025824737163229286 0 -5.4628219309461372e-05 0.0025085057409010166 0 -0.00016823026855336103 0.0025734705016015112 0 -0.00017814671673082179 0.0025573163256623222 0 -0.00026350059201267132 0.0025929302389070697 0 -0.00017814671673082179 0.0025573163256623222 0 -9.9487689747852643e-05 0.0025824737163229286 0 -0.00019254493966972051 0.002654619941543335 0 -0.00016823026855336103 0.0025734705016015112 0 -0.00026350059201267132 0.0025929302389070697 0 -0.00033393779210588791 0.0025272128186770216 0 -0.00017814671673082179 0.0025573163256623222 0 -0.00026350059201267132 0.0025929302389070697 0 -0.00019254493966972051 0.002654619941543335 0 -0.00031722132513358414 0.0027114384824933422 0 -0.00023626260194419837 0.0027701317528779842 0 -0.00019254493966972051 0.002654619941543335 0 -0.00026350059201267132 0.0025929302389070697 0 -0.00031722132513358414 0.0027114384824933422 0 -0.00019254493966972051 0.002654619941543335 0 -0.00031722132513358414 0.0027114384824933422 0 -0.00023626260194419837 0.0027701317528779842 0 -0.00032186891865338573 0.0028355524163112219 0 -9.9487689747852643e-05 0.0025824737163229286 0 -0.00019254493966972051 0.002654619941543335 0 -7.5639204510341251e-05 0.0026540990994524376 0 -0.00019254493966972051 0.002654619941543335 0 -0.0001226295287413521 0.00275178469441144 0 -7.5639204510341251e-05 0.0026540990994524376 0 -0.00023626260194419837 0.0027701317528779842 0 -0.00019254493966972051 0.002654619941543335 0 -0.0001226295287413521 0.00275178469441144 0 -0.0001226295287413521 0.00275178469441144 0 1.7365405691049752e-05 0.0027355665910582085 0 -7.5639204510341251e-05 0.0026540990994524376 0 -9.9487689747852643e-05 0.0025824737163229286 0 -7.5639204510341251e-05 0.0026540990994524376 0 4.1682439058378831e-05 0.0025526757669450764 0 1.7365405691049752e-05 0.0027355665910582085 0 -7.5639204510341251e-05 0.0026540990994524376 0 4.1682439058378831e-05 0.0025526757669450764 0 -9.9487689747852643e-05 0.0025824737163229286 0 -5.4628219309461372e-05 0.0025085057409010166 0 4.1682439058378831e-05 0.0025526757669450764 0 1.5104828585698448e-05 0.0024415402608192233 0 -5.4628219309461372e-05 0.0025085057409010166 0 4.1682439058378831e-05 0.0025526757669450764 0 0.00024634475022220018 0.0022334399503866178 0 1.7582004819829647e-05 0.0021346443723653081 0 4.1682439058378831e-05 0.0025526757669450764 0 0.00024634475022220018 0.0022334399503866178 0 0.00028567085604197084 0.0024851057965469703 0 4.1682439058378831e-05 0.0025526757669450764 0 2.9860424587452682e-05 0.0022237198456287574 0 3.6161890988703913e-05 0.0025640908041759769 0 0.00029935806489435085 0.0027334819671685916 0 1.7365405691049752e-05 0.0027355665910582085 0 4.1682439058378831e-05 0.0025526757669450764 0 0.00028567085604197084 0.0024851057965469703 0 0.00029935806489435085 0.0027334819671685916 0 4.1682439058378831e-05 0.0025526757669450764 0 0.00029796428033009638 0.0029426250727208735 0 0.00029935806489435085 0.0027334819671685916 0 8.5910267497827148e-05 0.0029067972411837457 0 0.00029935806489435085 0.0027334819671685916 0 1.7365405691049752e-05 0.0027355665910582085 0 8.5910267497827148e-05 0.0029067972411837457 0 1.7365405691049752e-05 0.0027355665910582085 0 8.5910267497827148e-05 0.0029067972411837457 0 -6.1815036444976123e-05 0.0028543558179590853 0 -0.0001226295287413521 0.00275178469441144 0 1.7365405691049752e-05 0.0027355665910582085 0 -6.1815036444976123e-05 0.0028543558179590853 0 8.5910267497827148e-05 0.0029067972411837457 0 -6.1815036444976123e-05 0.0028543558179590853 0 -4.512543089593435e-05 0.0029789559296808147 0 -6.1815036444976123e-05 0.0028543558179590853 0 -4.512543089593435e-05 0.0029789559296808147 0 -0.00012403170068851362 0.0029233443200108069 0 8.5910267497827148e-05 0.0029067972411837457 0 -4.512543089593435e-05 0.0029789559296808147 0 5.4014547924357871e-05 0.0030251263627139855 0 -4.512543089593435e-05 0.0029789559296808147 0 5.4014547924357871e-05 0.0030251263627139855 0 -2.3131030705593429e-05 0.0030752782117967974 0 5.4014547924357871e-05 0.0030251263627139855 0 -2.3131030705593429e-05 0.0030752782117967974 0 3.4165353183984285e-05 0.0031473581983078444 0 -4.512543089593435e-05 0.0029789559296808147 0 -2.3131030705593429e-05 0.0030752782117967974 0 -0.00010249909812599983 0.0030664694198555289 0 0.00029796428033009638 0.0029426250727208735 0 0.00034230243259979198 0.0031650201194948755 0 0.0001786755893092086 0.003044424620863768 0 0.00029796428033009638 0.0029426250727208735 0 8.5910267497827148e-05 0.0029067972411837457 0 0.0001786755893092086 0.003044424620863768 0 8.5910267497827148e-05 0.0029067972411837457 0 5.4014547924357871e-05 0.0030251263627139855 0 0.0001786755893092086 0.003044424620863768 0 5.4014547924357871e-05 0.0030251263627139855 0 0.0001786755893092086 0.003044424620863768 0 3.4165353183984285e-05 0.0031473581983078444 0 0.0001786755893092086 0.003044424620863768 0 0.00016282660465301483 0.0032600111613080721 0 3.4165353183984285e-05 0.0031473581983078444 0 0.00034230243259979198 0.0031650201194948755 0 0.0001786755893092086 0.003044424620863768 0 0.00016282660465301483 0.0032600111613080721 0 0.00034230243259979198 0.0031650201194948755 0 0.00016282660465301483 0.0032600111613080721 0 0.00025135506932841766 0.0034557398404868136 0 3.4165353183984285e-05 0.0031473581983078444 0 -6.9048137089455436e-05 0.0031347381764415673 0 -7.4396886399141082e-05 0.0032181159788200551 0 -2.3131030705593429e-05 0.0030752782117967974 0 3.4165353183984285e-05 0.0031473581983078444 0 -6.9048137089455436e-05 0.0031347381764415673 0 -6.9048137089455436e-05 0.0031347381764415673 0 -7.4396886399141082e-05 0.0032181159788200551 0 -0.00014955924676280004 0.0031552354598943203 0 -2.3131030705593429e-05 0.0030752782117967974 0 -6.9048137089455436e-05 0.0031347381764415673 0 -0.00010249909812599983 0.0030664694198555289 0 -7.4396886399141082e-05 0.0032181159788200551 0 3.240990732176526e-05 0.0032935789784698691 0 -9.0071073328477214e-05 0.0033475837945526913 0 0.00016282660465301483 0.0032600111613080721 0 3.4165353183984285e-05 0.0031473581983078444 0 3.240990732176526e-05 0.0032935789784698691 0 3.4165353183984285e-05 0.0031473581983078444 0 -7.4396886399141082e-05 0.0032181159788200551 0 3.240990732176526e-05 0.0032935789784698691 0 3.240990732176526e-05 0.0032935789784698691 0 7.8489167126319186e-05 0.0034328965510420895 0 -9.0071073328477214e-05 0.0033475837945526913 0 7.8489167126319186e-05 0.0034328965510420895 0 -9.0071073328477214e-05 0.0033475837945526913 0 -3.9952490236945873e-05 0.0035297291881366973 0 -9.0071073328477214e-05 0.0033475837945526913 0 -3.9952490236945873e-05 0.0035297291881366973 0 -0.00020318564649038086 0.0035075758348303366 0 -3.9952490236945873e-05 0.0035297291881366973 0 -0.00020318564649038086 0.0035075758348303366 0 -9.3118832829177121e-05 0.0036726802482694105 0 7.8489167126319186e-05 0.0034328965510420895 0 -3.9952490236945873e-05 0.0035297291881366973 0 0.00010252594699926546 0.0036419650306023748 0 7.8489167126319186e-05 0.0034328965510420895 0 0.00025135506932841766 0.0034557398404868136 0 0.00010252594699926546 0.0036419650306023748 0 0.00016282660465301483 0.0032600111613080721 0 3.240990732176526e-05 0.0032935789784698691 0 7.8489167126319186e-05 0.0034328965510420895 0 0.00016282660465301483 0.0032600111613080721 0 7.8489167126319186e-05 0.0034328965510420895 0 0.00025135506932841766 0.0034557398404868136 0 -0.00058975396855334152 0.0036516191368733725 0 -0.00030122266139470487 0.0034500028412211819 0 -0.00041913650219968485 0.0037714282224826767 0 -0.00043147549028661373 0.0037718204461033339 0 -0.00041385188092325016 0.0037820200971476364 0 -0.00067841349382034919 0.0035323746730828581 0 -0.00040981468172295119 0.0036004675796499652 0 -0.00033081466681502092 0.0033527871856163512 0 -0.00030122266139470487 0.0034500028412211819 0 -0.00037087383326719968 0.0035110543557511252 0 -0.00040981468172295119 0.0036004675796499652 0 -0.00020318564649038086 0.0035075758348303366 0 -0.00033081466681502092 0.0033527871856163512 0 -0.00040981468172295119 0.0036004675796499652 0 -0.00020318564649038086 0.0035075758348303366 0 -0.00025449959558205502 0.0036701242488586623 0 -0.00014240583195745395 0.0033673765092286268 0 -0.00030122266139470487 0.0034500028412211819 0 -9.0071073328477214e-05 0.0033475837945526913 0 -0.00020318564649038086 0.0035075758348303366 0 -0.00033081466681502092 0.0033527871856163512 0 -0.00018914681399764742 0.003230417097387083 0 -0.00021976502894953073 0.003176026318949502 0 -0.00014955924676280004 0.0031552354598943203 0 -6.9738388381404865e-05 0.0032205574767023301 0 -0.00030122266139470487 0.0034500028412211819 0 -7.4396886399141082e-05 0.0032181159788200551 0 -0.00018914681399764742 0.003230417097387083 0 -0.00014955924676280004 0.0031552354598943203 0 -7.4396886399141082e-05 0.0032181159788200551 0 -9.0071073328477214e-05 0.0033475837945526913 0 -0.00034964397599010358 0.0033446702953907033 0 -0.00014955924676280004 0.0031552354598943203 0 -0.00010249909812599983 0.0030664694198555289 0 -0.00018078351489974476 0.0030524797535976264 0 -6.9048137089455436e-05 0.0031347381764415673 0 -0.00014955924676280004 0.0031552354598943203 0 -0.00010249909812599983 0.0030664694198555289 0 -0.00021976502894953073 0.003176026318949502 0 -0.00014955924676280004 0.0031552354598943203 0 -0.00018078351489974476 0.0030524797535976264 0 -0.00023070441468943484 0.0031667493564236445 0 -0.00034896940799747925 0.0030997920200158732 0 -0.00021976502894953073 0.003176026318949502 0 -0.00033290501325323579 0.0031481263359560588 0 -0.00032759108706080801 0.0032244783751688745 0 -0.00018914681399764742 0.003230417097387083 0 -0.00021976502894953073 0.003176026318949502 0 -0.00032759108706080801 0.0032244783751688745 0 -0.00021976502894953073 0.003176026318949502 0 -0.00028052812842207847 0.0029723471660129809 0 -0.00040458725964902709 0.00302084186021678 0 -0.00028052812842207847 0.0029723471660129809 0 -0.0001938203944506842 0.0029447648235853777 0 -0.00025109136597427925 0.00287644061426383 0 -0.00021976502894953073 0.003176026318949502 0 -0.00028052812842207847 0.0029723471660129809 0 -0.00018078351489974476 0.0030524797535976264 0 -0.00010249909812599983 0.0030664694198555289 0 -0.00018078351489974476 0.0030524797535976264 0 -0.00013252151391988107 0.0029983826592487328 0 -4.512543089593435e-05 0.0029789559296808147 0 -0.00010249909812599983 0.0030664694198555289 0 -0.00013252151391988107 0.0029983826592487328 0 -0.00028052812842207847 0.0029723471660129809 0 -0.00018078351489974476 0.0030524797535976264 0 -0.0001938203944506842 0.0029447648235853777 0 -0.00018078351489974476 0.0030524797535976264 0 -0.0001938203944506842 0.0029447648235853777 0 -0.00013252151391988107 0.0029983826592487328 0 -4.512543089593435e-05 0.0029789559296808147 0 -0.00012403170068851362 0.0029233443200108069 0 -0.00013252151391988107 0.0029983826592487328 0 -0.0001938203944506842 0.0029447648235853777 0 -0.00012403170068851362 0.0029233443200108069 0 -0.00013252151391988107 0.0029983826592487328 0 -6.1815036444976123e-05 0.0028543558179590853 0 -0.00012403170068851362 0.0029233443200108069 0 -0.00017934252575543849 0.0028424438288342777 0 -0.0001938203944506842 0.0029447648235853777 0 -0.00017934252575543849 0.0028424438288342777 0 -0.00025109136597427925 0.00287644061426383 0 -0.0001938203944506842 0.0029447648235853777 0 -0.00012403170068851362 0.0029233443200108069 0 -0.00017934252575543849 0.0028424438288342777 0 -0.00023626260194419837 0.0027701317528779842 0 -0.00017934252575543849 0.0028424438288342777 0 -0.00025109136597427925 0.00287644061426383 0 -0.00023626260194419837 0.0027701317528779842 0 -0.0001226295287413521 0.00275178469441144 0 -0.00017934252575543849 0.0028424438288342777 0 -0.0001226295287413521 0.00275178469441144 0 -6.1815036444976123e-05 0.0028543558179590853 0 -0.00017934252575543849 0.0028424438288342777 0 -0.00028052812842207847 0.0029723471660129809 0 -0.00032186891865338573 0.0028355524163112219 0 -0.00042092761169051641 0.0029005794853086526 0 -0.00028052812842207847 0.0029723471660129809 0 -0.00025109136597427925 0.00287644061426383 0 -0.00032186891865338573 0.0028355524163112219 0 -0.00023626260194419837 0.0027701317528779842 0 -0.00025109136597427925 0.00287644061426383 0 -0.00032186891865338573 0.0028355524163112219 0 -0.00032186891865338573 0.0028355524163112219 0 -0.00042092761169051641 0.0029005794853086526 0 -0.00043808049177978853 0.0027862138839919864 0 -0.00042092761169051641 0.0029005794853086526 0 -0.00056474568813417146 0.0029108456979154941 0 -0.00043808049177978853 0.0027862138839919864 0 -0.00056474568813417146 0.0029108456979154941 0 -0.0005355955699560416 0.0027353181621914183 0 -0.00043808049177978853 0.0027862138839919864 0 -0.00054644044304800316 0.0029535227070106749 0 -0.00034896940799747925 0.0030997920200158732 0 -0.00041407259587524729 0.0031211028834722087 0 -0.00033290501325323579 0.0031481263359560588 0 -0.00039235797677392354 0.0031701373837013823 0 -0.00042092761169051641 0.0029005794853086526 0 -0.00056474568813417146 0.0029108456979154941 0 -0.00040458725964902709 0.00302084186021678 0 -0.00028052812842207847 0.0029723471660129809 0 -0.00042092761169051641 0.0029005794853086526 0 -0.00040458725964902709 0.00302084186021678 0 -0.00033290501325323579 0.0031481263359560588 0 -0.00039235797677392354 0.0031701373837013823 0 -0.00032759108706080801 0.0032244783751688745 0 -0.00039235797677392354 0.0031701373837013823 0 -0.00041818385905210373 0.0032246937091806398 0 -0.00032759108706080801 0.0032244783751688745 0 -0.0003770197315602704 0.0037928731039434151 0 -0.00041385188092325016 0.0037820200971476364 0 -0.0003961357697414116 0.0037599344558183496 0 -0.0003770197315602704 0.0037928731039434151 0 -0.00035362985375645453 0.0037700831970515119 0 -0.0003961357697414116 0.0037599344558183496 0 -0.00039799533769629519 0.0034960700924645503 0 -0.00037087383326719968 0.0035110543557511252 0 -0.00041913650219968485 0.0037714282224826767 0 -0.00041385188092325016 0.0037820200971476364 0 -0.0003961357697414116 0.0037599344558183496 0 -0.00039235797677392354 0.0031701373837013823 0 -0.00041818385905210373 0.0032246937091806398 0 -0.00049460627443579611 0.0031559329723792277 0 -0.00040972519813200635 0.0043020479864000942 0 -0.00041827310525725526 0.0043018393299134282 0 -0.00041833753689068828 0.0043105413422858622 0 -0.00034964573630239237 0.0040542402765384161 0 -0.00037742424654418471 0.0040046962290671397 0 -0.00030705053010228109 0.0037903854459883312 0 -0.00035362985375645453 0.0037700831970515119 0 -0.00028604722652672066 0.0037947760341687834 0 -0.00031115865390239763 0.0038072219737183975 0 -0.00030705053010228109 0.0037903854459883312 0 -0.00035362985375645453 0.0037700831970515119 0 -0.00040061729509973922 0.003619712005654726 0 -0.00037494346448538638 0.0037686004290081341 0 -0.00031836037208130024 0.0038188819360754048 0 -0.00030705053010228109 0.0037903854459883312 0 -0.00028604722652672066 0.0037947760341687834 0 -0.0003770197315602704 0.0037928731039434151 0 -0.00031115865390239763 0.0038072219737183975 0 -0.00035362985375645453 0.0037700831970515119 0 -0.00039799533769629519 0.0034960700924645503 0 -0.00040061729509973922 0.003619712005654726 0 -0.00041818385905210373 0.0032246937091806398 0 -0.00050233407263856596 0.0032279540092519207 0 -0.00049460627443579611 0.0031559329723792277 0 -0.00032561655284161226 0.0038304607100979838 0 -0.00033668018769453462 0.0039435045086101874 0 -0.00027145118085520015 0.0038921209963576568 0 -0.00040061729509973922 0.003619712005654726 0 -0.00041950814139275229 0.0035775428278736351 0 -0.00041407259587524729 0.0031211028834722087 0 -0.00039235797677392354 0.0031701373837013823 0 -0.00049460627443579611 0.0031559329723792277 0 -0.00056474568813417146 0.0029108456979154941 0 -0.00072846537432346011 0.0028202456908848548 0 -0.00063094285783297946 0.0027665268785443792 0 -0.00054644044304800316 0.0029535227070106749 0 -0.0004035970870232784 0.0033399958094034073 0 -0.00056474568813417146 0.0029108456979154941 0 -0.00063094285783297946 0.0027665268785443792 0 -0.0005355955699560416 0.0027353181621914183 0 -0.00041407259587524729 0.0031211028834722087 0 -0.00049460627443579611 0.0031559329723792277 0 -0.00048618208098811567 0.0030892702314446133 0 -0.00033668018769453462 0.0039435045086101874 0 -0.0003488240223208823 0.0040543399720747511 0 -0.00026984465895149064 0.0040202416987094288 0 -0.00041950814139275229 0.0035775428278736351 0 -0.0004035970870232784 0.0033399958094034073 0 -0.00018531177509744322 0.0033456725390616144 0 -0.00019507324531951707 0.0034517032870337592 0 -0.0001171951614394936 0.0034703772063233904 0 -0.00072846537432346011 0.0028202456908848548 0 -0.00071672845349280605 0.0027048517032849783 0 -0.00063094285783297946 0.0027665268785443792 0 -0.0004035970870232784 0.0033399958094034073 0 -0.00043423322960990971 0.0030398428441216242 0 -8.4730176078364641e-05 0.0031335017477607365 0 0.00013330222300203301 0.003645896756685221 0 -0.0001171951614394936 0.0034703772063233904 0 -0.00020509338911396143 0.0035555628086695657 0 -3.4925680078845535e-05 0.0035389583671820144 0 0.00021531718395276594 0.0036987855433296937 0 0.00022444859679659606 0.0037094906029037922 0 0.00023054083007217915 0.003703500917721978 0 -0.00043423322960990971 0.0030398428441216242 0 -8.4730176078364641e-05 0.0031335017477607365 0 -0.00019507324531951707 0.0034517032870337592 0 -0.0001171951614394936 0.0034703772063233904 0 -0.00020509338911396143 0.0035555628086695657 0 -0.00070251879772055634 0.0025889560227367082 0 -0.00060842654291530594 0.0026594440797150483 0 -0.00052780801701582814 0.0025558516749574879 0 -8.4730176078364641e-05 0.0031335017477607365 0 -0.00023330071057896541 0.0025103861996155856 0 -0.00071672845349280605 0.0027048517032849783 0 -0.00070251879772055634 0.0025889560227367082 0 -0.00060842654291530594 0.0026594440797150483 0 -0.00060842654291530594 0.0026594440797150483 0 -0.00063094285783297946 0.0027665268785443792 0 -0.0005355955699560416 0.0027353181621914183 0 -0.00071672845349280605 0.0027048517032849783 0 -0.00060842654291530594 0.0026594440797150483 0 -0.00063094285783297946 0.0027665268785443792 0 -0.0005355955699560416 0.0027353181621914183 0 -0.00043808049177978853 0.0027862138839919864 0 -0.00043163866251060083 0.0026519585697621965 0 -0.0005355955699560416 0.0027353181621914183 0 -0.00043163866251060083 0.0026519585697621965 0 -0.00052488253509505459 0.0026489499202656096 0 -0.00060842654291530594 0.0026594440797150483 0 -0.0005355955699560416 0.0027353181621914183 0 -0.00052488253509505459 0.0026489499202656096 0 -0.00031722132513358414 0.0027114384824933422 0 -0.00032186891865338573 0.0028355524163112219 0 -0.00043808049177978853 0.0027862138839919864 0 -0.00031722132513358414 0.0027114384824933422 0 -0.00043808049177978853 0.0027862138839919864 0 -0.00043163866251060083 0.0026519585697621965 0 -0.00026350059201267132 0.0025929302389070697 0 -0.00031722132513358414 0.0027114384824933422 0 -0.00043163866251060083 0.0026519585697621965 0 -0.00043163866251060083 0.0026519585697621965 0 -0.00052780801701582814 0.0025558516749574879 0 -0.00033393779210588791 0.0025272128186770216 0 -0.00026350059201267132 0.0025929302389070697 0 -0.00043163866251060083 0.0026519585697621965 0 -0.00033393779210588791 0.0025272128186770216 0 -0.00060842654291530594 0.0026594440797150483 0 -0.00052488253509505459 0.0026489499202656096 0 -0.00052780801701582814 0.0025558516749574879 0 -0.00043163866251060083 0.0026519585697621965 0 -0.00052488253509505459 0.0026489499202656096 0 -0.00052780801701582814 0.0025558516749574879 0 6.9343089047955143e-05 0.0025798153100672766 0 4.1759671857387396e-05 0.0026590585731490657 0 0.00013136325364113344 0.0026585667122518402 0 -6.0538016025208174e-05 0.0026718267716025874 0 4.1759671857387396e-05 0.0026590585731490657 0 -2.7633804212374301e-05 0.0025831338595993644 0 6.9343089047955143e-05 0.0025798153100672766 0 4.1759671857387396e-05 0.0026590585731490657 0 -2.7633804212374301e-05 0.0025831338595993644 0 -0.00023330071057896541 0.0025103861996155856 0 -0.0001842246313140686 0.0025642549728887493 0 -1.208724666274803e-05 0.0027670798400849504 0 -6.0538016025208174e-05 0.0026718267716025874 0 4.1759671857387396e-05 0.0026590585731490657 0 6.1424471451024961e-05 0.0029362946199946779 0 0.00012400753416382182 0.002676832919337522 0 0.0001142972488878341 0.002731417533008661 0 4.1759671857387396e-05 0.0026590585731490657 0 0.00013136325364113344 0.0026585667122518402 0 0.0001142972488878341 0.002731417533008661 0 -1.208724666274803e-05 0.0027670798400849504 0 4.1759671857387396e-05 0.0026590585731490657 0 -3.7906476041906862e-06 0.0031442160439611832 0 0.00036076984305674121 0.0028725768891916313 0 0.00013136325364113344 0.0026585667122518402 0 0.00029267925467607082 0.0033378508898964936 0 -3.7906476041906862e-06 0.0031442160439611832 0 0.00036076984305674121 0.0028725768891916313 0 0.00024618596036023004 0.00353137964880725 0 0.00031595742832359649 0.0032834632245930992 0 0.00022044415215591895 0.0037203882564337443 0 0.00021556719750385304 0.0037122794447940937 0 0.00022896481536651561 0.0037191083432767287 0 0.00021556719750385304 0.0037122794447940937 0 0.00022444859679659606 0.0037094906029037922 0 0.00022896481536651561 0.0037191083432767287 0 0.00022044415215591895 0.0037203882564337443 0 0.00021315853672692389 0.0037224279148469802 0 0.00021556719750385304 0.0037122794447940937 0 -8.4730176078364641e-05 0.0031335017477607365 0 0.00031595742832359649 0.0032834632245930992 0 0.00021531718395276594 0.0036987855433296937 0 0.00021556719750385304 0.0037122794447940937 0 0.00022444859679659606 0.0037094906029037922 0 0.00035394079887875895 0.0025040321565939477 0 6.9343089047955143e-05 0.0025798153100672766 0 0.00013136325364113344 0.0026585667122518402 0 0.00035394079887875895 0.0025040321565939477 0 0.00036076984305674121 0.0028725768891916313 0 0.00013136325364113344 0.0026585667122518402 0 0.00024189198835755386 0.003716188839873551 0 0.00023310702987199637 0.0037137270453236225 0 0.00024244450902023129 0.0037256568574766794 0 0.00024189198835755386 0.003716188839873551 0 0.00023310702987199637 0.0037137270453236225 0 0.00023054083007217915 0.003703500917721978 0 0.00022444859679659606 0.0037094906029037922 0 0.00023310702987199637 0.0037137270453236225 0 0.00023054083007217915 0.003703500917721978 0 0.00022444859679659606 0.0037094906029037922 0 0.00023310702987199637 0.0037137270453236225 0 0.00022896481536651561 0.0037191083432767287 0 0.00023310702987199637 0.0037137270453236225 0 0.00022896481536651561 0.0037191083432767287 0 0.00024244450902023129 0.0037256568574766794 0 0.00024189198835755386 0.003716188839873551 0 0.00024244450902023129 0.0037256568574766794 0 0.00025041389180973479 0.0037252373791052725 0 0.00025258080858215563 0.0037355635007780955 0 0.00024244450902023129 0.0037256568574766794 0 0.00025041389180973479 0.0037252373791052725 0 0.00025793760624392417 0.0037373279292996927 0 0.00025258080858215563 0.0037355635007780955 0 0.00025816867450548648 0.0037311974351477528 0 0.00025258080858215563 0.0037355635007780955 0 0.00025041389180973479 0.0037252373791052725 0 0.00025816867450548648 0.0037311974351477528 0 0.00025041389180973479 0.0037252373791052725 0 0.00025456460447668999 0.0037182790346710843 0 0.00025816867450548648 0.0037311974351477528 0 0.00024189198835755386 0.003716188839873551 0 0.00025041389180973479 0.0037252373791052725 0 0.00025456460447668999 0.0037182790346710843 0 0.00024189198835755386 0.003716188839873551 0 0.00024413707663883239 0.0037078482890089974 0 0.00025456460447668999 0.0037182790346710843 0 9.0755082942109745e-05 0.0038518307719582947 0 0.0002049047923204603 0.0039105197420737309 0 9.0755082942109745e-05 0.0038518307719582947 0 3.5974857359083215e-05 0.0041454587388534995 0 0.00010158231335911522 0.0041086082210707083 0 0.00011829650689478406 0.0041196812642574276 0 0.00011658705037598415 0.0041095557136980347 0 0.00011829650689478406 0.0041196812642574276 0 0.00011658705037598415 0.0041095557136980347 0 0.00012675562307481265 0.0041192166293122076 0 -0.00010458670532763964 0.0041887873118107563 0 -1.157299132819714e-05 0.0041787394174260112 0 -2.0413308111363564e-05 0.0040939780733395322 0 -1.157299132819714e-05 0.0041787394174260112 0 -2.0413308111363564e-05 0.0040939780733395322 0 8.1172439683843955e-05 0.0041692104698989717 0 -0.00010458670532763964 0.0041887873118107563 0 -2.0413308111363564e-05 0.0040939780733395322 0 -0.00013066981029755112 0.0041063314905385971 0 -0.00010458670532763964 0.0041887873118107563 0 -0.00013066981029755112 0.0041063314905385971 0 -0.00022646818526482235 0.0041231647948396719 0 9.0755082942109745e-05 0.0038518307719582947 0 -9.8864104024636189e-05 0.0038293060407362887 0 -0.00013066981029755112 0.0041063314905385971 0 -0.00022646818526482235 0.0041231647948396719 0 -0.00018401980318742686 0.0040436179614823584 0 0.0001371778734230227 0.003521700317462522 0 -3.4925680078845535e-05 0.0035389583671820144 0 -2.36143219285468e-05 0.0034324184046283942 0 9.0755082942109745e-05 0.0038518307719582947 0 0.00013330222300203301 0.003645896756685221 0 0.00024189198835755386 0.003716188839873551 0 0.00024413707663883239 0.0037078482890089974 0 0.00023054083007217915 0.003703500917721978 0 -0.00018531177509744322 0.0033456725390616144 0 -0.0001171951614394936 0.0034703772063233904 0 -2.36143219285468e-05 0.0034324184046283942 0 -0.0004035970870232784 0.0033399958094034073 0 -9.8864104024636189e-05 0.0038293060407362887 0 -0.0001171951614394936 0.0034703772063233904 0 -3.4925680078845535e-05 0.0035389583671820144 0 -2.36143219285468e-05 0.0034324184046283942 0 -0.00026984465895149064 0.0040202416987094288 0 -0.00018401980318742686 0.0040436179614823584 0 -0.00021837411360385115 0.0039773395827503643 0 -0.00022646818526482235 0.0041231647948396719 0 -0.00026984465895149064 0.0040202416987094288 0 -0.00018401980318742686 0.0040436179614823584 0 -0.0003488240223208823 0.0040543399720747511 0 -0.00022646818526482235 0.0041231647948396719 0 -0.00026984465895149064 0.0040202416987094288 0 -0.00013066981029755112 0.0041063314905385971 0 -0.00018401980318742686 0.0040436179614823584 0 -9.5379106932293447e-05 0.0040424711499534799 0 -0.00018401980318742686 0.0040436179614823584 0 -0.00016123537069563862 0.0039874904705614229 0 -9.5379106932293447e-05 0.0040424711499534799 0 -0.00018401980318742686 0.0040436179614823584 0 -0.00016123537069563862 0.0039874904705614229 0 -0.00021837411360385115 0.0039773395827503643 0 -0.00016123537069563862 0.0039874904705614229 0 -0.00018379955128364466 0.0039340727022929324 0 -0.00021837411360385115 0.0039773395827503643 0 -0.00018379955128364466 0.0039340727022929324 0 -0.00021837411360385115 0.0039773395827503643 0 -0.00023091424759986824 0.0039206138186794097 0 -0.00016123537069563862 0.0039874904705614229 0 -0.00018379955128364466 0.0039340727022929324 0 -0.00012322758460700791 0.0039319648929700655 0 -0.00018379955128364466 0.0039340727022929324 0 -0.0001601976200218047 0.0038943684463786394 0 -0.00012322758460700791 0.0039319648929700655 0 -0.00033668018769453462 0.0039435045086101874 0 -0.00026984465895149064 0.0040202416987094288 0 -0.00026551924452763379 0.0039509017653954351 0 -0.00026984465895149064 0.0040202416987094288 0 -0.00021837411360385115 0.0039773395827503643 0 -0.00026551924452763379 0.0039509017653954351 0 -0.00023091424759986824 0.0039206138186794097 0 -0.00026551924452763379 0.0039509017653954351 0 -0.00027145118085520015 0.0038921209963576568 0 -0.00021837411360385115 0.0039773395827503643 0 -0.00023091424759986824 0.0039206138186794097 0 -0.00026551924452763379 0.0039509017653954351 0 -0.00033668018769453462 0.0039435045086101874 0 -0.00026551924452763379 0.0039509017653954351 0 -0.00027145118085520015 0.0038921209963576568 0 -0.00032561655284161226 0.0038304607100979838 0 -0.00027145118085520015 0.0038921209963576568 0 -0.0002362370372482032 0.0038327166894391207 0 -0.00027145118085520015 0.0038921209963576568 0 -0.0002362370372482032 0.0038327166894391207 0 -0.0002154556449451629 0.0038643637038916724 0 -0.00023091424759986824 0.0039206138186794097 0 -0.00027145118085520015 0.0038921209963576568 0 -0.0002154556449451629 0.0038643637038916724 0 -0.00018379955128364466 0.0039340727022929324 0 -0.00023091424759986824 0.0039206138186794097 0 -0.00019699268519852804 0.0038948146290873594 0 -0.00018379955128364466 0.0039340727022929324 0 -0.00019699268519852804 0.0038948146290873594 0 -0.0001601976200218047 0.0038943684463786394 0 -0.00023091424759986824 0.0039206138186794097 0 -0.00019699268519852804 0.0038948146290873594 0 -0.0002154556449451629 0.0038643637038916724 0 -0.00019699268519852804 0.0038948146290873594 0 -0.0001601976200218047 0.0038943684463786394 0 -0.00017962873188583144 0.0038685186115548324 0 -0.0001601976200218047 0.0038943684463786394 0 -0.00016264570774638298 0.0038440562546359805 0 -0.00017962873188583144 0.0038685186115548324 0 -0.00016264570774638298 0.0038440562546359805 0 -0.0002154556449451629 0.0038643637038916724 0 -0.00017962873188583144 0.0038685186115548324 0 -0.0002362370372482032 0.0038327166894391207 0 -0.00016264570774638298 0.0038440562546359805 0 -0.0002154556449451629 0.0038643637038916724 0 -0.00019699268519852804 0.0038948146290873594 0 -0.0002154556449451629 0.0038643637038916724 0 -0.00017962873188583144 0.0038685186115548324 0 -0.00025666267054199059 0.0044452413191115349 0 -0.00034091300987418533 0.0045949472156054808 0 -0.00042654324567963103 0.0043015687505608873 0 -0.00041827310525725526 0.0043018393299134282 0 -0.00042903566327011979 0.0043127139285158086 0 -0.00031836037208130024 0.0038188819360754048 0 -0.0002362370372482032 0.0038327166894391207 0 -0.00028604722652672066 0.0037947760341687834 0 -0.00040061729509973922 0.003619712005654726 0 -0.0002179175416568723 0.0038287548466357105 0 -0.00025666267054199059 0.0044452413191115349 0 -0.00037742424654418471 0.0040046962290671397 0 -0.0002362370372482032 0.0038327166894391207 0 -0.00016264570774638298 0.0038440562546359805 0 -0.00028604722652672066 0.0037947760341687834 0 -8.2256239768148078e-05 0.0049631664345439249 0 -0.00014053710935752001 0.004932756433793704 0 -7.9310183513158281e-05 0.0048758623321012466 0 -8.2256239768148078e-05 0.0049631664345439249 0 -2.3649503408289589e-05 0.0049819731637466783 0 -7.9310183513158281e-05 0.0048758623321012466 0 -0.00014053710935752001 0.004932756433793704 0 -0.00016057532431611803 0.0048608021895012931 0 -7.9310183513158281e-05 0.0048758623321012466 0 -0.00024143024664178474 0.0049648533254222143 0 -0.00016057532431611803 0.0048608021895012931 0 -0.00023778966687367992 0.0048253774605063479 0 -0.00024143024664178474 0.0049648533254222143 0 -0.00014053710935752001 0.004932756433793704 0 -0.00016057532431611803 0.0048608021895012931 0 -0.0001601976200218047 0.0038943684463786394 0 -0.00016264570774638298 0.0038440562546359805 0 -6.458164696492587e-05 0.0038808346796829554 0 -0.00025666267054199059 0.0044452413191115349 0 -9.0958093292434601e-05 0.0044335181111131664 0 -0.00024143024664178474 0.0049648533254222143 0 -0.00014053710935752001 0.004932756433793704 0 -0.00014107068638722923 0.0049964428781219252 0 -0.0001601976200218047 0.0038943684463786394 0 -6.458164696492587e-05 0.0038808346796829554 0 -0.00012322758460700791 0.0039319648929700655 0 -8.2256239768148078e-05 0.0049631664345439249 0 -0.00014107068638722923 0.0049964428781219252 0 -4.9602326948746597e-05 0.0050149296381713825 0 -9.0958093292434601e-05 0.0044335181111131664 0 -7.2021542619156022e-05 0.0045964104994960934 0 -8.2256239768148078e-05 0.0049631664345439249 0 -0.00014053710935752001 0.004932756433793704 0 -0.00014107068638722923 0.0049964428781219252 0 -8.2256239768148078e-05 0.0049631664345439249 0 -4.9602326948746597e-05 0.0050149296381713825 0 -4.487950197138893e-05 0.0049888370577581675 0 -6.458164696492587e-05 0.0038808346796829554 0 -5.2671967575799251e-05 0.0039846298040004009 0 3.1147881693671569e-05 0.0039160233762996523 0 -5.2671967575799251e-05 0.0039846298040004009 0 5.6109273752247637e-05 0.0040422590656073168 0 3.1147881693671569e-05 0.0039160233762996523 0 -6.458164696492587e-05 0.0038808346796829554 0 -5.2671967575799251e-05 0.0039846298040004009 0 -0.00012322758460700791 0.0039319648929700655 0 -0.00016123537069563862 0.0039874904705614229 0 -5.2671967575799251e-05 0.0039846298040004009 0 -0.00012322758460700791 0.0039319648929700655 0 -0.00016123537069563862 0.0039874904705614229 0 -5.2671967575799251e-05 0.0039846298040004009 0 -9.5379106932293447e-05 0.0040424711499534799 0 -2.0413308111363564e-05 0.0040939780733395322 0 -0.00013066981029755112 0.0041063314905385971 0 -9.5379106932293447e-05 0.0040424711499534799 0 -2.0413308111363564e-05 0.0040939780733395322 0 -5.2671967575799251e-05 0.0039846298040004009 0 -9.5379106932293447e-05 0.0040424711499534799 0 -2.0413308111363564e-05 0.0040939780733395322 0 -5.2671967575799251e-05 0.0039846298040004009 0 5.6109273752247637e-05 0.0040422590656073168 0 1.9919911130576985e-05 0.0049825633070322301 0 4.6919626363476356e-06 0.0049911260024021725 0 7.8426001904614823e-06 0.0049721882715359602 0 4.6919626363476356e-06 0.0049911260024021725 0 -4.5952942456001077e-06 0.00498892233417292 0 7.8426001904614823e-06 0.0049721882715359602 0 4.6919626363476356e-06 0.0049911260024021725 0 -4.5952942456001077e-06 0.00498892233417292 0 -4.6567498908463767e-06 0.0049995556784054266 0 4.6919626363476356e-06 0.0049911260024021725 0 8.1385249435221827e-06 0.00500040459968327 0 -4.6567498908463767e-06 0.0049995556784054266 0 2.4493361678189914e-05 0.0050015396073271974 0 -1.3378658420680127e-05 0.0049973199661226325 0 1.9919911130576985e-05 0.0049825633070322301 0 4.6919626363476356e-06 0.0049911260024021725 0 8.1385249435221827e-06 0.00500040459968327 0 1.9919911130576985e-05 0.0049825633070322301 0 8.1385249435221827e-06 0.00500040459968327 0 1.951605465956674e-05 0.0050003789642453769 0 4.0684103848931054e-05 0.0045009654787853326 0 -7.2021542619156022e-05 0.0045964104994960934 0 -4.9602326948746597e-05 0.0050149296381713825 0 -4.487950197138893e-05 0.0049888370577581675 0 -2.4325726370626155e-05 0.0049987414060160508 0 -4.487950197138893e-05 0.0049888370577581675 0 -2.3649503408289589e-05 0.0049819731637466783 0 -2.4325726370626155e-05 0.0049987414060160508 0 -8.2256239768148078e-05 0.0049631664345439249 0 -4.487950197138893e-05 0.0049888370577581675 0 -2.3649503408289589e-05 0.0049819731637466783 0 -2.3649503408289589e-05 0.0049819731637466783 0 -2.4325726370626155e-05 0.0049987414060160508 0 -1.5621130821755567e-05 0.0049866064525225743 0 2.4493361678189914e-05 0.0050015396073271974 0 -7.2021542619156022e-05 0.0045964104994960934 0 -1.5092088111092885e-05 0.0050054773330868779 0 -4.9602326948746597e-05 0.0050149296381713825 0 -2.4325726370626155e-05 0.0049987414060160508 0 -1.5092088111092885e-05 0.0050054773330868779 0 -4.6567498908463767e-06 0.0049995556784054266 0 -7.6004314933217259e-06 0.0049948208333837922 0 -2.4325726370626155e-05 0.0049987414060160508 0 -7.6004314933217259e-06 0.0049948208333837922 0 -1.5621130821755567e-05 0.0049866064525225743 0 -1.5092088111092885e-05 0.0050054773330868779 0 -2.4325726370626155e-05 0.0049987414060160508 0 -7.6004314933217259e-06 0.0049948208333837922 0 -7.6004314933217259e-06 0.0049948208333837922 0 -1.5621130821755567e-05 0.0049866064525225743 0 -9.5853399489453692e-06 0.0049878854524077953 0 -1.5621130821755567e-05 0.0049866064525225743 0 -9.5853399489453692e-06 0.0049878854524077953 0 -1.7109558823687254e-05 0.004984338747587495 0 -2.3649503408289589e-05 0.0049819731637466783 0 -1.7109558823687254e-05 0.004984338747587495 0 -2.4573661175770505e-05 0.0049834192966049795 0 -2.4820004789924174e-05 0.0049795363097620265 0 -7.0213705016170783e-05 0.004922928434912102 0 -2.3649503408289589e-05 0.0049819731637466783 0 -2.4573661175770505e-05 0.0049834192966049795 0 -4.3350323088759431e-05 0.0049883280329063142 0 -2.3649503408289589e-05 0.0049819731637466783 0 -1.5621130821755567e-05 0.0049866064525225743 0 -1.7109558823687254e-05 0.004984338747587495 0 -2.0330352546715938e-06 0.0049939571468714163 0 1.0513682407367866e-09 0.0049999954160418357 0 -2.9457483360483764e-09 0.0049999934292640083 0 -7.6004314933217259e-06 0.0049948208333837922 0 -9.5853399489453692e-06 0.0049878854524077953 0 -2.0330352546715938e-06 0.0049939571468714163 0 -9.5853399489453692e-06 0.0049878854524077953 0 -2.0330352546715938e-06 0.0049939571468714163 0 -6.5694594588093362e-06 0.0049851987866833579 0 -4.6567498908463767e-06 0.0049995556784054266 0 -7.6004314933217259e-06 0.0049948208333837922 0 -2.4074909102077722e-06 0.0049986572652639264 0 -7.6004314933217259e-06 0.0049948208333837922 0 -2.0330352546715938e-06 0.0049939571468714163 0 -2.4074909102077722e-06 0.0049986572652639264 0 -2.0330352546715938e-06 0.0049939571468714163 0 -2.4074909102077722e-06 0.0049986572652639264 0 1.0513682407367866e-09 0.0049999954160418357 0 -2.4074909102077722e-06 0.0049986572652639264 0 -4.4457624532117224e-09 0.0049999960928317514 0 -3.2072894268920703e-06 0.0049970478169007772 0 -2.4074909102077722e-06 0.0049986572652639264 0 1.0513682407367866e-09 0.0049999954160418357 0 -4.4457624532117224e-09 0.0049999960928317514 0 -4.6567498908463767e-06 0.0049995556784054266 0 -2.4074909102077722e-06 0.0049986572652639264 0 -3.2072894268920703e-06 0.0049970478169007772 0 -4.5952942456001077e-06 0.00498892233417292 0 -4.6567498908463767e-06 0.0049995556784054266 0 -3.2072894268920703e-06 0.0049970478169007772 0 -4.5952942456001077e-06 0.00498892233417292 0 -3.2072894268920703e-06 0.0049970478169007772 0 -2.8968793866516522e-06 0.0049957760366650013 0 -3.2072894268920703e-06 0.0049970478169007772 0 1.4110272009631236e-09 0.0049999970161522305 0 -2.8968793866516522e-06 0.0049957760366650013 0 -4.4457624532117224e-09 0.0049999960928317514 0 -3.2072894268920703e-06 0.0049970478169007772 0 1.4110272009631236e-09 0.0049999970161522305 0 4.312607998631493e-08 0.00500004955441119 0 -3.1935565381589756e-05 0.0049179488548410808 0 -2.6096898998669723e-09 0.0050000047693039458 0 7.0261384122514514e-07 0.0049963807007748122 0 2.2862717503217089e-06 0.0049958992227271473 0 1.6706482074536594e-09 0.0049999922825936845 0 -2.6096898998669723e-09 0.0050000047693039458 0 7.0261384122514514e-07 0.0049963807007748122 0 4.7194031554142278e-11 0.0049999998130099907 0 2.2023187998454265e-10 0.0050000001880402337 0 3.7791270361774657e-07 0.0049996005720843095 0 2.2023187998454265e-10 0.0050000001880402337 0 3.7791270361774657e-07 0.0049996005720843095 0 3.4716634803141777e-07 0.0049985607451543757 0 8.3938470900646557e-09 0.0049999927638943644 0 -1.5442914993793524e-05 0.0049980121467315128 0 7.0261384122514514e-07 0.0049963807007748122 0 2.0598103615316965e-06 0.0049934615529987174 0 2.2862717503217089e-06 0.0049958992227271473 0 3.7791270361774657e-07 0.0049996005720843095 0 1.7276829633730029e-06 0.0049980107660054091 0 3.4716634803141777e-07 0.0049985607451543757 0 -2.3525743408506032e-05 0.0047660446921504035 0 -3.1935565381589756e-05 0.0049179488548410808 0 -1.5442914993793524e-05 0.0049980121467315128 0 -2.3525743408506032e-05 0.0047660446921504035 0 1.4110272009631236e-09 0.0049999970161522305 0 -2.8968793866516522e-06 0.0049957760366650013 0 -4.8770176328393847e-06 0.0049981292636106164 0 -4.5952942456001077e-06 0.00498892233417292 0 -2.8968793866516522e-06 0.0049957760366650013 0 -4.8770176328393847e-06 0.0049981292636106164 0 -3.1935565381589756e-05 0.0049179488548410808 0 0.00011433180608244484 0.0044761810851844403 0 -4.5952942456001077e-06 0.00498892233417292 0 -1.4777072617530152e-05 0.0049525718092625851 0 7.8426001904614823e-06 0.0049721882715359602 0 -1.4777072617530152e-05 0.0049525718092625851 0 7.8426001904614823e-06 0.0049721882715359602 0 1.9753537699924478e-05 0.0049471494115462863 0 6.1757764438193343e-07 0.0050105725158344824 0 -3.1935565381589756e-05 0.0049179488548410808 0 1.9919911130576985e-05 0.0049825633070322301 0 7.8426001904614823e-06 0.0049721882715359602 0 1.9753537699924478e-05 0.0049471494115462863 0 -2.0413308111363564e-05 0.0040939780733395322 0 5.6109273752247637e-05 0.0040422590656073168 0 8.1172439683843955e-05 0.0041692104698989717 0 4.0684103848931054e-05 0.0045009654787853326 0 0.00011433180608244484 0.0044761810851844403 0 0.00011658705037598415 0.0041095557136980347 0 0.00013029345802835702 0.00411045984064623 0 0.00012675562307481265 0.0041192166293122076 0 0.00011433180608244484 0.0044761810851844403 0 0.0001571354381010955 0.0040933440455215757 0 3.5974857359083215e-05 0.0041454587388534995 0 0.00011433180608244484 0.0044761810851844403 0 0.00013029345802835702 0.00411045984064623 0 0.00012675562307481265 0.0041192166293122076 0 0.00013444782102799252 0.0041275064395104007 0 -9.359073948179427e-05 0.0044921397667083965 0 -5.5975575204702823e-05 0.0046723571571216111 0 5.3807447264989668e-05 0.0045476226268496584 0 -9.359073948179427e-05 0.0044921397667083965 0 5.3807447264989668e-05 0.0045476226268496584 0 0.00014297528455437159 0.0043500428257383494 0 -5.5975575204702823e-05 0.0046723571571216111 0 0.00019751288250118048 0.0046359917559902417 0 5.3807447264989668e-05 0.0045476226268496584 0 0.00019751288250118048 0.0046359917559902417 0 5.3807447264989668e-05 0.0045476226268496584 0 0.00014297528455437159 0.0043500428257383494 0 -1.2440219390315265e-06 0.0045674942128138525 0 0.00013218779933231502 0.0044862207890412238 0 -4.0072688541364805e-05 0.0043816157143593956 0 -2.3525743408506032e-05 0.0047660446921504035 0 0.0001571354381010955 0.0040933440455215757 0 0.00013218779933231502 0.0044862207890412238 0 0.000130366604550115 0.0044769131548432952 0 -4.0072688541364805e-05 0.0043816157143593956 0 0.0002049047923204603 0.0039105197420737309 0 0.0001571354381010955 0.0040933440455215757 0 0.00011829650689478406 0.0041196812642574276 0 0.00012675562307481265 0.0041192166293122076 0 0.00013444782102799252 0.0041275064395104007 0 0.00025456460447668999 0.0037182790346710843 0 0.00026556743693838101 0.0037286469768776209 0 0.00025816867450548648 0.0037311974351477528 0 0.0001571354381010955 0.0040933440455215757 0 0.00033979796125259399 0.0037134724945375171 0 0.00026048668559134952 0.003733475874853238 0 0.0002605512504647584 0.0037335259597575119 0 0.00025978913592164386 0.0037341368329482263 0 0.00026048668559134952 0.003733475874853238 0 0.00025816867450548648 0.0037311974351477528 0 0.00025978913592164386 0.0037341368329482263 0 0.0001571354381010955 0.0040933440455215757 0 0.00016973347968604599 0.0040645535746856682 0 0.00026156655645515102 0.0037421450072911088 0 0.00025793760624392417 0.0037373279292996927 0 0.00025978913592164386 0.0037341368329482263 0 0.00026156655645515102 0.0037421450072911088 0 0.0002605512504647584 0.0037335259597575119 0 0.00025978913592164386 0.0037341368329482263 0 0.00025793760624392417 0.0037373279292996927 0 0.00025816867450548648 0.0037311974351477528 0 0.00025978913592164386 0.0037341368329482263 0 6.8373790970484467e-05 0.004202933855445087 0 0.00016973347968604599 0.0040645535746856682 0 9.6719623949470209e-05 0.004305018700389858 0 0.000130366604550115 0.0044769131548432952 0 -4.0072688541364805e-05 0.0043816157143593956 0 -2.776233494513837e-05 0.0047116886420086115 0 -8.445420704982623e-08 0.0050001515952617275 0 1.4157556265297721e-08 0.0049999570950859914 0 1.7857274868778455e-06 0.0049987596186015061 0 -6.0452998891160727e-09 0.0050000204790051116 0 1.2506642942006213e-06 0.0049941357477554134 0 3.4716634803141777e-07 0.0049985607451543757 0 -1.207959161001796e-09 0.0049999914170374814 0 2.2023187998454265e-10 0.0050000001880402337 0 3.4716634803141777e-07 0.0049985607451543757 0 -1.207959161001796e-09 0.0049999914170374814 0 1.7276829633730029e-06 0.0049980107660054091 0 1.2506642942006213e-06 0.0049941357477554134 0 3.4716634803141777e-07 0.0049985607451543757 0 -2.3525743408506032e-05 0.0047660446921504035 0 -2.776233494513837e-05 0.0047116886420086115 0 -2.3017867752073769e-05 0.0050134258548077829 0 -1.0416352198989033e-05 0.0050070636091995155 0 -1.5048211100902059e-05 0.0050028008438058724 0 -2.3017867752073769e-05 0.0050134258548077829 0 -1.5048211100902059e-05 0.0050028008438058724 0 -3.7949913655897506e-05 0.0050043762599771982 0 -1.0416352198989033e-05 0.0050070636091995155 0 -1.2866156745740912e-08 0.0050000132109183663 0 -1.5048211100902059e-05 0.0050028008438058724 0 -1.2866156745740912e-08 0.0050000132109183663 0 -1.5048211100902059e-05 0.0050028008438058724 0 -1.0276879515862726e-08 0.0049999990226761879 0 -1.5048211100902059e-05 0.0050028008438058724 0 -3.7949913655897506e-05 0.0050043762599771982 0 -3.2882834255068308e-05 0.0049947392101987948 0 -3.7949913655897506e-05 0.0050043762599771982 0 -5.7075966118432174e-05 0.005017766210003171 0 -6.8069045300546939e-05 0.0049915470811753206 0 -3.7949913655897506e-05 0.0050043762599771982 0 -6.8069045300546939e-05 0.0049915470811753206 0 -3.2882834255068308e-05 0.0049947392101987948 0 -5.7075966118432174e-05 0.005017766210003171 0 -8.7300291133548754e-05 0.0050076654535769717 0 -6.8069045300546939e-05 0.0049915470811753206 0 -3.9267955975862479e-05 0.0048571987109447849 0 -4.4462555794979615e-05 0.0048512623930826917 0 -2.3017867752073769e-05 0.0050134258548077829 0 -5.7075966118432174e-05 0.005017766210003171 0 -2.6355103384295927e-05 0.005022907948072238 0 -2.3017867752073769e-05 0.0050134258548077829 0 -3.7949913655897506e-05 0.0050043762599771982 0 -5.7075966118432174e-05 0.005017766210003171 0 -3.9267955975862479e-05 0.0048571987109447849 0 -8.5989871026015037e-06 0.0049179433299604888 0 -7.1364480616076798e-06 0.0047663717025771919 0 1.9888879642132362e-05 0.0048164864157186349 0 4.3986910172822482e-05 0.0047441492651637811 0 -1.0304266177805579e-05 0.0047094067345565867 0 -7.1364480616076798e-06 0.0047663717025771919 0 4.3986910172822482e-05 0.0047441492651637811 0 -1.0304266177805579e-05 0.0047094067345565867 0 -7.1364480616076798e-06 0.0047663717025771919 0 -5.6067284562924037e-05 0.0047665495503147384 0 -7.1364480616076798e-06 0.0047663717025771919 0 -3.2946787760415032e-05 0.0048025824186732277 0 1.9888879642132362e-05 0.0048164864157186349 0 -7.1364480616076798e-06 0.0047663717025771919 0 -3.2946787760415032e-05 0.0048025824186732277 0 -5.6067284562924037e-05 0.0047665495503147384 0 1.4388751282471001e-05 0.004893511520427456 0 -8.5989871026015037e-06 0.0049179433299604888 0 -2.2742122263636607e-06 0.0049932902522317989 0 -2.5630708235146701e-06 0.004995592160736766 0 -2.8134232368080559e-06 0.0049961463393407794 0 -2.2742122263636607e-06 0.0049932902522317989 0 -2.2756497807107411e-06 0.0049947763772680998 0 -2.5630708235146701e-06 0.004995592160736766 0 -2.3017867752073769e-05 0.0050134258548077829 0 -1.0416352198989033e-05 0.0050070636091995155 0 -2.1769115563244695e-05 0.0050130757281172502 0 -1.0416352198989033e-05 0.0050070636091995155 0 -2.1769115563244695e-05 0.0050130757281172502 0 -9.0935215977751924e-06 0.0050074553470274329 0 -8.5989871026015037e-06 0.0049179433299604888 0 -1.0503419351573623e-06 0.0050048962950735472 0 -2.9158766292267007e-05 0.0049978136552929625 0 -8.5989871026015037e-06 0.0049179433299604888 0 -1.0416352198989033e-05 0.0050070636091995155 0 -1.2866156745740912e-08 0.0050000132109183663 0 -3.3691996388278213e-09 0.0050000172499598721 0 -1.0416352198989033e-05 0.0050070636091995155 0 -9.0935215977751924e-06 0.0050074553470274329 0 -3.3691996388278213e-09 0.0050000172499598721 0 -1.0503419351573623e-06 0.0050048962950735472 0 -9.5478556918080888e-09 0.0049999970610087926 0 -2.5630708235146701e-06 0.004995592160736766 0 6.0282736511228338e-09 0.004999994541293888 0 -2.8134232368080559e-06 0.0049961463393407794 0 6.0282736511228338e-09 0.004999994541293888 0 -1.8690385284612676e-08 0.0049999852571869846 0 -2.8134232368080559e-06 0.0049961463393407794 0 -1.8690385284612676e-08 0.0049999852571869846 0 -2.8134232368080559e-06 0.0049961463393407794 0 -3.2952528295251747e-06 0.0049940056069614934 0 -2.2742122263636607e-06 0.0049932902522317989 0 -2.8134232368080559e-06 0.0049961463393407794 0 -3.911747374183914e-06 0.0049916775831885182 0 -2.8134232368080559e-06 0.0049961463393407794 0 -3.2952528295251747e-06 0.0049940056069614934 0 -3.911747374183914e-06 0.0049916775831885182 0 -3.911747374183914e-06 0.0049916775831885182 0 -4.7093497357849789e-06 0.0049886643708453434 0 -6.0025620107657991e-06 0.0049849167354105673 0 -3.2952528295251747e-06 0.0049940056069614934 0 -3.911747374183914e-06 0.0049916775831885182 0 -4.7093497357849789e-06 0.0049886643708453434 0 -4.7093497357849789e-06 0.0049886643708453434 0 -6.0025620107657991e-06 0.0049849167354105673 0 -5.3733845039223311e-06 0.004985042256594247 0 -1.5900953413692588e-09 0.0049999962001886118 0 -2.7431064960287075e-06 0.0049937527278356257 0 -4.2446402655844156e-10 0.0049999991515925109 0 1.4837713166971399e-08 0.0049999998404452219 0 8.4769751602973396e-10 0.0050000016634000714 0 -1.8690385284612676e-08 0.0049999852571869846 0 -3.2952528295251747e-06 0.0049940056069614934 0 -7.1032356773114648e-06 0.0049878898821075993 0 -3.2952528295251747e-06 0.0049940056069614934 0 -4.7093497357849789e-06 0.0049886643708453434 0 -7.1032356773114648e-06 0.0049878898821075993 0 -4.7093497357849789e-06 0.0049886643708453434 0 -7.1032356773114648e-06 0.0049878898821075993 0 -5.3733845039223311e-06 0.004985042256594247 0 -2.7431064960287075e-06 0.0049937527278356257 0 -2.3158710216210648e-06 0.0049920256700825196 0 1.4837713166971399e-08 0.0049999998404452219 0 8.4769751602973396e-10 0.0050000016634000714 0 7.1329693273303415e-08 0.0049998115742846856 0 -7.1032356773114648e-06 0.0049878898821075993 0 -5.3733845039223311e-06 0.004985042256594247 0 -4.3158418791749947e-06 0.0049830211444520977 0 8.4769751602973396e-10 0.0050000016634000714 0 -2.9457483360483764e-09 0.0049999934292640083 0 7.1329693273303415e-08 0.0049998115742846856 0 -6.0025620107657991e-06 0.0049849167354105673 0 -5.3733845039223311e-06 0.004985042256594247 0 -6.623341422742395e-06 0.0049828249543521479 0 -6.0025620107657991e-06 0.0049849167354105673 0 -6.623341422742395e-06 0.0049828249543521479 0 -9.5587579113888586e-06 0.0049802508738758669 0 -5.3733845039223311e-06 0.004985042256594247 0 -6.623341422742395e-06 0.0049828249543521479 0 -4.3158418791749947e-06 0.0049830211444520977 0 -6.623341422742395e-06 0.0049828249543521479 0 -6.5694594588093362e-06 0.0049851987866833579 0 -4.3158418791749947e-06 0.0049830211444520977 0 -2.0330352546715938e-06 0.0049939571468714163 0 -6.5694594588093362e-06 0.0049851987866833579 0 -4.3158418791749947e-06 0.0049830211444520977 0 -6.623341422742395e-06 0.0049828249543521479 0 -6.5694594588093362e-06 0.0049851987866833579 0 -9.5260524007834143e-06 0.0049822165054880891 0 -9.5853399489453692e-06 0.0049878854524077953 0 -6.5694594588093362e-06 0.0049851987866833579 0 -9.5260524007834143e-06 0.0049822165054880891 0 -2.2978364107887706e-06 0.0049941811638698607 0 -2.3158710216210648e-06 0.0049920256700825196 0 -2.0330352546715938e-06 0.0049939571468714163 0 -2.9457483360483764e-09 0.0049999934292640083 0 7.1329693273303415e-08 0.0049998115742846856 0 -2.1558368218946232e-05 0.0049727460522438838 0 -1.451861661605931e-05 0.0049791001149456834 0 -9.5587579113888586e-06 0.0049802508738758669 0 -2.1558368218946232e-05 0.0049727460522438838 0 -2.4573661175770505e-05 0.0049834192966049795 0 -4.3350323088759431e-05 0.0049883280329063142 0 -1.7109558823687254e-05 0.004984338747587495 0 -2.4573661175770505e-05 0.0049834192966049795 0 -1.451861661605931e-05 0.0049791001149456834 0 -2.1558368218946232e-05 0.0049727460522438838 0 -2.4573661175770505e-05 0.0049834192966049795 0 -1.451861661605931e-05 0.0049791001149456834 0 -1.7109558823687254e-05 0.004984338747587495 0 -9.5260524007834143e-06 0.0049822165054880891 0 -1.451861661605931e-05 0.0049791001149456834 0 -9.5853399489453692e-06 0.0049878854524077953 0 -1.7109558823687254e-05 0.004984338747587495 0 -9.5260524007834143e-06 0.0049822165054880891 0 -9.5260524007834143e-06 0.0049822165054880891 0 -1.451861661605931e-05 0.0049791001149456834 0 -9.5587579113888586e-06 0.0049802508738758669 0 -6.0025620107657991e-06 0.0049849167354105673 0 -9.5587579113888586e-06 0.0049802508738758669 0 -4.9802011855925162e-06 0.0049842263107561791 0 -6.623341422742395e-06 0.0049828249543521479 0 -9.5260524007834143e-06 0.0049822165054880891 0 -9.5587579113888586e-06 0.0049802508738758669 0 -1.9755390030371335e-05 0.0049712042250365891 0 -5.1143169494460779e-06 0.0049411606994478876 0 -2.1558368218946232e-05 0.0049727460522438838 0 -9.5587579113888586e-06 0.0049802508738758669 0 -4.9802011855925162e-06 0.0049842263107561791 0 -2.1558368218946232e-05 0.0049727460522438838 0 -8.2882028716892697e-07 0.0048902070292960384 0 -5.2277308885661733e-05 0.0049127935285099749 0 -8.2882028716892697e-07 0.0048902070292960384 0 -4.2319944181378385e-05 0.0048535812464382258 0 -5.2277308885661733e-05 0.0049127935285099749 0 -3.911747374183914e-06 0.0049916775831885182 0 -6.0025620107657991e-06 0.0049849167354105673 0 -4.9802011855925162e-06 0.0049842263107561791 0 1.4388751282471001e-05 0.004893511520427456 0 -5.1143169494460779e-06 0.0049411606994478876 0 -2.2742122263636607e-06 0.0049932902522317989 0 -3.911747374183914e-06 0.0049916775831885182 0 -4.9802011855925162e-06 0.0049842263107561791 0 1.9888879642132362e-05 0.0048164864157186349 0 -8.2882028716892697e-07 0.0048902070292960384 0 -4.2319944181378385e-05 0.0048535812464382258 0 -3.2946787760415032e-05 0.0048025824186732277 0 1.9888879642132362e-05 0.0048164864157186349 0 -4.2319944181378385e-05 0.0048535812464382258 0 -4.2319944181378385e-05 0.0048535812464382258 0 -9.4523739577944733e-05 0.0048470306067470879 0 -7.6127203587681393e-05 0.0048783815148268671 0 -3.2946787760415032e-05 0.0048025824186732277 0 -4.2319944181378385e-05 0.0048535812464382258 0 -8.0152544623671398e-05 0.0048093234820246926 0 -4.2319944181378385e-05 0.0048535812464382258 0 -9.4523739577944733e-05 0.0048470306067470879 0 -8.0152544623671398e-05 0.0048093234820246926 0 -0.00012271702496863886 0.0048429387923619848 0 -0.00029966896872167217 0.0046550886745080613 0 -9.4523739577944733e-05 0.0048470306067470879 0 -0.0001412846208524242 0.0048056051090347007 0 -8.0152544623671398e-05 0.0048093234820246926 0 -9.4523739577944733e-05 0.0048470306067470879 0 -0.00012284812240706568 0.0048620193743163986 0 -0.0001412846208524242 0.0048056051090347007 0 -0.00014554192302942704 0.0047835166744442702 0 -0.00019074980385888415 0.0048344774151512166 0 -0.00018571213766239303 0.0046462143959480817 0 -0.00012284812240706568 0.0048620193743163986 0 -9.7999603039306839e-05 0.0048802007175017649 0 -0.00011125389822549482 0.0049130245335677458 0 -0.00014554192302942704 0.0047835166744442702 0 -0.00016671018117291869 0.0048233199264095554 0 -0.00011125389822549482 0.0049130245335677458 0 -0.00012271702496863886 0.0048429387923619848 0 -0.00011571532773768166 0.0048978457316491706 0 -0.00014554192302942704 0.0047835166744442702 0 -0.00016671018117291869 0.0048233199264095554 0 -0.00019074980385888415 0.0048344774151512166 0 -9.4523739577944733e-05 0.0048470306067470879 0 -0.00012284812240706568 0.0048620193743163986 0 -9.7999603039306839e-05 0.0048802007175017649 0 -9.7999603039306839e-05 0.0048802007175017649 0 -8.4181001683478158e-05 0.0049000563480912215 0 -0.00011125389822549482 0.0049130245335677458 0 -0.00016671018117291869 0.0048233199264095554 0 -0.00011125389822549482 0.0049130245335677458 0 -0.00018903002195971752 0.0048549225964828165 0 -4.2319944181378385e-05 0.0048535812464382258 0 -7.6127203587681393e-05 0.0048783815148268671 0 -5.2277308885661733e-05 0.0049127935285099749 0 -9.4523739577944733e-05 0.0048470306067470879 0 -9.7999603039306839e-05 0.0048802007175017649 0 -7.6127203587681393e-05 0.0048783815148268671 0 -9.7999603039306839e-05 0.0048802007175017649 0 -7.6127203587681393e-05 0.0048783815148268671 0 -8.4181001683478158e-05 0.0049000563480912215 0 -7.6127203587681393e-05 0.0048783815148268671 0 -8.4181001683478158e-05 0.0049000563480912215 0 -5.2277308885661733e-05 0.0049127935285099749 0 -2.1558368218946232e-05 0.0049727460522438838 0 -5.2277308885661733e-05 0.0049127935285099749 0 -5.8118868223039926e-05 0.0049534203995490128 0 -5.8118868223039926e-05 0.0049534203995490128 0 -7.7371079336872224e-05 0.0049286347798204082 0 -9.9444263104496637e-05 0.0049540512406322365 0 -8.4181001683478158e-05 0.0049000563480912215 0 -5.2277308885661733e-05 0.0049127935285099749 0 -7.7371079336872224e-05 0.0049286347798204082 0 -5.2277308885661733e-05 0.0049127935285099749 0 -5.8118868223039926e-05 0.0049534203995490128 0 -7.7371079336872224e-05 0.0049286347798204082 0 -0.00011125389822549482 0.0049130245335677458 0 -9.9444263104496637e-05 0.0049540512406322365 0 -0.00018903002195971752 0.0048549225964828165 0 -7.7371079336872224e-05 0.0049286347798204082 0 -0.00011125389822549482 0.0049130245335677458 0 -9.9444263104496637e-05 0.0049540512406322365 0 -8.4181001683478158e-05 0.0049000563480912215 0 -7.7371079336872224e-05 0.0049286347798204082 0 -0.00011125389822549482 0.0049130245335677458 0 -9.6675410600509165e-05 0.0049021015775407139 0 -0.00035144362493202166 0.0045675627351402705 0 -0.0001528542851177654 0.0047752939080689108 0 -0.00023778966687367992 0.0048253774605063479 0 -0.00023288142933968232 0.0046751232591754795 0 -0.0001528542851177654 0.0047752939080689108 0 -0.00016057532431611803 0.0048608021895012931 0 -7.9310183513158281e-05 0.0048758623321012466 0 -0.0001528542851177654 0.0047752939080689108 0 -0.00016057532431611803 0.0048608021895012931 0 -0.00023778966687367992 0.0048253774605063479 0 -2.1558368218946232e-05 0.0049727460522438838 0 -5.8118868223039926e-05 0.0049534203995490128 0 -4.3350323088759431e-05 0.0049883280329063142 0 -5.8118868223039926e-05 0.0049534203995490128 0 -9.9444263104496637e-05 0.0049540512406322365 0 -4.3350323088759431e-05 0.0049883280329063142 0 -9.6675410600509165e-05 0.0049021015775407139 0 -7.0213705016170783e-05 0.004922928434912102 0 -0.00041827310525725526 0.0043018393299134282 0 -0.00041833753689068828 0.0043105413422858622 0 -0.00042903566327011979 0.0043127139285158086 0 -0.00041833753689068828 0.0043105413422858622 0 -0.00042903566327011979 0.0043127139285158086 0 -0.00042561630112703766 0.0043194369971681175 0 -0.00042561630112703766 0.0043194369971681175 0 -0.00041905206781551785 0.00431913933494557 0 -0.00043075777358860494 0.0043284884119463955 0 -0.00042903566327011979 0.0043127139285158086 0 -0.00042561630112703766 0.0043194369971681175 0 -0.00043167824473788448 0.0043273187699618999 0 -0.00034091300987418533 0.0045949472156054808 0 -0.00035144362493202166 0.0045675627351402705 0 -0.00041833753689068828 0.0043105413422858622 0 -0.00042561630112703766 0.0043194369971681175 0 -0.00041905206781551785 0.00431913933494557 0 -0.00052094512094211015 0.0042246524863206606 0 -0.00050739560130623397 0.0044220775095336947 0 -0.00059908635166339966 0.0041666206170062319 0 -0.00073317668279853504 0.0042397895478166808 0 -0.00066185748780416952 0.0043278221943764137 0 -0.00059908635166339966 0.0041666206170062319 0 -0.00066185748780416952 0.0043278221943764137 0 -0.00057264134414033942 0.0043108782161893665 0 -0.00042561630112703766 0.0043194369971681175 0 -0.00043167824473788448 0.0043273187699618999 0 -0.00043075777358860494 0.0043284884119463955 0 -0.00016671018117291869 0.0048233199264095554 0 -0.00018903002195971752 0.0048549225964828165 0 -0.00018887548253511137 0.004834675658521451 0 -0.00035144362493202166 0.0045675627351402705 0 -0.00040916248326149817 0.0045047295457003754 0 -0.00035144362493202166 0.0045675627351402705 0 -0.00050739560130623397 0.0044220775095336947 0 -0.00037977507836124133 0.0044074196418659017 0 -0.00030879163046047494 0.0044958058249612576 0 -0.00038647886265314585 0.0045326610097390849 0 -0.00050739560130623397 0.0044220775095336947 0 -0.00040916248326149817 0.0045047295457003754 0 -0.00050739560130623397 0.0044220775095336947 0 -0.00073017812558744046 0.0042469134973853028 0 -0.00071889636651077335 0.0042566498385137996 0 -0.00072822718791713912 0.0042609773689021649 0 -0.00066185748780416952 0.0043278221943764137 0 -0.00035676843192035656 0.0045399214170970485 0 -0.00040916248326149817 0.0045047295457003754 0 -0.00040916248326149817 0.0045047295457003754 0 -0.00029966896872167217 0.0046550886745080613 0 -0.00072822718791713912 0.0042609773689021649 0 -0.00066185748780416952 0.0043278221943764137 0 -0.00073619724348227575 0.0044108613387484098 0 -0.00066185748780416952 0.0043278221943764137 0 -0.00061831894747146215 0.004447980898193188 0 -0.00057264134414033942 0.0043108782161893665 0 -0.00061831894747146215 0.004447980898193188 0 -0.00060244787553683193 0.0045571665084063739 0 -0.00053967121836155185 0.0045378618106292788 0 -0.00061831894747146215 0.004447980898193188 0 -0.00060244787553683193 0.0045571665084063739 0 -0.00069654142167473437 0.0045281834716428687 0 -0.00060244787553683193 0.0045571665084063739 0 -0.00056667634642469644 0.0045828441569835737 0 -0.00053967121836155185 0.0045378618106292788 0 -0.00029966896872167217 0.0046550886745080613 0 -0.00010349410138887642 0.0047837752290142855 0 -0.00015874490899998479 0.0047397402821947598 0 -0.00015360860542833229 0.0047772806597439149 0 -0.00014191464128849435 0.0047240488106714126 0 -0.0004322712068593425 0.0046265127476865162 0 -0.00029966896872167217 0.0046550886745080613 0 -0.00061831894747146215 0.004447980898193188 0 -0.00069654142167473437 0.0045281834716428687 0 -0.00073619724348227575 0.0044108613387484098 0 -0.00066185748780416952 0.0043278221943764137 0 -0.00061831894747146215 0.004447980898193188 0 -0.00073619724348227575 0.0044108613387484098 0 -0.0001412846208524242 0.0048056051090347007 0 -8.0152544623671398e-05 0.0048093234820246926 0 -0.00010064365655324038 0.0047655824514137978 0 -3.2946787760415032e-05 0.0048025824186732277 0 -8.0152544623671398e-05 0.0048093234820246926 0 -5.6067284562924037e-05 0.0047665495503147384 0 -8.0152544623671398e-05 0.0048093234820246926 0 -5.6067284562924037e-05 0.0047665495503147384 0 -0.00010064365655324038 0.0047655824514137978 0 -1.0304266177805579e-05 0.0047094067345565867 0 -5.6067284562924037e-05 0.0047665495503147384 0 -8.4709636651443876e-05 0.0047213333997666385 0 -5.6067284562924037e-05 0.0047665495503147384 0 -0.00010064365655324038 0.0047655824514137978 0 -8.4709636651443876e-05 0.0047213333997666385 0 -0.0001412846208524242 0.0048056051090347007 0 -0.00010064365655324038 0.0047655824514137978 0 -0.00014191464128849435 0.0047240488106714126 0 -0.00010064365655324038 0.0047655824514137978 0 -0.00014191464128849435 0.0047240488106714126 0 -8.4709636651443876e-05 0.0047213333997666385 0 -0.00011985130286588309 0.0046903977910609457 0 -0.00014191464128849435 0.0047240488106714126 0 -8.4709636651443876e-05 0.0047213333997666385 0 -0.00011985130286588309 0.0046903977910609457 0 -8.4709636651443876e-05 0.0047213333997666385 0 -6.7457066729283992e-05 0.0046745720434666817 0 -1.0304266177805579e-05 0.0047094067345565867 0 -8.4709636651443876e-05 0.0047213333997666385 0 -6.7457066729283992e-05 0.0046745720434666817 0 -4.4462555794979615e-05 0.0048512623930826917 0 -0.00031427887246310586 0.0048254627558177443 0 -0.00011985130286588309 0.0046903977910609457 0 -0.00017662467078597324 0.0046907250043126333 0 -0.00012560118136233959 0.0046416580565499382 0 -0.00011985130286588309 0.0046903977910609457 0 -6.7457066729283992e-05 0.0046745720434666817 0 -0.00012560118136233959 0.0046416580565499382 0 -0.00059427771548665467 0.0046823984383879951 0 -0.00057821418211275171 0.0047390899847214139 0 -0.0007101849697567366 0.0047299541076516365 0 -0.00059427771548665467 0.0046823984383879951 0 -0.00060687701852576352 0.0046324167316561639 0 -0.0007101849697567366 0.0047299541076516365 0 -0.00050963941584054883 0.0046347045632536468 0 -0.00031427887246310586 0.0048254627558177443 0 -0.00059427771548665467 0.0046823984383879951 0 -0.00058753440126800842 0.0046563904839420807 0 -0.00062557916201165054 0.0046425557978431002 0 -0.00055910500607196873 0.0046534372152486399 0 -0.00050963941584054883 0.0046347045632536468 0 -0.00056347887885588115 0.0046971438148060455 0 -0.00053891316387750599 0.0047346022282143026 0 -0.00057821418211275171 0.0047390899847214139 0 -0.00059427771548665467 0.0046823984383879951 0 -0.00056347887885588115 0.0046971438148060455 0 -0.00057821418211275171 0.0047390899847214139 0 -0.00056347887885588115 0.0046971438148060455 0 -0.00052609203061891629 0.0047058585359947159 0 -0.00053891316387750599 0.0047346022282143026 0 -0.00056347887885588115 0.0046971438148060455 0 -0.00054038716168964239 0.0046663971090663853 0 -0.00052609203061891629 0.0047058585359947159 0 -0.00058753440126800842 0.0046563904839420807 0 -0.00057598285717547378 0.00462067696765986 0 -0.00054038716168964239 0.0046663971090663853 0 -0.00056347887885588115 0.0046971438148060455 0 -0.00058753440126800842 0.0046563904839420807 0 -0.00054038716168964239 0.0046663971090663853 0 -0.00059427771548665467 0.0046823984383879951 0 -0.00056347887885588115 0.0046971438148060455 0 -0.00058753440126800842 0.0046563904839420807 0 -0.00058753440126800842 0.0046563904839420807 0 -0.000619248870523399 0.0046195448194877083 0 -0.00062557916201165054 0.0046425557978431002 0 -0.00058753440126800842 0.0046563904839420807 0 -0.000619248870523399 0.0046195448194877083 0 -0.00057598285717547378 0.00462067696765986 0 -0.00057598285717547378 0.00462067696765986 0 -0.00053580833066129503 0.0046179251600809599 0 -0.00054038716168964239 0.0046663971090663853 0 -0.00057598285717547378 0.00462067696765986 0 -0.00056667634642469644 0.0045828441569835737 0 -0.00053580833066129503 0.0046179251600809599 0 -0.00060244787553683193 0.0045571665084063739 0 -0.00057598285717547378 0.00462067696765986 0 -0.00056667634642469644 0.0045828441569835737 0 -0.00060244787553683193 0.0045571665084063739 0 -0.000619248870523399 0.0046195448194877083 0 -0.00057598285717547378 0.00462067696765986 0 -0.00069654142167473437 0.0045281834716428687 0 -0.000619248870523399 0.0046195448194877083 0 -0.00064864389666667631 0.0046482699257377833 0 -0.0004322712068593425 0.0046265127476865162 0 -0.00050963941584054883 0.0046347045632536468 0 -0.00011985130286588309 0.0046903977910609457 0 -0.00014191464128849435 0.0047240488106714126 0 -0.00017662467078597324 0.0046907250043126333 0 -0.00015874490899998479 0.0047397402821947598 0 -0.00014191464128849435 0.0047240488106714126 0 -0.00017662467078597324 0.0046907250043126333 0 -0.00060244787553683193 0.0045571665084063739 0 -0.00069654142167473437 0.0045281834716428687 0 -0.000619248870523399 0.0046195448194877083 0 -0.00057566365869917379 0.0046570047371119116 0 -0.00050963941584054883 0.0046347045632536468 0 -0.00047330258010558698 0.0046122930973435047 0 -0.00043499231180156502 0.0046279755158338421 0 -0.0004434832688301883 0.0045534877709583737 0 -0.00047330258010558698 0.0046122930973435047 0 -0.000505936472365828 0.004598015323781437 0 -0.00050759708486083736 0.0046484892470228757 0 -0.00047330258010558698 0.0046122930973435047 0 -0.0004434832688301883 0.0045534877709583737 0 -0.000485722879659817 0.0045517649657086092 0 -0.00047330258010558698 0.0046122930973435047 0 -0.000505936472365828 0.004598015323781437 0 -0.000485722879659817 0.0045517649657086092 0 -0.000505936472365828 0.004598015323781437 0 -0.00053580833066129503 0.0046179251600809599 0 -0.00053967121836155185 0.0045378618106292788 0 -0.000505936472365828 0.004598015323781437 0 -0.000485722879659817 0.0045517649657086092 0 -0.00053967121836155185 0.0045378618106292788 0 -0.00056667634642469644 0.0045828441569835737 0 -0.00053580833066129503 0.0046179251600809599 0 -0.00053967121836155185 0.0045378618106292788 0 -0.000505936472365828 0.004598015323781437 0 -0.00053580833066129503 0.0046179251600809599 0 -0.00050759708486083736 0.0046484892470228757 0 -0.00050759708486083736 0.0046484892470228757 0 -0.00050391106884242222 0.0046924138421321213 0 -0.00047629207731421705 0.0046683148257253863 0 -0.00050759708486083736 0.0046484892470228757 0 -0.00054038716168964239 0.0046663971090663853 0 -0.00050391106884242222 0.0046924138421321213 0 -0.00053580833066129503 0.0046179251600809599 0 -0.00050759708486083736 0.0046484892470228757 0 -0.00054038716168964239 0.0046663971090663853 0 -0.00054038716168964239 0.0046663971090663853 0 -0.00052609203061891629 0.0047058585359947159 0 -0.00050391106884242222 0.0046924138421321213 0 -0.00052609203061891629 0.0047058585359947159 0 -0.00050391106884242222 0.0046924138421321213 0 -0.00050604843275719785 0.0047381392586949064 0 -0.00050391106884242222 0.0046924138421321213 0 -0.00047629207731421705 0.0046683148257253863 0 -0.00047425766159085134 0.0047078651182375295 0 -0.00047330258010558698 0.0046122930973435047 0 -0.00050759708486083736 0.0046484892470228757 0 -0.00047629207731421705 0.0046683148257253863 0 -0.00047330258010558698 0.0046122930973435047 0 -0.00047629207731421705 0.0046683148257253863 0 -0.00043499231180156502 0.0046279755158338421 0 -0.00047629207731421705 0.0046683148257253863 0 -0.00044540155644198499 0.0046805366499323778 0 -0.00047425766159085134 0.0047078651182375295 0 -0.00044540155644198499 0.0046805366499323778 0 -0.00040396614963619402 0.0046489617448077815 0 -0.00041786152565718873 0.0046958274234116196 0 -0.00044540155644198499 0.0046805366499323778 0 -0.00040396614963619402 0.0046489617448077815 0 -0.00043499231180156502 0.0046279755158338421 0 -0.00047629207731421705 0.0046683148257253863 0 -0.00044540155644198499 0.0046805366499323778 0 -0.00043499231180156502 0.0046279755158338421 0 -0.00037330073007353729 0.0046718466955823663 0 -0.0003290042752252872 0.0046623565202499658 0 -0.00034083312494904717 0.0046920534597454308 0 -0.00037330073007353729 0.0046718466955823663 0 -0.00040396614963619402 0.0046489617448077815 0 -0.00041786152565718873 0.0046958274234116196 0 -0.00037330073007353729 0.0046718466955823663 0 -0.00040396614963619402 0.0046489617448077815 0 -0.00034916216382109241 0.0046171410127624013 0 -0.00037330073007353729 0.0046718466955823663 0 -0.00034916216382109241 0.0046171410127624013 0 -0.0003290042752252872 0.0046623565202499658 0 -0.00034916216382109241 0.0046171410127624013 0 -0.00034624017906804397 0.0045386779500964664 0 -0.00030552833623347417 0.004570803169947864 0 -0.00034916216382109241 0.0046171410127624013 0 -0.00039677049133182116 0.0045870338265825089 0 -0.00034624017906804397 0.0045386779500964664 0 -0.00040396614963619402 0.0046489617448077815 0 -0.00034916216382109241 0.0046171410127624013 0 -0.00039677049133182116 0.0045870338265825089 0 -0.00039677049133182116 0.0045870338265825089 0 -0.00039687596290626079 0.0045364718393211944 0 -0.00034624017906804397 0.0045386779500964664 0 -0.00043499231180156502 0.0046279755158338421 0 -0.00039677049133182116 0.0045870338265825089 0 -0.0004434832688301883 0.0045534877709583737 0 -0.00040396614963619402 0.0046489617448077815 0 -0.00043499231180156502 0.0046279755158338421 0 -0.00039677049133182116 0.0045870338265825089 0 -0.00039677049133182116 0.0045870338265825089 0 -0.0004434832688301883 0.0045534877709583737 0 -0.00039687596290626079 0.0045364718393211944 0 -0.0004434832688301883 0.0045534877709583737 0 -0.00039687596290626079 0.0045364718393211944 0 -0.00039593345486779225 0.0044714007528338703 0 -0.0004434832688301883 0.0045534877709583737 0 -0.00039593345486779225 0.0044714007528338703 0 -0.00047347389264187868 0.0044827735957718448 0 -0.00034624017906804397 0.0045386779500964664 0 -0.00039593345486779225 0.0044714007528338703 0 -0.00032010481896343649 0.0044633743711490498 0 -0.00039687596290626079 0.0045364718393211944 0 -0.00034624017906804397 0.0045386779500964664 0 -0.00039593345486779225 0.0044714007528338703 0 -0.00035932268402016909 0.0044114696078418432 0 -0.00039593345486779225 0.0044714007528338703 0 -0.00032010481896343649 0.0044633743711490498 0 -0.00035932268402016909 0.0044114696078418432 0 -0.00039593345486779225 0.0044714007528338703 0 -0.00043269508315201368 0.0043840762538466319 0 -0.00039593345486779225 0.0044714007528338703 0 -0.00047347389264187868 0.0044827735957718448 0 -0.00043269508315201368 0.0043840762538466319 0 -0.00047347389264187868 0.0044827735957718448 0 -0.00051870870854304964 0.0044004704178418419 0 -0.00043269508315201368 0.0043840762538466319 0 -0.00047347389264187868 0.0044827735957718448 0 -0.000485722879659817 0.0045517649657086092 0 -0.00053967121836155185 0.0045378618106292788 0 -0.0004434832688301883 0.0045534877709583737 0 -0.00047347389264187868 0.0044827735957718448 0 -0.000485722879659817 0.0045517649657086092 0 -0.00047347389264187868 0.0044827735957718448 0 -0.00053967121836155185 0.0045378618106292788 0 -0.00051870870854304964 0.0044004704178418419 0 -0.00061831894747146215 0.004447980898193188 0 -0.00053967121836155185 0.0045378618106292788 0 -0.00051870870854304964 0.0044004704178418419 0 -0.00061831894747146215 0.004447980898193188 0 -0.00051870870854304964 0.0044004704178418419 0 -0.00057264134414033942 0.0043108782161893665 0 -0.00051870870854304964 0.0044004704178418419 0 -0.00057264134414033942 0.0043108782161893665 0 -0.00049070014878902966 0.0042424816294767053 0 -0.00051471316843426868 0.0043963605747768504 0 -0.00041968912092393704 0.0043496048100380548 0 -0.00051870870854304964 0.0044004704178418419 0 -0.00049070014878902966 0.0042424816294767053 0 -0.00039651989778098244 0.0043123093718450602 0 -0.00049070014878902966 0.0042424816294767053 0 -0.0004713275472672555 0.0040923235968565088 0 -0.00039477807673478837 0.0042002897608058049 0 -0.00049070014878902966 0.0042424816294767053 0 -0.00039477807673478837 0.0042002897608058049 0 -0.00039651989778098244 0.0043123093718450602 0 -0.00059908635166339966 0.0041666206170062319 0 -0.00057264134414033942 0.0043108782161893665 0 -0.00049070014878902966 0.0042424816294767053 0 -0.00059908635166339966 0.0041666206170062319 0 -0.00049070014878902966 0.0042424816294767053 0 -0.0004713275472672555 0.0040923235968565088 0 -0.00041833753689068828 0.0043105413422858622 0 -0.00041905206781551785 0.00431913933494557 0 -0.00040973495061416516 0.0043096033003772408 0 -0.00052094512094211015 0.0042246524863206606 0 -0.00042062694772775625 0.0042260502837451232 0 -0.00040972519813200635 0.0043020479864000942 0 -0.00040973495061416516 0.0043096033003772408 0 -0.00040314573911835527 0.0043007170108096491 0 -0.00040972519813200635 0.0043020479864000942 0 -0.00041833753689068828 0.0043105413422858622 0 -0.00040973495061416516 0.0043096033003772408 0 -0.00035791020459069418 0.0040279976483257015 0 -0.00033218647622815261 0.0041201964659915618 0 -0.00023986395731279391 0.0040500867377556045 0 -0.00067841349382034919 0.0035323746730828581 0 -0.0010057295623929776 0.0036948949651785909 0 -0.00058299420399982396 0.0038348988218879646 0 -0.00051626952806333273 0.003949713564255314 0 -0.00044467605611424348 0.0039249002447296049 0 -0.00058975396855334152 0.0036516191368733725 0 -0.00051626952806333273 0.003949713564255314 0 -0.00042062694772775625 0.0042260502837451232 0 -0.00051626952806333273 0.003949713564255314 0 -0.00034964573630239237 0.0040542402765384161 0 -0.00051626952806333273 0.003949713564255314 0 -0.0004713275472672555 0.0040923235968565088 0 -0.00035791020459069418 0.0040279976483257015 0 -0.00033218647622815261 0.0041201964659915618 0 -0.0004713275472672555 0.0040923235968565088 0 -0.00033218647622815261 0.0041201964659915618 0 -0.00039477807673478837 0.0042002897608058049 0 -0.00033218647622815261 0.0041201964659915618 0 -0.0002514041108070185 0.0041233344137056533 0 -0.00023986395731279391 0.0040500867377556045 0 -0.00033218647622815261 0.0041201964659915618 0 -0.00029338669463807831 0.0042340355742399634 0 -0.0002514041108070185 0.0041233344137056533 0 -0.00033218647622815261 0.0041201964659915618 0 -0.00039477807673478837 0.0042002897608058049 0 -0.00029338669463807831 0.0042340355742399634 0 -0.00041968912092393704 0.0043496048100380548 0 -0.00031695074390062386 0.0042869827812252945 0 -0.00039477807673478837 0.0042002897608058049 0 -0.00039651989778098244 0.0043123093718450602 0 -0.00029338669463807831 0.0042340355742399634 0 -0.00035932268402016909 0.0044114696078418432 0 -0.00043269508315201368 0.0043840762538466319 0 -0.00034668554676917887 0.0043464369393366054 0 -0.00035932268402016909 0.0044114696078418432 0 -0.00034668554676917887 0.0043464369393366054 0 -0.0002717966373341479 0.0043897960113376995 0 -0.00034668554676917887 0.0043464369393366054 0 -0.0002717966373341479 0.0043897960113376995 0 -0.0002516305014877274 0.0043015038390302124 0 -0.0002717966373341479 0.0043897960113376995 0 -0.0002516305014877274 0.0043015038390302124 0 -0.0001829245977743769 0.0043400082692940656 0 -0.0002717966373341479 0.0043897960113376995 0 -0.0001829245977743769 0.0043400082692940656 0 -0.00018679830652619585 0.0044205436677797524 0 -0.0002516305014877274 0.0043015038390302124 0 -0.0001511328297076545 0.0042580189741619721 0 -0.0001829245977743769 0.0043400082692940656 0 -0.00020013307567156232 0.004162312132828032 0 -0.00016319772159122375 0.0040913359830591677 0 -6.7782011692630827e-05 0.0040941938406631869 0 -0.00024195852383108912 0.0042596385550377532 0 -7.2914099312445136e-05 0.0039507323171093954 0 -0.00031695074390062386 0.0042869827812252945 0 -0.00024195852383108912 0.0042596385550377532 0 -0.00020013307567156232 0.004162312132828032 0 -0.0002514041108070185 0.0041233344137056533 0 -0.00016319772159122375 0.0040913359830591677 0 -0.00029338669463807831 0.0042340355742399634 0 -0.00020013307567156232 0.004162312132828032 0 -0.0002514041108070185 0.0041233344137056533 0 -0.0002514041108070185 0.0041233344137056533 0 -0.00016319772159122375 0.0040913359830591677 0 -0.00023986395731279391 0.0040500867377556045 0 -0.00016319772159122375 0.0040913359830591677 0 -0.00023986395731279391 0.0040500867377556045 0 -0.00011363620510487163 0.0040111010462448946 0 -0.00044467605611424348 0.0039249002447296049 0 -0.00010747970677440248 0.0040190682033468634 0 -0.00016319772159122375 0.0040913359830591677 0 -0.00011363620510487163 0.0040111010462448946 0 -0.0001124388746108673 0.0040696132336920992 0 -0.00040981468172295119 0.0036004675796499652 0 -0.00030389299074333671 0.0037810278454356964 0 -0.00058299420399982396 0.0038348988218879646 0 -0.00030389299074333671 0.0037810278454356964 0 -0.00058299420399982396 0.0038348988218879646 0 -0.00011363620510487163 0.0040111010462448946 0 -0.00030389299074333671 0.0037810278454356964 0 -0.00025449959558205502 0.0036701242488586623 0 -0.00015311387469788186 0.0038034783045197691 0 -0.00030389299074333671 0.0037810278454356964 0 -0.00015311387469788186 0.0038034783045197691 0 -0.00011363620510487163 0.0040111010462448946 0 -0.00020318564649038086 0.0035075758348303366 0 -0.00025449959558205502 0.0036701242488586623 0 -9.3118832829177121e-05 0.0036726802482694105 0 -0.00040981468172295119 0.0036004675796499652 0 -0.00030389299074333671 0.0037810278454356964 0 -0.00025449959558205502 0.0036701242488586623 0 -0.00067841349382034919 0.0035323746730828581 0 -0.00040981468172295119 0.0036004675796499652 0 -0.00058299420399982396 0.0038348988218879646 0 0.00025135506932841766 0.0034557398404868136 0 0.00034292851739175161 0.0037420212111683002 0 0.00010252594699926546 0.0036419650306023748 0 0.00015037718104824653 0.0038324071282900005 0 0.00034292851739175161 0.0037420212111683002 0 0.00010252594699926546 0.0036419650306023748 0 0.00015037718104824653 0.0038324071282900005 0 0.00034292851739175161 0.0037420212111683002 0 0.00024670928900505493 0.0040117037170451135 0 0.00010252594699926546 0.0036419650306023748 0 -9.3118832829177121e-05 0.0036726802482694105 0 -6.6172038424500033e-06 0.0037974997208588914 0 -3.9952490236945873e-05 0.0035297291881366973 0 0.00010252594699926546 0.0036419650306023748 0 -9.3118832829177121e-05 0.0036726802482694105 0 -0.00025449959558205502 0.0036701242488586623 0 -9.3118832829177121e-05 0.0036726802482694105 0 -0.00015311387469788186 0.0038034783045197691 0 -9.3118832829177121e-05 0.0036726802482694105 0 -0.00015311387469788186 0.0038034783045197691 0 -6.6172038424500033e-06 0.0037974997208588914 0 -0.00015311387469788186 0.0038034783045197691 0 -6.6172038424500033e-06 0.0037974997208588914 0 -4.4637126168431401e-05 0.0039198597787720082 0 0.00015037718104824653 0.0038324071282900005 0 -6.6172038424500033e-06 0.0037974997208588914 0 6.5476036095097866e-05 0.0039653750801038577 0 0.00015037718104824653 0.0038324071282900005 0 0.00010252594699926546 0.0036419650306023748 0 -6.6172038424500033e-06 0.0037974997208588914 0 -6.6172038424500033e-06 0.0037974997208588914 0 6.5476036095097866e-05 0.0039653750801038577 0 -4.4637126168431401e-05 0.0039198597787720082 0 6.5476036095097866e-05 0.0039653750801038577 0 -4.4637126168431401e-05 0.0039198597787720082 0 -4.5180910810201157e-05 0.0040205564681872778 0 -0.00015311387469788186 0.0038034783045197691 0 -4.4637126168431401e-05 0.0039198597787720082 0 -0.00011363620510487163 0.0040111010462448946 0 -4.4637126168431401e-05 0.0039198597787720082 0 -0.00011363620510487163 0.0040111010462448946 0 -4.5180910810201157e-05 0.0040205564681872778 0 -0.00016319772159122375 0.0040913359830591677 0 -6.7782011692630827e-05 0.0040941938406631869 0 -0.0001124388746108673 0.0040696132336920992 0 -0.00011363620510487163 0.0040111010462448946 0 -8.3745146513592374e-05 0.0040772642465885019 0 -0.0001124388746108673 0.0040696132336920992 0 -0.00011363620510487163 0.0040111010462448946 0 -4.5180910810201157e-05 0.0040205564681872778 0 -8.3745146513592374e-05 0.0040772642465885019 0 -4.5180910810201157e-05 0.0040205564681872778 0 -3.9606711524998995e-05 0.0041245042467612817 0 -8.3745146513592374e-05 0.0040772642465885019 0 -6.7782011692630827e-05 0.0040941938406631869 0 -8.3745146513592374e-05 0.0040772642465885019 0 -0.0001124388746108673 0.0040696132336920992 0 -7.2914099312445136e-05 0.0039507323171093954 0 -5.2458807817222719e-05 0.0039903756512825964 0 6.5476036095097866e-05 0.0039653750801038577 0 -4.5180910810201157e-05 0.0040205564681872778 0 -3.9606711524998995e-05 0.0041245042467612817 0 6.5476036095097866e-05 0.0039653750801038577 0 -3.9606711524998995e-05 0.0041245042467612817 0 0.00024670928900505493 0.0040117037170451135 0 -7.2914099312445136e-05 0.0039507323171093954 0 0.00019848148970467698 0.0037440836890522862 0 0.00015037718104824653 0.0038324071282900005 0 6.5476036095097866e-05 0.0039653750801038577 0 0.00024670928900505493 0.0040117037170451135 0 -7.0182775537323136e-05 0.0035544926353415838 0 0.00013718444827412452 0.0034729964866064872 0 6.3388309495004817e-05 0.0036844821244434861 0 0.00013718444827412452 0.0034729964866064872 0 0.00018091677356214781 0.0036225063444049049 0 6.3388309495004817e-05 0.0036844821244434861 0 0.00018091677356214781 0.0036225063444049049 0 6.3388309495004817e-05 0.0036844821244434861 0 0.00019678018978547642 0.0038162960414042445 0 -0.0001511328297076545 0.0042580189741619721 0 -0.00010075305489181257 0.0043067480642361806 0 -0.0001829245977743769 0.0043400082692940656 0 -7.2914099312445136e-05 0.0039507323171093954 0 6.3319080344358955e-06 0.0040108727842409347 0 -0.00010075305489181257 0.0043067480642361806 0 -0.00012100124851994299 0.0043758333561559597 0 -0.0001829245977743769 0.0043400082692940656 0 -0.00012100124851994299 0.0043758333561559597 0 -0.0001829245977743769 0.0043400082692940656 0 -0.00018679830652619585 0.0044205436677797524 0 -0.00012100124851994299 0.0043758333561559597 0 -4.9803832857120744e-05 0.00435392818177123 0 -9.5981764786036747e-05 0.0044613266100319562 0 -0.00010075305489181257 0.0043067480642361806 0 -0.00012100124851994299 0.0043758333561559597 0 -4.9803832857120744e-05 0.00435392818177123 0 6.3319080344358955e-06 0.0040108727842409347 0 6.2172208671032534e-05 0.0037492772887487962 0 6.2172208671032534e-05 0.0037492772887487962 0 -0.00020183032541210133 0.0040902908822199203 0 -0.00014680647660977758 0.0034141114030366987 0 -0.00025119165998003308 0.0036474637856722197 0 -0.00012625062916407778 0.003612216635811954 0 -0.00025119165998003308 0.0036474637856722197 0 -0.00016210219654019226 0.003713607749697537 0 -0.00012625062916407778 0.003612216635811954 0 -0.00025119165998003308 0.0036474637856722197 0 -0.00016210219654019226 0.003713607749697537 0 -0.00021710421530967715 0.0038106661465101589 0 -0.00025119165998003308 0.0036474637856722197 0 -0.00021710421530967715 0.0038106661465101589 0 -0.00035964387999017896 0.0038871206395951425 0 -0.00016210219654019226 0.003713607749697537 0 -0.00021710421530967715 0.0038106661465101589 0 -0.0001350165702887224 0.0038002129750231923 0 -0.00020183032541210133 0.0040902908822199203 0 -0.00023025897739910328 0.004212222474832189 0 -9.5981764786036747e-05 0.0044613266100319562 0 -0.00019619723614302181 0.0044994257621097768 0 -0.00014305050717343677 0.0045681262640814803 0 -9.5981764786036747e-05 0.0044613266100319562 0 -0.00018679830652619585 0.0044205436677797524 0 -0.00019619723614302181 0.0044994257621097768 0 -0.00012100124851994299 0.0043758333561559597 0 -9.5981764786036747e-05 0.0044613266100319562 0 -0.00018679830652619585 0.0044205436677797524 0 -0.0002717966373341479 0.0043897960113376995 0 -0.00018679830652619585 0.0044205436677797524 0 -0.00024979639462943443 0.0044580065759707134 0 -0.00018679830652619585 0.0044205436677797524 0 -0.00024979639462943443 0.0044580065759707134 0 -0.00019619723614302181 0.0044994257621097768 0 -0.00035932268402016909 0.0044114696078418432 0 -0.0002717966373341479 0.0043897960113376995 0 -0.00032010481896343649 0.0044633743711490498 0 -0.0002717966373341479 0.0043897960113376995 0 -0.00024979639462943443 0.0044580065759707134 0 -0.00032010481896343649 0.0044633743711490498 0 -0.00034624017906804397 0.0045386779500964664 0 -0.00027672190598464631 0.0045179571744992731 0 -0.00030552833623347417 0.004570803169947864 0 -0.00034624017906804397 0.0045386779500964664 0 -0.00032010481896343649 0.0044633743711490498 0 -0.00027672190598464631 0.0045179571744992731 0 -0.00024979639462943443 0.0044580065759707134 0 -0.00032010481896343649 0.0044633743711490498 0 -0.00027672190598464631 0.0045179571744992731 0 -0.00027672190598464631 0.0045179571744992731 0 -0.00019619723614302181 0.0044994257621097768 0 -0.00023847004916710375 0.0045679025194079381 0 -0.00024979639462943443 0.0044580065759707134 0 -0.00027672190598464631 0.0045179571744992731 0 -0.00019619723614302181 0.0044994257621097768 0 -0.00023847004916710375 0.0045679025194079381 0 -0.00022134854807523709 0.0046233136567233931 0 -0.00014305050717343677 0.0045681262640814803 0 -0.00019619723614302181 0.0044994257621097768 0 -0.00023847004916710375 0.0045679025194079381 0 -0.00014305050717343677 0.0045681262640814803 0 -0.00023847004916710375 0.0045679025194079381 0 -0.00028716389581343179 0.0046303363420165111 0 -0.00022134854807523709 0.0046233136567233931 0 -0.00027672190598464631 0.0045179571744992731 0 -0.00023847004916710375 0.0045679025194079381 0 -0.00030552833623347417 0.004570803169947864 0 -0.00023847004916710375 0.0045679025194079381 0 -0.00030552833623347417 0.004570803169947864 0 -0.00028716389581343179 0.0046303363420165111 0 -0.00034916216382109241 0.0046171410127624013 0 -0.00030552833623347417 0.004570803169947864 0 -0.00028716389581343179 0.0046303363420165111 0 -0.00034916216382109241 0.0046171410127624013 0 -0.00028716389581343179 0.0046303363420165111 0 -0.0003290042752252872 0.0046623565202499658 0 -0.00028716389581343179 0.0046303363420165111 0 -0.00030300970953832872 0.0046796742221886407 0 -0.00025921788221390388 0.0046741273876454471 0 -0.00028716389581343179 0.0046303363420165111 0 -0.00030300970953832872 0.0046796742221886407 0 -0.0003290042752252872 0.0046623565202499658 0 -0.00030300970953832872 0.0046796742221886407 0 -0.0003290042752252872 0.0046623565202499658 0 -0.00034083312494904717 0.0046920534597454308 0 -0.00028716389581343179 0.0046303363420165111 0 -0.00022134854807523709 0.0046233136567233931 0 -0.00025921788221390388 0.0046741273876454471 0 -0.00022134854807523709 0.0046233136567233931 0 -0.00025921788221390388 0.0046741273876454471 0 -0.00019087136060469984 0.004677591310320973 0 -0.00041656806459868634 0.0040348106869601925 0 -0.00056193649582756626 0.0043752848697383188 0 -0.00056325194336666101 0.0042561701369703735 0 -0.00035614732131336298 0.0041577189785983269 0 -0.00059113977873179798 0.0043216337650208098 0 -0.00046933303863372957 0.0041406186600417404 0 -0.00032669558558612191 0.0040720512587167088 0 -0.00035964387999017896 0.0038871206395951425 0 -0.00022134854807523709 0.0046233136567233931 0 -0.00019087136060469984 0.004677591310320973 0 -0.00014305050717343677 0.0045681262640814803 0 -0.00045576678102638064 0.0044260472469659102 0 -0.00041656806459868634 0.0040348106869601925 0 -0.00045576678102638064 0.0044260472469659102 0 -0.00023025897739910328 0.004212222474832189 0 -0.00059654851074459096 0.0037129065719710302 0 -0.00059432341411872933 0.0037052765158243463 0 -0.00058194754025746049 0.0037125157802664227 0 -0.00059654851074459096 0.0037129065719710302 0 -0.00060468625204996261 0.0037052786339023579 0 -0.00059432341411872933 0.0037052765158243463 0 -0.00041656806459868634 0.0040348106869601925 0 -0.00019628826662044176 0.003310511276422659 0 -0.00059654851074459096 0.0037129065719710302 0 -0.00060468625204996261 0.0037052786339023579 0 -0.0006066310348272607 0.0037091982931201075 0 -0.00023717623720623967 0.0039197531785191055 0 -0.0001703402160404186 0.003863551283183228 0 -7.1416822153135944e-05 0.0038828511653637172 0 -0.00032669558558612191 0.0040720512587167088 0 -0.00023717623720623967 0.0039197531785191055 0 -7.1416822153135944e-05 0.0038828511653637172 0 -0.00032759830791706258 0.0040455994639659824 0 -6.6310804976077271e-05 0.0039345976399317948 0 -7.1416822153135944e-05 0.0038828511653637172 0 -0.00041656806459868634 0.0040348106869601925 0 -4.9690920044374915e-05 0.0038922866550893031 0 -0.00021710421530967715 0.0038106661465101589 0 -0.00023717623720623967 0.0039197531785191055 0 -0.0001703402160404186 0.003863551283183228 0 -0.00021710421530967715 0.0038106661465101589 0 -0.0001703402160404186 0.003863551283183228 0 -0.0001350165702887224 0.0038002129750231923 0 -0.00021710421530967715 0.0038106661465101589 0 -0.00023717623720623967 0.0039197531785191055 0 -0.00035964387999017896 0.0038871206395951425 0 -0.00032669558558612191 0.0040720512587167088 0 -0.00023717623720623967 0.0039197531785191055 0 -0.00035964387999017896 0.0038871206395951425 0 -0.00059492636544655742 0.0036949076583582523 0 -0.00058275957604316951 0.0036905068240740478 0 -0.00059409048512664819 0.003684953370912816 0 -0.00059492636544655742 0.0036949076583582523 0 -0.00059409048512664819 0.003684953370912816 0 -0.00060611033662783431 0.0036887041914518558 0 -0.00059492636544655742 0.0036949076583582523 0 -0.00058275957604316951 0.0036905068240740478 0 -0.00058389393133762534 0.0037000091015406663 0 -0.00058275957604316951 0.0036905068240740478 0 -0.00059409048512664819 0.003684953370912816 0 -0.00057760893389764635 0.0036795808302540825 0 -0.00059409048512664819 0.003684953370912816 0 -0.00060551472086225143 0.0036746612783428831 0 -0.00059616378086771763 0.0036718389756106853 0 -0.00059409048512664819 0.003684953370912816 0 -0.00057760893389764635 0.0036795808302540825 0 -0.00059616378086771763 0.0036718389756106853 0 -0.00059409048512664819 0.003684953370912816 0 -0.00060551472086225143 0.0036746612783428831 0 -0.00060611033662783431 0.0036887041914518558 0 -0.00060551472086225143 0.0036746612783428831 0 -0.00061431780528709761 0.0036791263434246308 0 -0.00061462790898873256 0.0036657585986629489 0 -0.00060551472086225143 0.0036746612783428831 0 -0.00061431780528709761 0.0036791263434246308 0 -0.00060611033662783431 0.0036887041914518558 0 -0.00061956197281676727 0.0036715445100705662 0 -0.00061431780528709761 0.0036791263434246308 0 -0.00061462790898873256 0.0036657585986629489 0 -0.0006153109813918224 0.0036867383015110173 0 -0.00060611033662783431 0.0036887041914518558 0 -0.00061391800596191475 0.0036948335945803244 0 -0.00061431780528709761 0.0036791263434246308 0 -0.0006153109813918224 0.0036867383015110173 0 -0.00060611033662783431 0.0036887041914518558 0 -0.00059492636544655742 0.0036949076583582523 0 -0.00060611033662783431 0.0036887041914518558 0 -0.000602892209679923 0.0036982794737434499 0 -0.000602892209679923 0.0036982794737434499 0 -0.00060468625204996261 0.0037052786339023579 0 -0.00061391800596191475 0.0036948335945803244 0 -0.00060611033662783431 0.0036887041914518558 0 -0.000602892209679923 0.0036982794737434499 0 -0.00061391800596191475 0.0036948335945803244 0 -0.000602892209679923 0.0036982794737434499 0 -0.00060468625204996261 0.0037052786339023579 0 -0.00059432341411872933 0.0037052765158243463 0 -0.00059492636544655742 0.0036949076583582523 0 -0.00059432341411872933 0.0037052765158243463 0 -0.00058389393133762534 0.0037000091015406663 0 -0.00059492636544655742 0.0036949076583582523 0 -0.000602892209679923 0.0036982794737434499 0 -0.00059432341411872933 0.0037052765158243463 0 -0.00059432341411872933 0.0037052765158243463 0 -0.00058389393133762534 0.0037000091015406663 0 -0.00058194754025746049 0.0037125157802664227 0 -0.0006047490205362884 0.0047904064593786736 0 -0.00058776313785664335 0.0047813963200133243 0 -0.00057950120826194562 0.0047951679385753263 0 -0.00058389393133762534 0.0037000091015406663 0 -0.00058194754025746049 0.0037125157802664227 0 -0.00056078646761492483 0.0036887994938571774 0 -0.00045576678102638064 0.0044260472469659102 0 -0.0004422238513305436 0.0047976833387391457 0 -0.00067696396028404222 0.0048037612432275936 0 -0.00062277061374189544 0.0047704652023154567 0 -0.00064444926690637098 0.0047157845078034753 0 -0.00056193649582756626 0.0043752848697383188 0 -0.00060896482385928313 0.0041771320661929618 0 -0.00056193649582756626 0.0043752848697383188 0 -0.00064281054159122408 0.0048233334554011256 0 -0.00025921788221390388 0.0046741273876454471 0 -0.00019087136060469984 0.004677591310320973 0 -0.00030247322602101851 0.0047328251142006736 0 -0.00045576678102638064 0.0044260472469659102 0 -0.00056193649582756626 0.0043752848697383188 0 -0.00060679745434767012 0.0047925832330995765 0 -0.0006047490205362884 0.0047904064593786736 0 -0.00057950120826194562 0.0047951679385753263 0 -0.00034083312494904717 0.0046920534597454308 0 -0.00030247322602101851 0.0047328251142006736 0 -0.00039096220477158577 0.0047150510114297769 0 -0.00030300970953832872 0.0046796742221886407 0 -0.00034083312494904717 0.0046920534597454308 0 -0.00030247322602101851 0.0047328251142006736 0 -0.00030300970953832872 0.0046796742221886407 0 -0.00025921788221390388 0.0046741273876454471 0 -0.00030247322602101851 0.0047328251142006736 0 -0.00058776313785664335 0.0047813963200133243 0 -0.00057950120826194562 0.0047951679385753263 0 -0.00052801822521656978 0.0047328067066156887 0 -0.00064281054159122408 0.0048233334554011256 0 -0.00051611324006279431 0.0047196721487539313 0 -0.00062277061374189544 0.0047704652023154567 0 -0.00059704461401928228 0.0047240551726998843 0 -0.00052801822521656978 0.0047328067066156887 0 -0.00059704461401928228 0.0047240551726998843 0 -0.00064444926690637098 0.0047157845078034753 0 -0.00058531261952287012 0.0046789065282495943 0 -0.00062277061374189544 0.0047704652023154567 0 -0.00059704461401928228 0.0047240551726998843 0 -0.00064444926690637098 0.0047157845078034753 0 -0.00059704461401928228 0.0047240551726998843 0 -0.00058531261952287012 0.0046789065282495943 0 -0.00052801822521656978 0.0047328067066156887 0 -0.00058275957604316951 0.0036905068240740478 0 -0.00058389393133762534 0.0037000091015406663 0 -0.00056078646761492483 0.0036887994938571774 0 -0.00058275957604316951 0.0036905068240740478 0 -0.00056078646761492483 0.0036887994938571774 0 -0.00057760893389764635 0.0036795808302540825 0 -0.00056078646761492483 0.0036887994938571774 0 -0.00053100196416664552 0.0036496471197770813 0 -0.00056845744229688311 0.0036618140688483066 0 -0.00056078646761492483 0.0036887994938571774 0 -0.00057760893389764635 0.0036795808302540825 0 -0.00056845744229688311 0.0036618140688483066 0 -0.00060896482385928313 0.0041771320661929618 0 -0.00058452454411372261 0.0041203555704718564 0 -0.00064444926690637098 0.0047157845078034753 0 -0.00058531261952287012 0.0046789065282495943 0 -0.00063497617719601598 0.0045884598526205718 0 -0.00053100196416664552 0.0036496471197770813 0 -0.00056845744229688311 0.0036618140688483066 0 -0.00055552156024617032 0.0036463153629686103 0 -0.00056845744229688311 0.0036618140688483066 0 -0.0005945491455889891 0.0036469438426659055 0 -0.00055552156024617032 0.0036463153629686103 0 -0.0005945491455889891 0.0036469438426659055 0 -0.00059350549193762847 0.0036614432690855528 0 -0.00061437417116432707 0.0036470060639530542 0 -0.00056845744229688311 0.0036618140688483066 0 -0.0005945491455889891 0.0036469438426659055 0 -0.00059350549193762847 0.0036614432690855528 0 -0.00057760893389764635 0.0036795808302540825 0 -0.00056845744229688311 0.0036618140688483066 0 -0.00059350549193762847 0.0036614432690855528 0 -0.00059350549193762847 0.0036614432690855528 0 -0.00059616378086771763 0.0036718389756106853 0 -0.00060954893263077622 0.0036587160755542757 0 -0.00057760893389764635 0.0036795808302540825 0 -0.00059350549193762847 0.0036614432690855528 0 -0.00059616378086771763 0.0036718389756106853 0 -0.00061462790898873256 0.0036657585986629489 0 -0.00060954893263077622 0.0036587160755542757 0 -0.00061929281404486983 0.0036513311829604396 0 -0.00061462790898873256 0.0036657585986629489 0 -0.00061929281404486983 0.0036513311829604396 0 -0.00062242780761460588 0.0036581603132516678 0 -0.00061956197281676727 0.0036715445100705662 0 -0.00061462790898873256 0.0036657585986629489 0 -0.00062242780761460588 0.0036581603132516678 0 -0.00060551472086225143 0.0036746612783428831 0 -0.00061462790898873256 0.0036657585986629489 0 -0.00060954893263077622 0.0036587160755542757 0 -0.00060551472086225143 0.0036746612783428831 0 -0.00059616378086771763 0.0036718389756106853 0 -0.00060954893263077622 0.0036587160755542757 0 -0.00059350549193762847 0.0036614432690855528 0 -0.00060954893263077622 0.0036587160755542757 0 -0.00061437417116432707 0.0036470060639530542 0 -0.00060954893263077622 0.0036587160755542757 0 -0.00062146187922283561 0.0036438244347760068 0 -0.00061437417116432707 0.0036470060639530542 0 -0.00060954893263077622 0.0036587160755542757 0 -0.00062146187922283561 0.0036438244347760068 0 -0.00061929281404486983 0.0036513311829604396 0 -0.00061929281404486983 0.0036513311829604396 0 -0.00062486935464567764 0.003640218981685994 0 -0.00062432996759100219 0.0036449297371006282 0 -0.00061929281404486983 0.0036513311829604396 0 -0.00062432996759100219 0.0036449297371006282 0 -0.00062242780761460588 0.0036581603132516678 0 -0.00062146187922283561 0.0036438244347760068 0 -0.00061929281404486983 0.0036513311829604396 0 -0.00062486935464567764 0.003640218981685994 0 -0.00062146187922283561 0.0036438244347760068 0 -0.00063129501650320194 0.0036340547858649155 0 -0.00062782350091361951 0.0036348735295569459 0 -0.00062146187922283561 0.0036438244347760068 0 -0.00061437417116432707 0.0036470060639530542 0 -0.00063129501650320194 0.0036340547858649155 0 -0.00062146187922283561 0.0036438244347760068 0 -0.00062782350091361951 0.0036348735295569459 0 -0.00062486935464567764 0.003640218981685994 0 -0.0005945491455889891 0.0036469438426659055 0 -0.00061437417116432707 0.0036470060639530542 0 -0.0006274780487185162 0.0036332734512788171 0 -0.0006274780487185162 0.0036332734512788171 0 -0.00063129501650320194 0.0036340547858649155 0 -0.00064748724576051272 0.003616014545842274 0 -0.00061437417116432707 0.0036470060639530542 0 -0.0006274780487185162 0.0036332734512788171 0 -0.00063129501650320194 0.0036340547858649155 0 -0.0006274780487185162 0.0036332734512788171 0 -0.00064748724576051272 0.003616014545842274 0 -0.00064571618457976419 0.0036233907540660394 0 -0.0006274780487185162 0.0036332734512788171 0 -0.00064571618457976419 0.0036233907540660394 0 -0.00062006984816772323 0.0036315609400785305 0 -0.00064571618457976419 0.0036233907540660394 0 -0.00062006984816772323 0.0036315609400785305 0 -0.00064601364196360898 0.0035998861944847179 0 -0.00064748724576051272 0.003616014545842274 0 -0.00064571618457976419 0.0036233907540660394 0 -0.00067128202324656986 0.0036206117426443476 0 -0.00064571618457976419 0.0036233907540660394 0 -0.00067128202324656986 0.0036206117426443476 0 -0.00064601364196360898 0.0035998861944847179 0 -0.0005945491455889891 0.0036469438426659055 0 -0.00057690373044969219 0.0036326607866867451 0 -0.00055552156024617032 0.0036463153629686103 0 -0.0005945491455889891 0.0036469438426659055 0 -0.00062006984816772323 0.0036315609400785305 0 -0.00057690373044969219 0.0036326607866867451 0 -0.0005945491455889891 0.0036469438426659055 0 -0.0006274780487185162 0.0036332734512788171 0 -0.00062006984816772323 0.0036315609400785305 0 -0.00062006984816772323 0.0036315609400785305 0 -0.00057690373044969219 0.0036326607866867451 0 -0.00064601364196360898 0.0035998861944847179 0 -0.00057690373044969219 0.0036326607866867451 0 -0.00064601364196360898 0.0035998861944847179 0 -0.00058529177339480712 0.0035413419630359868 0 -0.00067128202324656986 0.0036206117426443476 0 -0.00064601364196360898 0.0035998861944847179 0 -0.00076041252043143994 0.0034719869695137738 0 -0.00024509965443173616 0.00088687645102623631 0 -0.00057220362056972557 0.0015994962070417422 0 -9.4325033245354931e-05 0.0012139555780307143 0 -0.00044726742446385149 0.002164149687714239 0 -0.00065438009939334195 0.0025611010246895721 0 -0.00064601364196360898 0.0035998861944847179 0 -0.00076041252043143994 0.0034719869695137738 0 -0.00058529177339480712 0.0035413419630359868 0 -0.00076041252043143994 0.0034719869695137738 0 -0.00058529177339480712 0.0035413419630359868 0 -0.00060876698913961587 0.003320426555235166 0 -0.00060876698913961587 0.003320426555235166 0 -0.00050735337084447741 0.0033040987545390255 0 -0.00058477792189132671 0.0031632421349666374 0 -0.00076041252043143994 0.0034719869695137738 0 -0.00060876698913961587 0.003320426555235166 0 -0.00070821888767373892 0.0029547451055511272 0 -0.00057220362056972557 0.0015994962070417422 0 -0.00059542358347121588 0.0026496608748299648 0 -0.00070821888767373892 0.0029547451055511272 0 -0.00065438009939334195 0.0025611010246895721 0 -0.00071093458819525713 0.0029060100256437247 0 -0.00057220362056972557 0.0015994962070417422 0 -0.00019492897731628991 0.0020834825666504564 0 -0.00059542358347121588 0.0026496608748299648 0 -0.00042461566333749733 0.0034008207461322139 0 -0.00050735337084447741 0.0033040987545390255 0 -0.00047337047471419398 0.0032677089200419444 0 -0.00042461566333749733 0.0034008207461322139 0 -0.00047337047471419398 0.0032677089200419444 0 -0.00040080569607555723 0.0033455800169971293 0 -0.00042461566333749733 0.0034008207461322139 0 -0.00033997414066019497 0.0034412705642649678 0 -0.00037794718135254377 0.0033959685140925009 0 -0.00042461566333749733 0.0034008207461322139 0 -0.00037794718135254377 0.0033959685140925009 0 -0.00040080569607555723 0.0033455800169971293 0 -0.00060876698913961587 0.003320426555235166 0 -0.00050735337084447741 0.0033040987545390255 0 -0.00051174898070652469 0.0034528900558134863 0 -0.00042461566333749733 0.0034008207461322139 0 -0.00050735337084447741 0.0033040987545390255 0 -0.00051174898070652469 0.0034528900558134863 0 -0.00058529177339480712 0.0035413419630359868 0 -0.00051174898070652469 0.0034528900558134863 0 -0.00045290665708427245 0.0036396684054571479 0 -0.00058529177339480712 0.0035413419630359868 0 -0.00060876698913961587 0.003320426555235166 0 -0.00051174898070652469 0.0034528900558134863 0 -0.00045290665708427245 0.0036396684054571479 0 -0.00053267428750904708 0.003827771471874688 0 -0.00054238783535055779 0.0040286468816181113 0 -0.0004612431985626383 0.0036705143410673742 0 -0.00045388820852631937 0.0037334593029016289 0 -0.00042461566333749733 0.0034008207461322139 0 -0.00045290665708427245 0.0036396684054571479 0 -0.00033997414066019497 0.0034412705642649678 0 -0.00042461566333749733 0.0034008207461322139 0 -0.00051174898070652469 0.0034528900558134863 0 -0.00045290665708427245 0.0036396684054571479 0 -0.00045290665708427245 0.0036396684054571479 0 -0.00051931475206356355 0.0036350618796611662 0 -0.00054620051541377876 0.003641693332993298 0 -0.00045290665708427245 0.0036396684054571479 0 -0.00054620051541377876 0.003641693332993298 0 -0.00053267428750904708 0.003827771471874688 0 -0.00057690373044969219 0.0036326607866867451 0 -0.00052642578322042316 0.0036191990293882453 0 -0.00051931475206356355 0.0036350618796611662 0 -0.00057690373044969219 0.0036326607866867451 0 -0.00058529177339480712 0.0035413419630359868 0 -0.00052642578322042316 0.0036191990293882453 0 -0.00058529177339480712 0.0035413419630359868 0 -0.00045290665708427245 0.0036396684054571479 0 -0.00052642578322042316 0.0036191990293882453 0 -0.00045290665708427245 0.0036396684054571479 0 -0.00052642578322042316 0.0036191990293882453 0 -0.00051931475206356355 0.0036350618796611662 0 -0.00057690373044969219 0.0036326607866867451 0 -0.00055552156024617032 0.0036463153629686103 0 -0.00051931475206356355 0.0036350618796611662 0 -0.00058452454411372261 0.0041203555704718564 0 -0.0005818910737713952 0.0040222881003591903 0 -0.00053100196416664552 0.0036496471197770813 0 -0.00051931475206356355 0.0036350618796611662 0 -0.00054620051541377876 0.003641693332993298 0 -0.00053100196416664552 0.0036496471197770813 0 -0.00055552156024617032 0.0036463153629686103 0 -0.00051931475206356355 0.0036350618796611662 0 -0.00063497617719601598 0.0045884598526205718 0 -0.00052749288190982995 0.0044594343382658944 0 -0.00047764713479170486 0.004556415425127718 0 -0.00063497617719601598 0.0045884598526205718 0 -0.00052749288190982995 0.0044594343382658944 0 -0.00063126937439835873 0.0044038319539500166 0 -0.00052749288190982995 0.0044594343382658944 0 -0.00037324512982767028 0.0044302099054886537 0 -0.00047764713479170486 0.004556415425127718 0 -0.00052749288190982995 0.0044594343382658944 0 -0.00049054431024865238 0.0043266361969158292 0 -0.00037324512982767028 0.0044302099054886537 0 -0.00052749288190982995 0.0044594343382658944 0 -0.00049054431024865238 0.0043266361969158292 0 -0.00063126937439835873 0.0044038319539500166 0 -0.00049054431024865238 0.0043266361969158292 0 -0.00063126937439835873 0.0044038319539500166 0 -0.00058189188726847447 0.0040693256114189228 0 -0.00054620051541377876 0.003641693332993298 0 -0.00053267428750904708 0.003827771471874688 0 -0.00058189188726847447 0.0040693256114189228 0 -0.0005818910737713952 0.0040222881003591903 0 -0.00058122889452721612 0.0040540057999201122 0 -0.00053267428750904708 0.003827771471874688 0 -0.00054238783535055779 0.0040286468816181113 0 -0.00058189188726847447 0.0040693256114189228 0 -0.00049054431024865238 0.0043266361969158292 0 -0.00048678205114840583 0.0041957771037996238 0 -0.00039401400798675697 0.0042553010238144569 0 -0.00049054431024865238 0.0043266361969158292 0 -0.00058189188726847447 0.0040693256114189228 0 -0.00048678205114840583 0.0041957771037996238 0 -0.00058189188726847447 0.0040693256114189228 0 -0.00048678205114840583 0.0041957771037996238 0 -0.00049140504404573656 0.0041423360696297446 0 -0.00058189188726847447 0.0040693256114189228 0 -0.00049140504404573656 0.0041423360696297446 0 -0.00053807941139350109 0.004090642963073223 0 -0.00049140504404573656 0.0041423360696297446 0 -0.00053807941139350109 0.004090642963073223 0 -0.00042211336702266497 0.0041222210625844781 0 -0.00045388820852631937 0.0037334593029016289 0 -0.00042947095960293823 0.0037496136533375361 0 -0.00054238783535055779 0.0040286468816181113 0 -0.00058189188726847447 0.0040693256114189228 0 -0.00053807941139350109 0.004090642963073223 0 -0.00032467717179598732 0.003408298005905217 0 -0.00035277684139237332 0.0033950820847073724 0 -0.00036357641189469365 0.0033688678999992485 0 -0.00033997414066019497 0.0034412705642649678 0 -0.00032467717179598732 0.003408298005905217 0 -0.00035277684139237332 0.0033950820847073724 0 -0.00035277684139237332 0.0033950820847073724 0 -0.00037794718135254377 0.0033959685140925009 0 -0.00040080569607555723 0.0033455800169971293 0 -0.00033997414066019497 0.0034412705642649678 0 -0.00035277684139237332 0.0033950820847073724 0 -0.00037794718135254377 0.0033959685140925009 0 -0.00023569894946042706 0.004254924030403031 0 -0.00042211336702266497 0.0041222210625844781 0 -0.00026824388580407434 0.0040813288821028989 0 -0.00023569894946042706 0.004254924030403031 0 -0.00042211336702266497 0.0041222210625844781 0 -0.00039401400798675697 0.0042553010238144569 0 -0.00049140504404573656 0.0041423360696297446 0 -0.00042211336702266497 0.0041222210625844781 0 -0.00039401400798675697 0.0042553010238144569 0 -0.00048678205114840583 0.0041957771037996238 0 -0.00049140504404573656 0.0041423360696297446 0 -0.00039401400798675697 0.0042553010238144569 0 -0.00023569894946042706 0.004254924030403031 0 -0.00039401400798675697 0.0042553010238144569 0 -0.00023123341366771679 0.0043884272820902855 0 -0.00023123341366771679 0.0043884272820902855 0 -0.00037324512982767028 0.0044302099054886537 0 -0.00020135544311480265 0.0045241622372540948 0 -0.00039401400798675697 0.0042553010238144569 0 -0.00023123341366771679 0.0043884272820902855 0 -0.00037324512982767028 0.0044302099054886537 0 -0.00049054431024865238 0.0043266361969158292 0 -0.00039401400798675697 0.0042553010238144569 0 -0.00037324512982767028 0.0044302099054886537 0 -0.00037324512982767028 0.0044302099054886537 0 -0.00033246257950454114 0.0045649599588653209 0 -0.00047764713479170486 0.004556415425127718 0 -0.00037324512982767028 0.0044302099054886537 0 -0.00033246257950454114 0.0045649599588653209 0 -0.00020135544311480265 0.0045241622372540948 0 -0.00027310718519832925 0.0046885590727095919 0 -0.00033246257950454114 0.0045649599588653209 0 -0.00020135544311480265 0.0045241622372540948 0 -0.00050661675583074358 0.0047843162558562852 0 -0.00049930685721306207 0.0047662969355708688 0 -0.00051222285545784508 0.0047951531874709415 0 -0.00050661675583074358 0.0047843162558562852 0 -0.00045472478827009714 0.004730704665948369 0 -0.00049930685721306207 0.0047662969355708688 0 -0.00027310718519832925 0.0046885590727095919 0 -0.00040930887696980514 0.0046341759342429165 0 -0.00045472478827009714 0.004730704665948369 0 -0.00039124299201081104 0.004736059088275844 0 -0.00045383218565194969 0.0047336270034002096 0 -0.00040930887696980514 0.0046341759342429165 0 -0.00033246257950454114 0.0045649599588653209 0 -0.00047764713479170486 0.004556415425127718 0 -0.00027310718519832925 0.0046885590727095919 0 -0.00040930887696980514 0.0046341759342429165 0 -0.00033246257950454114 0.0045649599588653209 0 -0.00040930887696980514 0.0046341759342429165 0 -0.00047764713479170486 0.004556415425127718 0 -0.00052417149342910783 0.0046537345929501279 0 -0.00063497617719601598 0.0045884598526205718 0 -0.00047764713479170486 0.004556415425127718 0 -0.00052417149342910783 0.0046537345929501279 0 -0.00058531261952287012 0.0046789065282495943 0 -0.00063497617719601598 0.0045884598526205718 0 -0.00052417149342910783 0.0046537345929501279 0 -0.00058531261952287012 0.0046789065282495943 0 -0.00052417149342910783 0.0046537345929501279 0 -0.00048568377634656987 0.004725687974336098 0 -0.00040930887696980514 0.0046341759342429165 0 -0.00052417149342910783 0.0046537345929501279 0 -0.00045472478827009714 0.004730704665948369 0 -0.00052417149342910783 0.0046537345929501279 0 -0.00045472478827009714 0.004730704665948369 0 -0.00048568377634656987 0.004725687974336098 0 -0.00045472478827009714 0.004730704665948369 0 -0.00045692859811553572 0.0047462547559304989 0 -0.00047120723768691715 0.0047416006978098502 0 -0.00045472478827009714 0.004730704665948369 0 -0.00045692859811553572 0.0047462547559304989 0 -0.00048568377634656987 0.004725687974336098 0 -0.00045692859811553572 0.0047462547559304989 0 -0.00048568377634656987 0.004725687974336098 0 -0.00046379190796220631 0.0047567697720020579 0 -0.00045692859811553572 0.0047462547559304989 0 -0.00046379190796220631 0.0047567697720020579 0 -0.00043982350146895018 0.0047299110289262761 0 -0.00057950120826194562 0.0047951679385753263 0 -0.00052801822521656978 0.0047328067066156887 0 -0.00046379190796220631 0.0047567697720020579 0 -0.00058531261952287012 0.0046789065282495943 0 -0.00052801822521656978 0.0047328067066156887 0 -0.00048568377634656987 0.004725687974336098 0 -0.00052801822521656978 0.0047328067066156887 0 -0.00048568377634656987 0.004725687974336098 0 -0.00046379190796220631 0.0047567697720020579 0 -0.00030247322602101851 0.0047328251142006736 0 -0.00046379190796220631 0.0047567697720020579 0 -0.00039096220477158577 0.0047150510114297769 0 -0.0004422238513305436 0.0047976833387391457 0 -0.00045460994768020132 0.0047489598841032503 0 -0.00046379190796220631 0.0047567697720020579 0 -0.00039096220477158577 0.0047150510114297769 0 -0.00043982350146895018 0.0047299110289262761 0 -0.00037330073007353729 0.0046718466955823663 0 -0.00041786152565718873 0.0046958274234116196 0 -0.00039096220477158577 0.0047150510114297769 0 -0.00041786152565718873 0.0046958274234116196 0 -0.00039096220477158577 0.0047150510114297769 0 -0.00043982350146895018 0.0047299110289262761 0 -0.00037330073007353729 0.0046718466955823663 0 -0.00034083312494904717 0.0046920534597454308 0 -0.00039096220477158577 0.0047150510114297769 0 -0.00045692859811553572 0.0047462547559304989 0 -0.00044751667853227059 0.0047175187178722039 0 -0.00047120723768691715 0.0047416006978098502 0 -0.00045692859811553572 0.0047462547559304989 0 -0.00043982350146895018 0.0047299110289262761 0 -0.00044751667853227059 0.0047175187178722039 0 -0.00041786152565718873 0.0046958274234116196 0 -0.00043982350146895018 0.0047299110289262761 0 -0.00044751667853227059 0.0047175187178722039 0 -0.00044540155644198499 0.0046805366499323778 0 -0.00041786152565718873 0.0046958274234116196 0 -0.00044751667853227059 0.0047175187178722039 0 -0.00044540155644198499 0.0046805366499323778 0 -0.00044751667853227059 0.0047175187178722039 0 -0.00047425766159085134 0.0047078651182375295 0 -0.00044751667853227059 0.0047175187178722039 0 -0.00047425766159085134 0.0047078651182375295 0 -0.00047120723768691715 0.0047416006978098502 0 -0.00047425766159085134 0.0047078651182375295 0 -0.00047120723768691715 0.0047416006978098502 0 -0.00050604843275719785 0.0047381392586949064 0 -0.00047120723768691715 0.0047416006978098502 0 -0.00050604843275719785 0.0047381392586949064 0 -0.00049930685721306207 0.0047662969355708688 0 -0.00050604843275719785 0.0047381392586949064 0 -0.00049930685721306207 0.0047662969355708688 0 -0.00053334376629113323 0.0048193688842611227 0 -0.00050391106884242222 0.0046924138421321213 0 -0.00047425766159085134 0.0047078651182375295 0 -0.00050604843275719785 0.0047381392586949064 0 -0.00052609203061891629 0.0047058585359947159 0 -0.00050604843275719785 0.0047381392586949064 0 -0.00053891316387750599 0.0047346022282143026 0 -0.00045472478827009714 0.004730704665948369 0 -0.00047120723768691715 0.0047416006978098502 0 -0.00049930685721306207 0.0047662969355708688 0 -0.00044085394460743063 0.0048412511000999504 0 -0.00051222285545784508 0.0047951531874709415 0 -0.00044401972925334627 0.0048053498845437364 0 -0.00044085394460743063 0.0048412511000999504 0 -0.00051222285545784508 0.0047951531874709415 0 -0.00053334376629113323 0.0048193688842611227 0 -0.00049930685721306207 0.0047662969355708688 0 -0.00051222285545784508 0.0047951531874709415 0 -0.00053334376629113323 0.0048193688842611227 0 -0.00050604843275719785 0.0047381392586949064 0 -0.00053334376629113323 0.0048193688842611227 0 -0.00053891316387750599 0.0047346022282143026 0 -0.00053334376629113323 0.0048193688842611227 0 -0.00053891316387750599 0.0047346022282143026 0 -0.00057821418211275171 0.0047390899847214139 0 -0.00044085394460743063 0.0048412511000999504 0 -0.00053334376629113323 0.0048193688842611227 0 -0.00040198279445268067 0.0049619391458296958 0 -0.0006255741374885229 0.0048127415309352712 0 -0.00031427887246310586 0.0048254627558177443 0 -0.00053334376629113323 0.0048193688842611227 0 -0.00057821418211275171 0.0047390899847214139 0 -0.0007101849697567366 0.0047299541076516365 0 -0.00044085394460743063 0.0048412511000999504 0 -0.00040198279445268067 0.0049619391458296958 0 -0.00031076154952941639 0.0049095301852235965 0 -0.00031427887246310586 0.0048254627558177443 0 -0.00020228753068703964 0.0049600681988926009 0 -8.7300291133548754e-05 0.0050076654535769717 0 -0.00011452231373561459 0.0049928461555354617 0 -9.4539306675044799e-05 0.0049756880359420937 0 -8.7300291133548754e-05 0.0050076654535769717 0 -9.4539306675044799e-05 0.0049756880359420937 0 -6.8069045300546939e-05 0.0049915470811753206 0 -0.00031076154952941639 0.0049095301852235965 0 -0.00029257439465373551 0.0048599633269144436 0 -0.00021500727568041504 0.0048952294848682559 0 -0.00031076154952941639 0.0049095301852235965 0 -0.00037547076965439835 0.0048303161335706028 0 -0.00029257439465373551 0.0048599633269144436 0 -0.00020228753068703964 0.0049600681988926009 0 -0.00014233404021414401 0.0049210224545939455 0 -0.00044085394460743063 0.0048412511000999504 0 -0.00031076154952941639 0.0049095301852235965 0 -0.00037547076965439835 0.0048303161335706028 0 -0.00044085394460743063 0.0048412511000999504 0 -0.00037547076965439835 0.0048303161335706028 0 -0.00044401972925334627 0.0048053498845437364 0 -0.00037936742319573256 0.0047818845529906716 0 -0.00032554581978496848 0.0048191025348062015 0 -0.00034011749294195583 0.004773145335166611 0 -0.00037547076965439835 0.0048303161335706028 0 -0.00037936742319573256 0.0047818845529906716 0 -0.00032554581978496848 0.0048191025348062015 0 -0.00037547076965439835 0.0048303161335706028 0 -0.00037936742319573256 0.0047818845529906716 0 -0.00044401972925334627 0.0048053498845437364 0 -0.00032554581978496848 0.0048191025348062015 0 -0.00034011749294195583 0.004773145335166611 0 -0.00024228320141897876 0.0048478822242224604 0 -0.00037547076965439835 0.0048303161335706028 0 -0.00029257439465373551 0.0048599633269144436 0 -0.00032554581978496848 0.0048191025348062015 0 -0.00029257439465373551 0.0048599633269144436 0 -0.00032554581978496848 0.0048191025348062015 0 -0.00024228320141897876 0.0048478822242224604 0 -0.00014899250786690391 0.0047840679450923242 0 5.921547771256299e-05 0.0047494873461784663 0 -0.00034011749294195583 0.004773145335166611 0 -0.00017526026077204797 0.0048244461023359605 0 -0.00024228320141897876 0.0048478822242224604 0 4.0517505845178745e-05 0.004542581508285716 0 2.8773065065841855e-05 0.0045912985435632159 0 0.00010522248282524863 0.0045242355889371843 0 -1.8811636392164542e-05 0.0049864112166923841 0 -1.2813729031986515e-05 0.0049868377647523309 0 -1.0842469613177302e-05 0.0049899060426649043 0 -0.00014899250786690391 0.0047840679450923242 0 -0.00010642766265165385 0.0049224252450108105 0 7.1054656260597488e-05 0.0045534476796834878 0 5.921547771256299e-05 0.0047494873461784663 0 -0.00014899250786690391 0.0047840679450923242 0 -0.00029379698393316799 0.004694486550313604 0 -0.00037936742319573256 0.0047818845529906716 0 -0.00034777832206747678 0.0047623724946155681 0 -0.00048600468459324717 0.0047735230129098416 0 2.8773065065841855e-05 0.0045912985435632159 0 -2.0451393701142689e-05 0.0045486096055436546 0 -0.00010003049134636778 0.0046434678119325959 0 -0.00031419834620404581 0.0048330299983708174 0 -0.00014899250786690391 0.0047840679450923242 0 4.0517505845178745e-05 0.004542581508285716 0 2.8773065065841855e-05 0.0045912985435632159 0 -2.0451393701142689e-05 0.0045486096055436546 0 -2.0451393701142689e-05 0.0045486096055436546 0 -0.00010003049134636778 0.0046434678119325959 0 -9.1606525630512237e-05 0.0045307044181470075 0 -0.00037936742319573256 0.0047818845529906716 0 -0.00048600468459324717 0.0047735230129098416 0 -0.00044401972925334627 0.0048053498845437364 0 -0.00051222285545784508 0.0047951531874709415 0 -0.00048600468459324717 0.0047735230129098416 0 -0.00044401972925334627 0.0048053498845437364 0 -0.00050661675583074358 0.0047843162558562852 0 -0.00051222285545784508 0.0047951531874709415 0 -0.00048600468459324717 0.0047735230129098416 0 -0.00039124299201081104 0.004736059088275844 0 -0.00029379698393316799 0.004694486550313604 0 -0.00010003049134636778 0.0046434678119325959 0 -0.00020135544311480265 0.0045241622372540948 0 -9.1606525630512237e-05 0.0045307044181470075 0 -0.00027310718519832925 0.0046885590727095919 0 -0.00010003049134636778 0.0046434678119325959 0 -0.00020135544311480265 0.0045241622372540948 0 -0.00020135544311480265 0.0045241622372540948 0 -9.1606525630512237e-05 0.0045307044181470075 0 -0.00010803010970245991 0.0044561043199497011 0 -2.0451393701142689e-05 0.0045486096055436546 0 -9.1606525630512237e-05 0.0045307044181470075 0 -2.862495740089981e-05 0.0044891643598100866 0 -9.1606525630512237e-05 0.0045307044181470075 0 -2.862495740089981e-05 0.0044891643598100866 0 -0.00010803010970245991 0.0044561043199497011 0 -9.0262810537184619e-06 0.0044283913614517056 0 -0.00010803010970245991 0.0044561043199497011 0 -0.00012252406928606955 0.0043786711894027146 0 -2.862495740089981e-05 0.0044891643598100866 0 -9.0262810537184619e-06 0.0044283913614517056 0 -0.00010803010970245991 0.0044561043199497011 0 -0.00023123341366771679 0.0043884272820902855 0 -0.00020135544311480265 0.0045241622372540948 0 -0.00010803010970245991 0.0044561043199497011 0 -0.00023123341366771679 0.0043884272820902855 0 -0.00010803010970245991 0.0044561043199497011 0 -0.00012252406928606955 0.0043786711894027146 0 -0.00023569894946042706 0.004254924030403031 0 -0.00012252406928606955 0.0043786711894027146 0 -7.2538836344284628e-05 0.0043309897700425908 0 -0.00023569894946042706 0.004254924030403031 0 -0.00023123341366771679 0.0043884272820902855 0 -0.00012252406928606955 0.0043786711894027146 0 -9.0262810537184619e-06 0.0044283913614517056 0 -0.00012252406928606955 0.0043786711894027146 0 -7.2538836344284628e-05 0.0043309897700425908 0 -9.0262810537184619e-06 0.0044283913614517056 0 -7.2538836344284628e-05 0.0043309897700425908 0 2.3286354462790188e-05 0.004385746964927913 0 -7.2538836344284628e-05 0.0043309897700425908 0 -0.00011178568389510065 0.0042080542469681223 0 1.737704093314152e-05 0.004285951753055784 0 -7.2538836344284628e-05 0.0043309897700425908 0 2.3286354462790188e-05 0.004385746964927913 0 1.737704093314152e-05 0.004285951753055784 0 -0.00023569894946042706 0.004254924030403031 0 -0.00011178568389510065 0.0042080542469681223 0 -0.00026824388580407434 0.0040813288821028989 0 -0.00023569894946042706 0.004254924030403031 0 -7.2538836344284628e-05 0.0043309897700425908 0 -0.00011178568389510065 0.0042080542469681223 0 4.6348762660263594e-05 0.0045638235921560168 0 7.0174808973775334e-05 0.0044540731817455147 0 9.6390151547381175e-05 0.0044230372805920612 0 4.6348762660263594e-05 0.0045638235921560168 0 7.0174808973775334e-05 0.0044540731817455147 0 4.5420230450567384e-05 0.0044753435071393909 0 4.6348762660263594e-05 0.0045638235921560168 0 9.6390151547381175e-05 0.0044230372805920612 0 0.00014159208033737242 0.0044529277226854798 0 7.0174808973775334e-05 0.0044540731817455147 0 9.6390151547381175e-05 0.0044230372805920612 0 5.3044296653642375e-05 0.0044278916867658844 0 9.6390151547381175e-05 0.0044230372805920612 0 2.3286354462790188e-05 0.004385746964927913 0 1.737704093314152e-05 0.004285951753055784 0 9.6390151547381175e-05 0.0044230372805920612 0 2.3286354462790188e-05 0.004385746964927913 0 5.3044296653642375e-05 0.0044278916867658844 0 -9.0262810537184619e-06 0.0044283913614517056 0 2.3286354462790188e-05 0.004385746964927913 0 5.3044296653642375e-05 0.0044278916867658844 0 -9.0262810537184619e-06 0.0044283913614517056 0 5.3044296653642375e-05 0.0044278916867658844 0 4.6787661473921676e-05 0.0044526274306986267 0 5.7001072787822168e-05 0.0044568411840840202 0 4.6787661473921676e-05 0.0044526274306986267 0 5.3092653518351758e-05 0.0044670075187916002 0 5.3044296653642375e-05 0.0044278916867658844 0 5.7001072787822168e-05 0.0044568411840840202 0 4.6787661473921676e-05 0.0044526274306986267 0 7.0174808973775334e-05 0.0044540731817455147 0 5.3044296653642375e-05 0.0044278916867658844 0 5.7001072787822168e-05 0.0044568411840840202 0 7.0174808973775334e-05 0.0044540731817455147 0 5.7001072787822168e-05 0.0044568411840840202 0 4.5420230450567384e-05 0.0044753435071393909 0 4.6787661473921676e-05 0.0044526274306986267 0 4.5826765476944755e-05 0.0044793299276537262 0 5.3092653518351758e-05 0.0044670075187916002 0 4.6787661473921676e-05 0.0044526274306986267 0 4.5826765476944755e-05 0.0044793299276537262 0 1.869817054079047e-05 0.0044702400217431007 0 4.5826765476944755e-05 0.0044793299276537262 0 5.4482561544902671e-05 0.0044837830353766572 0 5.3092653518351758e-05 0.0044670075187916002 0 -2.862495740089981e-05 0.0044891643598100866 0 -9.0262810537184619e-06 0.0044283913614517056 0 1.869817054079047e-05 0.0044702400217431007 0 -9.0262810537184619e-06 0.0044283913614517056 0 4.6787661473921676e-05 0.0044526274306986267 0 1.869817054079047e-05 0.0044702400217431007 0 -2.862495740089981e-05 0.0044891643598100866 0 1.869817054079047e-05 0.0044702400217431007 0 2.1537626543889521e-05 0.0045035503215588623 0 4.5826765476944755e-05 0.0044793299276537262 0 1.869817054079047e-05 0.0044702400217431007 0 2.1537626543889521e-05 0.0045035503215588623 0 4.0517505845178745e-05 0.004542581508285716 0 -2.0451393701142689e-05 0.0045486096055436546 0 2.1537626543889521e-05 0.0045035503215588623 0 -2.0451393701142689e-05 0.0045486096055436546 0 -2.862495740089981e-05 0.0044891643598100866 0 2.1537626543889521e-05 0.0045035503215588623 0 4.5826765476944755e-05 0.0044793299276537262 0 4.9351088075766192e-05 0.0045023600915886442 0 5.4482561544902671e-05 0.0044837830353766572 0 4.9351088075766192e-05 0.0045023600915886442 0 6.0174288338881028e-05 0.0045038319363519671 0 5.4482561544902671e-05 0.0044837830353766572 0 4.5826765476944755e-05 0.0044793299276537262 0 2.1537626543889521e-05 0.0045035503215588623 0 4.9351088075766192e-05 0.0045023600915886442 0 4.0517505845178745e-05 0.004542581508285716 0 2.1537626543889521e-05 0.0045035503215588623 0 4.9351088075766192e-05 0.0045023600915886442 0 4.0517505845178745e-05 0.004542581508285716 0 4.9351088075766192e-05 0.0045023600915886442 0 6.0174288338881028e-05 0.0045038319363519671 0 5.921547771256299e-05 0.0047494873461784663 0 2.8868003678648971e-06 0.004998333280027507 0 7.1589978687596698e-05 0.0049603882902002384 0 3.9822485176254816e-05 0.0049719781299728668 0 3.6950141716493511e-05 0.0049887837570452209 0 5.921547771256299e-05 0.0047494873461784663 0 4.3895553588345269e-05 0.0047245372421832995 0 6.0174288338881028e-05 0.0045038319363519671 0 5.4482561544902671e-05 0.0044837830353766572 0 4.5437407619351167e-05 0.0044714947149666886 0 -1.2813729031986515e-05 0.0049868377647523309 0 -7.6636708973570995e-06 0.0049906667750885822 0 -1.0842469613177302e-05 0.0049899060426649043 0 -7.6636708973570995e-06 0.0049906667750885822 0 -4.5359130230388826e-06 0.0049948918188389979 0 -1.0842469613177302e-05 0.0049899060426649043 0 3.9822485176254816e-05 0.0049719781299728668 0 3.6950141716493511e-05 0.0049887837570452209 0 1.5465961936309109e-05 0.0049856410827482534 0 5.4482561544902671e-05 0.0044837830353766572 0 4.5437407619351167e-05 0.0044714947149666886 0 5.3092653518351758e-05 0.0044670075187916002 0 5.3092653518351758e-05 0.0044670075187916002 0 4.5420230450567384e-05 0.0044753435071393909 0 2.700521800881125e-05 0.0044796363193150123 0 5.7001072787822168e-05 0.0044568411840840202 0 5.3092653518351758e-05 0.0044670075187916002 0 4.5420230450567384e-05 0.0044753435071393909 0 4.5437407619351167e-05 0.0044714947149666886 0 2.700521800881125e-05 0.0044796363193150123 0 2.9103888523481433e-05 0.0044789839901522221 0 4.5437407619351167e-05 0.0044714947149666886 0 5.3092653518351758e-05 0.0044670075187916002 0 2.700521800881125e-05 0.0044796363193150123 0 5.4220711305552862e-05 0.0045905794450374392 0 1.6718297094716573e-05 0.0046455949289286209 0 4.6348762660263594e-05 0.0045638235921560168 0 -1.1815847205291238e-05 0.0048252312419375578 0 -1.1281929187882291e-05 0.0047919839404945317 0 4.6348762660263594e-05 0.0045638235921560168 0 4.5420230450567384e-05 0.0044753435071393909 0 2.700521800881125e-05 0.0044796363193150123 0 1.886115211140013e-08 0.0049998701626558515 0 -2.6430546175885741e-06 0.0049614962359659917 0 -5.8012947798477653e-06 0.004903025850439233 0 -1.1815847205291238e-05 0.0048252312419375578 0 -2.6430546175885741e-06 0.0049614962359659917 0 -5.8012947798477653e-06 0.004903025850439233 0 1.6718297094716573e-05 0.0046455949289286209 0 2.0846775998840923e-05 0.0047693852436489033 0 1.886115211140013e-08 0.0049998701626558515 0 -2.6430546175885741e-06 0.0049614962359659917 0 -1.1478462548589544e-08 0.0050000041540740406 0 1.307711331781256e-05 0.0050058954707621799 0 -1.1168172926099671e-08 0.0050000326793756735 0 1.5465961936309109e-05 0.0049856410827482534 0 2.0846775998840923e-05 0.0047693852436489033 0 8.0465542812159589e-08 0.0050000632871511248 0 -1.1168172926099671e-08 0.0050000326793756735 0 1.2791156318148439e-08 0.0049999585472073147 0 1.5465961936309109e-05 0.0049856410827482534 0 3.6950141716493511e-05 0.0049887837570452209 0 1.307711331781256e-05 0.0050058954707621799 0 1.5465961936309109e-05 0.0049856410827482534 0 4.3895553588345269e-05 0.0047245372421832995 0 2.0846775998840923e-05 0.0047693852436489033 0 2.8868003678648971e-06 0.004998333280027507 0 9.5390078398431457e-06 0.0049888821957091945 0 -7.6636708973570995e-06 0.0049906667750885822 0 -3.149451809844378e-06 0.0049951934152425411 0 -4.5359130230388826e-06 0.0049948918188389979 0 -1.9639242609942502e-08 0.0049999866897564253 0 -2.5606896750065635e-05 0.0049529431871747224 0 -1.9874329262455166e-09 0.0049999968773788662 0 9.5390078398431457e-06 0.0049888821957091945 0 -3.149451809844378e-06 0.0049951934152425411 0 -1.3080631632744393e-09 0.0049999989456281707 0 -4.5359130230388826e-06 0.0049948918188389979 0 -2.3291860500333674e-10 0.0049999952739055876 0 -3.149451809844378e-06 0.0049951934152425411 0 -1.3080631632744393e-09 0.0049999989456281707 0 -5.2347812550029935e-09 0.0049998928106531225 0 -1.1357955221124226e-08 0.004999956696491622 0 -2.0497546515521274e-05 0.0049592390542894963 0 -5.2347812550029935e-09 0.0049998928106531225 0 -3.7295493321459612e-05 0.0049142737786114707 0 -2.0497546515521274e-05 0.0049592390542894963 0 -1.1357955221124226e-08 0.004999956696491622 0 -2.0497546515521274e-05 0.0049592390542894963 0 -2.5925190389967385e-05 0.004983315556677595 0 -2.0497546515521274e-05 0.0049592390542894963 0 -8.7984266473620015e-05 0.0049188211154027059 0 -2.5925190389967385e-05 0.004983315556677595 0 -3.7295493321459612e-05 0.0049142737786114707 0 -2.0497546515521274e-05 0.0049592390542894963 0 -8.7984266473620015e-05 0.0049188211154027059 0 -2.5606896750065635e-05 0.0049529431871747224 0 -0.00010642766265165385 0.0049224252450108105 0 -3.7295493321459612e-05 0.0049142737786114707 0 -0.00017526026077204797 0.0048244461023359605 0 -8.7984266473620015e-05 0.0049188211154027059 0 -0.00017526026077204797 0.0048244461023359605 0 -0.00024228320141897876 0.0048478822242224604 0 -8.7984266473620015e-05 0.0049188211154027059 0 -0.00024228320141897876 0.0048478822242224604 0 -0.00021500727568041504 0.0048952294848682559 0 -8.7984266473620015e-05 0.0049188211154027059 0 -0.00029257439465373551 0.0048599633269144436 0 -0.00024228320141897876 0.0048478822242224604 0 -0.00021500727568041504 0.0048952294848682559 0 -0.00014233404021414401 0.0049210224545939455 0 -9.1494888133753595e-05 0.0049102807239730885 0 -8.4651227129779814e-05 0.0049581915322520981 0 -8.7984266473620015e-05 0.0049188211154027059 0 -5.9430954921330091e-05 0.0049796246914487882 0 -8.7984266473620015e-05 0.0049188211154027059 0 -5.9430954921330091e-05 0.0049796246914487882 0 -2.5925190389967385e-05 0.004983315556677595 0 -8.4651227129779814e-05 0.0049581915322520981 0 -5.9430954921330091e-05 0.0049796246914487882 0 -6.8069045300546939e-05 0.0049915470811753206 0 -9.4539306675044799e-05 0.0049756880359420937 0 -8.4651227129779814e-05 0.0049581915322520981 0 -6.8069045300546939e-05 0.0049915470811753206 0 -5.9430954921330091e-05 0.0049796246914487882 0 -6.8069045300546939e-05 0.0049915470811753206 0 -3.2882834255068308e-05 0.0049947392101987948 0 -3.2882834255068308e-05 0.0049947392101987948 0 -1.0276879515862726e-08 0.0049999990226761879 0 -2.5925190389967385e-05 0.004983315556677595 0 -1.5048211100902059e-05 0.0050028008438058724 0 -3.2882834255068308e-05 0.0049947392101987948 0 -1.0276879515862726e-08 0.0049999990226761879 0 -1.1357955221124226e-08 0.004999956696491622 0 -1.0276879515862726e-08 0.0049999990226761879 0 -2.5925190389967385e-05 0.004983315556677595 0 -5.9430954921330091e-05 0.0049796246914487882 0 -3.2882834255068308e-05 0.0049947392101987948 0 -2.5925190389967385e-05 0.004983315556677595 0 0.00058293998520510921 0.00079597645922380752 0 0.00061871641341532818 0.0008557355723940054 0 0.00064172235750525886 0.00080426998343258789 0 0.00019670152205301494 -0.00022411803544780887 0 0.00019607037921234415 -0.00022942096656133681 0 0.00019713684268038025 -0.00022750265638417626 0 0.00019670152205301494 -0.00022411803544780887 0 0.00019607037921234415 -0.00022942096656133681 0 0.00020232142760614268 -0.0002252439154386746 0 0.00040075699293339512 0.00029176325697917026 0 0.00038743865823959579 0.00028066862892935117 0 0.00061871641341532818 0.0008557355723940054 0 0.00065807496080761134 0.000846806451709203 0 0.00064172235750525886 0.00080426998343258789 0 0.00065807496080761134 0.000846806451709203 0 0.00068767778441602328 0.00085303301292591403 0 0.00069014850135057989 0.00081337821586719176 0 0.00068767778441602328 0.00085303301292591403 0 0.00069014850135057989 0.00081337821586719176 0 0.00072175303648308424 0.00083702155170263721 0 0.00068767778441602328 0.00085303301292591403 0 0.00071641374614623361 0.00086725417516322998 0 0.00072175303648308424 0.00083702155170263721 0 0.00065807496080761134 0.000846806451709203 0 0.00068767778441602328 0.00085303301292591403 0 0.0006672260625247093 0.00087081978261456289 0 0.00069014850135057989 0.00081337821586719176 0 0.0007277922668003688 0.0008092334787934564 0 0.00072175303648308424 0.00083702155170263721 0 0.00069014850135057989 0.00081337821586719176 0 0.00072455934044949558 0.00077782506585476392 0 0.0007277922668003688 0.0008092334787934564 0 0.00069014850135057989 0.00081337821586719176 0 0.00064172235750525886 0.00080426998343258789 0 0.00068270610709378679 0.00075828028423642504 0 0.00065807496080761134 0.000846806451709203 0 0.00069014850135057989 0.00081337821586719176 0 0.00064172235750525886 0.00080426998343258789 0 0.00064172235750525886 0.00080426998343258789 0 0.00068270610709378679 0.00075828028423642504 0 0.00061876523891999692 0.00074959482871193221 0 0.00069014850135057989 0.00081337821586719176 0 0.00068270610709378679 0.00075828028423642504 0 0.00072455934044949558 0.00077782506585476392 0 0.00068270610709378679 0.00075828028423642504 0 0.00072455934044949558 0.00077782506585476392 0 0.00073589468000559454 0.00074094541609901236 0 0.00073589468000559454 0.00074094541609901236 0 0.00076275608443603289 0.00070648944288653531 0 0.00070511573135556072 0.00070443401644569061 0 0.00068270610709378679 0.00075828028423642504 0 0.00073589468000559454 0.00074094541609901236 0 0.00070511573135556072 0.00070443401644569061 0 0.00068270610709378679 0.00075828028423642504 0 0.00064948981647511826 0.00071099400477713892 0 0.00061876523891999692 0.00074959482871193221 0 0.00068270610709378679 0.00075828028423642504 0 0.00064948981647511826 0.00071099400477713892 0 0.00070511573135556072 0.00070443401644569061 0 0.00064948981647511826 0.00071099400477713892 0 0.00061876523891999692 0.00074959482871193221 0 0.00059532299556240456 0.00069240121376004226 0 0.00058293998520510921 0.00079597645922380752 0 0.00064172235750525886 0.00080426998343258789 0 0.00061876523891999692 0.00074959482871193221 0 0.00040075699293339512 0.00029176325697917026 0 0.00032742109132334889 0.0002743701675096076 0 0.00058293998520510921 0.00079597645922380752 0 0.00061876523891999692 0.00074959482871193221 0 0.00054083885443276594 0.00073010492097442582 0 0.00061876523891999692 0.00074959482871193221 0 0.00054083885443276594 0.00073010492097442582 0 0.00059532299556240456 0.00069240121376004226 0 0.00032742109132334889 0.0002743701675096076 0 0.00059626577117968609 0.00073657659437988566 0 0.00032742109132334889 0.0002743701675096076 0 0.00026299777355200436 0.00028357556185762487 0 5.2748623638881717e-05 -0.00014045170275522547 0 0.0001107478224462991 -0.0001304504364065908 0 8.8578097507638768e-05 -7.0527287572350086e-05 0 5.2748623638881717e-05 -0.00014045170275522547 0 0.0001107478224462991 -0.0001304504364065908 0 0.00012157092362799698 -0.00019323192886132602 0 0.0001107478224462991 -0.0001304504364065908 0 0.00012157092362799698 -0.00019323192886132602 0 0.00017043303404483786 -0.00016018340704914184 0 0.00019768876284394609 -0.00021709805027906052 0 0.00019843313228578674 -0.00022619793632605567 0 0.00019713684268038025 -0.00022750265638417626 0 0.00019670152205301494 -0.00022411803544780887 0 0.00019768876284394609 -0.00021709805027906052 0 0.00019713684268038025 -0.00022750265638417626 0 0.00032742109132334889 0.0002743701675096076 0 0.00014781982015969056 -0.00026910517526170517 0 0.00017043303404483786 -0.00016018340704914184 0 0.00021730183074818315 -0.00018747875736763552 0 0.00021258603335563256 -0.00012221032501400473 0 0.00017043303404483786 -0.00016018340704914184 0 0.00021258603335563256 -0.00012221032501400473 0 0.00015292659899892737 -7.0780651960653782e-05 0 0.0001107478224462991 -0.0001304504364065908 0 0.00017043303404483786 -0.00016018340704914184 0 0.00015292659899892737 -7.0780651960653782e-05 0 0.00012157092362799698 -0.00019323192886132602 0 0.00017043303404483786 -0.00016018340704914184 0 0.00019318928178973905 -0.00023111026477327817 0 0.00017043303404483786 -0.00016018340704914184 0 0.00021730183074818315 -0.00018747875736763552 0 0.00019318928178973905 -0.00023111026477327817 0 0.00022035339201030227 -0.0002299705544474903 0 0.00021730183074818315 -0.00018747875736763552 0 0.00019318928178973905 -0.00023111026477327817 0 0.00014781982015969056 -0.00026910517526170517 0 0.00018851371987854069 -0.00021294463309991997 0 0.00019318928178973905 -0.00023111026477327817 0 0.00019725574010465716 -0.00023301742241578139 0 0.00020092757853435884 -0.00024374560285927202 0 0.00022035339201030227 -0.0002299705544474903 0 0.00019318928178973905 -0.00023111026477327817 0 0.0002111096845811645 -0.00024934688794099418 0 0.00019318928178973905 -0.00023111026477327817 0 0.0002111096845811645 -0.00024934688794099418 0 0.00020092757853435884 -0.00024374560285927202 0 0.00019843313228578674 -0.00022619793632605567 0 0.00019318928178973905 -0.00023111026477327817 0 0.00019725574010465716 -0.00023301742241578139 0 0.00019843313228578674 -0.00022619793632605567 0 0.00019713684268038025 -0.00022750265638417626 0 0.00019725574010465716 -0.00023301742241578139 0 0.00019607037921234415 -0.00022942096656133681 0 0.00019713684268038025 -0.00022750265638417626 0 0.00019725574010465716 -0.00023301742241578139 0 0.00019607037921234415 -0.00022942096656133681 0 0.00019725574010465716 -0.00023301742241578139 0 0.00019605598637111241 -0.00023736964910610426 0 0.00019725574010465716 -0.00023301742241578139 0 0.00019605598637111241 -0.00023736964910610426 0 0.00020140308822024319 -0.00024976634341861706 0 0.00019725574010465716 -0.00023301742241578139 0 0.00020140308822024319 -0.00024976634341861706 0 0.00020092757853435884 -0.00024374560285927202 0 0.00019605598637111241 -0.00023736964910610426 0 0.00020140308822024319 -0.00024976634341861706 0 0.00019498117698494956 -0.00025457817931913727 0 0.00019937425396877114 -0.00023508604647363906 0 0.00019731271947264322 -0.00022814219580207589 0 0.00019605598637111241 -0.00023736964910610426 0 0.00019498117698494956 -0.00025457817931913727 0 0.00019655370826607147 -0.00022627392618647862 0 0.00020140308822024319 -0.00024976634341861706 0 0.00021107166624574712 -0.00026305600421481828 0 0.00021349294364709503 -0.0002740817368169689 0 0.00022123585194108229 -0.00027684382841246745 0 0.0002111096845811645 -0.00024934688794099418 0 0.00021107166624574712 -0.00026305600421481828 0 0.0002111096845811645 -0.00024934688794099418 0 0.00020092757853435884 -0.00024374560285927202 0 0.00021107166624574712 -0.00026305600421481828 0 0.00020140308822024319 -0.00024976634341861706 0 0.00020092757853435884 -0.00024374560285927202 0 0.00021107166624574712 -0.00026305600421481828 0 0.00022123585194108229 -0.00027684382841246745 0 0.00021107166624574712 -0.00026305600421481828 0 0.00022065484406496761 -0.00028050121388756023 0 0.00021107166624574712 -0.00026305600421481828 0 0.00022065484406496761 -0.00028050121388756023 0 0.00021349294364709503 -0.0002740817368169689 0 0.00022427509109789295 -0.00026095046608674003 0 0.00021543737558241149 -0.00025093192608482534 0 0.00022591445461624365 -0.00026294993848222808 0 0.00022065484406496761 -0.00028050121388756023 0 0.00021349294364709503 -0.0002740817368169689 0 0.00020140308822024319 -0.00024976634341861706 0 0.00021349294364709503 -0.0002740817368169689 0 0.00019498117698494956 -0.00025457817931913727 0 0.00020097196605925986 -0.00021453558908160865 0 0.00019861822501785826 -0.00021765550061777044 0 0.00019897661638840902 -0.00021733396680494036 0 0.00020097196605925986 -0.00021453558908160865 0 0.00019861822501785826 -0.00021765550061777044 0 0.00020672194372817548 -0.00022593010517187365 0 0.00021543737558241149 -0.00025093192608482534 0 0.00019937425396877114 -0.00023508604647363906 0 0.00021929682009928179 -0.0002287092371193234 0 0.00020097196605925986 -0.00021453558908160865 0 0.00020672194372817548 -0.00022593010517187365 0 0.00022068034811244459 -0.00024856767690628574 0 0.00021929682009928179 -0.0002287092371193234 0 0.00020672194372817548 -0.00022593010517187365 0 0.00019861822501785826 -0.00021765550061777044 0 0.00020672194372817548 -0.00022593010517187365 0 0.00019594701523046305 -0.00021920654265951046 0 0.00020709372480098883 -0.00023751952324505853 0 0.00020672194372817548 -0.00022593010517187365 0 0.00019594701523046305 -0.00021920654265951046 0 0.00019861822501785826 -0.00021765550061777044 0 0.00019594701523046305 -0.00021920654265951046 0 0.00020078071932915138 -0.00021523878381949873 0 0.00019594701523046305 -0.00021920654265951046 0 0.00020472424906813218 -0.00021171382114540816 0 0.00020078071932915138 -0.00021523878381949873 0 0.00019980050884058548 -0.00020359821229242681 0 0.00019594701523046305 -0.00021920654265951046 0 0.00020472424906813218 -0.00021171382114540816 0 0.00034601651902215673 0.00040416299598952817 0 0.00036691732537961656 0.00034913549712590423 0 0.00048819786683011702 0.0010263983431258795 0 0.00053035560025967642 0.00095000625027704094 0 0.00054795104724102823 0.00101736269334253 0 0.00020472424906813218 -0.00021171382114540816 0 0.00020513625024063547 -0.00021114396265052788 0 0.00020078071932915138 -0.00021523878381949873 0 0.00052183840518679866 0.0010569744564167015 0 0.00048819786683011702 0.0010263983431258795 0 0.00054795104724102823 0.00101736269334253 0 0.00020513625024063547 -0.00021114396265052788 0 0.00020078071932915138 -0.00021523878381949873 0 0.00020300770643950913 -0.00021715271259640284 0 0.00020078071932915138 -0.00021523878381949873 0 0.00019897661638840902 -0.00021733396680494036 0 0.00020300770643950913 -0.00021715271259640284 0 0.00019861822501785826 -0.00021765550061777044 0 0.00020078071932915138 -0.00021523878381949873 0 0.00019897661638840902 -0.00021733396680494036 0 0.00020097196605925986 -0.00021453558908160865 0 0.00019897661638840902 -0.00021733396680494036 0 0.00019655370826607147 -0.00022627392618647862 0 0.00019897661638840902 -0.00021733396680494036 0 0.00020300770643950913 -0.00021715271259640284 0 0.00019655370826607147 -0.00022627392618647862 0 0.00020513625024063547 -0.00021114396265052788 0 0.00020300770643950913 -0.00021715271259640284 0 0.00021117466978418667 -0.00021276102705859652 0 0.00020232142760614268 -0.0002252439154386746 0 0.00020300770643950913 -0.00021715271259640284 0 0.00019655370826607147 -0.00022627392618647862 0 0.00020232142760614268 -0.0002252439154386746 0 0.00020300770643950913 -0.00021715271259640284 0 0.00021117466978418667 -0.00021276102705859652 0 0.00019607037921234415 -0.00022942096656133681 0 0.00019605598637111241 -0.00023736964910610426 0 0.00019655370826607147 -0.00022627392618647862 0 0.00019607037921234415 -0.00022942096656133681 0 0.00020232142760614268 -0.0002252439154386746 0 0.00019655370826607147 -0.00022627392618647862 0 0.00068197019097399677 0.00088210417102670591 0 0.00066193804049320714 0.0008909744216849619 0 0.00066863636618451989 0.00091057159610563436 0 0.00068197019097399677 0.00088210417102670591 0 0.0006672260625247093 0.00087081978261456289 0 0.00066193804049320714 0.0008909744216849619 0 0.00068197019097399677 0.00088210417102670591 0 0.00071641374614623361 0.00086725417516322998 0 0.00070123788566302475 0.00090157921070525154 0 0.00068197019097399677 0.00088210417102670591 0 0.00066863636618451989 0.00091057159610563436 0 0.00070123788566302475 0.00090157921070525154 0 0.00068767778441602328 0.00085303301292591403 0 0.00068197019097399677 0.00088210417102670591 0 0.00071641374614623361 0.00086725417516322998 0 0.00068767778441602328 0.00085303301292591403 0 0.00068197019097399677 0.00088210417102670591 0 0.0006672260625247093 0.00087081978261456289 0 0.00065807496080761134 0.000846806451709203 0 0.0006672260625247093 0.00087081978261456289 0 0.00064711635376040594 0.00088070356431804253 0 0.00061871641341532818 0.0008557355723940054 0 0.00065807496080761134 0.000846806451709203 0 0.00064711635376040594 0.00088070356431804253 0 0.00038743865823959579 0.00028066862892935117 0 0.00052555087185400019 0.00050543253453737096 0 0.00061871641341532818 0.0008557355723940054 0 0.00064711635376040594 0.00088070356431804253 0 0.00064454060869569756 0.00091408176473419629 0 0.0006672260625247093 0.00087081978261456289 0 0.00066193804049320714 0.0008909744216849619 0 0.00064711635376040594 0.00088070356431804253 0 0.00066193804049320714 0.0008909744216849619 0 0.00064711635376040594 0.00088070356431804253 0 0.00064806005259985774 0.0009088650575805391 0 0.00064806005259985774 0.0009088650575805391 0 0.00064301892375622806 0.00091470234213065756 0 0.00066863636618451989 0.00091057159610563436 0 0.00064711635376040594 0.00088070356431804253 0 0.00064806005259985774 0.0009088650575805391 0 0.00064454060869569756 0.00091408176473419629 0 0.00050480591650987048 0.00058998765676290853 0 0.00052555087185400019 0.00050543253453737096 0 0.00064301892375622806 0.00091470234213065756 0 0.00066863636618451989 0.00091057159610563436 0 0.00066928052850123633 0.00093409930813452666 0 0.00066193804049320714 0.0008909744216849619 0 0.00064806005259985774 0.0009088650575805391 0 0.00066863636618451989 0.00091057159610563436 0 0.00066863636618451989 0.00091057159610563436 0 0.00066928052850123633 0.00093409930813452666 0 0.00070123788566302475 0.00090157921070525154 0 0.00052555087185400019 0.00050543253453737096 0 0.00070700712795256321 0.0011187013479659544 0 0.00064301892375622806 0.00091470234213065756 0 0.00066928052850123633 0.00093409930813452666 0 0.00064802837448569943 0.00097714089827933876 0 0.00036691732537961656 0.00034913549712590423 0 0.00052555087185400019 0.00050543253453737096 0 0.00053035560025967642 0.00095000625027704094 0 0.00058458906299441702 0.00086020567383940795 0 0.00064802837448569943 0.00097714089827933876 0 0.00057019477501648425 0.0010749619137651973 0 0.00054795104724102823 0.00101736269334253 0 0.00063491584971053783 0.0010455046731636007 0 0.00053035560025967642 0.00095000625027704094 0 0.00064802837448569943 0.00097714089827933876 0 0.00054795104724102823 0.00101736269334253 0 0.00064802837448569943 0.00097714089827933876 0 0.00054795104724102823 0.00101736269334253 0 0.00063491584971053783 0.0010455046731636007 0 0.00069748943195929866 0.0010547191460020683 0 0.00064802837448569943 0.00097714089827933876 0 0.00063491584971053783 0.0010455046731636007 0 0.00069748943195929866 0.0010547191460020683 0 0.00064802837448569943 0.00097714089827933876 0 0.00073405333740155366 0.00097383599815776926 0 0.00066928052850123633 0.00093409930813452666 0 0.00064802837448569943 0.00097714089827933876 0 0.00073405333740155366 0.00097383599815776926 0 0.00066928052850123633 0.00093409930813452666 0 0.00073405333740155366 0.00097383599815776926 0 0.00073050187681295421 0.0009234477141893821 0 0.00073405333740155366 0.00097383599815776926 0 0.00082775195829955109 0.00096845683643043362 0 0.00076898630928720082 0.00093169538382895816 0 0.00079275888090251051 0.0010513240291802641 0 0.00069748943195929866 0.0010547191460020683 0 0.00073405333740155366 0.00097383599815776926 0 0.00060300725881612383 0.0014764542811483389 0 0.0005385870175351337 0.0015068820211746839 0 0.00057382633598245154 0.0015567736341199154 0 0.00069808330175109043 0.0012645997821711286 0 0.00070049882300290305 0.0012634464823514592 0 0.00079275888090251051 0.0010513240291802641 0 0.00073405333740155366 0.00097383599815776926 0 0.00082775195829955109 0.00096845683643043362 0 0.0005255162372297498 0.0015492875758965688 0 0.00057382633598245154 0.0015567736341199154 0 0.00050760651198126572 0.0015955004171423824 0 0.0005385870175351337 0.0015068820211746839 0 0.0005255162372297498 0.0015492875758965688 0 0.00057382633598245154 0.0015567736341199154 0 0.00082775195829955109 0.00096845683643043362 0 0.00085726547491228903 0.00090075696735454679 0 0.00079496203218566003 0.0008942974003546038 0 0.00082775195829955109 0.00096845683643043362 0 0.00079496203218566003 0.0008942974003546038 0 0.00076898630928720082 0.00093169538382895816 0 0.00070049882300290305 0.0012634464823514592 0 0.00069671176765280789 0.0012780595908037156 0 0.00057382633598245154 0.0015567736341199154 0 0.00053769157934232528 0.0016540087964115615 0 0.00050760651198126572 0.0015955004171423824 0 0.00085726547491228903 0.00090075696735454679 0 0.0008278372252437194 0.00086637493667302305 0 0.00085398483596436339 0.00085996702948708302 0 0.00085726547491228903 0.00090075696735454679 0 0.00079496203218566003 0.0008942974003546038 0 0.0008278372252437194 0.00086637493667302305 0 0.00079496203218566003 0.0008942974003546038 0 0.0008278372252437194 0.00086637493667302305 0 0.00080160286426291471 0.00085560694574095568 0 0.00079496203218566003 0.0008942974003546038 0 0.00077669490650517006 0.00086552589968195374 0 0.00080160286426291471 0.00085560694574095568 0 0.00079496203218566003 0.0008942974003546038 0 0.00077669490650517006 0.00086552589968195374 0 0.00074901847811545364 0.00088871597380680819 0 0.00077669490650517006 0.00086552589968195374 0 0.00074901847811545364 0.00088871597380680819 0 0.00075361000026510005 0.00085294332733793486 0 0.00074901847811545364 0.00088871597380680819 0 0.00071641374614623361 0.00086725417516322998 0 0.00070123788566302475 0.00090157921070525154 0 0.00074901847811545364 0.00088871597380680819 0 0.00071641374614623361 0.00086725417516322998 0 0.00075361000026510005 0.00085294332733793486 0 0.00074901847811545364 0.00088871597380680819 0 0.00073050187681295421 0.0009234477141893821 0 0.00070123788566302475 0.00090157921070525154 0 0.00066928052850123633 0.00093409930813452666 0 0.00073050187681295421 0.0009234477141893821 0 0.00070123788566302475 0.00090157921070525154 0 0.00074901847811545364 0.00088871597380680819 0 0.00073050187681295421 0.0009234477141893821 0 0.00076898630928720082 0.00093169538382895816 0 0.00073405333740155366 0.00097383599815776926 0 0.00073050187681295421 0.0009234477141893821 0 0.00076898630928720082 0.00093169538382895816 0 0.00079496203218566003 0.0008942974003546038 0 0.00074901847811545364 0.00088871597380680819 0 0.00076898630928720082 0.00093169538382895816 0 0.00019848148970467698 0.0037440836890522862 0 0.00037614581625479556 0.0033882771390578541 0 0.00013718444827412452 0.0034729964866064872 0 0.00032680529720716876 0.0035163555451288332 0 0.00032804462142338149 0.0034843992477669064 0 0.00034292851739175161 0.0037420212111683002 0 0.00024670928900505493 0.0040117037170451135 0 0.0005413514905292132 0.0038929125125594798 0 0.00013718444827412452 0.0034729964866064872 0 0.00032804462142338149 0.0034843992477669064 0 0.00034736140102707377 0.0033904665754410953 0 0.00013718444827412452 0.0034729964866064872 0 0.00018091677356214781 0.0036225063444049049 0 0.00032680529720716876 0.0035163555451288332 0 0.00029860156691391328 0.0031391754741489299 0 0.00033682238822794146 0.0029535137409316941 0 0.00032665376896431002 0.0035154890324315389 0 0.00032804462142338149 0.0034843992477669064 0 0.0003575497561800361 0.0034453883266971834 0 0.00029860156691391328 0.0031391754741489299 0 0.00029856770620809392 0.0032225625122750501 0 0.00032804462142338149 0.0034843992477669064 0 0.0003575497561800361 0.0034453883266971834 0 0.00034736140102707377 0.0033904665754410953 0 0.00033682238822794146 0.0029535137409316941 0 0.00037614581625479556 0.0033882771390578541 0 0.00028499917066173271 0.0031172194829325512 0 0.0002792521138736783 0.003132191295327446 0 0.00028742727504113064 0.0031291146744938693 0 0.00033682238822794146 0.0029535137409316941 0 0.00036205621208685652 0.0030249875457231197 0 0.00036205621208685652 0.0030249875457231197 0 0.00037614581625479556 0.0033882771390578541 0 0.00038826516640104729 0.003354913824789195 0 0.00045313093624349364 0.003524843090227118 0 0.00042450214747198422 0.0035354531447428718 0 0.00043783638571011721 0.003506731408859964 0 0.00037614581625479556 0.0033882771390578541 0 0.00046309921719703273 0.0035232823906437981 0 0.00034292851739175161 0.0037420212111683002 0 0.0005413514905292132 0.0038929125125594798 0 0.00029995469076550042 0.0026283744513086039 0 0.00029839136966112832 0.0026401365949191825 0 0.00030307883771017106 0.0026309761050372898 0 0.00036205621208685652 0.0030249875457231197 0 0.00032056050715185801 0.0025621871238001711 0 0.00053923479695931233 0.0033389932686114726 0 0.00038826516640104729 0.003354913824789195 0 0.00045313093624349364 0.003524843090227118 0 0.00033461935667459093 0.002626351623207727 0 0.00031538324518357274 0.0026183169536817073 0 0.00030470274236042857 0.0026285988235642413 0 0.00041482851305582879 0.0030775733558232499 0 0.00036205621208685652 0.0030249875457231197 0 0.00029839136966112832 0.0026401365949191825 0 0.00030307883771017106 0.0026309761050372898 0 0.00030470274236042857 0.0026285988235642413 0 0.00033923591547909521 0.0026178603716304517 0 0.00033461935667459093 0.002626351623207727 0 0.00032726814574074952 0.0026115657349546303 0 0.00033461935667459093 0.002626351623207727 0 0.00031538324518357274 0.0026183169536817073 0 0.00032726814574074952 0.0026115657349546303 0 0.00033923591547909521 0.0026178603716304517 0 0.00032726814574074952 0.0026115657349546303 0 0.00032936474922542526 0.0025972231686320099 0 0.00031538324518357274 0.0026183169536817073 0 0.00032726814574074952 0.0026115657349546303 0 0.00031552831298277829 0.0025972349394323474 0 0.00029415983238240584 0.0020112486584308782 0 0.00033739705129499432 0.0020071183265628002 0 0.00030992109390883086 0.0021035436589666337 0 0.00030393428086252942 0.0026046063430491123 0 0.00029783367439674207 0.0026214717741632793 0 0.00028332956853959444 0.0025779473583349248 0 0.00031538324518357274 0.0026183169536817073 0 0.00030393428086252942 0.0026046063430491123 0 0.00031552831298277829 0.0025972349394323474 0 0.00031538324518357274 0.0026183169536817073 0 0.00029783367439674207 0.0026214717741632793 0 0.00030470274236042857 0.0026285988235642413 0 0.00031538324518357274 0.0026183169536817073 0 0.00030393428086252942 0.0026046063430491123 0 0.00029783367439674207 0.0026214717741632793 0 0.00027734227201790129 0.0019162802271367862 0 0.00029415983238240584 0.0020112486584308782 0 0.00032402958967290668 0.0019501902553270469 0 0.00030808917025745158 0.0026298298421046752 0 0.00029783367439674207 0.0026214717741632793 0 0.00030470274236042857 0.0026285988235642413 0 0.00028190966586413293 0.0022232394437988389 0 0.00029440856937563162 0.002381839841124157 0 0.00030808917025745158 0.0026298298421046752 0 0.00030307883771017106 0.0026309761050372898 0 0.00030470274236042857 0.0026285988235642413 0 0.00029415983238240584 0.0020112486584308782 0 0.00032402958967290668 0.0019501902553270469 0 0.00033739705129499432 0.0020071183265628002 0 0.00050898593953897754 0.0014610944279682737 0 0.0005385870175351337 0.0015068820211746839 0 0.00048124290155230606 0.0015397071296153982 0 0.00036437768477387642 0.0019070040161686399 0 0.00032402958967290668 0.0019501902553270469 0 0.00033739705129499432 0.0020071183265628002 0 0.00043497173684927136 0.0016925497719255901 0 0.00041431187302223951 0.0017350820878016 0 0.0005385870175351337 0.0015068820211746839 0 0.0005255162372297498 0.0015492875758965688 0 0.00048124290155230606 0.0015397071296153982 0 0.00041431187302223951 0.0017350820878016 0 0.00038196223063915053 0.0020524698168816581 0 0.0005255162372297498 0.0015492875758965688 0 0.00048124290155230606 0.0015397071296153982 0 0.00050760651198126572 0.0015955004171423824 0 0.00048124290155230606 0.0015397071296153982 0 0.00050760651198126572 0.0015955004171423824 0 0.00045071963311975322 0.001632321693401652 0 0.00053769157934232528 0.0016540087964115615 0 0.00050760651198126572 0.0015955004171423824 0 0.00045071963311975322 0.001632321693401652 0 0.00069671176765280789 0.0012780595908037156 0 0.00068657964584440268 0.0012994614669727884 0 0.00053769157934232528 0.0016540087964115615 0 0.00046030778920258953 0.0016980905073721499 0 0.00048830247032803534 0.0017626838811285411 0 0.00053769157934232528 0.0016540087964115615 0 0.00046030778920258953 0.0016980905073721499 0 0.00045071963311975322 0.001632321693401652 0 0.00045685043533695455 0.0016913489014714772 0 0.00038196223063915053 0.0020524698168816581 0 0.00047232927551935197 0.0017833611796929036 0 0.00047718636842649688 0.0018123746246511831 0 0.00048313007808366965 0.001775272830495525 0 0.00028332956853959444 0.0025779473583349248 0 0.00031159778320379993 0.0025707596912551882 0 0.00029068274082687977 0.0025286247790769971 0 0.00038196223063915053 0.0020524698168816581 0 0.00038812916852214011 0.0021514714636308944 0 0.00030393428086252942 0.0026046063430491123 0 0.00028332956853959444 0.0025779473583349248 0 0.00031552831298277829 0.0025972349394323474 0 0.00029440856937563162 0.002381839841124157 0 0.00038196223063915053 0.0020524698168816581 0 0.00028332956853959444 0.0025779473583349248 0 0.00031552831298277829 0.0025972349394323474 0 0.00031159778320379993 0.0025707596912551882 0 0.00033923591547909521 0.0026178603716304517 0 0.00032936474922542526 0.0025972231686320099 0 0.00033949628015159767 0.0025737997989945657 0 0.00031552831298277829 0.0025972349394323474 0 0.00032936474922542526 0.0025972231686320099 0 0.00032457162833482672 0.002584994283181658 0 0.00032726814574074952 0.0026115657349546303 0 0.00031552831298277829 0.0025972349394323474 0 0.00032936474922542526 0.0025972231686320099 0 0.00032936474922542526 0.0025972231686320099 0 0.00032457162833482672 0.002584994283181658 0 0.00033949628015159767 0.0025737997989945657 0 0.00031552831298277829 0.0025972349394323474 0 0.00032457162833482672 0.002584994283181658 0 0.00031159778320379993 0.0025707596912551882 0 0.00032457162833482672 0.002584994283181658 0 0.00031159778320379993 0.0025707596912551882 0 0.00033949628015159767 0.0025737997989945657 0 0.00031159778320379993 0.0025707596912551882 0 0.00032787933491186462 0.0025428889327658807 0 0.00033949628015159767 0.0025737997989945657 0 0.00031159778320379993 0.0025707596912551882 0 0.00032787933491186462 0.0025428889327658807 0 0.00029068274082687977 0.0025286247790769971 0 0.00032787933491186462 0.0025428889327658807 0 0.00033949628015159767 0.0025737997989945657 0 0.0003706140219792233 0.0025342435988004825 0 0.00033949628015159767 0.0025737997989945657 0 0.00037998920090810039 0.0026000945799825111 0 0.0003706140219792233 0.0025342435988004825 0 0.00016484539247584606 0.0032496864321473174 0 0.00020475938653150688 0.0032189439332690941 0 0.00020043074294324431 0.0032835059693712356 0 0.00029293425833174874 0.0028537506788665875 0 0.00011326425127990673 0.0030374527611438306 0 6.2172208671032534e-05 0.0037492772887487962 0 0.00011326425127990673 0.0030374527611438306 0 0.00037538409027669317 0.0027052980024890485 0 0.00033949628015159767 0.0025737997989945657 0 0.00037998920090810039 0.0026000945799825111 0 0.00033682238822794146 0.0029535137409316941 0 0.00033354233524499874 0.0024626565454055616 0 0.00018091677356214781 0.0036225063444049049 0 0.00019678018978547642 0.0038162960414042445 0 0.00032680529720716876 0.0035163555451288332 0 0.00037538409027669317 0.0027052980024890485 0 0.00035859728291371047 0.0027410043719515434 0 0.00033949628015159767 0.0025737997989945657 0 6.2172208671032534e-05 0.0037492772887487962 0 0.00029860156691391328 0.0031391754741489299 0 0.00029860156691391328 0.0031391754741489299 0 0.00029293425833174874 0.0028537506788665875 0 0.00016484539247584606 0.0032496864321473174 0 0.00020879640627325812 0.0031529394652016307 0 0.00020475938653150688 0.0032189439332690941 0 -0.0001350165702887224 0.0038002129750231923 0 -5.9267399714496481e-05 0.0037210314591583265 0 -7.1416822153135944e-05 0.0038828511653637172 0 8.1306751383486203e-05 0.002923251373916037 0 0.00012243079338565232 0.0029317940222503068 0 7.5782249685398456e-05 0.0029971817927170086 0 -0.00016210219654019226 0.003713607749697537 0 -0.0001350165702887224 0.0038002129750231923 0 -5.9267399714496481e-05 0.0037210314591583265 0 -0.00016210219654019226 0.003713607749697537 0 -5.9267399714496481e-05 0.0037210314591583265 0 -0.00012625062916407778 0.003612216635811954 0 8.1306751383486203e-05 0.002923251373916037 0 8.5890535211274421e-05 0.0028566716517424719 0 0.00012381601877446341 0.0028915046567260546 0 1.6469019944986486e-05 0.0033797859362114475 0 0.00011326425127990673 0.0030374527611438306 0 -5.9267399714496481e-05 0.0037210314591583265 0 -0.00012625062916407778 0.003612216635811954 0 -5.1583289821098148e-05 0.0035068428352491438 0 -0.00014680647660977758 0.0034141114030366987 0 -0.00012625062916407778 0.003612216635811954 0 -5.1583289821098148e-05 0.0035068428352491438 0 0.00011326425127990673 0.0030374527611438306 0 0.0002363409503079685 0.0027022949969265531 0 0.00032787933491186462 0.0025428889327658807 0 0.00033592158940399684 0.0025035780805083836 0 0.00029068274082687977 0.0025286247790769971 0 0.00033592158940399684 0.0025035780805083836 0 0.00030535157695041516 0.0024705374963024749 0 0.00029068274082687977 0.0025286247790769971 0 0.00032787933491186462 0.0025428889327658807 0 0.0003706140219792233 0.0025342435988004825 0 0.00033592158940399684 0.0025035780805083836 0 0.0002363409503079685 0.0027022949969265531 0 0.00037489431235315931 0.0022664134152899475 0 0.00012381601877446341 0.0028915046567260546 0 0.00012243079338565232 0.0029317940222503068 0 0.00016550474737804334 0.0029265933726989267 0 8.1306751383486203e-05 0.002923251373916037 0 0.00012381601877446341 0.0028915046567260546 0 0.00012243079338565232 0.0029317940222503068 0 0.00012243079338565232 0.0029317940222503068 0 0.00016550474737804334 0.0029265933726989267 0 0.00015823567267627358 0.0029543138764131257 0 0.00047613323632412509 0.0017741210541114257 0 0.00047810335591925475 0.0017690827248233298 0 0.00047720023995885964 0.0017757610645353903 0 0.00047604303419742597 0.0017705192498497012 0 0.00047613323632412509 0.0017741210541114257 0 0.00047810335591925475 0.0017690827248233298 0 0.00037489431235315931 0.0022664134152899475 0 0.00029101883053983708 0.0022726830180205544 0 0.00047335133955803111 0.0017756023225798479 0 0.0004750997081633211 0.0017753723530474859 0 0.00047159559712277581 0.0017788592814539366 0 0.00037489431235315931 0.0022664134152899475 0 0.00032263338621731964 0.0019569204948456861 0 0.00050338316834579362 0.0020460802362251632 0 0.00029101883053983708 0.0022726830180205544 0 0.00047335133955803111 0.0017756023225798479 0 0.0004750997081633211 0.0017753723530474859 0 0.00047613323632412509 0.0017741210541114257 0 0.0004750997081633211 0.0017753723530474859 0 0.00047613323632412509 0.0017741210541114257 0 0.00047547120094188026 0.0017760513857471532 0 0.00047604303419742597 0.0017705192498497012 0 0.00047810335591925475 0.0017690827248233298 0 0.00047997892494511994 0.0017690655052662516 0 0.00037489431235315931 0.0022664134152899475 0 0.00038812916852214011 0.0021514714636308944 0 0.00047604303419742597 0.0017705192498497012 0 0.00048313007808366965 0.001775272830495525 0 0.00047997892494511994 0.0017690655052662516 0 0.00047232927551935197 0.0017833611796929036 0 0.00048313007808366965 0.001775272830495525 0 0.00047997892494511994 0.0017690655052662516 0 0.00047810335591925475 0.0017690827248233298 0 0.00047997892494511994 0.0017690655052662516 0 0.00047894145313013138 0.001763977750145991 0 0.00045685043533695455 0.0016913489014714772 0 0.00047775286287709233 0.0017770601930264742 0 0.00047810335591925475 0.0017690827248233298 0 0.00047894145313013138 0.001763977750145991 0 0.00048830247032803534 0.0017626838811285411 0 0.00047232927551935197 0.0017833611796929036 0 0.00047997892494511994 0.0017690655052662516 0 0.00047894145313013138 0.001763977750145991 0 0.00046030778920258953 0.0016980905073721499 0 0.00047894145313013138 0.001763977750145991 0 0.00048830247032803534 0.0017626838811285411 0 0.00088300051239894543 0.00083824135458412323 0 0.00086935697582911299 0.0008228283665738011 0 0.00086097344464888955 0.0008356639697580956 0 0.00068657964584440268 0.0012994614669727884 0 0.00068369731624115721 0.0012773367363323011 0 0.00088300051239894543 0.00083824135458412323 0 0.00086935697582911299 0.0008228283665738011 0 0.00088026933278332578 0.00080933493373508002 0 0.00088300051239894543 0.00083824135458412323 0 0.00088026933278332578 0.00080933493373508002 0 0.00090221279735357737 0.00078174199995158591 0 0.00047810335591925475 0.0017690827248233298 0 0.00048830247032803534 0.0017626838811285411 0 0.00047720023995885964 0.0017757610645353903 0 0.00086935697582911299 0.0008228283665738011 0 0.00086821211897932101 0.00080977390085954859 0 0.00088026933278332578 0.00080933493373508002 0 0.00087727159182520028 0.00079454477172237893 0 0.00088026933278332578 0.00080933493373508002 0 0.00090221279735357737 0.00078174199995158591 0 0.00087727159182520028 0.00079454477172237893 0 0.00086821211897932101 0.00080977390085954859 0 0.00085984181775875001 0.00079923044750386822 0 0.00087727159182520028 0.00079454477172237893 0 0.00086821211897932101 0.00080977390085954859 0 0.00088026933278332578 0.00080933493373508002 0 0.00087727159182520028 0.00079454477172237893 0 0.00086714068276248584 0.00077993210142847293 0 0.00085984181775875001 0.00079923044750386822 0 0.00087727159182520028 0.00079454477172237893 0 0.00086714068276248584 0.00077993210142847293 0 0.00088290180776243784 0.00077692012520082568 0 0.00087727159182520028 0.00079454477172237893 0 0.00088290180776243784 0.00077692012520082568 0 0.00090221279735357737 0.00078174199995158591 0 0.00088290180776243784 0.00077692012520082568 0 0.00088750170254720852 0.00076265719704883019 0 0.00090221279735357737 0.00078174199995158591 0 0.00088290180776243784 0.00077692012520082568 0 0.00088750170254720852 0.00076265719704883019 0 0.00087517439408419176 0.00076320706686628531 0 0.00086714068276248584 0.00077993210142847293 0 0.00088290180776243784 0.00077692012520082568 0 0.00087517439408419176 0.00076320706686628531 0 0.00087517439408419176 0.00076320706686628531 0 0.00088055599244705248 0.0007419289883543698 0 0.00086605812319150198 0.00074606260433921075 0 0.00088055599244705248 0.0007419289883543698 0 0.00086605812319150198 0.00074606260433921075 0 0.00086450397215081728 0.0007262082986306765 0 0.00088055599244705248 0.0007419289883543698 0 0.00089717439163939944 0.00075097930820309025 0 0.00089788846108629263 0.00073173547716064689 0 0.00088055599244705248 0.0007419289883543698 0 0.00089788846108629263 0.00073173547716064689 0 0.00088206555896890579 0.00072423853477069191 0 0.00088750170254720852 0.00076265719704883019 0 0.00088055599244705248 0.0007419289883543698 0 0.00089717439163939944 0.00075097930820309025 0 0.00088750170254720852 0.00076265719704883019 0 0.00087517439408419176 0.00076320706686628531 0 0.00088055599244705248 0.0007419289883543698 0 0.00047525681449216693 0.0017759153119069086 0 0.00047720023995885964 0.0017757610645353903 0 0.00047469163833236848 0.0017742509873944212 0 0.00068369731624115721 0.0012773367363323011 0 0.00073777785697808789 0.0012717506834098763 0 0.00089717439163939944 0.00075097930820309025 0 0.00090221279735357737 0.00078174199995158591 0 0.00091351902435705588 0.00073546239640946871 0 0.00089717439163939944 0.00075097930820309025 0 0.00091351902435705588 0.00073546239640946871 0 0.00089788846108629263 0.00073173547716064689 0 0.00088750170254720852 0.00076265719704883019 0 0.00089717439163939944 0.00075097930820309025 0 0.00090221279735357737 0.00078174199995158591 0 0.00047613323632412509 0.0017741210541114257 0 0.00047720023995885964 0.0017757610645353903 0 0.00047547120094188026 0.0017760513857471532 0 0.00047525681449216693 0.0017759153119069086 0 0.00047547120094188026 0.0017760513857471532 0 0.00047494199790457884 0.0017772304361416632 0 0.00047525681449216693 0.0017759153119069086 0 0.00047720023995885964 0.0017757610645353903 0 0.00047547120094188026 0.0017760513857471532 0 0.0004750997081633211 0.0017753723530474859 0 0.00047547120094188026 0.0017760513857471532 0 0.00047494199790457884 0.0017772304361416632 0 0.00029101883053983708 0.0022726830180205544 0 -0.00019628826662044176 0.003310511276422659 0 0.00029101883053983708 0.0022726830180205544 0 0.00029782486867845634 0.0021906697441603923 0 0.00011357342001222094 0.0025376258582311211 0 7.1377644295292659e-05 0.0026743402819318571 0 -9.6657728086397389e-06 0.0025987616304333503 0 0.00047525681449216693 0.0017759153119069086 0 0.00047494199790457884 0.0017772304361416632 0 0.0004737817515889393 0.001775949434872343 0 0.00012243079338565232 0.0029317940222503068 0 0.00015823567267627358 0.0029543138764131257 0 7.5782249685398456e-05 0.0029971817927170086 0 0.00047525681449216693 0.0017759153119069086 0 0.0004737817515889393 0.001775949434872343 0 0.00047469163833236848 0.0017742509873944212 0 -0.00060468625204996261 0.0037052786339023579 0 -0.0006066310348272607 0.0037091982931201075 0 -0.00061218571491924404 0.0037014546240860435 0 -0.00019628826662044176 0.003310511276422659 0 -0.00032708430156255591 0.0031761386465104899 0 7.1377644295292659e-05 0.0026743402819318571 0 -9.6657728086397389e-06 0.0025987616304333503 0 -1.2386605365804093e-05 0.0027090973824741992 0 1.6469019944986486e-05 0.0033797859362114475 0 -0.00019628826662044176 0.003310511276422659 0 -5.9267399714496481e-05 0.0037210314591583265 0 -6.6310804976077271e-05 0.0039345976399317948 0 -7.1416822153135944e-05 0.0038828511653637172 0 -0.0001703402160404186 0.003863551283183228 0 -0.0001350165702887224 0.0038002129750231923 0 -7.1416822153135944e-05 0.0038828511653637172 0 0.00075740637929319502 0.00082339550010070411 0 0.00078569872938718578 0.0008057388109469247 0 0.00075951159975805706 0.00079997474965538384 0 0.00075740637929319502 0.00082339550010070411 0 0.00078569872938718578 0.0008057388109469247 0 0.00078445065469020918 0.00083769850483702765 0 0.00078569872938718578 0.0008057388109469247 0 0.00078445065469020918 0.00083769850483702765 0 0.00080771715207107915 0.00082196122905648956 0 0.00078569872938718578 0.0008057388109469247 0 0.00080693457420697226 0.00079738535041191602 0 0.00079354111642131837 0.00078151114266394081 0 0.00078569872938718578 0.0008057388109469247 0 0.00075951159975805706 0.00079997474965538384 0 0.00079354111642131837 0.00078151114266394081 0 0.00072455934044949558 0.00077782506585476392 0 0.00075951159975805706 0.00079997474965538384 0 0.0007277922668003688 0.0008092334787934564 0 0.00075740637929319502 0.00082339550010070411 0 0.0007277922668003688 0.0008092334787934564 0 0.00072175303648308424 0.00083702155170263721 0 0.00075740637929319502 0.00082339550010070411 0 0.00075951159975805706 0.00079997474965538384 0 0.0007277922668003688 0.0008092334787934564 0 0.00075740637929319502 0.00082339550010070411 0 0.00072175303648308424 0.00083702155170263721 0 0.00075361000026510005 0.00085294332733793486 0 0.00071641374614623361 0.00086725417516322998 0 0.00072175303648308424 0.00083702155170263721 0 0.00075361000026510005 0.00085294332733793486 0 0.00075740637929319502 0.00082339550010070411 0 0.00075361000026510005 0.00085294332733793486 0 0.00078445065469020918 0.00083769850483702765 0 0.00077669490650517006 0.00086552589968195374 0 0.00075361000026510005 0.00085294332733793486 0 0.00078445065469020918 0.00083769850483702765 0 0.00077669490650517006 0.00086552589968195374 0 0.00078445065469020918 0.00083769850483702765 0 0.00080160286426291471 0.00085560694574095568 0 0.0008278372252437194 0.00086637493667302305 0 0.00080160286426291471 0.00085560694574095568 0 0.0008213204103747941 0.00083985029718164827 0 0.0008213204103747941 0.00083985029718164827 0 0.00083323846291894074 0.00082206993139810321 0 0.00080771715207107915 0.00082196122905648956 0 0.0008213204103747941 0.00083985029718164827 0 0.00080445921238668082 0.00083887995673670825 0 0.00080771715207107915 0.00082196122905648956 0 0.00078445065469020918 0.00083769850483702765 0 0.00080445921238668082 0.00083887995673670825 0 0.00080771715207107915 0.00082196122905648956 0 0.00078445065469020918 0.00083769850483702765 0 0.00080160286426291471 0.00085560694574095568 0 0.00080445921238668082 0.00083887995673670825 0 0.00080160286426291471 0.00085560694574095568 0 0.0008213204103747941 0.00083985029718164827 0 0.00080445921238668082 0.00083887995673670825 0 0.00085726547491228903 0.00090075696735454679 0 0.00088300051239894543 0.00083824135458412323 0 0.00085398483596436339 0.00085996702948708302 0 0.0008278372252437194 0.00086637493667302305 0 0.00085398483596436339 0.00085996702948708302 0 0.00084242075796372876 0.00084003000550403936 0 0.0008278372252437194 0.00086637493667302305 0 0.0008213204103747941 0.00083985029718164827 0 0.00084242075796372876 0.00084003000550403936 0 0.0008213204103747941 0.00083985029718164827 0 0.00084242075796372876 0.00084003000550403936 0 0.00083323846291894074 0.00082206993139810321 0 0.00085398483596436339 0.00085996702948708302 0 0.00084242075796372876 0.00084003000550403936 0 0.00086097344464888955 0.0008356639697580956 0 0.00084242075796372876 0.00084003000550403936 0 0.00086097344464888955 0.0008356639697580956 0 0.0008543659613612579 0.00081943645529496156 0 0.00088300051239894543 0.00083824135458412323 0 0.00085398483596436339 0.00085996702948708302 0 0.00086097344464888955 0.0008356639697580956 0 0.00086935697582911299 0.0008228283665738011 0 0.00086821211897932101 0.00080977390085954859 0 0.0008543659613612579 0.00081943645529496156 0 0.00086935697582911299 0.0008228283665738011 0 0.00086097344464888955 0.0008356639697580956 0 0.0008543659613612579 0.00081943645529496156 0 0.00083323846291894074 0.00082206993139810321 0 0.00084265843681306676 0.00080569088112108654 0 0.000824380663923739 0.00080487260552952473 0 0.0008543659613612579 0.00081943645529496156 0 0.00083323846291894074 0.00082206993139810321 0 0.00084265843681306676 0.00080569088112108654 0 0.00084242075796372876 0.00084003000550403936 0 0.0008543659613612579 0.00081943645529496156 0 0.00083323846291894074 0.00082206993139810321 0 0.00084265843681306676 0.00080569088112108654 0 0.000824380663923739 0.00080487260552952473 0 0.00083602903593564559 0.0007868357149532452 0 0.0008543659613612579 0.00081943645529496156 0 0.00084265843681306676 0.00080569088112108654 0 0.00085984181775875001 0.00079923044750386822 0 0.00084265843681306676 0.00080569088112108654 0 0.00085984181775875001 0.00079923044750386822 0 0.00084982084879253609 0.00078358700103340652 0 0.00086821211897932101 0.00080977390085954859 0 0.0008543659613612579 0.00081943645529496156 0 0.00085984181775875001 0.00079923044750386822 0 0.00083323846291894074 0.00082206993139810321 0 0.00080771715207107915 0.00082196122905648956 0 0.000824380663923739 0.00080487260552952473 0 0.00080771715207107915 0.00082196122905648956 0 0.000824380663923739 0.00080487260552952473 0 0.00080693457420697226 0.00079738535041191602 0 0.00078569872938718578 0.0008057388109469247 0 0.00080771715207107915 0.00082196122905648956 0 0.00080693457420697226 0.00079738535041191602 0 0.000824380663923739 0.00080487260552952473 0 0.00080693457420697226 0.00079738535041191602 0 0.00082293990866782508 0.00077392440707190543 0 0.00080693457420697226 0.00079738535041191602 0 0.00082293990866782508 0.00077392440707190543 0 0.00079354111642131837 0.00078151114266394081 0 0.00082293990866782508 0.00077392440707190543 0 0.00083602903593564559 0.0007868357149532452 0 0.00084026365332626099 0.00076714178662639525 0 0.000824380663923739 0.00080487260552952473 0 0.00082293990866782508 0.00077392440707190543 0 0.00083602903593564559 0.0007868357149532452 0 0.00082293990866782508 0.00077392440707190543 0 0.00084026365332626099 0.00076714178662639525 0 0.00083812757592894075 0.00074751233269176084 0 0.00086714068276248584 0.00077993210142847293 0 0.00085984181775875001 0.00079923044750386822 0 0.00084982084879253609 0.00078358700103340652 0 0.00083602903593564559 0.0007868357149532452 0 0.00084982084879253609 0.00078358700103340652 0 0.00084026365332626099 0.00076714178662639525 0 0.00084265843681306676 0.00080569088112108654 0 0.00083602903593564559 0.0007868357149532452 0 0.00084982084879253609 0.00078358700103340652 0 0.00084982084879253609 0.00078358700103340652 0 0.00084026365332626099 0.00076714178662639525 0 0.00085581468953863549 0.00075988913525900541 0 0.00084026365332626099 0.00076714178662639525 0 0.00085581468953863549 0.00075988913525900541 0 0.00083812757592894075 0.00074751233269176084 0 0.00086714068276248584 0.00077993210142847293 0 0.00087517439408419176 0.00076320706686628531 0 0.00085581468953863549 0.00075988913525900541 0 0.00086714068276248584 0.00077993210142847293 0 0.00084982084879253609 0.00078358700103340652 0 0.00085581468953863549 0.00075988913525900541 0 0.00085581468953863549 0.00075988913525900541 0 0.00086605812319150198 0.00074606260433921075 0 0.00085391496041729452 0.00074075393324277595 0 0.00087517439408419176 0.00076320706686628531 0 0.00085581468953863549 0.00075988913525900541 0 0.00086605812319150198 0.00074606260433921075 0 0.00085581468953863549 0.00075988913525900541 0 0.00085391496041729452 0.00074075393324277595 0 0.00083812757592894075 0.00074751233269176084 0 0.00085391496041729452 0.00074075393324277595 0 0.00083812757592894075 0.00074751233269176084 0 0.00084085482375881023 0.00071967597141158368 0 0.00085391496041729452 0.00074075393324277595 0 0.00084085482375881023 0.00071967597141158368 0 0.00086450397215081728 0.0007262082986306765 0 0.00086605812319150198 0.00074606260433921075 0 0.00085391496041729452 0.00074075393324277595 0 0.00086450397215081728 0.0007262082986306765 0 0.00082293990866782508 0.00077392440707190543 0 0.00082071209625112374 0.0007366752666693292 0 0.00079806432192638336 0.00075319603375025078 0 0.00082071209625112374 0.0007366752666693292 0 0.00080642164696924216 0.00071737439655029001 0 0.00084085482375881023 0.00071967597141158368 0 0.00082293990866782508 0.00077392440707190543 0 0.00083812757592894075 0.00074751233269176084 0 0.00082071209625112374 0.0007366752666693292 0 0.00083812757592894075 0.00074751233269176084 0 0.00082071209625112374 0.0007366752666693292 0 0.00084085482375881023 0.00071967597141158368 0 0.00079806432192638336 0.00075319603375025078 0 0.00077353711154118376 0.00073672856897068326 0 0.00080642164696924216 0.00071737439655029001 0 0.00082071209625112374 0.0007366752666693292 0 0.00079806432192638336 0.00075319603375025078 0 0.00080642164696924216 0.00071737439655029001 0 0.00079806432192638336 0.00075319603375025078 0 0.00076208831470516119 0.00077180055373200025 0 0.00077353711154118376 0.00073672856897068326 0 0.00082293990866782508 0.00077392440707190543 0 0.00079806432192638336 0.00075319603375025078 0 0.00079354111642131837 0.00078151114266394081 0 0.00079806432192638336 0.00075319603375025078 0 0.00079354111642131837 0.00078151114266394081 0 0.00076208831470516119 0.00077180055373200025 0 0.00075951159975805706 0.00079997474965538384 0 0.00079354111642131837 0.00078151114266394081 0 0.00076208831470516119 0.00077180055373200025 0 0.00072455934044949558 0.00077782506585476392 0 0.00075951159975805706 0.00079997474965538384 0 0.00076208831470516119 0.00077180055373200025 0 0.00072455934044949558 0.00077782506585476392 0 0.00073589468000559454 0.00074094541609901236 0 0.00076208831470516119 0.00077180055373200025 0 0.00077353711154118376 0.00073672856897068326 0 0.00076275608443603289 0.00070648944288653531 0 0.00080642164696924216 0.00071737439655029001 0 0.00073589468000559454 0.00074094541609901236 0 0.00076208831470516119 0.00077180055373200025 0 0.00077353711154118376 0.00073672856897068326 0 0.00073589468000559454 0.00074094541609901236 0 0.00077353711154118376 0.00073672856897068326 0 0.00076275608443603289 0.00070648944288653531 0 0.00076275608443603289 0.00070648944288653531 0 0.00079774420998194196 0.00068013430746993817 0 0.00080642164696924216 0.00071737439655029001 0 0.00076275608443603289 0.00070648944288653531 0 0.00079774420998194196 0.00068013430746993817 0 0.00074199912362433529 0.00066185010060302891 0 0.00079774420998194196 0.00068013430746993817 0 0.00079884790036666359 0.00064353703093883484 0 0.00074199912362433529 0.00066185010060302891 0 0.00079774420998194196 0.00068013430746993817 0 0.00079884790036666359 0.00064353703093883484 0 0.00082776821785045143 0.00066892525960723676 0 0.00079774420998194196 0.00068013430746993817 0 0.00082795169455441382 0.00069141494075967785 0 0.00082776821785045143 0.00066892525960723676 0 0.00079774420998194196 0.00068013430746993817 0 0.00082795169455441382 0.00069141494075967785 0 0.00080642164696924216 0.00071737439655029001 0 0.00082795169455441382 0.00069141494075967785 0 0.00080642164696924216 0.00071737439655029001 0 0.00084085482375881023 0.00071967597141158368 0 0.00082795169455441382 0.00069141494075967785 0 0.00084085482375881023 0.00071967597141158368 0 0.00084944959332824109 0.00069425996289291397 0 0.00084085482375881023 0.00071967597141158368 0 0.00085844178786620071 0.00070892642053686317 0 0.00084944959332824109 0.00069425996289291397 0 0.00084085482375881023 0.00071967597141158368 0 0.00086450397215081728 0.0007262082986306765 0 0.00085844178786620071 0.00070892642053686317 0 0.00086450397215081728 0.0007262082986306765 0 0.00085844178786620071 0.00070892642053686317 0 0.0008746090423745219 0.00070827267369967376 0 0.00086840456668769235 0.00068964855208437936 0 0.00087255372611060608 0.00067232035175834859 0 0.00088559732552930773 0.00069124831107942653 0 0.00086840456668769235 0.00068964855208437936 0 0.00084944959332824109 0.00069425996289291397 0 0.00085071719727675718 0.00067428824191465605 0 0.00085844178786620071 0.00070892642053686317 0 0.00086840456668769235 0.00068964855208437936 0 0.0008746090423745219 0.00070827267369967376 0 0.00085844178786620071 0.00070892642053686317 0 0.00086840456668769235 0.00068964855208437936 0 0.00084944959332824109 0.00069425996289291397 0 0.00082795169455441382 0.00069141494075967785 0 0.00084944959332824109 0.00069425996289291397 0 0.00085071719727675718 0.00067428824191465605 0 0.00082795169455441382 0.00069141494075967785 0 0.00085071719727675718 0.00067428824191465605 0 0.00082776821785045143 0.00066892525960723676 0 0.00086840456668769235 0.00068964855208437936 0 0.00085071719727675718 0.00067428824191465605 0 0.00087255372611060608 0.00067232035175834859 0 0.00085071719727675718 0.00067428824191465605 0 0.00087255372611060608 0.00067232035175834859 0 0.00088415308765262522 0.00066078911251178944 0 0.00087255372611060608 0.00067232035175834859 0 0.00088415308765262522 0.00066078911251178944 0 0.00088280488010392968 0.00066832450030227441 0 0.00087430564881058243 0.00064316067925168988 0 0.00080893312814630679 0.00057795970671684679 0 0.00085071719727675718 0.00067428824191465605 0 0.00088415308765262522 0.00066078911251178944 0 0.00085197657917690842 0.00067474985621464995 0 0.00088415308765262522 0.00066078911251178944 0 0.00085197657917690842 0.00067474985621464995 0 0.00089109093197710333 0.00069837004498559969 0 0.00085197657917690842 0.00067474985621464995 0 0.00081706693812207652 0.00066550148560591581 0 0.00079884790036666359 0.00064353703093883484 0 0.00085071719727675718 0.00067428824191465605 0 0.00085197657917690842 0.00067474985621464995 0 0.00082776821785045143 0.00066892525960723676 0 0.00085197657917690842 0.00067474985621464995 0 0.00079884790036666359 0.00064353703093883484 0 0.00082776821785045143 0.00066892525960723676 0 -0.00061956197281676727 0.0036715445100705662 0 -0.00061431780528709761 0.0036791263434246308 0 -0.00062812526239785745 0.0036831525143612267 0 -0.00061956197281676727 0.0036715445100705662 0 -0.00062812526239785745 0.0036831525143612267 0 -0.00062242780761460588 0.0036581603132516678 0 -0.00061431780528709761 0.0036791263434246308 0 -0.0006153109813918224 0.0036867383015110173 0 -0.00062812526239785745 0.0036831525143612267 0 -0.00061784250505526861 0.003206956637433118 0 -0.00043095823902878228 0.003160036806806862 0 -0.00061168982315594283 0.0030535313922821108 0 8.7111574665033468e-05 0.0023206647053610873 0 -0.00040728114403560349 0.003162981552625821 0 -0.00056625438907145634 0.0034433151580667053 0 -0.00040728114403560349 0.003162981552625821 0 -0.0006153109813918224 0.0036867383015110173 0 -0.00062812526239785745 0.0036831525143612267 0 -0.00061391800596191475 0.0036948335945803244 0 -0.00062812526239785745 0.0036831525143612267 0 -0.00062147835219197216 0.0036905321871378519 0 -0.00061391800596191475 0.0036948335945803244 0 -0.00062147835219197216 0.0036905321871378519 0 -0.00061391800596191475 0.0036948335945803244 0 -0.00061218571491924404 0.0037014546240860435 0 3.0741575821549164e-05 0.0028022086879545536 0 -1.5120753487111379e-05 0.0027770792460312418 0 -1.2386605365804093e-05 0.0027090973824741992 0 7.1377644295292659e-05 0.0026743402819318571 0 3.0741575821549164e-05 0.0028022086879545536 0 -1.2386605365804093e-05 0.0027090973824741992 0 -0.00040728114403560349 0.003162981552625821 0 -0.00032708430156255591 0.0031761386465104899 0 -0.00060468625204996261 0.0037052786339023579 0 -0.00061391800596191475 0.0036948335945803244 0 -0.00061218571491924404 0.0037014546240860435 0 0.0004737817515889393 0.001775949434872343 0 0.00047469163833236848 0.0017742509873944212 0 0.00046886991913286613 0.0017765472206171897 0 0.00029782486867845634 0.0021906697441603923 0 8.7111574665033468e-05 0.0023206647053610873 0 0.00091351902435705588 0.00073546239640946871 0 0.00092231621109504461 0.0007003952869967723 0 0.00090811206396179082 0.00071064409858409084 0 0.00047469163833236848 0.0017742509873944212 0 0.00046886991913286613 0.0017765472206171897 0 0.00046933692004532264 0.001775739913737211 0 0.00073777785697808789 0.0012717506834098763 0 0.00036229768578439935 0.0010981591095050281 0 0.00036229768578439935 0.0010981591095050281 0 0.00066743179474086493 0.00041709814064480583 0 0.00092231621109504461 0.0007003952869967723 0 0.00090811206396179082 0.00071064409858409084 0 0.000901121656929017 0.00068165893087261881 0 8.7111574665033468e-05 0.0023206647053610873 0 0.00036229768578439935 0.0010981591095050281 0 0.00090811206396179082 0.00071064409858409084 0 0.00089198845838310613 0.00071432604203864594 0 0.00088559732552930773 0.00069124831107942653 0 0.00090811206396179082 0.00071064409858409084 0 0.00088559732552930773 0.00069124831107942653 0 0.000901121656929017 0.00068165893087261881 0 0.00091351902435705588 0.00073546239640946871 0 0.00090811206396179082 0.00071064409858409084 0 0.00090291808703117508 0.00072295711739962494 0 0.00091351902435705588 0.00073546239640946871 0 0.00090291808703117508 0.00072295711739962494 0 0.00089788846108629263 0.00073173547716064689 0 0.00090291808703117508 0.00072295711739962494 0 0.00089788846108629263 0.00073173547716064689 0 0.00089198845838310613 0.00071432604203864594 0 0.00090811206396179082 0.00071064409858409084 0 0.00090291808703117508 0.00072295711739962494 0 0.00089198845838310613 0.00071432604203864594 0 0.00089198845838310613 0.00071432604203864594 0 0.00088206555896890579 0.00072423853477069191 0 0.0008746090423745219 0.00070827267369967376 0 0.00089788846108629263 0.00073173547716064689 0 0.00089198845838310613 0.00071432604203864594 0 0.00088206555896890579 0.00072423853477069191 0 0.00086450397215081728 0.0007262082986306765 0 0.00088206555896890579 0.00072423853477069191 0 0.0008746090423745219 0.00070827267369967376 0 0.00088055599244705248 0.0007419289883543698 0 0.00086450397215081728 0.0007262082986306765 0 0.00088206555896890579 0.00072423853477069191 0 0.00086840456668769235 0.00068964855208437936 0 0.0008746090423745219 0.00070827267369967376 0 0.00088559732552930773 0.00069124831107942653 0 0.00089198845838310613 0.00071432604203864594 0 0.0008746090423745219 0.00070827267369967376 0 0.00088559732552930773 0.00069124831107942653 0 0.00088559732552930773 0.00069124831107942653 0 0.00088280488010392968 0.00066832450030227441 0 0.000901121656929017 0.00068165893087261881 0 0.00087255372611060608 0.00067232035175834859 0 0.00088559732552930773 0.00069124831107942653 0 0.00088280488010392968 0.00066832450030227441 0 0.00088415308765262522 0.00066078911251178944 0 0.00073237684178751163 0.00047243717081363914 0 0.00077282630180246052 0.00075266080529234425 0 0.00073237684178751163 0.00047243717081363914 0 0.00055017945934079113 0.00059791362517238418 0 0.00077282630180246052 0.00075266080529234425 0 0.00073237684178751163 0.00047243717081363914 0 0.00055017945934079113 0.00059791362517238418 0 0.00046383944055755166 0.00026664687850555513 0 0.00055017945934079113 0.00059791362517238418 0 0.0002997283219727387 0.00052325290719672886 0 0.00039560243817427323 0.00076827749787229845 0 0.00055017945934079113 0.00059791362517238418 0 0.00046383944055755166 0.00026664687850555513 0 0.0002997283219727387 0.00052325290719672886 0 0.00080893312814630679 0.00057795970671684679 0 0.00066743179474086493 0.00041709814064480583 0 0.00018115466432554276 9.4002031519034316e-05 0 0.00021232527377160234 0.00036949001231431335 0 -6.1831916572437287e-06 0.00043215393415111601 0 0.00046383944055755166 0.00026664687850555513 0 0.00021232527377160234 0.00036949001231431335 0 0.0002997283219727387 0.00052325290719672886 0 0.00018115466432554276 9.4002031519034316e-05 0 0.00046383944055755166 0.00026664687850555513 0 0.00021232527377160234 0.00036949001231431335 0 0.0002997283219727387 0.00052325290719672886 0 0.00013570667216591999 0.00051392025255501224 0 6.6545750001867395e-05 0.0006984819866047246 0 0.00021232527377160234 0.00036949001231431335 0 0.0002997283219727387 0.00052325290719672886 0 0.00013570667216591999 0.00051392025255501224 0 0.00021232527377160234 0.00036949001231431335 0 0.00013570667216591999 0.00051392025255501224 0 -6.1831916572437287e-06 0.00043215393415111601 0 -0.00063129501650320194 0.0036340547858649155 0 -0.00064748724576051272 0.003616014545842274 0 -0.00059551278710352025 0.0036431634432564962 0 -0.00080194462569083255 0.0040271789919117465 0 -0.0003486802625886981 0.0024075673347422315 0 -0.00044726742446385149 0.002164149687714239 0 -0.0003486802625886981 0.0024075673347422315 0 0.00013570667216591999 0.00051392025255501224 0 -6.1831916572437287e-06 0.00043215393415111601 0 6.6545750001867395e-05 0.0006984819866047246 0 -0.00063129501650320194 0.0036340547858649155 0 -0.00059551278710352025 0.0036431634432564962 0 -0.00062782350091361951 0.0036348735295569459 0 -0.00059551278710352025 0.0036431634432564962 0 -0.00062782350091361951 0.0036348735295569459 0 -0.00063241619168961005 0.0036289228794190594 0 -0.00062782350091361951 0.0036348735295569459 0 -0.00062486935464567764 0.003640218981685994 0 -0.00063241619168961005 0.0036289228794190594 0 -0.00061784250505526861 0.003206956637433118 0 -0.00043095823902878228 0.003160036806806862 0 -0.00059551278710352025 0.0036431634432564962 0 0.00036229768578439935 0.0010981591095050281 0 -0.0003486802625886981 0.0024075673347422315 0 -1.7577756942341632e-05 0.0016004148373979909 0 0.00010124600992123784 0.001674900390526814 0 -0.00025701956121249384 0.0024094031924384125 0 -0.00062812526239785745 0.0036831525143612267 0 -0.00063241619168961005 0.0036289228794190594 0 -0.00062242780761460588 0.0036581603132516678 0 -0.00056625438907145634 0.0034433151580667053 0 -0.00063955085929900512 0.0036165277659092865 0 -0.00061784250505526861 0.003206956637433118 0 -0.00059551278710352025 0.0036431634432564962 0 -0.00063241619168961005 0.0036289228794190594 0 8.7111574665033468e-05 0.0023206647053610873 0 -0.0003486802625886981 0.0024075673347422315 0 -0.00062486935464567764 0.003640218981685994 0 -0.00062432996759100219 0.0036449297371006282 0 -0.00063241619168961005 0.0036289228794190594 0 -0.00062432996759100219 0.0036449297371006282 0 -0.00063241619168961005 0.0036289228794190594 0 -0.00062242780761460588 0.0036581603132516678 0 -9.4325033245354931e-05 0.0012139555780307143 0 0.0001354183929431951 0.0010612410010538273 0 0.00015090924960901509 0.0012902905182579209 0 -9.4325033245354931e-05 0.0012139555780307143 0 1.2645480365800587e-05 0.0009193986838989521 0 0.0001354183929431951 0.0010612410010538273 0 -0.00024509965443173616 0.00088687645102623631 0 -9.4325033245354931e-05 0.0012139555780307143 0 1.2645480365800587e-05 0.0009193986838989521 0 -0.00064748724576051272 0.003616014545842274 0 -0.00067128202324656986 0.0036206117426443476 0 -0.00059477171721535906 0.0035929299715029032 0 -0.00024509965443173616 0.00088687645102623631 0 -6.1831916572437287e-06 0.00043215393415111601 0 6.6545750001867395e-05 0.0006984819866047246 0 -0.00024509965443173616 0.00088687645102623631 0 6.6545750001867395e-05 0.0006984819866047246 0 1.2645480365800587e-05 0.0009193986838989521 0 0.00021061919308249527 0.00087648353929448109 0 0.00040413023103618562 0.001076268126701144 0 0.00039560243817427323 0.00076827749787229845 0 6.6545750001867395e-05 0.0006984819866047246 0 0.00021061919308249527 0.00087648353929448109 0 0.00039560243817427323 0.00076827749787229845 0 0.0002997283219727387 0.00052325290719672886 0 6.6545750001867395e-05 0.0006984819866047246 0 0.00039560243817427323 0.00076827749787229845 0 6.6545750001867395e-05 0.0006984819866047246 0 1.2645480365800587e-05 0.0009193986838989521 0 0.00021061919308249527 0.00087648353929448109 0 0.00021061919308249527 0.00087648353929448109 0 0.0001354183929431951 0.0010612410010538273 0 0.00040413023103618562 0.001076268126701144 0 1.2645480365800587e-05 0.0009193986838989521 0 0.00021061919308249527 0.00087648353929448109 0 0.0001354183929431951 0.0010612410010538273 0 0.0001354183929431951 0.0010612410010538273 0 0.00040413023103618562 0.001076268126701144 0 0.00015090924960901509 0.0012902905182579209 0 0.00040413023103618562 0.001076268126701144 0 0.00059231105829270995 0.00084381165912675153 0 0.00078181017283291668 0.0009547494356453262 0 0.00040413023103618562 0.001076268126701144 0 0.00078181017283291668 0.0009547494356453262 0 0.0006292507447592169 0.0013212327677283554 0 0.00055017945934079113 0.00059791362517238418 0 0.00059231105829270995 0.00084381165912675153 0 0.00039560243817427323 0.00076827749787229845 0 0.00040413023103618562 0.001076268126701144 0 0.00059231105829270995 0.00084381165912675153 0 0.00039560243817427323 0.00076827749787229845 0 0.00059231105829270995 0.00084381165912675153 0 0.00077282630180246052 0.00075266080529234425 0 0.00078181017283291668 0.0009547494356453262 0 0.00055017945934079113 0.00059791362517238418 0 0.00059231105829270995 0.00084381165912675153 0 0.00077282630180246052 0.00075266080529234425 0 0.00077282630180246052 0.00075266080529234425 0 0.00078181017283291668 0.0009547494356453262 0 0.00092872743694378873 0.00078952811167929641 0 0.00070974482179804791 0.0015915082972959478 0 0.0006292507447592169 0.0013212327677283554 0 0.0010038650587407911 0.00097741871412894313 0 0.00078181017283291668 0.0009547494356453262 0 0.0006292507447592169 0.0013212327677283554 0 0.0010038650587407911 0.00097741871412894313 0 0.001156859930997875 0.00061368521643410826 0 0.0010038650587407911 0.00097741871412894313 0 0.0010483949612461532 0.00062853726205164707 0 0.0010227954736189843 0.0012912685924743614 0 0.0010179880854331747 0.0010097609210121209 0 0.00091373961559314493 0.001888391154672044 0 0.00070974482179804791 0.0015915082972959478 0 0.0010038650587407911 0.00097741871412894313 0 0.00091373961559314493 0.001888391154672044 0 0.00070974482179804791 0.0015915082972959478 0 0.00062798775282669485 0.0019141928121924261 0 0.00070974482179804791 0.0015915082972959478 0 0.00048752516873106112 0.0017943009597145361 0 0.0006292507447592169 0.0013212327677283554 0 0.00070974482179804791 0.0015915082972959478 0 0.00062798775282669485 0.0019141928121924261 0 0.00048752516873106112 0.0017943009597145361 0 0.00048752516873106112 0.0017943009597145361 0 0.00031156799262799923 0.0020729234973821896 0 0.00049322595935314165 0.0020532676227933166 0 0.00062798775282669485 0.0019141928121924261 0 0.00048752516873106112 0.0017943009597145361 0 0.00049322595935314165 0.0020532676227933166 0 0.00040413023103618562 0.001076268126701144 0 0.0006292507447592169 0.0013212327677283554 0 0.00030464514695512914 0.0015024556545150797 0 0.00048752516873106112 0.0017943009597145361 0 0.0006292507447592169 0.0013212327677283554 0 0.00030464514695512914 0.0015024556545150797 0 0.00030464514695512914 0.0015024556545150797 0 0.00015090924960901509 0.0012902905182579209 0 -2.9027054893044024e-05 0.0016123796665869969 0 0.00040413023103618562 0.001076268126701144 0 0.00030464514695512914 0.0015024556545150797 0 0.00015090924960901509 0.0012902905182579209 0 0.00030464514695512914 0.0015024556545150797 0 0.00012175825010938856 0.0019577122120647984 0 -2.9027054893044024e-05 0.0016123796665869969 0 0.00048752516873106112 0.0017943009597145361 0 0.00030464514695512914 0.0015024556545150797 0 0.00012175825010938856 0.0019577122120647984 0 0.00048752516873106112 0.0017943009597145361 0 0.00012175825010938856 0.0019577122120647984 0 0.00031156799262799923 0.0020729234973821896 0 -0.00057220362056972557 0.0015994962070417422 0 -0.00019492897731628991 0.0020834825666504564 0 -2.9027054893044024e-05 0.0016123796665869969 0 0.00012175825010938856 0.0019577122120647984 0 -0.00019492897731628991 0.0020834825666504564 0 -2.3293628335046359e-05 0.0023829031063287765 0 0.00012175825010938856 0.0019577122120647984 0 -0.00019492897731628991 0.0020834825666504564 0 -2.9027054893044024e-05 0.0016123796665869969 0 -0.00057220362056972557 0.0015994962070417422 0 -9.4325033245354931e-05 0.0012139555780307143 0 -2.9027054893044024e-05 0.0016123796665869969 0 -9.4325033245354931e-05 0.0012139555780307143 0 0.00015090924960901509 0.0012902905182579209 0 -2.9027054893044024e-05 0.0016123796665869969 0 0.00086341997242169995 0.00067483405763914131 0 0.00090646040141950646 0.00073504585383609832 0 0.00084115991139569108 0.00062062912286503351 0 0.00086341997242169995 0.00067483405763914131 0 0.00080138082062614524 0.00058463122417138432 0 0.00084115991139569108 0.00062062912286503351 0 0.00086341997242169995 0.00067483405763914131 0 0.00080138082062614524 0.00058463122417138432 0 0.0007817377671684695 0.00061783718838609512 0 0.00081706693812207652 0.00066550148560591581 0 0.00086341997242169995 0.00067483405763914131 0 0.0007817377671684695 0.00061783718838609512 0 0.00085197657917690842 0.00067474985621464995 0 0.00081706693812207652 0.00066550148560591581 0 0.00086341997242169995 0.00067483405763914131 0 0.00085197657917690842 0.00067474985621464995 0 0.00086341997242169995 0.00067483405763914131 0 0.00089109093197710333 0.00069837004498559969 0 0.00086341997242169995 0.00067483405763914131 0 0.00089109093197710333 0.00069837004498559969 0 0.00092872743694378873 0.00078952811167929641 0 0.00088415308765262522 0.00066078911251178944 0 0.00089109093197710333 0.00069837004498559969 0 0.00092872743694378873 0.00078952811167929641 0 0.00088415308765262522 0.00066078911251178944 0 0.00077282630180246052 0.00075266080529234425 0 0.00092872743694378873 0.00078952811167929641 0 0.00078181017283291668 0.0009547494356453262 0 0.00092872743694378873 0.00078952811167929641 0 0.0010038650587407911 0.00097741871412894313 0 0.00092872743694378873 0.00078952811167929641 0 0.00090646040141950646 0.00073504585383609832 0 0.0010038650587407911 0.00097741871412894313 0 0.00086341997242169995 0.00067483405763914131 0 0.00092872743694378873 0.00078952811167929641 0 0.00090646040141950646 0.00073504585383609832 0 0.00090646040141950646 0.00073504585383609832 0 0.00091613088103256713 0.00070631093059490748 0 0.0008697052423345034 0.00059804511232644465 0 0.00090646040141950646 0.00073504585383609832 0 0.0010038650587407911 0.00097741871412894313 0 0.00091613088103256713 0.00070631093059490748 0 0.0010038650587407911 0.00097741871412894313 0 0.00096223225064452991 0.00063126924420824179 0 0.0010483949612461532 0.00062853726205164707 0 0.0010038650587407911 0.00097741871412894313 0 0.00096223225064452991 0.00063126924420824179 0 0.00091613088103256713 0.00070631093059490748 0 0.00096223225064452991 0.00063126924420824179 0 0.0010483949612461532 0.00062853726205164707 0 0.0010048373060096484 0.0005529299994228513 0 0.00091613088103256713 0.00070631093059490748 0 0.00089951594813544389 0.00054988731996886205 0 0.0008697052423345034 0.00059804511232644465 0 0.00096223225064452991 0.00063126924420824179 0 0.00091613088103256713 0.00070631093059490748 0 0.00089951594813544389 0.00054988731996886205 0 0.00083557291902592028 0.00051180526594763484 0 0.0008697052423345034 0.00059804511232644465 0 0.00081525693835077641 0.00052955388850490907 0 0.00083557291902592028 0.00051180526594763484 0 0.0008697052423345034 0.00059804511232644465 0 0.0008595280722623642 0.00047709042042433261 0 0.00089951594813544389 0.00054988731996886205 0 0.0008697052423345034 0.00059804511232644465 0 0.0008595280722623642 0.00047709042042433261 0 0.0008697052423345034 0.00059804511232644465 0 0.00084115991139569108 0.00062062912286503351 0 0.00081525693835077641 0.00052955388850490907 0 0.00090646040141950646 0.00073504585383609832 0 0.0008697052423345034 0.00059804511232644465 0 0.00084115991139569108 0.00062062912286503351 0 0.00084115991139569108 0.00062062912286503351 0 0.00081525693835077641 0.00052955388850490907 0 0.0007713399268766154 0.00049921207826322009 0 0.00080138082062614524 0.00058463122417138432 0 0.00084115991139569108 0.00062062912286503351 0 0.0007713399268766154 0.00049921207826322009 0 0.00081525693835077641 0.00052955388850490907 0 0.0007804127963546223 0.00045992926934106338 0 0.0007713399268766154 0.00049921207826322009 0 0.00083557291902592028 0.00051180526594763484 0 0.00081525693835077641 0.00052955388850490907 0 0.00080277423283599649 0.00045543443810034772 0 0.00083557291902592028 0.00051180526594763484 0 0.00080277423283599649 0.00045543443810034772 0 0.00082866670415715396 0.00045350193001934429 0 0.00081525693835077641 0.00052955388850490907 0 0.00080277423283599649 0.00045543443810034772 0 0.0007804127963546223 0.00045992926934106338 0 0.00080277423283599649 0.00045543443810034772 0 0.0007804127963546223 0.00045992926934106338 0 0.00075624150725345294 0.00037908988907321971 0 0.00074183893901729858 0.00041635041551324275 0 0.00069926496385295698 0.00040540829272847916 0 0.00068448527916291845 0.0003169166280025041 0 0.0007804127963546223 0.00045992926934106338 0 0.00074183893901729858 0.00041635041551324275 0 0.00075624150725345294 0.00037908988907321971 0 0.00074183893901729858 0.00041635041551324275 0 0.00069926496385295698 0.00040540829272847916 0 0.0007713399268766154 0.00049921207826322009 0 0.0007804127963546223 0.00045992926934106338 0 0.00074183893901729858 0.00041635041551324275 0 0.0007713399268766154 0.00049921207826322009 0 0.00069926496385295698 0.00040540829272847916 0 0.00061456929161294942 0.00027936798869629084 0 0.00062061644942361437 0.00039973184029224742 0 0.00069926496385295698 0.00040540829272847916 0 0.00061456929161294942 0.00027936798869629084 0 0.00068448527916291845 0.0003169166280025041 0 0.00069926496385295698 0.00040540829272847916 0 0.0007298146808575823 0.00050857035815634125 0 0.00062061644942361437 0.00039973184029224742 0 0.00080138082062614524 0.00058463122417138432 0 0.0007298146808575823 0.00050857035815634125 0 0.0007713399268766154 0.00049921207826322009 0 0.00069926496385295698 0.00040540829272847916 0 0.0007298146808575823 0.00050857035815634125 0 0.0007713399268766154 0.00049921207826322009 0 0.00052833993911889697 0.00029049688013227062 0 0.00043173001720939305 0.00027863561115433678 0 0.00051598047559075328 9.3184860710490193e-05 0 0.00052833993911889697 0.00029049688013227062 0 0.00061456929161294942 0.00027936798869629084 0 0.00051598047559075328 9.3184860710490193e-05 0 0.00052833993911889697 0.00029049688013227062 0 0.00061456929161294942 0.00027936798869629084 0 0.00062061644942361437 0.00039973184029224742 0 0.00052833993911889697 0.00029049688013227062 0 0.00062061644942361437 0.00039973184029224742 0 0.00052600035665032385 0.00037628203958466814 0 0.00052833993911889697 0.00029049688013227062 0 0.00052600035665032385 0.00037628203958466814 0 0.00043173001720939305 0.00027863561115433678 0 0.00062061644942361437 0.00039973184029224742 0 0.00052600035665032385 0.00037628203958466814 0 0.00064448135599850089 0.00058944052115022095 0 0.00053395865548702757 0.00038855271111748913 0 0.00062672319659539907 0.00049067688209536171 0 0.00052600035665032385 0.00037628203958466814 0 0.00060401848927782182 0.00039539389119570205 0 0.00052161084168543428 0.00041127888911381654 0 0.00080138082062614524 0.00058463122417138432 0 0.0007298146808575823 0.00050857035815634125 0 0.0007817377671684695 0.00061783718838609512 0 0.0007298146808575823 0.00050857035815634125 0 0.00064448135599850089 0.00058944052115022095 0 0.0007817377671684695 0.00061783718838609512 0 0.0007298146808575823 0.00050857035815634125 0 0.00062061644942361437 0.00039973184029224742 0 0.00064448135599850089 0.00058944052115022095 0 0.00064448135599850089 0.00058944052115022095 0 0.0007817377671684695 0.00061783718838609512 0 0.00076349371682666754 0.00067665968039413266 0 0.00062672319659539907 0.00049067688209536171 0 0.00073227971704863072 0.00058078127620668463 0 0.00081706693812207652 0.00066550148560591581 0 0.0007817377671684695 0.00061783718838609512 0 0.00076349371682666754 0.00067665968039413266 0 0.00060401848927782182 0.00039539389119570205 0 0.000707615286515088 0.00048690701899443056 0 0.00061960130354008359 0.00053357058896024605 0 0.00081706693812207652 0.00066550148560591581 0 0.00079884790036666359 0.00064353703093883484 0 0.00076349371682666754 0.00067665968039413266 0 0.00079249262285997801 0.00063675115453640761 0 0.00073227971704863072 0.00058078127620668463 0 0.00079884790036666359 0.00064353703093883484 0 0.000707615286515088 0.00048690701899443056 0 0.00070515023246797075 0.00059852793699570407 0 0.00070515023246797075 0.00059852793699570407 0 0.00061960130354008359 0.00053357058896024605 0 0.00065554257820308476 0.00064134116030725458 0 0.000707615286515088 0.00048690701899443056 0 0.00070515023246797075 0.00059852793699570407 0 0.00061960130354008359 0.00053357058896024605 0 0.00060401848927782182 0.00039539389119570205 0 0.00052161084168543428 0.00041127888911381654 0 0.00061960130354008359 0.00053357058896024605 0 0.00052161084168543428 0.00041127888911381654 0 0.00053307439280975426 0.00052823303809012895 0 0.00061960130354008359 0.00053357058896024605 0 0.00053307439280975426 0.00052823303809012895 0 0.00061960130354008359 0.00053357058896024605 0 0.00058264776381979522 0.00059694580066537979 0 0.00061960130354008359 0.00053357058896024605 0 0.00058264776381979522 0.00059694580066537979 0 0.00065554257820308476 0.00064134116030725458 0 0.00053307439280975426 0.00052823303809012895 0 0.00058264776381979522 0.00059694580066537979 0 0.00052221249539695055 0.00060981791683439141 0 0.00049882801545048506 0.00071802230030648391 0 0.00052221249539695055 0.00060981791683439141 0 0.00057550713229957218 0.00066697803639546827 0 0.00058264776381979522 0.00059694580066537979 0 0.00052221249539695055 0.00060981791683439141 0 0.00057550713229957218 0.00066697803639546827 0 0.00059626577117968609 0.00073657659437988566 0 0.00065430061548008933 0.0006254972867867142 0 0.00064948981647511826 0.00071099400477713892 0 0.00059532299556240456 0.00069240121376004226 0 0.00065554257820308476 0.00064134116030725458 0 0.00058264776381979522 0.00059694580066537979 0 0.00057550713229957218 0.00066697803639546827 0 0.00065554257820308476 0.00064134116030725458 0 0.00064948981647511826 0.00071099400477713892 0 0.00070511573135556072 0.00070443401644569061 0 0.00065554257820308476 0.00064134116030725458 0 0.00076275608443603289 0.00070648944288653531 0 0.00070511573135556072 0.00070443401644569061 0 0.00074199912362433529 0.00066185010060302891 0 0.00070511573135556072 0.00070443401644569061 0 0.00074199912362433529 0.00066185010060302891 0 0.00065554257820308476 0.00064134116030725458 0 0.00079884790036666359 0.00064353703093883484 0 0.00070515023246797075 0.00059852793699570407 0 0.00074199912362433529 0.00066185010060302891 0 0.00070515023246797075 0.00059852793699570407 0 0.00074199912362433529 0.00066185010060302891 0 0.00065554257820308476 0.00064134116030725458 0 0.00021421244806477143 -1.3364704790892778e-05 0 0.00012925502787341868 1.8401764545779346e-05 0 0.00019751058761298176 4.8393818406346513e-05 0 0.00021421244806477143 -1.3364704790892778e-05 0 0.00015292659899892737 -7.0780651960653782e-05 0 0.00012925502787341868 1.8401764545779346e-05 0 0.00029268480707912687 -3.8858965183728811e-05 0 0.00021421244806477143 -1.3364704790892778e-05 0 0.00024814511536168474 8.464474134098522e-05 0 0.00029268480707912687 -3.8858965183728811e-05 0 0.00021421244806477143 -1.3364704790892778e-05 0 0.00023551030391291331 -0.000112168961434956 0 0.00021421244806477143 -1.3364704790892778e-05 0 0.00023551030391291331 -0.000112168961434956 0 0.00015292659899892737 -7.0780651960653782e-05 0 0.00021162825818470075 -0.00012079926156782311 0 0.00015958657314439555 -7.522186660091656e-05 0 0.0001107478224462991 -0.0001304504364065908 0 0.00015292659899892737 -7.0780651960653782e-05 0 8.8578097507638768e-05 -7.0527287572350086e-05 0 0.00049882801545048506 0.00071802230030648391 0 0.00052221249539695055 0.00060981791683439141 0 0.0004491206084314206 0.00063629890308330268 0 0.00052221249539695055 0.00060981791683439141 0 0.0004491206084314206 0.00063629890308330268 0 0.00047571067317556147 0.0005561899373237682 0 0.00053307439280975426 0.00052823303809012895 0 0.00052221249539695055 0.00060981791683439141 0 0.00047571067317556147 0.0005561899373237682 0 0.00026299777355200436 0.00028357556185762487 0 0.00026529617219528477 0.00027885381765478434 0 0.00015292659899892737 -7.0780651960653782e-05 0 8.8578097507638768e-05 -7.0527287572350086e-05 0 0.00012925502787341868 1.8401764545779346e-05 0 0.0004491206084314206 0.00063629890308330268 0 0.00047571067317556147 0.0005561899373237682 0 0.00039714075661541782 0.0005376571296711244 0 0.00039714075661541782 0.0005376571296711244 0 0.00046885290857989677 0.00046444206624672108 0 0.00041843489057066466 0.00040867484094267117 0 0.00047571067317556147 0.0005561899373237682 0 0.00039714075661541782 0.0005376571296711244 0 0.00046885290857989677 0.00046444206624672108 0 0.00053307439280975426 0.00052823303809012895 0 0.00047571067317556147 0.0005561899373237682 0 0.00046885290857989677 0.00046444206624672108 0 0.00052161084168543428 0.00041127888911381654 0 0.00053307439280975426 0.00052823303809012895 0 0.00046885290857989677 0.00046444206624672108 0 0.00052161084168543428 0.00041127888911381654 0 0.00046885290857989677 0.00046444206624672108 0 0.00044921580449741545 0.0003583104557506889 0 0.00046885290857989677 0.00046444206624672108 0 0.00041843489057066466 0.00040867484094267117 0 0.00044921580449741545 0.0003583104557506889 0 0.00041843489057066466 0.00040867484094267117 0 0.00039283314531317868 0.00029469752302378364 0 0.00044921580449741545 0.0003583104557506889 0 0.00041843489057066466 0.00040867484094267117 0 0.00034399130736328243 0.000416715959872532 0 0.00039283314531317868 0.00029469752302378364 0 0.00026529617219528477 0.00027885381765478434 0 0.00027153488474628956 0.00025529694501759962 0 0.00012925502787341868 1.8401764545779346e-05 0 0.00019034314958236233 0.00010405988438642506 0 0.00019751058761298176 4.8393818406346513e-05 0 0.00039714075661541782 0.0005376571296711244 0 0.00041843489057066466 0.00040867484094267117 0 0.00034399130736328243 0.000416715959872532 0 0.00019034314958236233 0.00010405988438642506 0 0.00019751058761298176 4.8393818406346513e-05 0 0.00024814511536168474 8.464474134098522e-05 0 0.00021421244806477143 -1.3364704790892778e-05 0 0.00019751058761298176 4.8393818406346513e-05 0 0.00024814511536168474 8.464474134098522e-05 0 0.00019034314958236233 0.00010405988438642506 0 0.00024814511536168474 8.464474134098522e-05 0 0.00025408584536927093 0.00011956594613498084 0 0.00027153488474628956 0.00025529694501759962 0 0.00027653608193289577 0.00017925101430779072 0 0.00019034314958236233 0.00010405988438642506 0 0.00025408584536927093 0.00011956594613498084 0 0.00028466800071434939 0.00016576358219644218 0 0.00028466800071434939 0.00016576358219644218 0 0.00036216828932800362 0.00017935414740911617 0 0.00039283314531317868 0.00029469752302378364 0 0.00025652269782959242 0.00011759491294533769 0 0.00025408584536927093 0.00011956594613498084 0 0.00028466800071434939 0.00016576358219644218 0 0.0002709259454424718 9.7516481504802277e-05 0 0.00028466800071434939 0.00016576358219644218 0 0.00031025802095488295 9.3672218662812812e-05 0 0.00025652269782959242 0.00011759491294533769 0 0.0002709259454424718 9.7516481504802277e-05 0 0.00028466800071434939 0.00016576358219644218 0 0.00028466800071434939 0.00016576358219644218 0 0.00036216828932800362 0.00017935414740911617 0 0.00031025802095488295 9.3672218662812812e-05 0 0.00034399130736328243 0.000416715959872532 0 0.00028466800071434939 0.00016576358219644218 0 0.00039283314531317868 0.00029469752302378364 0 0.00036216828932800362 0.00017935414740911617 0 0.00039283314531317868 0.00029469752302378364 0 0.00041966406489134071 0.00028894895525675616 0 0.00036216828932800362 0.00017935414740911617 0 0.00041966406489134071 0.00028894895525675616 0 0.0004217982303204452 0.00029673644460279851 0 0.00036216828932800362 0.00017935414740911617 0 0.0004076984245915278 -2.092169990702987e-05 0 0.0005398271203479883 -5.0647477677954589e-05 0 0.00036919351147973013 0.00018698519308268881 0 0.00046928160503469172 0.000123653034546252 0 0.00036216828932800362 0.00017935414740911617 0 0.0004076984245915278 -2.092169990702987e-05 0 0.00031025802095488295 9.3672218662812812e-05 0 0.0004076984245915278 -2.092169990702987e-05 0 0.00029070843771204557 1.0146709320424529e-05 0 0.00031025802095488295 9.3672218662812812e-05 0 0.0002709259454424718 9.7516481504802277e-05 0 0.00029070843771204557 1.0146709320424529e-05 0 0.00031025802095488295 9.3672218662812812e-05 0 0.00052161084168543428 0.00041127888911381654 0 0.00044921580449741545 0.0003583104557506889 0 0.000460485332357721 0.00033707211872346108 0 0.00044921580449741545 0.0003583104557506889 0 0.00041966406489134071 0.00028894895525675616 0 0.000460485332357721 0.00033707211872346108 0 0.00039283314531317868 0.00029469752302378364 0 0.00044921580449741545 0.0003583104557506889 0 0.00041966406489134071 0.00028894895525675616 0 0.00041966406489134071 0.00028894895525675616 0 0.000460485332357721 0.00033707211872346108 0 0.0004217982303204452 0.00029673644460279851 0 0.00052600035665032385 0.00037628203958466814 0 0.00052161084168543428 0.00041127888911381654 0 0.000460485332357721 0.00033707211872346108 0 0.00052600035665032385 0.00037628203958466814 0 0.000460485332357721 0.00033707211872346108 0 0.00043173001720939305 0.00027863561115433678 0 0.0005398271203479883 -5.0647477677954589e-05 0 0.0005858579486256707 -0.00014714171239007799 0 0.00052075878134008125 -0.00015331007413313182 0 0.00046928160503469172 0.000123653034546252 0 0.00051454609471664485 6.7802834450575572e-05 0 0.000460485332357721 0.00033707211872346108 0 0.0004217982303204452 0.00029673644460279851 0 0.00043173001720939305 0.00027863561115433678 0 0.0005858579486256707 -0.00014714171239007799 0 0.00052075878134008125 -0.00015331007413313182 0 0.00057420255769315392 -0.00022276909785845031 0 0.0005858579486256707 -0.00014714171239007799 0 0.0005608001350839633 -7.2300807163599152e-05 0 0.00057420255769315392 -0.00022276909785845031 0 0.00051454609471664485 6.7802834450575572e-05 0 0.00052051317043985094 8.0224942732365069e-05 0 0.0005858579486256707 -0.00014714171239007799 0 0.0005608001350839633 -7.2300807163599152e-05 0 0.00051598047559075328 9.3184860710490193e-05 0 0.00028604839499785643 -0.00014939161183936551 0 0.0004076984245915278 -2.092169990702987e-05 0 0.00041115402480916395 -0.00025685106423749135 0 0.00028604839499785643 -0.00014939161183936551 0 0.0004076984245915278 -2.092169990702987e-05 0 0.00029070843771204557 1.0146709320424529e-05 0 0.0004076984245915278 -2.092169990702987e-05 0 0.00052075878134008125 -0.00015331007413313182 0 0.00041115402480916395 -0.00025685106423749135 0 0.0004076984245915278 -2.092169990702987e-05 0 0.0005398271203479883 -5.0647477677954589e-05 0 0.00052075878134008125 -0.00015331007413313182 0 0.00052075878134008125 -0.00015331007413313182 0 0.00041115402480916395 -0.00025685106423749135 0 0.00057420255769315392 -0.00022276909785845031 0 0.00041115402480916395 -0.00025685106423749135 0 0.00034337840774419087 -0.00046465595228692235 0 0.00024588146280889536 -0.00037442773381343952 0 0.00041115402480916395 -0.00025685106423749135 0 0.00043886383528850389 -0.00039913619225658524 0 0.00034337840774419087 -0.00046465595228692235 0 0.00041115402480916395 -0.00025685106423749135 0 0.00043886383528850389 -0.00039913619225658524 0 0.00057420255769315392 -0.00022276909785845031 0 0.00043886383528850389 -0.00039913619225658524 0 0.00051494674132889504 -0.00051472953095249856 0 0.0003837500405387357 -0.00061099971057846508 0 0.00043886383528850389 -0.00039913619225658524 0 0.00057420255769315392 -0.00022276909785845031 0 0.00051494674132889504 -0.00051472953095249856 0 0.00043886383528850389 -0.00039913619225658524 0 0.00034337840774419087 -0.00046465595228692235 0 0.0003837500405387357 -0.00061099971057846508 0 0.00034337840774419087 -0.00046465595228692235 0 0.0003837500405387357 -0.00061099971057846508 0 0.00023047634799227773 -0.00062813640134456723 0 0.0005632707124132298 -0.00020393680023885141 0 0.00059372658809023053 -0.00020842743493941704 0 0.0005608001350839633 -7.2300807163599152e-05 0 0.00057420255769315392 -0.00022276909785845031 0 0.00053968896824422414 9.640454597280136e-05 0 0.0005608001350839633 -7.2300807163599152e-05 0 0.00053968896824422414 9.640454597280136e-05 0 0.00051598047559075328 9.3184860710490193e-05 0 0.00057420255769315392 -0.00022276909785845031 0 0.00059827278582226843 -0.00048058007467563361 0 0.00051494674132889504 -0.00051472953095249856 0 0.00059827278582226843 -0.00048058007467563361 0 0.00051494674132889504 -0.00051472953095249856 0 0.00060355908233809515 -0.00061884091539247976 0 0.00057420255769315392 -0.00022276909785845031 0 0.00059827278582226843 -0.00048058007467563361 0 0.0006836233916580059 -0.00050846946460592199 0 0.00059827278582226843 -0.00048058007467563361 0 0.0006836233916580059 -0.00050846946460592199 0 0.00060355908233809515 -0.00061884091539247976 0 0.0006836233916580059 -0.00050846946460592199 0 0.00060355908233809515 -0.00061884091539247976 0 0.0006749021288633524 -0.00066646957873967255 0 0.00060355908233809515 -0.00061884091539247976 0 0.00063225533894133113 -0.00071035073132883029 0 0.0006749021288633524 -0.00066646957873967255 0 0.00051494674132889504 -0.00051472953095249856 0 0.00060355908233809515 -0.00061884091539247976 0 0.00049822765532827544 -0.00067412456869563508 0 0.00056750094442284448 -0.00070750570902858615 0 0.00049822765532827544 -0.00067412456869563508 0 0.00050509087241028153 -0.00077119422438915537 0 0.00060355908233809515 -0.00061884091539247976 0 0.00056750094442284448 -0.00070750570902858615 0 0.00049822765532827544 -0.00067412456869563508 0 0.00060355908233809515 -0.00061884091539247976 0 0.00056750094442284448 -0.00070750570902858615 0 0.00063225533894133113 -0.00071035073132883029 0 0.00056750094442284448 -0.00070750570902858615 0 0.00063225533894133113 -0.00071035073132883029 0 0.00058070405572067832 -0.00074851396628320354 0 0.0003837500405387357 -0.00061099971057846508 0 0.00049822765532827544 -0.00067412456869563508 0 0.00039500457130219215 -0.00075000491315103935 0 0.00051494674132889504 -0.00051472953095249856 0 0.0003837500405387357 -0.00061099971057846508 0 0.00049822765532827544 -0.00067412456869563508 0 0.00049822765532827544 -0.00067412456869563508 0 0.00039500457130219215 -0.00075000491315103935 0 0.00050509087241028153 -0.00077119422438915537 0 0.0003837500405387357 -0.00061099971057846508 0 0.00039500457130219215 -0.00075000491315103935 0 0.0002704365535558177 -0.00076891199663412142 0 0.00039500457130219215 -0.00075000491315103935 0 0.0002704365535558177 -0.00076891199663412142 0 0.00029239856719883806 -0.00085872032000021978 0 0.00039500457130219215 -0.00075000491315103935 0 0.0003975058248140243 -0.00082514439044291854 0 0.00029239856719883806 -0.00085872032000021978 0 0.0003975058248140243 -0.00082514439044291854 0 0.0003431961466710639 -0.00091767012686617077 0 0.00029239856719883806 -0.00085872032000021978 0 0.0003975058248140243 -0.00082514439044291854 0 0.0003431961466710639 -0.00091767012686617077 0 0.0004735333438115542 -0.0008358090519487608 0 0.0003431961466710639 -0.00091767012686617077 0 0.0004735333438115542 -0.0008358090519487608 0 0.00051107649377127892 -0.00087734948496209233 0 0.0003975058248140243 -0.00082514439044291854 0 0.0004735333438115542 -0.0008358090519487608 0 0.00050509087241028153 -0.00077119422438915537 0 0.00039500457130219215 -0.00075000491315103935 0 0.0003975058248140243 -0.00082514439044291854 0 0.00050509087241028153 -0.00077119422438915537 0 0.00056750094442284448 -0.00070750570902858615 0 0.00050509087241028153 -0.00077119422438915537 0 0.00058070405572067832 -0.00074851396628320354 0 0.0004735333438115542 -0.0008358090519487608 0 0.00050509087241028153 -0.00077119422438915537 0 0.00056698453650742852 -0.00079583584649937466 0 0.00050509087241028153 -0.00077119422438915537 0 0.00058070405572067832 -0.00074851396628320354 0 0.00056698453650742852 -0.00079583584649937466 0 0.00063225533894133113 -0.00071035073132883029 0 0.00058070405572067832 -0.00074851396628320354 0 0.00061382589068516237 -0.00074691206008474921 0 0.00058070405572067832 -0.00074851396628320354 0 0.00056698453650742852 -0.00079583584649937466 0 0.00061382589068516237 -0.00074691206008474921 0 0.00056698453650742852 -0.00079583584649937466 0 0.00057647503442613437 -0.0008069848749394815 0 0.00060505871265034022 -0.00075820982383211703 0 0.00056698453650742852 -0.00079583584649937466 0 0.00060505871265034022 -0.00075820982383211703 0 0.00061382589068516237 -0.00074691206008474921 0 0.0004735333438115542 -0.0008358090519487608 0 0.00056698453650742852 -0.00079583584649937466 0 0.00051107649377127892 -0.00087734948496209233 0 0.00057647503442613437 -0.0008069848749394815 0 0.00064899034510830153 -0.00072931230794386775 0 0.00051107649377127892 -0.00087734948496209233 0 0.00056698453650742852 -0.00079583584649937466 0 0.00057647503442613437 -0.0008069848749394815 0 0.00051107649377127892 -0.00087734948496209233 0 0.00057647503442613437 -0.0008069848749394815 0 0.00059541661623512758 -0.00073424312158075879 0 0.00060505871265034022 -0.00075820982383211703 0 0.00057647503442613437 -0.0008069848749394815 0 0.00059541661623512758 -0.00073424312158075879 0 0.00064899034510830153 -0.00072931230794386775 0 0.00059541661623512758 -0.00073424312158075879 0 0.00064899034510830153 -0.00072931230794386775 0 0.00062974744666813244 -0.00066432857334118751 0 0.00056521103082473321 -0.00090398473422366487 0 0.00051272107292079988 -0.0008579439462649902 0 0.00044950252089985088 -0.0010720831563868973 0 0.00026793835343838751 -0.0010386294934297865 0 0.00051107649377127892 -0.00087734948496209233 0 0.00044950252089985088 -0.0010720831563868973 0 0.00026793835343838751 -0.0010386294934297865 0 0.00020612083810220879 -0.0011497651821682456 0 0.0003431961466710639 -0.00091767012686617077 0 0.00026793835343838751 -0.0010386294934297865 0 0.00022561654752668755 -0.00098727000962470311 0 0.0003431961466710639 -0.00091767012686617077 0 0.00026793835343838751 -0.0010386294934297865 0 0.00051107649377127892 -0.00087734948496209233 0 0.00050533615030873063 -0.00062012226301538689 0 0.00062969687761341728 -0.00061623261146824938 0 0.00057076840906099648 -0.0006999477185180527 0 0.00050533615030873063 -0.00062012226301538689 0 0.00062969687761341728 -0.00061623261146824938 0 0.00057045357479773454 -0.00047193020531824951 0 0.00050533615030873063 -0.00062012226301538689 0 0.00051226300503111289 -0.00070284177462315105 0 0.00042969929174344989 -0.00066370736269802182 0 0.00050533615030873063 -0.00062012226301538689 0 0.00042777706371718106 -0.00046789436821335624 0 0.00057045357479773454 -0.00047193020531824951 0 0.0005734068975101537 -0.00066311338142232103 0 0.00049011465607556978 -0.00053564879573438833 0 0.00059541661623512758 -0.00073424312158075879 0 0.00052952385095827309 -0.0007154223380488546 0 0.00059238591115506347 -0.00064233093884833662 0 0.00062969687761341728 -0.00061623261146824938 0 0.00060505871265034022 -0.00075820982383211703 0 0.0006158973689990181 -0.00072286786121320815 0 0.00059541661623512758 -0.00073424312158075879 0 0.00052952385095827309 -0.0007154223380488546 0 0.00060505871265034022 -0.00075820982383211703 0 0.0005734068975101537 -0.00066311338142232103 0 0.00060376273856712899 -0.00074513057270228576 0 0.00062969687761341728 -0.00061623261146824938 0 0.0006158973689990181 -0.00072286786121320815 0 0.00057076840906099648 -0.0006999477185180527 0 0.0006158973689990181 -0.00072286786121320815 0 0.00062634284888722495 -0.00072564672697049437 0 0.00057076840906099648 -0.0006999477185180527 0 0.00060505871265034022 -0.00075820982383211703 0 0.0006158973689990181 -0.00072286786121320815 0 0.00061382589068516237 -0.00074691206008474921 0 0.00063225533894133113 -0.00071035073132883029 0 0.00061382589068516237 -0.00074691206008474921 0 0.00062634284888722495 -0.00072564672697049437 0 0.0006158973689990181 -0.00072286786121320815 0 0.00061382589068516237 -0.00074691206008474921 0 0.00062634284888722495 -0.00072564672697049437 0 0.00057076840906099648 -0.0006999477185180527 0 0.00051226300503111289 -0.00070284177462315105 0 0.0005756037447265962 -0.00074705884710414853 0 0.00062634284888722495 -0.00072564672697049437 0 0.00057076840906099648 -0.0006999477185180527 0 0.0005756037447265962 -0.00074705884710414853 0 0.00050533615030873063 -0.00062012226301538689 0 0.00057076840906099648 -0.0006999477185180527 0 0.00051226300503111289 -0.00070284177462315105 0 0.00068694789217559841 -0.00023518314897837272 0 0.00058962972187990908 -0.00025939883542113677 0 0.00051226300503111289 -0.00070284177462315105 0 0.0005756037447265962 -0.00074705884710414853 0 0.00046300706561383601 -0.00073408554676691331 0 0.00079017179558980247 0.00026530163442882774 0 0.00070773199351055688 0.00024785340847847096 0 0.00070100673554908432 0.0003278238977885684 0 0.00068694789217559841 -0.00023518314897837272 0 0.00070582508578132701 -0.00023195261710829849 0 0.00079017179558980247 0.00026530163442882774 0 0.00079622586594519035 0.00018153895149243947 0 0.00087617262276861493 0.0001973943452219767 0 0.00079017179558980247 0.00026530163442882774 0 0.00079622586594519035 0.00018153895149243947 0 0.00070773199351055688 0.00024785340847847096 0 0.00079622586594519035 0.00018153895149243947 0 0.00071824489970826182 0.00016002916483971846 0 0.00070773199351055688 0.00024785340847847096 0 0.00063225533894133113 -0.00071035073132883029 0 0.00064171079943168782 -0.00071055068000703062 0 0.0006749021288633524 -0.00066646957873967255 0 0.00063225533894133113 -0.00071035073132883029 0 0.00062634284888722495 -0.00072564672697049437 0 0.00064171079943168782 -0.00071055068000703062 0 0.0005756037447265962 -0.00074705884710414853 0 0.00064171079943168782 -0.00071055068000703062 0 0.00064204653196291801 -0.00071600543118377599 0 0.00062634284888722495 -0.00072564672697049437 0 0.0005756037447265962 -0.00074705884710414853 0 0.00064171079943168782 -0.00071055068000703062 0 0.00074795642703123332 0.00021230834984936985 0 0.00070582508578132701 -0.00023195261710829849 0 0.0006836233916580059 -0.00050846946460592199 0 0.00075735185074101265 -0.00064469280791751033 0 0.0006749021288633524 -0.00066646957873967255 0 0.00064171079943168782 -0.00071055068000703062 0 0.00064204653196291801 -0.00071600543118377599 0 0.0006749021288633524 -0.00066646957873967255 0 0.00070582508578132701 -0.00023195261710829849 0 0.00063167689499434194 -0.00062322625923281094 0 0.00059372658809023053 -0.00020842743493941704 0 0.00070582508578132701 -0.00023195261710829849 0 0.00053968896824422414 9.640454597280136e-05 0 0.00057374857423299894 0.00010764016162961394 0 0.00054784324195493613 0.00012302573710966958 0 0.00053968896824422414 9.640454597280136e-05 0 0.00054784324195493613 0.00012302573710966958 0 0.00051598047559075328 9.3184860710490193e-05 0 0.00066136654144607876 0.00016223773151241618 0 0.00057374857423299894 0.00010764016162961394 0 0.00059226057165725262 0.00017562044995554356 0 0.00057374857423299894 0.00010764016162961394 0 0.00054784324195493613 0.00012302573710966958 0 0.00059226057165725262 0.00017562044995554356 0 0.00061456929161294942 0.00027936798869629084 0 0.00059226057165725262 0.00017562044995554356 0 0.00051598047559075328 9.3184860710490193e-05 0 0.00054784324195493613 0.00012302573710966958 0 0.00059226057165725262 0.00017562044995554356 0 0.00051598047559075328 9.3184860710490193e-05 0 0.00074795642703123332 0.00021230834984936985 0 0.00070161096433419233 0.00018705636954463261 0 0.00066136654144607876 0.00016223773151241618 0 0.00070154106923149356 0.00026343187906419232 0 0.00076790003331882368 0.00025821039512896133 0 0.00070154106923149356 0.00026343187906419232 0 0.00076433295932937088 0.00032400680565908757 0 0.00076790003331882368 0.00025821039512896133 0 0.00066136654144607876 0.00016223773151241618 0 0.00059226057165725262 0.00017562044995554356 0 0.00070154106923149356 0.00026343187906419232 0 0.00061456929161294942 0.00027936798869629084 0 0.00059226057165725262 0.00017562044995554356 0 0.00068448527916291845 0.0003169166280025041 0 0.00059226057165725262 0.00017562044995554356 0 0.00070154106923149356 0.00026343187906419232 0 0.00068448527916291845 0.0003169166280025041 0 0.00074183893901729858 0.00041635041551324275 0 0.00068448527916291845 0.0003169166280025041 0 0.00075624150725345294 0.00037908988907321971 0 0.00070154106923149356 0.00026343187906419232 0 0.00068448527916291845 0.0003169166280025041 0 0.00075624150725345294 0.00037908988907321971 0 0.00070154106923149356 0.00026343187906419232 0 0.00075624150725345294 0.00037908988907321971 0 0.00076433295932937088 0.00032400680565908757 0 0.00080277423283599649 0.00045543443810034772 0 0.00075624150725345294 0.00037908988907321971 0 0.00079720018466514816 0.00039426688988234121 0 0.00080277423283599649 0.00045543443810034772 0 0.00079720018466514816 0.00039426688988234121 0 0.00082866670415715396 0.00045350193001934429 0 0.00079720018466514816 0.00039426688988234121 0 0.00082221841493231691 0.00039883034514590602 0 0.0008032012962632646 0.00034663251749756708 0 0.00079720018466514816 0.00039426688988234121 0 0.00082221841493231691 0.00039883034514590602 0 0.00082866670415715396 0.00045350193001934429 0 0.00082221841493231691 0.00039883034514590602 0 0.0008032012962632646 0.00034663251749756708 0 0.00083547469849707605 0.00038203061347367355 0 0.00079720018466514816 0.00039426688988234121 0 0.00076433295932937088 0.00032400680565908757 0 0.0008032012962632646 0.00034663251749756708 0 0.00075624150725345294 0.00037908988907321971 0 0.00079720018466514816 0.00039426688988234121 0 0.00076433295932937088 0.00032400680565908757 0 0.00076433295932937088 0.00032400680565908757 0 0.0008032012962632646 0.00034663251749756708 0 0.00076790003331882368 0.00025821039512896133 0 0.00070161096433419233 0.00018705636954463261 0 0.00087464529451432445 0.00036712229305967727 0 0.0008032012962632646 0.00034663251749756708 0 0.00076790003331882368 0.00025821039512896133 0 0.00085222117808079199 0.00036471838370575119 0 0.00076790003331882368 0.00025821039512896133 0 0.00085222117808079199 0.00036471838370575119 0 0.00086362773715669534 0.00036548757362315094 0 0.00071824489970826182 0.00016002916483971846 0 0.00061505418576106633 0.00011097689915008733 0 0.00062016737041624382 0.00023110941140176794 0 0.0008703399815420741 0.00036827735355649856 0 0.00087464529451432445 0.00036712229305967727 0 0.0008032012962632646 0.00034663251749756708 0 0.00085222117808079199 0.00036471838370575119 0 0.00083547469849707605 0.00038203061347367355 0 0.00085222117808079199 0.00036471838370575119 0 0.00085252845806269907 0.00039025922208649774 0 0.00086087051688166151 0.00036776957565816572 0 0.00085222117808079199 0.00036471838370575119 0 0.00083547469849707605 0.00038203061347367355 0 0.00085252845806269907 0.00039025922208649774 0 0.00085252845806269907 0.00039025922208649774 0 0.00086087051688166151 0.00036776957565816572 0 0.00088765104675431368 0.00045450018120608566 0 0.0008521312206665548 0.00042392183580153314 0 0.0008595280722623642 0.00047709042042433261 0 0.00088765104675431368 0.00045450018120608566 0 0.00085252845806269907 0.00039025922208649774 0 0.0008521312206665548 0.00042392183580153314 0 0.00088765104675431368 0.00045450018120608566 0 0.00082221841493231691 0.00039883034514590602 0 0.00084059945448828482 0.00043840741749812779 0 0.00082866670415715396 0.00045350193001934429 0 0.00082221841493231691 0.00039883034514590602 0 0.00083547469849707605 0.00038203061347367355 0 0.0008521312206665548 0.00042392183580153314 0 0.00083547469849707605 0.00038203061347367355 0 0.00085252845806269907 0.00039025922208649774 0 0.0008521312206665548 0.00042392183580153314 0 0.0008521312206665548 0.00042392183580153314 0 0.00084059945448828482 0.00043840741749812779 0 0.0008595280722623642 0.00047709042042433261 0 0.00082221841493231691 0.00039883034514590602 0 0.0008521312206665548 0.00042392183580153314 0 0.00084059945448828482 0.00043840741749812779 0 0.00084059945448828482 0.00043840741749812779 0 0.00082866670415715396 0.00045350193001934429 0 0.0008595280722623642 0.00047709042042433261 0 0.00083557291902592028 0.00051180526594763484 0 0.00082866670415715396 0.00045350193001934429 0 0.0008595280722623642 0.00047709042042433261 0 0.00089951594813544389 0.00054988731996886205 0 0.0008595280722623642 0.00047709042042433261 0 0.00088765104675431368 0.00045450018120608566 0 0.00089951594813544389 0.00054988731996886205 0 0.00094352210912660003 0.00052807003810358263 0 0.00088765104675431368 0.00045450018120608566 0 0.00096223225064452991 0.00063126924420824179 0 0.00089951594813544389 0.00054988731996886205 0 0.00094352210912660003 0.00052807003810358263 0 0.00094352210912660003 0.00052807003810358263 0 0.00088765104675431368 0.00045450018120608566 0 0.00095771733453494778 0.00045240199630793265 0 0.0010048373060096484 0.0005529299994228513 0 0.00095771733453494778 0.00045240199630793265 0 0.0011026794823773482 0.00054018485576844231 0 0.0010957748046742633 0.00051079070711547306 0 0.001084106000933254 0.00052715043842231743 0 0.0010483949612461532 0.00062853726205164707 0 0.0010048373060096484 0.0005529299994228513 0 0.0011026794823773482 0.00054018485576844231 0 0.00096223225064452991 0.00063126924420824179 0 0.00094352210912660003 0.00052807003810358263 0 0.0010048373060096484 0.0005529299994228513 0 0.00094352210912660003 0.00052807003810358263 0 0.0010048373060096484 0.0005529299994228513 0 0.00095771733453494778 0.00045240199630793265 0 0.0011642715531120498 0.00054286104742265983 0 0.0011026794823773482 0.00054018485576844231 0 0.0010917096497387372 0.00056998738365551089 0 0.0011642715531120498 0.00054286104742265983 0 0.0011692589755125332 0.00059233196032590178 0 0.0010917096497387372 0.00056998738365551089 0 0.00086087051688166151 0.00036776957565816572 0 0.00088765104675431368 0.00045450018120608566 0 0.00095771733453494778 0.00045240199630793265 0 0.0012210989836101607 0.00055739592214072492 0 0.0011642715531120498 0.00054286104742265983 0 0.0011692589755125332 0.00059233196032590178 0 0.00087464529451432445 0.00036712229305967727 0 0.0010957748046742633 0.00051079070711547306 0 0.00087464529451432445 0.00036712229305967727 0 0.00078474104350900254 0.00038677314268605474 0 0.00042752813524379402 0.00015901955048017502 0 0.00039464876658669283 0.00039805138850744639 0 0.00062016737041624382 0.00023110941140176794 0 0.00061505418576106633 0.00011097689915008733 0 0.00042752813524379402 0.00015901955048017502 0 0.00062016737041624382 0.00023110941140176794 0 0.0011692589755125332 0.00059233196032590178 0 0.0010917096497387372 0.00056998738365551089 0 0.001050971282654943 0.00069515948526337765 0 0.00042752813524379402 0.00015901955048017502 0 0.00039464876658669283 0.00039805138850744639 0 0.00019536057726187778 0.00025388025344188613 0 0.00078474104350900254 0.00038677314268605474 0 0.00071013515592028003 0.00040482369428134255 0 0.00039464876658669283 0.00039805138850744639 0 0.00062016737041624382 0.00023110941140176794 0 0.00061692945726172631 0.00049239998858021489 0 0.00070773199351055688 0.00024785340847847096 0 0.00062016737041624382 0.00023110941140176794 0 0.00062276172386049118 0.00030517235663234246 0 0.00062109986222751428 0.00021047888446581035 0 0.00062713831661008641 0.00047457407880767026 0 0.00071824489970826182 0.00016002916483971846 0 0.00070773199351055688 0.00024785340847847096 0 0.00062016737041624382 0.00023110941140176794 0 -0.00040906063741585354 0.0030379883342970628 0 -0.00033235483170683793 0.0029349495247912934 0 -0.00051720765567635891 0.0029872674902538627 0 -0.00040906063741585354 0.0030379883342970628 0 -0.00039125610828119313 0.0031087281563133527 0 -0.00053060354828580634 0.0030932499583251451 0 -0.00040906063741585354 0.0030379883342970628 0 -0.00033235483170683793 0.0029349495247912934 0 -0.00030136697885815931 0.0030394470083833316 0 -0.00040906063741585354 0.0030379883342970628 0 -0.00030136697885815931 0.0030394470083833316 0 -0.00039125610828119313 0.0031087281563133527 0 -0.00019492897731628991 0.0020834825666504564 0 -2.3293628335046359e-05 0.0023829031063287765 0 -0.00059542358347121588 0.0026496608748299648 0 -2.3293628335046359e-05 0.0023829031063287765 0 0.0004558265676710239 0.0024206277380897055 0 0.00045471355930315103 0.002271997788559306 0 0.00012175825010938856 0.0019577122120647984 0 -2.3293628335046359e-05 0.0023829031063287765 0 0.00031156799262799923 0.0020729234973821896 0 -2.3293628335046359e-05 0.0023829031063287765 0 0.00031156799262799923 0.0020729234973821896 0 0.00045471355930315103 0.002271997788559306 0 -0.00024305144989922881 0.0026958669451759357 0 0.00034466885801761731 0.0023228672814397575 0 -0.00033235483170683793 0.0029349495247912934 0 -0.00030136697885815931 0.0030394470083833316 0 -0.0002279811869909896 0.0029943635442778397 0 -0.00030136697885815931 0.0030394470083833316 0 -0.0002279811869909896 0.0029943635442778397 0 -0.00023191307319444105 0.0030777678417510394 0 0.00071646233103687279 0.0012989145949672011 0 1.0510102869066993e-05 0.0018709353199946718 0 0.00034466885801761731 0.0023228672814397575 0 1.0510102869066993e-05 0.0018709353199946718 0 0.00028192125766183135 0.0017958146710939232 0 0.00024059794589575904 0.0017831949708996093 0 0.00023892477780117522 0.0018715295919518949 0 0.00088665186344448076 0.00050024191426955395 0 0.00093388724586782588 0.00063896853358259018 0 0.00081317641866034628 0.00062618451648580812 0 0.0006259285808154104 0.0025161959826613001 0 0.00045102766577686994 0.0024513685172080943 0 0.00057665117264028235 0.0023561723274306999 0 0.00071646233103687279 0.0012989145949672011 0 0.00034466885801761731 0.0023228672814397575 0 0.00045471355930315103 0.002271997788559306 0 0.0006102363944746488 0.0020976502081759205 0 0.00057665117264028235 0.0023561723274306999 0 0.00091373961559314493 0.001888391154672044 0 0.0006102363944746488 0.0020976502081759205 0 0.00057665117264028235 0.0023561723274306999 0 0.00034466885801761731 0.0023228672814397575 0 0.00038834273019114829 0.0023275361045543477 0 0.00091373961559314493 0.001888391154672044 0 0.0006259285808154104 0.0025161959826613001 0 0.00057665117264028235 0.0023561723274306999 0 0.00045102766577686994 0.0024513685172080943 0 0.00045471355930315103 0.002271997788559306 0 0.00057665117264028235 0.0023561723274306999 0 0.00045471355930315103 0.002271997788559306 0 0.00049322595935314165 0.0020532676227933166 0 0.0006102363944746488 0.0020976502081759205 0 0.00031156799262799923 0.0020729234973821896 0 0.00045471355930315103 0.002271997788559306 0 0.00049322595935314165 0.0020532676227933166 0 0.00091373961559314493 0.001888391154672044 0 0.00062798775282669485 0.0019141928121924261 0 0.0006102363944746488 0.0020976502081759205 0 0.00062798775282669485 0.0019141928121924261 0 0.00049322595935314165 0.0020532676227933166 0 0.0006102363944746488 0.0020976502081759205 0 0.0010227954736189843 0.0012912685924743614 0 0.00071646233103687279 0.0012989145949672011 0 0.001156859930997875 0.00061368521643410826 0 0.0011226832117204794 0.00053495476348979355 0 0.0011026794823773482 0.00054018485576844231 0 0.001156859930997875 0.00061368521643410826 0 0.0010483949612461532 0.00062853726205164707 0 0.0011026794823773482 0.00054018485576844231 0 0.00071646233103687279 0.0012989145949672011 0 0.0011271425182452024 0.00047877834854518015 0 0.0011226832117204794 0.00053495476348979355 0 0.0011026794823773482 0.00054018485576844231 0 0.0010917096497387372 0.00056998738365551089 0 0.00088665186344448076 0.00050024191426955395 0 0.0010917096497387372 0.00056998738365551089 0 0.00093388724586782588 0.00063896853358259018 0 0.0010917096497387372 0.00056998738365551089 0 0.001050971282654943 0.00069515948526337765 0 0.00093388724586782588 0.00063896853358259018 0 0.00019536057726187778 0.00025388025344188613 0 0.00013945483093219313 0.00044665268435186551 0 -3.7660336686716059e-05 0.00035850374918718574 0 0.00039464876658669283 0.00039805138850744639 0 0.00019536057726187778 0.00025388025344188613 0 0.00013945483093219313 0.00044665268435186551 0 -0.00053531951037276329 0.0017313899053422637 0 -0.00052936997192927081 0.0016931755754921373 0 -0.00056698387554352306 0.0017421094212884724 0 0.00071013515592028003 0.00040482369428134255 0 1.4477216493095376e-05 0.0010707588972577581 0 0.00080975596755769954 0.00082197430302756794 0 0.00093388724586782588 0.00063896853358259018 0 0.00081317641866034628 0.00062618451648580812 0 0.001050971282654943 0.00069515948526337765 0 0.00080975596755769954 0.00082197430302756794 0 0.00093388724586782588 0.00063896853358259018 0 1.4477216493095376e-05 0.0010707588972577581 0 1.0510102869066993e-05 0.0018709353199946718 0 1.0510102869066993e-05 0.0018709353199946718 0 -0.00053202110557405008 0.0025931531744622731 0 -0.00023191307319444105 0.0030777678417510394 0 -0.00032959783099948016 0.0031398008254774909 0 -0.00034158319813197086 0.0032115140478492844 0 -0.00030136697885815931 0.0030394470083833316 0 -0.00023191307319444105 0.0030777678417510394 0 -0.00031264977158100343 0.0030913678237600556 0 -0.00023191307319444105 0.0030777678417510394 0 -0.00031264977158100343 0.0030913678237600556 0 -0.00032959783099948016 0.0031398008254774909 0 -0.00030136697885815931 0.0030394470083833316 0 -0.00031264977158100343 0.0030913678237600556 0 -0.00039125610828119313 0.0031087281563133527 0 -0.00031264977158100343 0.0030913678237600556 0 -0.00032959783099948016 0.0031398008254774909 0 -0.00039125610828119313 0.0031087281563133527 0 1.4477216493095376e-05 0.0010707588972577581 0 -0.00074280166558800547 0.0017035972331830116 0 -0.00052936997192927081 0.0016931755754921373 0 -0.00056698387554352306 0.0017421094212884724 0 -0.00057029475589762493 0.0017437993065607543 0 -0.00056698387554352306 0.0017421094212884724 0 -0.00057029475589762493 0.0017437993065607543 0 -0.00057955091544387681 0.001712323104309157 0 -0.00060633750157810954 0.0017574332634727506 0 -0.00056698387554352306 0.0017421094212884724 0 -0.00057955091544387681 0.001712323104309157 0 -0.00034158319813197086 0.0032115140478492844 0 -0.00036524946516687247 0.0031887778249152072 0 -0.00038817931489509546 0.0032197179711781422 0 -0.00032959783099948016 0.0031398008254774909 0 -0.00036524946516687247 0.0031887778249152072 0 -0.00039684959052934516 0.0031752569218863706 0 -0.00032959783099948016 0.0031398008254774909 0 -0.00034158319813197086 0.0032115140478492844 0 -0.00036524946516687247 0.0031887778249152072 0 -0.00036524946516687247 0.0031887778249152072 0 -0.00039684959052934516 0.0031752569218863706 0 -0.00038817931489509546 0.0032197179711781422 0 -0.00039684959052934516 0.0031752569218863706 0 -0.00042624745154842955 0.0032311569030975618 0 -0.0005090000028311907 0.0031653895286630281 0 -0.00039684959052934516 0.0031752569218863706 0 -0.00038817931489509546 0.0032197179711781422 0 -0.00042624745154842955 0.0032311569030975618 0 -0.00039684959052934516 0.0031752569218863706 0 -0.00039125610828119313 0.0031087281563133527 0 -0.0005090000028311907 0.0031653895286630281 0 -0.00032959783099948016 0.0031398008254774909 0 -0.00039684959052934516 0.0031752569218863706 0 -0.00039125610828119313 0.0031087281563133527 0 -0.00044940725660082607 0.0024248976847850573 0 -0.00044961357457468847 0.0024032724290824728 0 -0.00034158319813197086 0.0032115140478492844 0 -0.00038817931489509546 0.0032197179711781422 0 -0.00041831066689924527 0.0032548131386666342 0 -0.00041831066689924527 0.0032548131386666342 0 -0.00042624745154842955 0.0032311569030975618 0 -0.00043112714533440581 0.0032512532659206218 0 -0.00038817931489509546 0.0032197179711781422 0 -0.00041831066689924527 0.0032548131386666342 0 -0.00042624745154842955 0.0032311569030975618 0 -0.00051786634593452632 0.0016526705883026058 0 -0.00057955091544387681 0.001712323104309157 0 -0.00062576748036378136 0.001655691082409683 0 -0.00053202110557405008 0.0025931531744622731 0 -0.00044940725660082607 0.0024248976847850573 0 -0.00057029475589762493 0.0017437993065607543 0 -0.00051786634593452632 0.0016526705883026058 0 -0.00057955091544387681 0.001712323104309157 0 -0.00051786634593452632 0.0016526705883026058 0 -0.00062576748036378136 0.001655691082409683 0 -0.00055050249313515068 0.0015623268541247969 0 -4.0038262317334397e-05 0.00064311550879336127 0 0.00015641774342591125 0.0008186275112345646 0 -4.3033200583420831e-05 0.00092950100904110663 0 -0.00037532507418334033 0.0011383432670064976 0 -0.0003401064880022119 0.0012609413156617285 0 -0.00060633750157810954 0.0017574332634727506 0 -0.00057955091544387681 0.001712323104309157 0 -0.00062576748036378136 0.001655691082409683 0 1.4477216493095376e-05 0.0010707588972577581 0 -0.00037532507418334033 0.0011383432670064976 0 0.00013945483093219313 0.00044665268435186551 0 -3.7660336686716059e-05 0.00035850374918718574 0 -4.0038262317334397e-05 0.00064311550879336127 0 0.00013945483093219313 0.00044665268435186551 0 -4.0038262317334397e-05 0.00064311550879336127 0 0.00027300831051856956 0.00060917392349016581 0 -4.0038262317334397e-05 0.00064311550879336127 0 0.00015641774342591125 0.0008186275112345646 0 0.00027300831051856956 0.00060917392349016581 0 0.00015641774342591125 0.0008186275112345646 0 0.0001745743304984057 0.0010637285106718988 0 -4.3033200583420831e-05 0.00092950100904110663 0 0.00015641774342591125 0.0008186275112345646 0 0.0001745743304984057 0.0010637285106718988 0 0.00039061179915108441 0.00090616488298773501 0 0.0001745743304984057 0.0010637285106718988 0 -4.3033200583420831e-05 0.00092950100904110663 0 -4.4146516236273815e-05 0.0012190652631984449 0 -0.0003401064880022119 0.0012609413156617285 0 -0.00031866956208256939 0.001159075247677051 0 -0.00062576748036378136 0.001655691082409683 0 -0.00064170945973281331 0.0015270694608031702 0 -0.00055050249313515068 0.0015623268541247969 0 -0.00064170945973281331 0.0015270694608031702 0 -0.00054054549712653625 0.0014435802583224262 0 -0.00065024694532173164 0.0013861019080411796 0 -0.00064170945973281331 0.0015270694608031702 0 -0.00055050249313515068 0.0015623268541247969 0 -0.00054054549712653625 0.0014435802583224262 0 -0.00051786634593452632 0.0016526705883026058 0 -0.00055050249313515068 0.0015623268541247969 0 -0.00045679278737639686 0.0015435048974937241 0 -0.00055050249313515068 0.0015623268541247969 0 -0.00054054549712653625 0.0014435802583224262 0 -0.00045679278737639686 0.0015435048974937241 0 0.00050382487040234866 0.00021565756650266182 0 0.00058962972187990908 -0.00025939883542113677 0 0.00051226300503111289 -0.00070284177462315105 0 0.00042969929174344989 -0.00066370736269802182 0 0.00046300706561383601 -0.00073408554676691331 0 0.00034397806222392148 -0.00066671277078265154 0 0.00042969929174344989 -0.00066370736269802182 0 0.00046300706561383601 -0.00073408554676691331 0 0.00070773199351055688 0.00024785340847847096 0 0.00070100673554908432 0.0003278238977885684 0 0.00062276172386049118 0.00030517235663234246 0 0.00061746614677440079 0.00038387963404001076 0 0.00070100673554908432 0.0003278238977885684 0 0.00062276172386049118 0.00030517235663234246 0 0.00050382487040234866 0.00021565756650266182 0 0.00062713831661008641 0.00047457407880767026 0 0.00060442196276278427 0.0007481866005986771 0 0.00061692945726172631 0.00049239998858021489 0 0.00047365364222113645 0.00061350086209558546 0 0.00039464876658669283 0.00039805138850744639 0 0.00061692945726172631 0.00049239998858021489 0 0.00047365364222113645 0.00061350086209558546 0 0.00039464876658669283 0.00039805138850744639 0 0.00047365364222113645 0.00061350086209558546 0 0.00027300831051856956 0.00060917392349016581 0 0.00039464876658669283 0.00039805138850744639 0 0.00013945483093219313 0.00044665268435186551 0 0.00027300831051856956 0.00060917392349016581 0 0.00015641774342591125 0.0008186275112345646 0 0.00027300831051856956 0.00060917392349016581 0 0.00039061179915108441 0.00090616488298773501 0 0.00047365364222113645 0.00061350086209558546 0 0.00027300831051856956 0.00060917392349016581 0 0.00039061179915108441 0.00090616488298773501 0 0.00060442196276278427 0.0007481866005986771 0 0.00047365364222113645 0.00061350086209558546 0 0.00039061179915108441 0.00090616488298773501 0 0.00033597710449700073 0.00035996551727803178 0 6.6819681950496871e-05 0.00055882444098279203 0 0.00032144079298352686 0.00056620370823736105 0 0.00050382487040234866 0.00021565756650266182 0 0.00019981926293615045 0.00078709145012910832 0 6.6819681950496871e-05 0.00055882444098279203 0 7.66246127619556e-05 0.00071521188915601086 0 0.00032144079298352686 0.00056620370823736105 0 -0.00017359316467516163 0.00074711444776247413 0 7.66246127619556e-05 0.00071521188915601086 0 -0.00014609760070055205 0.00084350493262318118 0 -0.00011534333365610324 0.00084848188361018881 0 -0.00019061170289445933 0.00085446984249478483 0 -0.00017359316467516163 0.00074711444776247413 0 6.6819681950496871e-05 0.00055882444098279203 0 7.66246127619556e-05 0.00071521188915601086 0 3.552121284491912e-05 0.00087549255714678776 0 0.00019981926293615045 0.00078709145012910832 0 -0.00020037284639471851 0.00082883017503067368 0 -0.0001751314218118546 0.00087174455037219978 0 -0.0002199729631711984 0.00089044569170263572 0 -0.00011534333365610324 0.00084848188361018881 0 0.00019924961901915983 -5.7674428385531564e-06 0 -0.00020037284639471851 0.00082883017503067368 0 -0.00011041579846817512 0.00076544069025685617 0 -0.0001751314218118546 0.00087174455037219978 0 -0.00011041579846817512 0.00076544069025685617 0 -0.00013338120728361227 0.00090826786110346223 0 -0.0001751314218118546 0.00087174455037219978 0 0.00029067738035141528 -0.00060778182222297021 0 0.00038572306263890842 -0.00056373189925338566 0 0.00025300681373918596 -0.00043459682151849417 0 0.00019924961901915983 -5.7674428385531564e-06 0 3.9069006829226978e-05 0.00025859280821763429 0 0.00042969929174344989 -0.00066370736269802182 0 0.00029067738035141528 -0.00060778182222297021 0 0.00038572306263890842 -0.00056373189925338566 0 0.00051718873752189351 -0.000821569046881789 0 0.00019924961901915983 -5.7674428385531564e-06 0 0.00034397806222392148 -0.00066671277078265154 0 0.00042969929174344989 -0.00066370736269802182 0 0.00033761629312924462 -0.00059159067878335138 0 0.00050382487040234866 0.00021565756650266182 0 0.00019924961901915983 -5.7674428385531564e-06 0 0.00050533615030873063 -0.00062012226301538689 0 0.00042969929174344989 -0.00066370736269802182 0 0.00038572306263890842 -0.00056373189925338566 0 0.00050533615030873063 -0.00062012226301538689 0 0.00038572306263890842 -0.00056373189925338566 0 0.00042777706371718106 -0.00046789436821335624 0 0.00042777706371718106 -0.00046789436821335624 0 0.00034506353558766992 -0.00031981913839097652 0 0.00047919945955936103 -0.00031327234422938064 0 0.00034506353558766992 -0.00031981913839097652 0 0.00025300681373918596 -0.00043459682151849417 0 0.00020693607302016068 -0.00021568167515911022 0 0.00042777706371718106 -0.00046789436821335624 0 0.00034506353558766992 -0.00031981913839097652 0 0.00025300681373918596 -0.00043459682151849417 0 0.00038572306263890842 -0.00056373189925338566 0 0.00042777706371718106 -0.00046789436821335624 0 0.00025300681373918596 -0.00043459682151849417 0 -0.00013338120728361227 0.00090826786110346223 0 -0.0001751314218118546 0.00087174455037219978 0 -0.0002075538733695427 0.00092721417586048784 0 -0.00020037284639471851 0.00082883017503067368 0 -0.0002199729631711984 0.00089044569170263572 0 -0.00026445629830324126 0.00089137647687762293 0 -0.0002199729631711984 0.00089044569170263572 0 -0.00024798029241085689 0.00092468851513876542 0 -0.00026445629830324126 0.00089137647687762293 0 -0.0001751314218118546 0.00087174455037219978 0 -0.0002199729631711984 0.00089044569170263572 0 -0.0002075538733695427 0.00092721417586048784 0 -0.0002199729631711984 0.00089044569170263572 0 -0.0002075538733695427 0.00092721417586048784 0 -0.00024798029241085689 0.00092468851513876542 0 -0.0002075538733695427 0.00092721417586048784 0 -0.00025041565322794296 0.00098077031262423374 0 -0.0002020487263662326 0.00097619249182442523 0 -0.0002075538733695427 0.00092721417586048784 0 -0.00024798029241085689 0.00092468851513876542 0 -0.00025041565322794296 0.00098077031262423374 0 -0.00013338120728361227 0.00090826786110346223 0 -0.0002075538733695427 0.00092721417586048784 0 -0.0002020487263662326 0.00097619249182442523 0 -0.00013338120728361227 0.00090826786110346223 0 -0.0002020487263662326 0.00097619249182442523 0 -0.00016858012920740106 0.0010108301059515326 0 3.9069006829226978e-05 0.00025859280821763429 0 4.7554658675065288e-05 0.00038836787825832184 0 -0.0002020487263662326 0.00097619249182442523 0 -0.00016858012920740106 0.0010108301059515326 0 -0.00023721950703835677 0.0010281835627177405 0 -0.00025041565322794296 0.00098077031262423374 0 -0.0002020487263662326 0.00097619249182442523 0 -0.00023721950703835677 0.0010281835627177405 0 -0.00023721950703835677 0.0010281835627177405 0 -0.00026998059163731809 0.0010695466106816068 0 -0.00023789303592761736 0.0010692484381735678 0 4.7554658675065288e-05 0.00038836787825832184 0 -0.00018309272737606166 0.00058494202342152662 0 -0.00016858012920740106 0.0010108301059515326 0 -0.00023721950703835677 0.0010281835627177405 0 -0.00023789303592761736 0.0010692484381735678 0 -0.00016858012920740106 0.0010108301059515326 0 -0.00019841438600697684 0.001081045097831395 0 -0.00023789303592761736 0.0010692484381735678 0 0.00018386866922435809 -0.00021034403511482997 0 -0.00018309272737606166 0.00058494202342152662 0 0.00020693607302016068 -0.00021568167515911022 0 0.00035038625054897144 -0.00013526095913693738 0 0.00017650171878418026 5.6982067084145623e-05 0 -4.2379652449472388e-05 -0.00012896037788597532 0 9.0904526021212261e-05 0.00017493475928547154 0 0.00022034784490056821 -5.9833381232013671e-05 0 -4.2379652449472388e-05 -0.00012896037788597532 0 0.00022654620588084525 -0.00040479639105015365 0 0.00022034784490056821 -5.9833381232013671e-05 0 0.00018386866922435809 -0.00021034403511482997 0 0.00034073726493475667 -0.00034141415482571356 0 0.00034506353558766992 -0.00031981913839097652 0 0.00035038625054897144 -0.00013526095913693738 0 0.00047919945955936103 -0.00031327234422938064 0 0.00034506353558766992 -0.00031981913839097652 0 0.00020693607302016068 -0.00021568167515911022 0 0.00035038625054897144 -0.00013526095913693738 0 -0.00057487893377587023 0.0013779337623097301 0 -0.00055784136870482795 0.0013116300908660675 0 -0.00046652128578936175 0.0013270357754118607 0 -0.00055784136870482795 0.0013116300908660675 0 -0.00046652128578936175 0.0013270357754118607 0 -0.00046242881683518171 0.0012279682325732164 0 -0.00047648850578109746 0.0011881934042415161 0 -0.00039947075052204357 0.0011437998885115179 0 -0.00054054549712653625 0.0014435802583224262 0 -0.00057487893377587023 0.0013779337623097301 0 -0.00046652128578936175 0.0013270357754118607 0 -0.00057487893377587023 0.0013779337623097301 0 -0.00055784136870482795 0.0013116300908660675 0 -0.00065024694532173164 0.0013861019080411796 0 -0.00054054549712653625 0.0014435802583224262 0 -0.00057487893377587023 0.0013779337623097301 0 -0.00065024694532173164 0.0013861019080411796 0 -0.00033211189261208825 0.0010331705441637437 0 -0.00032275808474432113 0.001026538199974187 0 -0.00031893632218342851 0.0010298605050863103 0 -0.00047648850578109746 0.0011881934042415161 0 -0.00031866956208256939 0.001159075247677051 0 -0.00031866956208256939 0.001159075247677051 0 -0.00032698211021623563 0.00094247838483599332 0 -0.00035304780795776704 0.00089925177377294752 0 -0.00031875341198919755 0.00093721812519853543 0 -0.00031893632218342851 0.0010298605050863103 0 -0.00031875341198919755 0.00093721812519853543 0 -0.00028975230738352223 0.0009876891941184554 0 -0.00031893632218342851 0.0010298605050863103 0 3.552121284491912e-05 0.00087549255714678776 0 -0.00031866956208256939 0.001159075247677051 0 -0.00035304780795776704 0.00089925177377294752 0 -0.00031875341198919755 0.00093721812519853543 0 -0.00014609760070055205 0.00084350493262318118 0 -0.00017359316467516163 0.00074711444776247413 0 -0.00035304780795776704 0.00089925177377294752 0 -0.00014609760070055205 0.00084350493262318118 0 -0.00031514180487578062 0.00093556407461262777 0 -0.00019061170289445933 0.00085446984249478483 0 -0.00031875341198919755 0.00093721812519853543 0 -0.00026445629830324126 0.00089137647687762293 0 -0.00027407346277693326 0.00094494803318259982 0 -0.00024798029241085689 0.00092468851513876542 0 -0.00026445629830324126 0.00089137647687762293 0 -0.00027407346277693326 0.00094494803318259982 0 -0.00024798029241085689 0.00092468851513876542 0 -0.00025041565322794296 0.00098077031262423374 0 -0.00027407346277693326 0.00094494803318259982 0 -0.00031875341198919755 0.00093721812519853543 0 -0.00027407346277693326 0.00094494803318259982 0 -0.00028975230738352223 0.0009876891941184554 0 -0.00025041565322794296 0.00098077031262423374 0 -0.00027407346277693326 0.00094494803318259982 0 -0.00028975230738352223 0.0009876891941184554 0 -0.00025041565322794296 0.00098077031262423374 0 -0.00023721950703835677 0.0010281835627177405 0 -0.0002814186850384779 0.0010322213177314018 0 -0.00025041565322794296 0.00098077031262423374 0 -0.00028975230738352223 0.0009876891941184554 0 -0.0002814186850384779 0.0010322213177314018 0 -0.0002814186850384779 0.0010322213177314018 0 -0.00026998059163731809 0.0010695466106816068 0 -0.00030303862279921725 0.0010704506950953586 0 -0.00023721950703835677 0.0010281835627177405 0 -0.0002814186850384779 0.0010322213177314018 0 -0.00026998059163731809 0.0010695466106816068 0 -0.00030303862279921725 0.0010704506950953586 0 -0.00031893632218342851 0.0010298605050863103 0 -0.00032450654885996422 0.001068320685801634 0 -0.0002814186850384779 0.0010322213177314018 0 -0.00030303862279921725 0.0010704506950953586 0 -0.00031893632218342851 0.0010298605050863103 0 -0.00028975230738352223 0.0009876891941184554 0 -0.0002814186850384779 0.0010322213177314018 0 -0.00031893632218342851 0.0010298605050863103 0 -0.00031893632218342851 0.0010298605050863103 0 -0.00033200997251808703 0.0010526591826265374 0 -0.00032450654885996422 0.001068320685801634 0 -0.00033211189261208825 0.0010331705441637437 0 -0.00031893632218342851 0.0010298605050863103 0 -0.00033200997251808703 0.0010526591826265374 0 -0.00033200997251808703 0.0010526591826265374 0 -0.00032450654885996422 0.001068320685801634 0 -0.00034241163012155323 0.0010791719132792863 0 -0.00030303862279921725 0.0010704506950953586 0 -0.00032450654885996422 0.001068320685801634 0 -0.00032401698209526551 0.0010865688121232137 0 -0.00032450654885996422 0.001068320685801634 0 -0.00034241163012155323 0.0010791719132792863 0 -0.00032401698209526551 0.0010865688121232137 0 -0.00034241163012155323 0.0010791719132792863 0 -0.0003480047380083452 0.0010944724739240189 0 -0.00036281772725387933 0.0011090507906286328 0 -0.00034241163012155323 0.0010791719132792863 0 -0.0003480047380083452 0.0010944724739240189 0 -0.00032401698209526551 0.0010865688121232137 0 -0.00033200997251808703 0.0010526591826265374 0 -0.00034241163012155323 0.0010791719132792863 0 -0.0003576698091555199 0.001067662106382167 0 -0.00033211189261208825 0.0010331705441637437 0 -0.00033200997251808703 0.0010526591826265374 0 -0.0003576698091555199 0.001067662106382167 0 -0.00034839933881130068 0.0011053474516524266 0 -0.00032838323425108274 0.0010986289695258495 0 -0.00036210658068086814 0.0010993143975814919 0 -0.00032838323425108274 0.0010986289695258495 0 -0.00029513207055144482 0.001114339399248797 0 -0.00030837607346601579 0.0011288533460526715 0 -0.00034839933881130068 0.0011053474516524266 0 -0.00032838323425108274 0.0010986289695258495 0 -0.00030837607346601579 0.0011288533460526715 0 -0.00034839933881130068 0.0011053474516524266 0 -0.00030837607346601579 0.0011288533460526715 0 -0.00036189558063356027 0.0011347640231994967 0 -0.0003480047380083452 0.0010944724739240189 0 -0.00032838323425108274 0.0010986289695258495 0 -0.00036210658068086814 0.0010993143975814919 0 -0.0003480047380083452 0.0010944724739240189 0 -0.00032838323425108274 0.0010986289695258495 0 -0.00032401698209526551 0.0010865688121232137 0 -0.00032838323425108274 0.0010986289695258495 0 -0.00032401698209526551 0.0010865688121232137 0 -0.00030213763745060609 0.0010959640406222246 0 -0.00030303862279921725 0.0010704506950953586 0 -0.00032401698209526551 0.0010865688121232137 0 -0.00030213763745060609 0.0010959640406222246 0 -0.00030213763745060609 0.0010959640406222246 0 -0.00029513207055144482 0.001114339399248797 0 -0.00028807618680295652 0.0011071745670670739 0 -0.00032838323425108274 0.0010986289695258495 0 -0.00030213763745060609 0.0010959640406222246 0 -0.00029513207055144482 0.001114339399248797 0 -0.00029513207055144482 0.001114339399248797 0 -0.00028807618680295652 0.0011071745670670739 0 -0.0002780132226457976 0.0011216276438445901 0 -0.00028807618680295652 0.0011071745670670739 0 -0.00028761711165263277 0.0011048836099386754 0 -0.0002780132226457976 0.0011216276438445901 0 -0.00028807618680295652 0.0011071745670670739 0 -0.00028556205715387029 0.0011017047806699556 0 -0.00028761711165263277 0.0011048836099386754 0 -0.00028807618680295652 0.0011071745670670739 0 -0.00028773814260469384 0.0010910056821514821 0 -0.00028556205715387029 0.0011017047806699556 0 -0.00030303862279921725 0.0010704506950953586 0 -0.00030213763745060609 0.0010959640406222246 0 -0.00028773814260469384 0.0010910056821514821 0 -0.00030213763745060609 0.0010959640406222246 0 -0.00028807618680295652 0.0011071745670670739 0 -0.00028773814260469384 0.0010910056821514821 0 -0.00026998059163731809 0.0010695466106816068 0 -0.00028773814260469384 0.0010910056821514821 0 -0.00027384501835766195 0.0010935368886966636 0 -0.00028773814260469384 0.0010910056821514821 0 -0.00027384501835766195 0.0010935368886966636 0 -0.00028556205715387029 0.0011017047806699556 0 -0.00026998059163731809 0.0010695466106816068 0 -0.00030303862279921725 0.0010704506950953586 0 -0.00028773814260469384 0.0010910056821514821 0 -0.00027384501835766195 0.0010935368886966636 0 -0.00028556205715387029 0.0011017047806699556 0 -0.00028788244281922155 0.0011019815417367533 0 -0.00028556205715387029 0.0011017047806699556 0 -0.00028788244281922155 0.0011019815417367533 0 -0.00028761711165263277 0.0011048836099386754 0 -0.00028788244281922155 0.0011019815417367533 0 -0.0003189384561921336 0.0010680002488080587 0 -0.00026068761718572229 0.0011107499743641333 0 -0.00028788244281922155 0.0011019815417367533 0 -0.0003189384561921336 0.0010680002488080587 0 -0.00028761711165263277 0.0011048836099386754 0 -0.0003189384561921336 0.0010680002488080587 0 -0.00028595507488156813 0.0011022576787084915 0 -0.00028761711165263277 0.0011048836099386754 0 -0.00050928130402613596 0.00077230706881523906 0 -0.0005068531490735386 0.0011018266175646179 0 -0.00086180734834389238 0.0010096754188300846 0 -0.0003189384561921336 0.0010680002488080587 0 -0.00033981071530324552 0.0010318076169139841 0 -0.00029466553694036988 0.001077608301303162 0 -0.0003189384561921336 0.0010680002488080587 0 -0.00028595507488156813 0.0011022576787084915 0 -0.00029466553694036988 0.001077608301303162 0 -0.00048999901057943823 0.00089612794784057267 0 -0.00020766644899837997 0.001214263412856382 0 -0.00028595507488156813 0.0011022576787084915 0 -0.00026839682279671521 0.0011149689814647233 0 -0.00029466553694036988 0.001077608301303162 0 -0.0001126932959452406 0.0012055613737859416 0 -0.00020766644899837997 0.001214263412856382 0 -0.00028595507488156813 0.0011022576787084915 0 -0.00026496603601731505 0.0011382636116753426 0 -0.00026839682279671521 0.0011149689814647233 0 -0.00028595507488156813 0.0011022576787084915 0 -0.0002780132226457976 0.0011216276438445901 0 -0.00026496603601731505 0.0011382636116753426 0 -0.00028595507488156813 0.0011022576787084915 0 -0.00028761711165263277 0.0011048836099386754 0 -0.0002780132226457976 0.0011216276438445901 0 -0.00029513207055144482 0.001114339399248797 0 -0.0002780132226457976 0.0011216276438445901 0 -0.00027203274145560537 0.0011428432743999125 0 -0.00029513207055144482 0.001114339399248797 0 -0.00027203274145560537 0.0011428432743999125 0 -0.00030837607346601579 0.0011288533460526715 0 -0.0002780132226457976 0.0011216276438445901 0 -0.00027203274145560537 0.0011428432743999125 0 -0.00026496603601731505 0.0011382636116753426 0 -0.0001126932959452406 0.0012055613737859416 0 -0.00022908894438772588 0.0011981142083683609 0 -0.00026496603601731505 0.0011382636116753426 0 -0.00026839682279671521 0.0011149689814647233 0 -0.00023007514900027869 0.00121340098909167 0 1.0979560627890768e-05 0.0012759469954670142 0 -0.00023007514900027869 0.00121340098909167 0 -0.00016898200142889791 0.0014060933746665081 0 -0.00027203274145560537 0.0011428432743999125 0 -0.00026496603601731505 0.0011382636116753426 0 -0.00023007514900027869 0.00121340098909167 0 -0.00030573017325873634 0.0011782159588211091 0 -0.00040288874356437545 0.0012156736754348728 0 -0.00032633383673979496 0.0013652490883530042 0 -0.00027203274145560537 0.0011428432743999125 0 -0.00023007514900027869 0.00121340098909167 0 -0.00030573017325873634 0.0011782159588211091 0 -0.00023007514900027869 0.00121340098909167 0 -0.00030573017325873634 0.0011782159588211091 0 -0.00032633383673979496 0.0013652490883530042 0 -0.00027203274145560537 0.0011428432743999125 0 -0.00030573017325873634 0.0011782159588211091 0 -0.00030837607346601579 0.0011288533460526715 0 -0.00030573017325873634 0.0011782159588211091 0 -0.00030837607346601579 0.0011288533460526715 0 -0.00036189558063356027 0.0011347640231994967 0 -0.00023915423006510308 0.00060299095356339824 0 1.5114902409611542e-05 0.00056210943148054322 0 -0.00035710740683390224 0.00093455490601071945 0 0.0001008562621605811 0.00044615758086564728 0 -0.00022770430040393899 0.00072410295519754488 0 0.00020973750250317084 0.00033131862456125893 0 -0.0001221767193128394 0.0005157307899357307 0 0.00021513449227063085 0.00047265154492713465 0 -0.00023915423006510308 0.00060299095356339824 0 1.5114902409611542e-05 0.00056210943148054322 0 -0.00010174622641651164 0.00031589945428591674 0 0.00023142181637168175 0.00046528078251447633 0 0.00045491080291433468 0.00039833086090659419 0 0.00020973750250317084 0.00033131862456125893 0 0.00021513449227063085 0.00047265154492713465 0 0.00035302627220934382 0.00036144680704473564 0 0.0001008562621605811 0.00044615758086564728 0 0.00032668496923096371 0.00022573200229728039 0 1.5114902409611542e-05 0.00056210943148054322 0 9.0904526021212261e-05 0.00017493475928547154 0 0.00033335260651276192 0.00019989761351930246 0 1.5114902409611542e-05 0.00056210943148054322 0 9.0904526021212261e-05 0.00017493475928547154 0 -0.00010174622641651164 0.00031589945428591674 0 -4.2379652449472388e-05 -0.00012896037788597532 0 9.0904526021212261e-05 0.00017493475928547154 0 -0.00010174622641651164 0.00031589945428591674 0 -4.2379652449472388e-05 -0.00012896037788597532 0 -0.00010174622641651164 0.00031589945428591674 0 -0.00041028951752782928 0.00026013704651733259 0 -0.00023915423006510308 0.00060299095356339824 0 -0.00010174622641651164 0.00031589945428591674 0 -0.00041028951752782928 0.00026013704651733259 0 -0.00019841438600697684 0.001081045097831395 0 -0.00023789303592761736 0.0010692484381735678 0 -0.00026068761718572229 0.0011107499743641333 0 -0.00026998059163731809 0.0010695466106816068 0 -0.00027384501835766195 0.0010935368886966636 0 -0.00023789303592761736 0.0010692484381735678 0 -0.00027384501835766195 0.0010935368886966636 0 -0.00023789303592761736 0.0010692484381735678 0 -0.00026068761718572229 0.0011107499743641333 0 -0.00027384501835766195 0.0010935368886966636 0 -0.00028788244281922155 0.0011019815417367533 0 -0.00026068761718572229 0.0011107499743641333 0 -0.00018309272737606166 0.00058494202342152662 0 -0.00042259962491029702 0.00084305173169730294 0 -0.00038053471354860581 0.00091757778657866813 0 -0.00036024493996609824 0.00091380573118495531 0 -0.00037487772080174758 0.00086042606224674342 0 -0.00023915423006510308 0.00060299095356339824 0 -0.00041028951752782928 0.00026013704651733259 0 -0.00037487772080174758 0.00086042606224674342 0 -0.00018309272737606166 0.00058494202342152662 0 -0.00034625082738088802 0.0010877916748392878 0 -0.00036024493996609824 0.00091380573118495531 0 -0.00037487772080174758 0.00086042606224674342 0 -0.00036679248463397575 0.00091616181295519239 0 -0.00023915423006510308 0.00060299095356339824 0 -0.00035710740683390224 0.00093455490601071945 0 -0.00037487772080174758 0.00086042606224674342 0 -0.00022770430040393899 0.00072410295519754488 0 -0.00048999901057943823 0.00089612794784057267 0 -0.0001221767193128394 0.0005157307899357307 0 -0.00050928130402613596 0.00077230706881523906 0 -0.00021173605516022957 0.00081538046991299381 0 -0.00035710740683390224 0.00093455490601071945 0 -0.00036001039122161529 0.00095053191214015194 0 -0.00033981071530324552 0.0010318076169139841 0 -0.0001221767193128394 0.0005157307899357307 0 -0.00021173605516022957 0.00081538046991299381 0 -5.5238535095869363e-05 0.00070186725478068798 0 -0.00035710740683390224 0.00093455490601071945 0 -0.00037487772080174758 0.00086042606224674342 0 -0.00036679248463397575 0.00091616181295519239 0 -0.00035710740683390224 0.00093455490601071945 0 -0.00036679248463397575 0.00091616181295519239 0 -0.00036001039122161529 0.00095053191214015194 0 -0.0003189384561921336 0.0010680002488080587 0 -0.00036024493996609824 0.00091380573118495531 0 -0.00036001039122161529 0.00095053191214015194 0 -0.00029264943462021414 0.0010235125628625268 0 -0.00034625082738088802 0.0010877916748392878 0 -0.0003189384561921336 0.0010680002488080587 0 -0.00036001039122161529 0.00095053191214015194 0 -0.00033981071530324552 0.0010318076169139841 0 -0.00036024493996609824 0.00091380573118495531 0 -0.00036679248463397575 0.00091616181295519239 0 -0.00036001039122161529 0.00095053191214015194 0 -0.00037528325244152658 0.00094677264006393634 0 -0.00050928130402613596 0.00077230706881523906 0 -0.0005068531490735386 0.0011018266175646179 0 -0.00037528325244152658 0.00094677264006393634 0 -0.00050928130402613596 0.00077230706881523906 0 -0.00021173605516022957 0.00081538046991299381 0 -0.00021173605516022957 0.00081538046991299381 0 5.0910710495521675e-05 0.00084305355174372945 0 -0.0001342804527537132 0.0012174774262814424 0 -0.00021173605516022957 0.00081538046991299381 0 5.0910710495521675e-05 0.00084305355174372945 0 -5.5238535095869363e-05 0.00070186725478068798 0 5.0910710495521675e-05 0.00084305355174372945 0 6.3187192022853351e-05 0.00063891986733616627 0 0.00026255707737807369 0.00071082659037715766 0 5.0910710495521675e-05 0.00084305355174372945 0 -5.5238535095869363e-05 0.00070186725478068798 0 6.3187192022853351e-05 0.00063891986733616627 0 -0.0001221767193128394 0.0005157307899357307 0 6.3187192022853351e-05 0.00063891986733616627 0 0.00021513449227063085 0.00047265154492713465 0 -0.0001221767193128394 0.0005157307899357307 0 -5.5238535095869363e-05 0.00070186725478068798 0 6.3187192022853351e-05 0.00063891986733616627 0 6.3187192022853351e-05 0.00063891986733616627 0 0.00021513449227063085 0.00047265154492713465 0 0.00026255707737807369 0.00071082659037715766 0 0.00021513449227063085 0.00047265154492713465 0 0.00043584643607554908 0.00058427760524142449 0 0.00059541991237790719 0.00041117807595637612 0 0.00021513449227063085 0.00047265154492713465 0 0.00043584643607554908 0.00058427760524142449 0 0.00026255707737807369 0.00071082659037715766 0 0.00043584643607554908 0.00058427760524142449 0 0.00026255707737807369 0.00071082659037715766 0 0.00045777440769398863 0.00076931900133648504 0 0.00026255707737807369 0.00071082659037715766 0 0.00045777440769398863 0.00076931900133648504 0 0.00033741222850566474 0.0010211789770988048 0 5.0910710495521675e-05 0.00084305355174372945 0 0.00026255707737807369 0.00071082659037715766 0 0.00033741222850566474 0.0010211789770988048 0 0.00063619635280964153 0.00093057182802069242 0 0.00077850187284459946 0.00054152347090409439 0 0.00061418488081917903 0.00058916907349895492 0 0.00063619635280964153 0.00093057182802069242 0 0.00045777440769398863 0.00076931900133648504 0 0.00033741222850566474 0.0010211789770988048 0 0.00063619635280964153 0.00093057182802069242 0 0.00045777440769398863 0.00076931900133648504 0 0.00061418488081917903 0.00058916907349895492 0 0.00077850187284459946 0.00054152347090409439 0 0.00066630964324235567 0.00047245926550346974 0 0.0007191766036942288 6.6974481405785257e-05 0 0.00063619635280964153 0.00093057182802069242 0 0.00077850187284459946 0.00054152347090409439 0 0.00089931550718390341 0.0010479155154725591 0 0.00078273760937511074 0.00053211308685612523 0 0.00078899654516279341 0.00054550476516145236 0 0.00077850187284459946 0.00054152347090409439 0 0.00072372264685732865 0.00048934201607105446 0 0.00066630964324235567 0.00047245926550346974 0 0.00077850187284459946 0.00054152347090409439 0 0.00072372264685732865 0.00048934201607105446 0 0.00061418488081917903 0.00058916907349895492 0 0.00072372264685732865 0.00048934201607105446 0 0.00061418488081917903 0.00058916907349895492 0 0.00059541991237790719 0.00041117807595637612 0 0.00043584643607554908 0.00058427760524142449 0 0.00061418488081917903 0.00058916907349895492 0 0.00059541991237790719 0.00041117807595637612 0 0.00043584643607554908 0.00058427760524142449 0 0.00045777440769398863 0.00076931900133648504 0 0.00061418488081917903 0.00058916907349895492 0 0.00035302627220934382 0.00036144680704473564 0 0.00043760526101490975 0.00023461954258772585 0 0.00033335260651276192 0.00019989761351930246 0 0.00020973750250317084 0.00033131862456125893 0 0.00035302627220934382 0.00036144680704473564 0 0.00033335260651276192 0.00019989761351930246 0 0.00035302627220934382 0.00036144680704473564 0 0.000565079809711447 0.00030470958114109208 0 0.00043760526101490975 0.00023461954258772585 0 0.00072372264685732865 0.00048934201607105446 0 0.00059541991237790719 0.00041117807595637612 0 0.00072273082209122473 0.00045045853408333977 0 0.00045491080291433468 0.00039833086090659419 0 0.00067998988800639366 0.00036234921990563085 0 0.00043760526101490975 0.00023461954258772585 0 0.00053351804823427451 0.00015067693974916347 0 0.00042957138696491824 0.00013138632812842292 0 0.000565079809711447 0.00030470958114109208 0 0.00043760526101490975 0.00023461954258772585 0 0.00053351804823427451 0.00015067693974916347 0 0.000565079809711447 0.00030470958114109208 0 0.00053351804823427451 0.00015067693974916347 0 0.00062349490724492636 0.00016179567023005885 0 0.00053351804823427451 0.00015067693974916347 0 0.00058788691565554989 8.1504369163711303e-05 0 0.00049321611844292852 2.9251036921514425e-05 0 0.00053351804823427451 0.00015067693974916347 0 0.00058788691565554989 8.1504369163711303e-05 0 0.00062349490724492636 0.00016179567023005885 0 0.00053351804823427451 0.00015067693974916347 0 0.00042957138696491824 0.00013138632812842292 0 0.00049321611844292852 2.9251036921514425e-05 0 0.00042957138696491824 0.00013138632812842292 0 0.00037793226556720222 9.2056835172759947e-06 0 0.00049321611844292852 2.9251036921514425e-05 0 9.0904526021212261e-05 0.00017493475928547154 0 0.00033335260651276192 0.00019989761351930246 0 0.00022034784490056821 -5.9833381232013671e-05 0 0.00042957138696491824 0.00013138632812842292 0 0.00033335260651276192 0.00019989761351930246 0 0.00037793226556720222 9.2056835172759947e-06 0 0.00043760526101490975 0.00023461954258772585 0 0.00042957138696491824 0.00013138632812842292 0 0.00033335260651276192 0.00019989761351930246 0 0.00080443925255262606 0.00016098452610471546 0 0.00087067945943882061 0.00022429317010765792 0 0.00072350147868602255 0.00017604410901924733 0 0.00080443925255262606 0.00016098452610471546 0 0.00087067945943882061 0.00022429317010765792 0 0.00091123829767470171 0.00015632504161319173 0 0.00060983594550547554 0.00040446750981115194 0 0.00071813272517780172 9.9900715720465413e-05 0 0.00060983594550547554 0.00040446750981115194 0 0.00045253861830070685 0.00017818380021200039 0 0.00064417856810032213 0.00024419639849887384 0 0.00061763054201329642 0.00025161829494267798 0 0.00063421823914246481 0.00026166013893229084 0 0.00045253861830070685 0.00017818380021200039 0 0.00071813272517780172 9.9900715720465413e-05 0 0.00071813272517780172 9.9900715720465413e-05 0 0.00065667774907609189 -0.00022709744199430425 0 0.00046733883340049296 -0.00028882653440553621 0 0.00049709902954537654 -0.00027047643525835769 0 0.00045182234911083085 -0.00019064107873845398 0 0.00080443925255262606 0.00016098452610471546 0 0.00091123829767470171 0.00015632504161319173 0 0.00071219794928183155 8.6480404904764921e-05 0 0.00091123829767470171 0.00015632504161319173 0 0.00071219794928183155 8.6480404904764921e-05 0 0.00056341784363710503 -7.142502188620841e-05 0 0.000565079809711447 0.00030470958114109208 0 0.00087067945943882061 0.00022429317010765792 0 0.00072350147868602255 0.00017604410901924733 0 0.00071813272517780172 9.9900715720465413e-05 0 0.00065906717706223938 -2.9969586408611208e-05 0 0.00071219794928183155 8.6480404904764921e-05 0 0.00058788691565554989 8.1504369163711303e-05 0 0.00062349490724492636 0.00016179567023005885 0 0.00071219794928183155 8.6480404904764921e-05 0 0.00058788691565554989 8.1504369163711303e-05 0 0.00056341784363710503 -7.142502188620841e-05 0 0.000565079809711447 0.00030470958114109208 0 0.00062349490724492636 0.00016179567023005885 0 0.00072350147868602255 0.00017604410901924733 0 0.00071219794928183155 8.6480404904764921e-05 0 0.00062349490724492636 0.00016179567023005885 0 0.00072350147868602255 0.00017604410901924733 0 0.00080443925255262606 0.00016098452610471546 0 0.00071219794928183155 8.6480404904764921e-05 0 0.00072350147868602255 0.00017604410901924733 0 0.00072273082209122473 0.00045045853408333977 0 0.00070583599406370606 0.00046897832902027825 0 0.00070896583153048703 0.00046595226898026802 0 0.00072372264685732865 0.00048934201607105446 0 0.00072273082209122473 0.00045045853408333977 0 0.00070896583153048703 0.00046595226898026802 0 0.00067998988800639366 0.00036234921990563085 0 0.00060983594550547554 0.00040446750981115194 0 0.00052196997863534166 0.0006654888710554321 0 0.00026385714381999627 0.0007747960935407226 0 0.00024734632280653228 0.00057215865615005759 0 0.00037837900736725685 0.00092062813352165765 0 0.00052196997863534166 0.0006654888710554321 0 0.00026385714381999627 0.0007747960935407226 0 0.00060983594550547554 0.00040446750981115194 0 0.00059156510724508451 0.00060783910859900858 0 0.00037837900736725685 0.00092062813352165765 0 0.00025249362793762053 0.00096131655753837466 0 0.00026385714381999627 0.0007747960935407226 0 0.00024734632280653228 0.00057215865615005759 0 0.00044886420266486681 0.00042650041953118303 0 0.00027216752962926885 0.00018644133115909383 0 0.00052196997863534166 0.0006654888710554321 0 0.00024734632280653228 0.00057215865615005759 0 0.00044886420266486681 0.00042650041953118303 0 0.00072372264685732865 0.00048934201607105446 0 0.00070896583153048703 0.00046595226898026802 0 0.00066630964324235567 0.00047245926550346974 0 0.00052196997863534166 0.0006654888710554321 0 0.00044886420266486681 0.00042650041953118303 0 0.00066630964324235567 0.00047245926550346974 0 0.00059156510724508451 0.00060783910859900858 0 0.00067163519381895065 0.00046325012584977967 0 0.00066630964324235567 0.00047245926550346974 0 0.0005122006576630863 0.00021591518266974495 0 0.0007191766036942288 6.6974481405785257e-05 0 0.00044886420266486681 0.00042650041953118303 0 0.00066630964324235567 0.00047245926550346974 0 0.0005122006576630863 0.00021591518266974495 0 0.0005122006576630863 0.00021591518266974495 0 0.00027216752962926885 0.00018644133115909383 0 0.00043092963576515063 -2.0576773172978906e-05 0 0.00044886420266486681 0.00042650041953118303 0 0.0005122006576630863 0.00021591518266974495 0 0.00027216752962926885 0.00018644133115909383 0 -2.6136771400223519e-05 0.0001014187507113498 0 2.7236942076868953e-05 -0.00010484935834348894 0 0.00027216752962926885 0.00018644133115909383 0 -5.2148276622783337e-05 0.00039170778273337229 0 3.7124517262322241e-05 -9.0602743763359235e-05 0 5.7128434079003027e-05 -0.00028125579053921461 0 3.0222700566380391e-06 -0.00030260574817940125 0 3.7124517262322241e-05 -9.0602743763359235e-05 0 5.7128434079003027e-05 -0.00028125579053921461 0 5.8061767679127392e-05 -0.00018760915456239539 0 3.7124517262322241e-05 -9.0602743763359235e-05 0 3.0222700566380391e-06 -0.00030260574817940125 0 5.0178133928401484e-05 -0.00035305624646157459 0 6.8488796227576063e-06 -0.00036801579657040796 0 5.7128434079003027e-05 -0.00028125579053921461 0 3.0222700566380391e-06 -0.00030260574817940125 0 5.0178133928401484e-05 -0.00035305624646157459 0 -2.6136771400223519e-05 0.0001014187507113498 0 -7.6991098129376707e-06 -0.00011043486525580072 0 0.00024734632280653228 0.00057215865615005759 0 0.00027216752962926885 0.00018644133115909383 0 -5.2148276622783337e-05 0.00039170778273337229 0 0.00024734632280653228 0.00057215865615005759 0 -5.2148276622783337e-05 0.00039170778273337229 0 -9.5780045356695689e-05 0.00075597686790951455 0 5.4960007012198848e-05 -0.00034113284087689672 0 2.5438040297492393e-05 -0.0004396862587903739 0 8.5905492327275287e-05 -0.00043428173609410284 0 5.7128434079003027e-05 -0.00028125579053921461 0 5.4960007012198848e-05 -0.00034113284087689672 0 2.5438040297492393e-05 -0.0004396862587903739 0 -0.00010792972555470001 -0.0005143863085849558 0 4.1633282003007933e-05 -0.00042182375157434447 0 -0.00017107649965148944 -0.00058389110209069171 0 2.5438040297492393e-05 -0.0004396862587903739 0 -1.1815590534779686e-05 -0.00060926972028181375 0 5.7128434079003027e-05 -0.00028125579053921461 0 5.0178133928401484e-05 -0.00035305624646157459 0 2.5438040297492393e-05 -0.0004396862587903739 0 2.5438040297492393e-05 -0.0004396862587903739 0 -1.1815590534779686e-05 -0.00060926972028181375 0 9.4211532529229138e-05 -0.00059400520319016076 0 2.5438040297492393e-05 -0.0004396862587903739 0 8.5905492327275287e-05 -0.00043428173609410284 0 9.4211532529229138e-05 -0.00059400520319016076 0 3.3990614626548182e-05 -0.00071463266000738879 0 -1.1815590534779686e-05 -0.00060926972028181375 0 9.4211532529229138e-05 -0.00059400520319016076 0 3.3990614626548182e-05 -0.00071463266000738879 0 5.4336186123144704e-05 -0.00082923035426534257 0 0.00010597227462936425 -0.00075262762616070669 0 3.3990614626548182e-05 -0.00071463266000738879 0 -1.1815590534779686e-05 -0.00060926972028181375 0 -8.0715979453481796e-05 -0.00071977997777596288 0 3.3990614626548182e-05 -0.00071463266000738879 0 -8.0715979453481796e-05 -0.00071977997777596288 0 -2.3850487348110093e-05 -0.00081321697818190067 0 -0.00017107649965148944 -0.00058389110209069171 0 -8.0715979453481796e-05 -0.00071977997777596288 0 -0.00019400213622917836 -0.00076603552713891594 0 -0.00017107649965148944 -0.00058389110209069171 0 -1.1815590534779686e-05 -0.00060926972028181375 0 -8.0715979453481796e-05 -0.00071977997777596288 0 -8.0715979453481796e-05 -0.00071977997777596288 0 -0.00011138711221297071 -0.00082025087289902012 0 -0.00019400213622917836 -0.00076603552713891594 0 -0.00011138711221297071 -0.00082025087289902012 0 -0.00016109929477059115 -0.00090393905050848724 0 -0.00019400213622917836 -0.00076603552713891594 0 -8.0775349585009634e-05 -0.0008310542789963446 0 -9.4758981797549296e-05 -0.00087364139825863883 0 -0.00011138711221297071 -0.00082025087289902012 0 -0.00016109929477059115 -0.00090393905050848724 0 -5.080665202070315e-05 -0.00088978115559935531 0 -0.00011138711221297071 -0.00082025087289902012 0 -5.080665202070315e-05 -0.00088978115559935531 0 -2.3850487348110093e-05 -0.00081321697818190067 0 -8.0715979453481796e-05 -0.00071977997777596288 0 -0.00011138711221297071 -0.00082025087289902012 0 -2.3850487348110093e-05 -0.00081321697818190067 0 3.3990614626548182e-05 -0.00071463266000738879 0 -2.3850487348110093e-05 -0.00081321697818190067 0 5.4336186123144704e-05 -0.00082923035426534257 0 -2.3850487348110093e-05 -0.00081321697818190067 0 3.2629417595824398e-05 -0.00090393758483026142 0 5.4336186123144704e-05 -0.00082923035426534257 0 -5.080665202070315e-05 -0.00088978115559935531 0 -2.3850487348110093e-05 -0.00081321697818190067 0 3.2629417595824398e-05 -0.00090393758483026142 0 3.2629417595824398e-05 -0.00090393758483026142 0 5.4336186123144704e-05 -0.00082923035426534257 0 8.5675605575832869e-05 -0.00093511643231199387 0 0.00025249362793762053 0.00096131655753837466 0 0.00026385714381999627 0.0007747960935407226 0 -9.5780045356695689e-05 0.00075597686790951455 0 0.00045253861830070685 0.00017818380021200039 0 -7.6991098129376707e-06 -0.00011043486525580072 0 0.00026385714381999627 0.0007747960935407226 0 0.00024734632280653228 0.00057215865615005759 0 -9.5780045356695689e-05 0.00075597686790951455 0 -0.00017107649965148944 -0.00058389110209069171 0 -0.00032096257323299161 -0.00068175379167064289 0 -0.00019400213622917836 -0.00076603552713891594 0 -0.00010792972555470001 -0.0005143863085849558 0 -7.6991098129376707e-06 -0.00011043486525580072 0 -7.6991098129376707e-06 -0.00011043486525580072 0 0.00010315363923002344 -0.00051729104718256679 0 -0.00032096257323299161 -0.00068175379167064289 0 -0.00019400213622917836 -0.00076603552713891594 0 -0.00029353918661642565 -0.00085968223467178457 0 -0.00016109929477059115 -0.00090393905050848724 0 -0.00019400213622917836 -0.00076603552713891594 0 -0.00029353918661642565 -0.00085968223467178457 0 -8.0775349585009634e-05 -0.0008310542789963446 0 0.00010315363923002344 -0.00051729104718256679 0 -1.9401325828691094e-05 -0.00067685211683500524 0 0.00012606406782140876 -0.00072030579704008538 0 0.00011685951594335994 -0.00065902438170578755 0 0.00010315363923002344 -0.00051729104718256679 0 0.00020278486960787859 -0.00063450990457316822 0 0.00045253861830070685 0.00017818380021200039 0 0.00010315363923002344 -0.00051729104718256679 0 0.00032092321831688012 -0.0002482773200030297 0 0.00031509457619067452 -0.00020999384812533589 0 0.00045182234911083085 -0.00019064107873845398 0 0.00046733883340049296 -0.00028882653440553621 0 0.00032092321831688012 -0.0002482773200030297 0 0.00045182234911083085 -0.00019064107873845398 0 0.00027418981451423003 -0.00013779471723285506 0 0.00016541420596714808 -0.00020458753756740327 0 0.00015033590449205946 -0.00010293415986801154 0 0.00063331653517844245 -0.00045364105852477499 0 0.00065667774907609189 -0.00022709744199430425 0 0.00047604382097477622 -0.00052259558403433245 0 0.00042765978815541376 -0.00061327865014353339 0 0.00038507877210400634 -0.00053225401317763955 0 0.00020278486960787859 -0.00063450990457316822 0 0.00065667774907609189 -0.00022709744199430425 0 1.3549466459489018e-05 -0.00094816479008878187 0 -1.8193137120704189e-05 -0.00094824067184601528 0 2.45637228022939e-05 -0.0009819527992430755 0 -1.8193137120704189e-05 -0.00094824067184601528 0 -1.3882280041624549e-05 -0.0010045667248336808 0 2.45637228022939e-05 -0.0009819527992430755 0 0.00047604382097477622 -0.00052259558403433245 0 0.00049094978902218458 -0.00061644955744362016 0 0.00042765978815541376 -0.00061327865014353339 0 0.00020278486960787859 -0.00063450990457316822 0 0.00023423760371680107 -0.00083071326765286554 0 -8.0775349585009634e-05 -0.0008310542789963446 0 0.00020278486960787859 -0.00063450990457316822 0 -1.3882280041624549e-05 -0.0010045667248336808 0 2.45637228022939e-05 -0.0009819527992430755 0 4.1363730992797899e-05 -0.0010488652855910824 0 0.00049094978902218458 -0.00061644955744362016 0 0.00042765978815541376 -0.00061327865014353339 0 0.00047160950420216272 -0.00069658007263857238 0 -1.3882280041624549e-05 -0.0010045667248336808 0 4.1363730992797899e-05 -0.0010488652855910824 0 -3.7817916527926608e-06 -0.0011074180602850801 0 0.00063331653517844245 -0.00045364105852477499 0 0.00068281132260092684 -0.00057529594026248482 0 0.0008396473560192809 -0.00027673506961499108 0 0.00091164298215108653 -0.00041366973905276205 0 0.00073002281416475773 -0.00032895895061570271 0 5.9549966960227331e-05 -0.000964498043514052 0 9.1961822485335423e-05 -0.0010112262037194376 0 8.5675605575832869e-05 -0.00093511643231199387 0 3.2629417595824398e-05 -0.00090393758483026142 0 5.9549966960227331e-05 -0.000964498043514052 0 8.5675605575832869e-05 -0.00093511643231199387 0 3.2629417595824398e-05 -0.00090393758483026142 0 2.5710618240289986e-05 -0.00095097611402463443 0 5.9549966960227331e-05 -0.000964498043514052 0 -5.080665202070315e-05 -0.00088978115559935531 0 3.2629417595824398e-05 -0.00090393758483026142 0 2.5710618240289986e-05 -0.00095097611402463443 0 2.5710618240289986e-05 -0.00095097611402463443 0 5.418362226294019e-05 -0.00099082753570215137 0 5.9549966960227331e-05 -0.000964498043514052 0 5.418362226294019e-05 -0.00099082753570215137 0 5.9549966960227331e-05 -0.000964498043514052 0 9.1961822485335423e-05 -0.0010112262037194376 0 -8.0775349585009634e-05 -0.0008310542789963446 0 1.9303247286644166e-05 -0.00095171887172171624 0 -0.00017887725932784596 -0.00091141239364890862 0 -5.080665202070315e-05 -0.00088978115559935531 0 2.5710618240289986e-05 -0.00095097611402463443 0 1.3549466459489018e-05 -0.00094816479008878187 0 2.5710618240289986e-05 -0.00095097611402463443 0 2.45637228022939e-05 -0.0009819527992430755 0 2.5710618240289986e-05 -0.00095097611402463443 0 5.418362226294019e-05 -0.00099082753570215137 0 2.45637228022939e-05 -0.0009819527992430755 0 2.45637228022939e-05 -0.0009819527992430755 0 4.1363730992797899e-05 -0.0010488652855910824 0 8.9448088950406409e-05 -0.0010427905316856701 0 5.418362226294019e-05 -0.00099082753570215137 0 2.45637228022939e-05 -0.0009819527992430755 0 8.9448088950406409e-05 -0.0010427905316856701 0 8.9448088950406409e-05 -0.0010427905316856701 0 9.1961822485335423e-05 -0.0010112262037194376 0 0.00014213845965990195 -0.0010839313912891721 0 5.418362226294019e-05 -0.00099082753570215137 0 8.9448088950406409e-05 -0.0010427905316856701 0 9.1961822485335423e-05 -0.0010112262037194376 0 8.9448088950406409e-05 -0.0010427905316856701 0 0.00020612083810220879 -0.0011497651821682456 0 0.00014213845965990195 -0.0010839313912891721 0 4.1363730992797899e-05 -0.0010488652855910824 0 8.9448088950406409e-05 -0.0010427905316856701 0 0.00020612083810220879 -0.0011497651821682456 0 4.1363730992797899e-05 -0.0010488652855910824 0 0.00020612083810220879 -0.0011497651821682456 0 -3.7817916527926608e-06 -0.0011074180602850801 0 0.00044950252089985088 -0.0010720831563868973 0 0.00020612083810220879 -0.0011497651821682456 0 0.00047379799925409855 -0.0012860030409828304 0 0.0001584531925011857 -0.0012285983316443273 0 0.00039838233991472296 -0.00089684176916526978 0 0.00026793835343838751 -0.0010386294934297865 0 0.00020612083810220879 -0.0011497651821682456 0 0.00017142403786295113 -0.001126302427108965 0 0.00020612083810220879 -0.0011497651821682456 0 0.00014213845965990195 -0.0010839313912891721 0 0.00017142403786295113 -0.001126302427108965 0 0.00068281132260092684 -0.00057529594026248482 0 0.00068615575716223366 -0.00037415048205323746 0 0.00067046105785710487 -0.00056715066844171332 0 0.00060926912308410049 -0.00054321548564405383 0 0.0006184247325199476 -0.00044885837975013862 0 0.00067046105785710487 -0.00056715066844171332 0 0.00063868147872717595 -0.00060324299455067297 0 0.00060926912308410049 -0.00054321548564405383 0 0.00023423760371680107 -0.00083071326765286554 0 0.00039838233991472296 -0.00089684176916526978 0 0.00049094978902218458 -0.00061644955744362016 0 0.00047160950420216272 -0.00069658007263857238 0 0.0005057425944859198 -0.00071292352079383792 0 0.00067046105785710487 -0.00056715066844171332 0 0.00067272506089188582 -0.00059938728794287218 0 0.00063868147872717595 -0.00060324299455067297 0 0.00068281132260092684 -0.00057529594026248482 0 0.00067842364732744809 -0.00058015789306361078 0 0.00065493041178344802 -0.00056746525609273389 0 0.00069563159118842335 -0.00058608170978064551 0 0.00067272506089188582 -0.00059938728794287218 0 0.00068281132260092684 -0.00057529594026248482 0 0.00039838233991472296 -0.00089684176916526978 0 0.00064899034510830153 -0.00072931230794386775 0 0.00069563159118842335 -0.00058608170978064551 0 0.00067272506089188582 -0.00059938728794287218 0 0.00064899034510830153 -0.00072931230794386775 0 0.00067272506089188582 -0.00059938728794287218 0 0.00062974744666813244 -0.00066432857334118751 0 0.00056521103082473321 -0.00090398473422366487 0 0.00039838233991472296 -0.00089684176916526978 0 0.00059541661623512758 -0.00073424312158075879 0 0.00062974744666813244 -0.00066432857334118751 0 0.00059238591115506347 -0.00064233093884833662 0 0.00067272506089188582 -0.00059938728794287218 0 0.00062974744666813244 -0.00066432857334118751 0 0.00063868147872717595 -0.00060324299455067297 0 0.00063868147872717595 -0.00060324299455067297 0 0.00059238591115506347 -0.00064233093884833662 0 0.00060926912308410049 -0.00054321548564405383 0 0.00062974744666813244 -0.00066432857334118751 0 0.00063868147872717595 -0.00060324299455067297 0 0.00059238591115506347 -0.00064233093884833662 0 0.00059238591115506347 -0.00064233093884833662 0 0.00060926912308410049 -0.00054321548564405383 0 0.00053676582442838052 -0.00060583258057574617 0 0.00052952385095827309 -0.0007154223380488546 0 0.00059238591115506347 -0.00064233093884833662 0 0.00053676582442838052 -0.00060583258057574617 0 0.00060926912308410049 -0.00054321548564405383 0 0.00053249917535716723 -0.0004645005417055757 0 0.00053676582442838052 -0.00060583258057574617 0 0.00060926912308410049 -0.00054321548564405383 0 0.00053249917535716723 -0.0004645005417055757 0 0.0006184247325199476 -0.00044885837975013862 0 0.00053249917535716723 -0.0004645005417055757 0 0.00053676582442838052 -0.00060583258057574617 0 0.00040891377019982233 -0.00059743576766829005 0 0.00052952385095827309 -0.0007154223380488546 0 0.00053676582442838052 -0.00060583258057574617 0 0.00040891377019982233 -0.00059743576766829005 0 0.00042777706371718106 -0.00046789436821335624 0 0.00057045357479773454 -0.00047193020531824951 0 0.00047919945955936103 -0.00031327234422938064 0 0.00049011465607556978 -0.00053564879573438833 0 0.00034073726493475667 -0.00034141415482571356 0 0.00040891377019982233 -0.00059743576766829005 0 0.00022654620588084525 -0.00040479639105015365 0 0.00040232897658060851 -0.00032362459627691847 0 0.00053249917535716723 -0.0004645005417055757 0 0.00040891377019982233 -0.00059743576766829005 0 0.00040232897658060851 -0.00032362459627691847 0 0.00053249917535716723 -0.0004645005417055757 0 0.00040232897658060851 -0.00032362459627691847 0 0.00053401897170398402 -0.00024592891784600734 0 0.00040232897658060851 -0.00032362459627691847 0 0.0004689917118215348 -0.00010715621368052324 0 0.00053401897170398402 -0.00024592891784600734 0 0.00022654620588084525 -0.00040479639105015365 0 0.0003584257721834868 -0.00014857149150453598 0 0.00022034784490056821 -5.9833381232013671e-05 0 0.00022654620588084525 -0.00040479639105015365 0 0.00040232897658060851 -0.00032362459627691847 0 0.0003584257721834868 -0.00014857149150453598 0 0.00033335260651276192 0.00019989761351930246 0 0.00037793226556720222 9.2056835172759947e-06 0 0.00022034784490056821 -5.9833381232013671e-05 0 0.0003584257721834868 -0.00014857149150453598 0 0.00037793226556720222 9.2056835172759947e-06 0 0.00022034784490056821 -5.9833381232013671e-05 0 0.00040232897658060851 -0.00032362459627691847 0 0.0003584257721834868 -0.00014857149150453598 0 0.0004689917118215348 -0.00010715621368052324 0 0.00037793226556720222 9.2056835172759947e-06 0 0.0004689917118215348 -0.00010715621368052324 0 0.00049321611844292852 2.9251036921514425e-05 0 0.0003584257721834868 -0.00014857149150453598 0 0.00037793226556720222 9.2056835172759947e-06 0 0.0004689917118215348 -0.00010715621368052324 0 0.00058788691565554989 8.1504369163711303e-05 0 0.00049321611844292852 2.9251036921514425e-05 0 0.00056341784363710503 -7.142502188620841e-05 0 0.0004689917118215348 -0.00010715621368052324 0 0.00049321611844292852 2.9251036921514425e-05 0 0.00056341784363710503 -7.142502188620841e-05 0 0.00061434930125213449 -0.00014809716333887875 0 0.00069985748573842303 -0.00022218074968276605 0 0.00053401897170398402 -0.00024592891784600734 0 0.0004689917118215348 -0.00010715621368052324 0 0.00056341784363710503 -7.142502188620841e-05 0 0.00074889827637910841 -6.0850049814321452e-05 0 0.00092142782654055253 0.00015131635572783445 0 0.00056341784363710503 -7.142502188620841e-05 0 0.00074889827637910841 -6.0850049814321452e-05 0 0.0004689917118215348 -0.00010715621368052324 0 0.00061434930125213449 -0.00014809716333887875 0 0.00053401897170398402 -0.00024592891784600734 0 0.00046808819445850498 -0.00011449744136276609 0 0.00072253858544559229 -9.2473152021587871e-05 0 0.00061434930125213449 -0.00014809716333887875 0 0.00069985748573842303 -0.00022218074968276605 0 0.00076570728670304815 -0.0001359246053124361 0 0.00092142782654055253 0.00015131635572783445 0 0.00074889827637910841 -6.0850049814321452e-05 0 0.0010171043483982653 -2.6972005288843967e-05 0 0.00072253858544559229 -9.2473152021587871e-05 0 0.00065667774907609189 -0.00022709744199430425 0 0.0008396473560192809 -0.00027673506961499108 0 0.00069985748573842303 -0.00022218074968276605 0 0.00076570728670304815 -0.0001359246053124361 0 0.00069985748573842303 -0.00022218074968276605 0 0.00073002281416475773 -0.00032895895061570271 0 0.00053401897170398402 -0.00024592891784600734 0 0.0008396473560192809 -0.00027673506961499108 0 0.00069985748573842303 -0.00022218074968276605 0 0.00073002281416475773 -0.00032895895061570271 0 0.00053249917535716723 -0.0004645005417055757 0 0.0006184247325199476 -0.00044885837975013862 0 0.00053401897170398402 -0.00024592891784600734 0 0.00068615575716223366 -0.00037415048205323746 0 0.0005243114573154924 -0.00026062259219360759 0 1.182959362805034e-05 0.004977528411200899 0 7.5599786519740005e-09 0.0049999797613410335 0 1.0485849153994916e-05 0.0049887470768660951 0 7.5599786519740005e-09 0.0049999797613410335 0 1.0485849153994916e-05 0.0049887470768660951 0 1.1001837609174203e-08 0.0049999815367528771 0 1.0485849153994916e-05 0.0049887470768660951 0 2.6534612427074684e-05 0.0049794095749727055 0 1.8749207622432091e-05 0.004987777546875188 0 1.182959362805034e-05 0.004977528411200899 0 1.0485849153994916e-05 0.0049887470768660951 0 2.6534612427074684e-05 0.0049794095749727055 0 4.0061884249848576e-05 0.0049599890713507462 0 7.9519450530458462e-05 0.0049375168133721946 0 4.2797805100489352e-05 0.0049754497436571808 0 2.6534612427074684e-05 0.0049794095749727055 0 4.0061884249848576e-05 0.0049599890713507462 0 4.2797805100489352e-05 0.0049754497436571808 0 1.182959362805034e-05 0.004977528411200899 0 4.0061884249848576e-05 0.0049599890713507462 0 2.9734587819870833e-05 0.0049512247861628117 0 1.182959362805034e-05 0.004977528411200899 0 2.6534612427074684e-05 0.0049794095749727055 0 4.0061884249848576e-05 0.0049599890713507462 0 1.182959362805034e-05 0.004977528411200899 0 2.9734587819870833e-05 0.0049512247861628117 0 1.6918146571370518e-06 0.0049522546209442376 0 4.0061884249848576e-05 0.0049599890713507462 0 2.9734587819870833e-05 0.0049512247861628117 0 6.5797625256685003e-05 0.0049361015346658758 0 2.9734587819870833e-05 0.0049512247861628117 0 4.4234008519755604e-05 0.0049203834714248041 0 6.5797625256685003e-05 0.0049361015346658758 0 2.9734587819870833e-05 0.0049512247861628117 0 4.4234008519755604e-05 0.0049203834714248041 0 1.6918146571370518e-06 0.0049522546209442376 0 1.182959362805034e-05 0.004977528411200899 0 1.6918146571370518e-06 0.0049522546209442376 0 -1.1144685601655275e-09 0.004999959219453981 0 1.182959362805034e-05 0.004977528411200899 0 7.5599786519740005e-09 0.0049999797613410335 0 -1.1144685601655275e-09 0.004999959219453981 0 1.6918146571370518e-06 0.0049522546209442376 0 -1.1144685601655275e-09 0.004999959219453981 0 -1.8790990885941987e-08 0.00499992056684306 0 1.6918146571370518e-06 0.0049522546209442376 0 -1.1219133569871845e-05 0.0049200607618626177 0 -1.8790990885941987e-08 0.00499992056684306 0 -1.1219133569871845e-05 0.0049200607618626177 0 -1.8790990885941987e-08 0.00499992056684306 0 -1.7953325269286392e-08 0.0049998874272555423 0 -1.1219133569871845e-05 0.0049200607618626177 0 -1.7953325269286392e-08 0.0049998874272555423 0 -5.8012947798477653e-06 0.004903025850439233 0 -1.1219133569871845e-05 0.0049200607618626177 0 -5.8012947798477653e-06 0.004903025850439233 0 -1.1281929187882291e-05 0.0047919839404945317 0 1.886115211140013e-08 0.0049998701626558515 0 -1.7953325269286392e-08 0.0049998874272555423 0 -5.8012947798477653e-06 0.004903025850439233 0 4.6348762660263594e-05 0.0045638235921560168 0 -1.1281929187882291e-05 0.0047919839404945317 0 4.2869260749940241e-05 0.0047317504327989016 0 -1.1815847205291238e-05 0.0048252312419375578 0 -5.8012947798477653e-06 0.004903025850439233 0 -1.1281929187882291e-05 0.0047919839404945317 0 -1.1219133569871845e-05 0.0049200607618626177 0 -1.1281929187882291e-05 0.0047919839404945317 0 8.378781885689481e-06 0.004875489799739399 0 -1.1281929187882291e-05 0.0047919839404945317 0 8.378781885689481e-06 0.004875489799739399 0 4.2869260749940241e-05 0.0047317504327989016 0 8.378781885689481e-06 0.004875489799739399 0 8.489100818092333e-05 0.004861878848233637 0 4.2869260749940241e-05 0.0047317504327989016 0 1.6918146571370518e-06 0.0049522546209442376 0 -1.1219133569871845e-05 0.0049200607618626177 0 8.378781885689481e-06 0.004875489799739399 0 4.4234008519755604e-05 0.0049203834714248041 0 1.6918146571370518e-06 0.0049522546209442376 0 8.378781885689481e-06 0.004875489799739399 0 4.4234008519755604e-05 0.0049203834714248041 0 8.378781885689481e-06 0.004875489799739399 0 8.489100818092333e-05 0.004861878848233637 0 8.489100818092333e-05 0.004861878848233637 0 0.00013831735381780654 0.0048914398938486167 0 8.4818640985324619e-05 0.0049150536826558571 0 8.489100818092333e-05 0.004861878848233637 0 0.00018365911495224867 0.0047854926640767421 0 0.00013831735381780654 0.0048914398938486167 0 4.4234008519755604e-05 0.0049203834714248041 0 8.489100818092333e-05 0.004861878848233637 0 8.4818640985324619e-05 0.0049150536826558571 0 8.489100818092333e-05 0.004861878848233637 0 4.2869260749940241e-05 0.0047317504327989016 0 0.00018365911495224867 0.0047854926640767421 0 4.2869260749940241e-05 0.0047317504327989016 0 0.00018365911495224867 0.0047854926640767421 0 0.00014159208033737242 0.0044529277226854798 0 0.00011928657032803879 0.0043146647245033915 0 0.00013882062899266281 0.0044243308252692451 0 8.3295885005734449e-05 0.0038527595895836218 0 0.00014159208033737242 0.0044529277226854798 0 1.737704093314152e-05 0.004285951753055784 0 9.6390151547381175e-05 0.0044230372805920612 0 0.00014159208033737242 0.0044529277226854798 0 1.737704093314152e-05 0.004285951753055784 0 4.6348762660263594e-05 0.0045638235921560168 0 4.2869260749940241e-05 0.0047317504327989016 0 0.00014159208033737242 0.0044529277226854798 0 -0.00011178568389510065 0.0042080542469681223 0 -9.8474588031109245e-05 0.0039447927713139389 0 -0.00026824388580407434 0.0040813288821028989 0 -0.00011178568389510065 0.0042080542469681223 0 1.737704093314152e-05 0.004285951753055784 0 -9.8474588031109245e-05 0.0039447927713139389 0 8.3295885005734449e-05 0.0038527595895836218 0 1.737704093314152e-05 0.004285951753055784 0 -9.8474588031109245e-05 0.0039447927713139389 0 8.3295885005734449e-05 0.0038527595895836218 0 -9.8474588031109245e-05 0.0039447927713139389 0 -0.00021487487749693705 0.0036436065992326272 0 -9.8474588031109245e-05 0.0039447927713139389 0 -0.0002765358970120102 0.0037419177019316582 0 -0.00026824388580407434 0.0040813288821028989 0 -9.8474588031109245e-05 0.0039447927713139389 0 -0.00021487487749693705 0.0036436065992326272 0 -0.0002765358970120102 0.0037419177019316582 0 8.3295885005734449e-05 0.0038527595895836218 0 -0.00021487487749693705 0.0036436065992326272 0 -9.6236014530703468e-05 0.0035343000389502681 0 0.00011928657032803879 0.0043146647245033915 0 2.0830515382751455e-05 0.0042131971568727233 0 -0.00021487487749693705 0.0036436065992326272 0 -9.6236014530703468e-05 0.0035343000389502681 0 -0.00021878147911872248 0.0035123985500847806 0 -9.6236014530703468e-05 0.0035343000389502681 0 -0.0002006907830218867 0.0034353678134577065 0 -0.00021878147911872248 0.0035123985500847806 0 2.0830515382751455e-05 0.0042131971568727233 0 -6.6314683428988968e-05 0.0041748412347248848 0 6.7169200738831448e-05 0.0049222853909585461 0 9.2982738428404373e-05 0.0049225189278715407 0 7.2989860433701545e-05 0.0049002757993890029 0 0.00013831735381780654 0.0048914398938486167 0 6.7169200738831448e-05 0.0049222853909585461 0 9.2982738428404373e-05 0.0049225189278715407 0 9.2982738428404373e-05 0.0049225189278715407 0 8.4818640985324619e-05 0.0049150536826558571 0 6.5797625256685003e-05 0.0049361015346658758 0 0.00013831735381780654 0.0048914398938486167 0 9.2982738428404373e-05 0.0049225189278715407 0 8.4818640985324619e-05 0.0049150536826558571 0 4.4234008519755604e-05 0.0049203834714248041 0 8.4818640985324619e-05 0.0049150536826558571 0 6.5797625256685003e-05 0.0049361015346658758 0 9.2982738428404373e-05 0.0049225189278715407 0 6.5797625256685003e-05 0.0049361015346658758 0 7.9519450530458462e-05 0.0049375168133721946 0 9.2982738428404373e-05 0.0049225189278715407 0 7.9519450530458462e-05 0.0049375168133721946 0 7.2989860433701545e-05 0.0049002757993890029 0 4.0061884249848576e-05 0.0049599890713507462 0 6.5797625256685003e-05 0.0049361015346658758 0 7.9519450530458462e-05 0.0049375168133721946 0 7.9519450530458462e-05 0.0049375168133721946 0 5.055167299962973e-05 0.0049765688199661217 0 4.2797805100489352e-05 0.0049754497436571808 0 7.9519450530458462e-05 0.0049375168133721946 0 7.2989860433701545e-05 0.0049002757993890029 0 0.00010427188422629062 0.0048429905388675115 0 7.7018472930970725e-05 0.0049301039813028661 0 7.1328294682614267e-05 0.0049064819827505275 0 7.9519450530458462e-05 0.0049375168133721946 0 4.7162261793433699e-05 0.0049791468075954292 0 5.055167299962973e-05 0.0049765688199661217 0 3.76685654535646e-05 0.0048298526768519642 0 7.2989860433701545e-05 0.0049002757993890029 0 0.00010427188422629062 0.0048429905388675115 0 3.76685654535646e-05 0.0048298526768519642 0 7.2989860433701545e-05 0.0049002757993890029 0 -2.1186432293343293e-05 0.0048921211795346798 0 6.7169200738831448e-05 0.0049222853909585461 0 7.2989860433701545e-05 0.0049002757993890029 0 -2.1186432293343293e-05 0.0048921211795346798 0 3.76685654535646e-05 0.0048298526768519642 0 -2.1186432293343293e-05 0.0048921211795346798 0 -0.00012017152155696443 0.0048020272465327989 0 -0.00023779632770501463 0.0033609870354125212 0 -0.00031726860596255373 0.0033537055436261174 0 -0.00028582737327873014 0.0034337947057469396 0 -0.00023779632770501463 0.0033609870354125212 0 -0.00031726860596255373 0.0033537055436261174 0 -0.00028170785895723619 0.0032739929437820138 0 -0.00012989810951554229 0.0041252721988867275 0 -0.0002049099516339497 0.0040276026632150791 0 -0.00034993945461483965 0.0032852219011306866 0 -0.00031726860596255373 0.0033537055436261174 0 -0.00028170785895723619 0.0032739929437820138 0 -0.00034993945461483965 0.0032852219011306866 0 -0.00039830704778602338 0.0033647802290822783 0 -0.00041483291858322008 0.0032762198637743081 0 -0.00034993945461483965 0.0032852219011306866 0 -0.00041483291858322008 0.0032762198637743081 0 -0.00037938765984645983 0.0032527731117429938 0 -0.00031726860596255373 0.0033537055436261174 0 -0.00033077383858871889 0.0034144346044215896 0 -0.00039830704778602338 0.0033647802290822783 0 -0.00034993945461483965 0.0032852219011306866 0 -0.00031726860596255373 0.0033537055436261174 0 -0.00039830704778602338 0.0033647802290822783 0 -0.00031726860596255373 0.0033537055436261174 0 -0.00033077383858871889 0.0034144346044215896 0 -0.00028582737327873014 0.0034337947057469396 0 -0.00033077383858871889 0.0034144346044215896 0 -0.00031321444724149929 0.0034605205788375681 0 -0.00028582737327873014 0.0034337947057469396 0 -0.00033077383858871889 0.0034144346044215896 0 -0.00037668042274160627 0.0034428838714338182 0 -0.00039830704778602338 0.0033647802290822783 0 -0.00040072727691908974 0.0033592565697832233 0 -0.00041365150797392477 0.0033113810869328116 0 -0.00043156672828564488 0.0032573457188713423 0 -0.00043161883932890763 0.0032563247422868649 0 -0.00043024967160594448 0.0032547719068238804 0 -0.00040072727691908974 0.0033592565697832233 0 -0.00037419836709632221 0.0033311405588385308 0 -0.00037668042274160627 0.0034428838714338182 0 -0.00033511321622873403 0.0034671040643674063 0 -0.00033446682295800367 0.0035174169752369504 0 -0.00033077383858871889 0.0034144346044215896 0 -0.00031321444724149929 0.0034605205788375681 0 -0.00033511321622873403 0.0034671040643674063 0 -0.00033077383858871889 0.0034144346044215896 0 -0.00037668042274160627 0.0034428838714338182 0 -0.00033511321622873403 0.0034671040643674063 0 -0.00033511321622873403 0.0034671040643674063 0 -0.00032032571991834905 0.003495506035887989 0 -0.00033446682295800367 0.0035174169752369504 0 -0.00031321444724149929 0.0034605205788375681 0 -0.00033511321622873403 0.0034671040643674063 0 -0.00032032571991834905 0.003495506035887989 0 -0.00031321444724149929 0.0034605205788375681 0 -0.00032032571991834905 0.003495506035887989 0 -0.00030384627154890178 0.0034851507716134153 0 -0.00030384627154890178 0.0034851507716134153 0 -0.00026942843444876505 0.0034847956786840323 0 -0.0003020802379998274 0.0035099943856849638 0 -0.00030384627154890178 0.0034851507716134153 0 -0.00028582737327873014 0.0034337947057469396 0 -0.00026942843444876505 0.0034847956786840323 0 -0.00031321444724149929 0.0034605205788375681 0 -0.00030384627154890178 0.0034851507716134153 0 -0.00028582737327873014 0.0034337947057469396 0 -6.6314683428988968e-05 0.0041748412347248848 0 -0.00012989810951554229 0.0041252721988867275 0 -0.0002006907830218867 0.0034353678134577065 0 -0.00023779632770501463 0.0033609870354125212 0 -0.00028582737327873014 0.0034337947057469396 0 -0.0002006907830218867 0.0034353678134577065 0 -0.00026942843444876505 0.0034847956786840323 0 -0.00021878147911872248 0.0035123985500847806 0 -0.0002006907830218867 0.0034353678134577065 0 -0.00028582737327873014 0.0034337947057469396 0 -0.00026942843444876505 0.0034847956786840323 0 -0.00021487487749693705 0.0036436065992326272 0 -0.00021878147911872248 0.0035123985500847806 0 -0.00028750474903736816 0.0035338452636897062 0 -0.00026942843444876505 0.0034847956786840323 0 -0.00021878147911872248 0.0035123985500847806 0 -0.00028750474903736816 0.0035338452636897062 0 -0.00028750474903736816 0.0035338452636897062 0 -0.0003020802379998274 0.0035099943856849638 0 -0.00031970947873900221 0.0035156139852451245 0 -0.00030384627154890178 0.0034851507716134153 0 -0.0003020802379998274 0.0035099943856849638 0 -0.00031504612887765408 0.0035090888862269781 0 -0.00026942843444876505 0.0034847956786840323 0 -0.00028750474903736816 0.0035338452636897062 0 -0.0003020802379998274 0.0035099943856849638 0 -0.0003020802379998274 0.0035099943856849638 0 -0.00031970947873900221 0.0035156139852451245 0 -0.00031504612887765408 0.0035090888862269781 0 -0.00031533642289342752 0.0035795045962998466 0 -0.00031970947873900221 0.0035156139852451245 0 -0.00029966220380625076 0.0034529111426598092 0 -0.00028750474903736816 0.0035338452636897062 0 -0.00031533642289342752 0.0035795045962998466 0 -0.00031970947873900221 0.0035156139852451245 0 -0.00021487487749693705 0.0036436065992326272 0 -0.00031533642289342752 0.0035795045962998466 0 -0.0002765358970120102 0.0037419177019316582 0 -0.00021487487749693705 0.0036436065992326272 0 -0.00028750474903736816 0.0035338452636897062 0 -0.00031533642289342752 0.0035795045962998466 0 -0.00027417299595192726 0.0037222265253302259 0 -0.00036396378582766425 0.0037371573418359277 0 -0.00031533642289342752 0.0035795045962998466 0 -0.0002765358970120102 0.0037419177019316582 0 -0.00031675892882006626 0.0034906463177821314 0 -0.00031533642289342752 0.0035795045962998466 0 -0.00031675892882006626 0.0034906463177821314 0 -0.00029966220380625076 0.0034529111426598092 0 -0.00031675892882006626 0.0034906463177821314 0 -0.00032273948035879782 0.0034269321599086143 0 -0.00029966220380625076 0.0034529111426598092 0 -0.00053807941139350109 0.004090642963073223 0 -0.00042211336702266497 0.0041222210625844781 0 -0.00043874206031181825 0.0039921106225153311 0 -0.00042947095960293823 0.0037496136533375361 0 -0.00036396378582766425 0.0037371573418359277 0 -0.0002765358970120102 0.0037419177019316582 0 -0.00043874206031181825 0.0039921106225153311 0 -0.00026824388580407434 0.0040813288821028989 0 -0.00042211336702266497 0.0041222210625844781 0 -0.00043874206031181825 0.0039921106225153311 0 -0.00026824388580407434 0.0040813288821028989 0 -0.00032467717179598732 0.003408298005905217 0 -0.00036153613008235453 0.0033687664385778338 0 -0.00036357641189469365 0.0033688678999992485 0 -0.00036153613008235453 0.0033687664385778338 0 -0.00040779179396224064 0.0033199163439627233 0 -0.00036357641189469365 0.0033688678999992485 0 -0.00040779179396224064 0.0033199163439627233 0 -0.00036357641189469365 0.0033688678999992485 0 -0.00040080569607555723 0.0033455800169971293 0 -0.00035277684139237332 0.0033950820847073724 0 -0.00036357641189469365 0.0033688678999992485 0 -0.00040080569607555723 0.0033455800169971293 0 -0.00032467717179598732 0.003408298005905217 0 -0.00031675892882006626 0.0034906463177821314 0 -0.00032273948035879782 0.0034269321599086143 0 -0.00032467717179598732 0.003408298005905217 0 -0.00036153613008235453 0.0033687664385778338 0 -0.00032273948035879782 0.0034269321599086143 0 -0.00032273948035879782 0.0034269321599086143 0 -0.00029966220380625076 0.0034529111426598092 0 -0.00035639790432787229 0.0033670856773506796 0 -0.00036153613008235453 0.0033687664385778338 0 -0.00032273948035879782 0.0034269321599086143 0 -0.00035639790432787229 0.0033670856773506796 0 -0.00035639790432787229 0.0033670856773506796 0 -0.00041584241133595855 0.0033029376910561569 0 -0.00041395223709366196 0.0032741116679370309 0 -0.00036153613008235453 0.0033687664385778338 0 -0.00035639790432787229 0.0033670856773506796 0 -0.00041584241133595855 0.0033029376910561569 0 -0.00036153613008235453 0.0033687664385778338 0 -0.00040779179396224064 0.0033199163439627233 0 -0.00041584241133595855 0.0033029376910561569 0 -0.00041584241133595855 0.0033029376910561569 0 -0.00041395223709366196 0.0032741116679370309 0 -0.00049278739357184152 0.0032152061427433917 0 -0.00039231978316949228 0.0032455100828319579 0 -0.00035915582944064681 0.003323432981245769 0 -0.00034918183853769957 0.0031390406571125064 0 -0.00035639790432787229 0.0033670856773506796 0 -0.00041395223709366196 0.0032741116679370309 0 -0.00035915582944064681 0.003323432981245769 0 -0.00041395223709366196 0.0032741116679370309 0 -0.00039231978316949228 0.0032455100828319579 0 -0.00035915582944064681 0.003323432981245769 0 -0.00041395223709366196 0.0032741116679370309 0 -0.00044285469032914987 0.0032076868579786855 0 -0.00049278739357184152 0.0032152061427433917 0 -0.00041395223709366196 0.0032741116679370309 0 -0.00039231978316949228 0.0032455100828319579 0 -0.00044285469032914987 0.0032076868579786855 0 -0.00031970947873900221 0.0035156139852451245 0 -0.00029966220380625076 0.0034529111426598092 0 -0.00032390532609610778 0.0035224411426674194 0 -0.00029966220380625076 0.0034529111426598092 0 -0.00035915582944064681 0.003323432981245769 0 -0.00034918183853769957 0.0031390406571125064 0 -0.00029119337398943483 0.0034417885554832079 0 -0.00037419836709632221 0.0033311405588385308 0 -0.00029966220380625076 0.0034529111426598092 0 -0.00035639790432787229 0.0033670856773506796 0 -0.00035915582944064681 0.003323432981245769 0 -0.00031970947873900221 0.0035156139852451245 0 -0.00032493015901512314 0.0035199771508165403 0 -0.00031504612887765408 0.0035090888862269781 0 -0.00031970947873900221 0.0035156139852451245 0 -0.00032493015901512314 0.0035199771508165403 0 -0.00032390532609610778 0.0035224411426674194 0 -0.00036605925384476304 0.0033384824552043658 0 -0.00037419836709632221 0.0033311405588385308 0 -0.00032032571991834905 0.003495506035887989 0 -0.00032493015901512314 0.0035199771508165403 0 -0.00033446682295800367 0.0035174169752369504 0 -0.00032032571991834905 0.003495506035887989 0 -0.00032493015901512314 0.0035199771508165403 0 -0.00031504612887765408 0.0035090888862269781 0 -0.00032032571991834905 0.003495506035887989 0 -0.00030384627154890178 0.0034851507716134153 0 -0.00031504612887765408 0.0035090888862269781 0 -0.00037419836709632221 0.0033311405588385308 0 -0.0004765301189392781 0.0031860839439066518 0 -0.00034918183853769957 0.0031390406571125064 0 -0.00044285469032914987 0.0032076868579786855 0 -0.00051947981166857306 0.0031507822650218334 0 -0.00039231978316949228 0.0032455100828319579 0 -0.00034918183853769957 0.0031390406571125064 0 -0.00044285469032914987 0.0032076868579786855 0 -0.00051947981166857306 0.0031507822650218334 0 -0.00055101267438935418 0.0031703298478993778 0 -0.00049278739357184152 0.0032152061427433917 0 -0.00044285469032914987 0.0032076868579786855 0 -0.00051947981166857306 0.0031507822650218334 0 -0.00049278739357184152 0.0032152061427433917 0 -0.00051947981166857306 0.0031507822650218334 0 -0.00055101267438935418 0.0031703298478993778 0 -0.00054513915012519433 0.0031905705395207013 0 -0.0004765301189392781 0.0031860839439066518 0 -0.00048298086817339872 0.0032220740526248096 0 -0.00055101267438935418 0.0031703298478993778 0 -0.00049278739357184152 0.0032152061427433917 0 -0.0005406563177794457 0.0031744546117818098 0 -0.00055101267438935418 0.0031703298478993778 0 -0.0005406563177794457 0.0031744546117818098 0 -0.00056310718884358723 0.0031394867784770245 0 -0.00041584241133595855 0.0033029376910561569 0 -0.00049278739357184152 0.0032152061427433917 0 -0.00047507635600852719 0.0032449029494855228 0 -0.00049278739357184152 0.0032152061427433917 0 -0.00047507635600852719 0.0032449029494855228 0 -0.0005406563177794457 0.0031744546117818098 0 -0.00040779179396224064 0.0033199163439627233 0 -0.00041584241133595855 0.0033029376910561569 0 -0.00047507635600852719 0.0032449029494855228 0 -0.00047507635600852719 0.0032449029494855228 0 -0.0005406563177794457 0.0031744546117818098 0 -0.00055908711501985421 0.0031501489995689387 0 -0.0005406563177794457 0.0031744546117818098 0 -0.00055908711501985421 0.0031501489995689387 0 -0.00059795414183252352 0.0030887259298464252 0 -0.00050735337084447741 0.0033040987545390255 0 -0.00055908711501985421 0.0031501489995689387 0 -0.00058477792189132671 0.0031632421349666374 0 -0.00050735337084447741 0.0033040987545390255 0 -0.00055908711501985421 0.0031501489995689387 0 -0.00047337047471419398 0.0032677089200419444 0 -0.00047507635600852719 0.0032449029494855228 0 -0.00055908711501985421 0.0031501489995689387 0 -0.00047337047471419398 0.0032677089200419444 0 -0.00040779179396224064 0.0033199163439627233 0 -0.00047337047471419398 0.0032677089200419444 0 -0.00040080569607555723 0.0033455800169971293 0 -0.00040779179396224064 0.0033199163439627233 0 -0.00047507635600852719 0.0032449029494855228 0 -0.00047337047471419398 0.0032677089200419444 0 -0.00033235483170683793 0.0029349495247912934 0 -0.00059542358347121588 0.0026496608748299648 0 -0.00051720765567635891 0.0029872674902538627 0 -0.00024305144989922881 0.0026958669451759357 0 -0.00058461182982916075 0.0026152994327539912 0 -0.00059542358347121588 0.0026496608748299648 0 -0.00070821888767373892 0.0029547451055511272 0 -0.00051720765567635891 0.0029872674902538627 0 -0.00070821888767373892 0.0029547451055511272 0 -0.00060031610228627671 0.0030365975308362047 0 -0.00051720765567635891 0.0029872674902538627 0 -0.00060876698913961587 0.003320426555235166 0 -0.00058477792189132671 0.0031632421349666374 0 -0.00070821888767373892 0.0029547451055511272 0 -0.00055908711501985421 0.0031501489995689387 0 -0.00058477792189132671 0.0031632421349666374 0 -0.00062308237583075525 0.0030703495927103253 0 -0.00062308237583075525 0.0030703495927103253 0 -0.00070821888767373892 0.0029547451055511272 0 -0.00060031610228627671 0.0030365975308362047 0 -0.00058477792189132671 0.0031632421349666374 0 -0.00062308237583075525 0.0030703495927103253 0 -0.00070821888767373892 0.0029547451055511272 0 -0.00059795414183252352 0.0030887259298464252 0 -0.00053060354828580634 0.0030932499583251451 0 -0.00056310718884358723 0.0031394867784770245 0 -0.00062308237583075525 0.0030703495927103253 0 -0.00059795414183252352 0.0030887259298464252 0 -0.00060031610228627671 0.0030365975308362047 0 -0.0005406563177794457 0.0031744546117818098 0 -0.00059795414183252352 0.0030887259298464252 0 -0.00056310718884358723 0.0031394867784770245 0 -0.00055908711501985421 0.0031501489995689387 0 -0.00062308237583075525 0.0030703495927103253 0 -0.00059795414183252352 0.0030887259298464252 0 -0.00053060354828580634 0.0030932499583251451 0 -0.00060031610228627671 0.0030365975308362047 0 -0.00051720765567635891 0.0029872674902538627 0 -0.00059795414183252352 0.0030887259298464252 0 -0.00053060354828580634 0.0030932499583251451 0 -0.00060031610228627671 0.0030365975308362047 0 -0.00040906063741585354 0.0030379883342970628 0 -0.00053060354828580634 0.0030932499583251451 0 -0.00051720765567635891 0.0029872674902538627 0 -0.00039125610828119313 0.0031087281563133527 0 -0.00053060354828580634 0.0030932499583251451 0 -0.0005090000028311907 0.0031653895286630281 0 -0.00053060354828580634 0.0030932499583251451 0 -0.00056310718884358723 0.0031394867784770245 0 -0.0005090000028311907 0.0031653895286630281 0 -0.00055101267438935418 0.0031703298478993778 0 -0.00056310718884358723 0.0031394867784770245 0 -0.0005090000028311907 0.0031653895286630281 0 -0.00055101267438935418 0.0031703298478993778 0 -0.00054513915012519433 0.0031905705395207013 0 -0.0005090000028311907 0.0031653895286630281 0 -0.0004282856633256251 0.0032295902275461452 0 -0.00048298086817339872 0.0032220740526248096 0 -0.00042624745154842955 0.0032311569030975618 0 -0.00054513915012519433 0.0031905705395207013 0 -0.0005090000028311907 0.0031653895286630281 0 -0.00042624745154842955 0.0032311569030975618 0 -0.00043250154697783034 0.0032500733779049547 0 -0.00043112714533440581 0.0032512532659206218 0 -0.00041831066689924527 0.0032548131386666342 0 -0.00043112714533440581 0.0032512532659206218 0 -0.00043491565189539771 0.0032513141438400314 0 -0.00043112714533440581 0.0032512532659206218 0 -0.00043021280238709559 0.0032566802850647635 0 -0.00043491565189539771 0.0032513141438400314 0 -0.00043250154697783034 0.0032500733779049547 0 -0.00043112714533440581 0.0032512532659206218 0 -0.00043021280238709559 0.0032566802850647635 0 -0.00043250154697783034 0.0032500733779049547 0 -0.00043021280238709559 0.0032566802850647635 0 -0.00042906881962199425 0.0032566583253012564 0 -0.00043024967160594448 0.0032547719068238804 0 -0.00043250154697783034 0.0032500733779049547 0 -0.00042906881962199425 0.0032566583253012564 0 -0.00043156672828564488 0.0032573457188713423 0 -0.00043024967160594448 0.0032547719068238804 0 -0.00042906881962199425 0.0032566583253012564 0 -0.00042906881962199425 0.0032566583253012564 0 -0.00042417088237176775 0.003263340165532 0 -0.00043038886088027025 0.0032616852355654702 0 -0.00043156672828564488 0.0032573457188713423 0 -0.00042906881962199425 0.0032566583253012564 0 -0.00043038886088027025 0.0032616852355654702 0 -0.00043021280238709559 0.0032566802850647635 0 -0.00042906881962199425 0.0032566583253012564 0 -0.00042417088237176775 0.003263340165532 0 -0.00043021280238709559 0.0032566802850647635 0 -0.00042417088237176775 0.003263340165532 0 -0.00043264427708792421 0.0032564084525359728 0 -0.00042417088237176775 0.003263340165532 0 -0.00043038886088027025 0.0032616852355654702 0 -0.00041483291858322008 0.0032762198637743081 0 -0.00041365150797392477 0.0033113810869328116 0 -0.00041662935619173009 0.0032818075478732753 0 -0.00041483291858322008 0.0032762198637743081 0 -0.00043264427708792421 0.0032564084525359728 0 -0.00040854756661500518 0.0032312290743513944 0 -0.00042417088237176775 0.003263340165532 0 -0.00041483291858322008 0.0032762198637743081 0 -0.00043264427708792421 0.0032564084525359728 0 -0.00043264427708792421 0.0032564084525359728 0 -0.00043491565189539771 0.0032513141438400314 0 -0.00044858639232583046 0.0032351341830022585 0 -0.00054054549712653625 0.0014435802583224262 0 -0.00045679278737639686 0.0015435048974937241 0 -0.00039234981050528865 0.0014184528782362298 0 -0.00044961357457468847 0.0024032724290824728 0 -0.00041878558660247593 0.0023213318226702317 0 -0.00043021280238709559 0.0032566802850647635 0 -0.00043264427708792421 0.0032564084525359728 0 -0.00043491565189539771 0.0032513141438400314 0 -0.00033002107756690315 0.0012722021135617115 0 -0.00046652128578936175 0.0013270357754118607 0 -0.00038645861388132387 0.0012198505242905955 0 -0.00046652128578936175 0.0013270357754118607 0 -0.00038645861388132387 0.0012198505242905955 0 -0.00046242881683518171 0.0012279682325732164 0 -0.00033002107756690315 0.0012722021135617115 0 -0.00046652128578936175 0.0013270357754118607 0 -0.00039234981050528865 0.0014184528782362298 0 -0.00054054549712653625 0.0014435802583224262 0 -0.00046652128578936175 0.0013270357754118607 0 -0.00039234981050528865 0.0014184528782362298 0 -0.00043264427708792421 0.0032564084525359728 0 -0.00044858639232583046 0.0032351341830022585 0 -0.00043774292039437657 0.0032228049501210141 0 -0.00039589097658264074 0.0022357503768453027 0 -0.00041878558660247593 0.0023213318226702317 0 -0.00045400599969862418 0.0031792169307025436 0 -0.00044858639232583046 0.0032351341830022585 0 -0.00043774292039437657 0.0032228049501210141 0 -0.00043264427708792421 0.0032564084525359728 0 -0.00043774292039437657 0.0032228049501210141 0 -0.00040854756661500518 0.0032312290743513944 0 -0.00037938765984645983 0.0032527731117429938 0 -0.00040854756661500518 0.0032312290743513944 0 -0.00034890909197085894 0.003224374626915973 0 -0.00041483291858322008 0.0032762198637743081 0 -0.00037938765984645983 0.0032527731117429938 0 -0.00040854756661500518 0.0032312290743513944 0 -0.00040854756661500518 0.0032312290743513944 0 -0.00037381207475532097 0.0031874085565875582 0 -0.00041001695190356256 0.0031638395260081345 0 -0.00040854756661500518 0.0032312290743513944 0 -0.00037381207475532097 0.0031874085565875582 0 -0.00034890909197085894 0.003224374626915973 0 -0.00045400599969862418 0.0031792169307025436 0 -0.00040854756661500518 0.0032312290743513944 0 -0.00041001695190356256 0.0031638395260081345 0 -0.00045400599969862418 0.0031792169307025436 0 -0.00043774292039437657 0.0032228049501210141 0 -0.00040854756661500518 0.0032312290743513944 0 -0.00039589097658264074 0.0022357503768453027 0 -0.00038032604444111529 0.0020723817212305053 0 -0.00033002107756690315 0.0012722021135617115 0 -0.00032897612175378552 0.0011497217875431364 0 -0.00032933230370911856 0.0011551412785000971 0 -0.00045400599969862418 0.0031792169307025436 0 -0.00041001695190356256 0.0031638395260081345 0 -0.00043240681145035372 0.0030847192529439671 0 -0.00037381207475532097 0.0031874085565875582 0 -0.00037699224222839569 0.0031239448722460814 0 -0.00033081862465996127 0.003159679569743703 0 -0.00041001695190356256 0.0031638395260081345 0 -0.00037699224222839569 0.0031239448722460814 0 -0.00043240681145035372 0.0030847192529439671 0 -0.00037381207475532097 0.0031874085565875582 0 -0.00041001695190356256 0.0031638395260081345 0 -0.00037699224222839569 0.0031239448722460814 0 -0.0003802930732270224 0.003067127177089938 0 -0.00043240681145035372 0.0030847192529439671 0 -0.0003823259098329331 0.0029756859747573582 0 -0.0003802930732270224 0.003067127177089938 0 -0.0003823259098329331 0.0029756859747573582 0 -0.00032023988433818232 0.0030946917997997821 0 -0.00032689170370029947 0.0024191064620313158 0 -0.00031399625318401361 0.0036386696847833149 0 -0.00037699224222839569 0.0031239448722460814 0 -0.0003802930732270224 0.003067127177089938 0 -0.00032023988433818232 0.0030946917997997821 0 -0.00037699224222839569 0.0031239448722460814 0 -0.0003802930732270224 0.003067127177089938 0 -0.00043240681145035372 0.0030847192529439671 0 -0.00032897612175378552 0.0011497217875431364 0 -0.00032933230370911856 0.0011551412785000971 0 -0.00032608215123766551 0.0012638734696613304 0 -0.0003451819900028416 0.001198849949338752 0 -0.00029357683035535656 0.0010750690884480357 0 -0.00032897612175378552 0.0011497217875431364 0 -0.00035346680813924463 0.0011213884706210244 0 -0.00033634300429632075 0.0011095870859187038 0 -0.00035346680813924463 0.0011213884706210244 0 -0.00036546377376726793 0.0011393594977643872 0 -0.00036281772725387933 0.0011090507906286328 0 -0.00035346680813924463 0.0011213884706210244 0 -0.00036281772725387933 0.0011090507906286328 0 -0.00035887581048054003 0.0011086092323304144 0 -0.00032897612175378552 0.0011497217875431364 0 -0.00035346680813924463 0.0011213884706210244 0 -0.00036546377376726793 0.0011393594977643872 0 -0.00033002107756690315 0.0012722021135617115 0 -0.00032897612175378552 0.0011497217875431364 0 -0.00038645861388132387 0.0012198505242905955 0 -0.00032897612175378552 0.0011497217875431364 0 -0.00036546377376726793 0.0011393594977643872 0 -0.00038645861388132387 0.0012198505242905955 0 -0.00036546377376726793 0.0011393594977643872 0 -0.00038645861388132387 0.0012198505242905955 0 -0.00046242881683518171 0.0012279682325732164 0 -0.00036960910227417786 0.0011367989241190318 0 -0.00039947075052204357 0.0011437998885115179 0 -0.00034241163012155323 0.0010791719132792863 0 -0.0003576698091555199 0.001067662106382167 0 -0.00036281772725387933 0.0011090507906286328 0 -0.00036546377376726793 0.0011393594977643872 0 -0.0003576698091555199 0.001067662106382167 0 -0.00036281772725387933 0.0011090507906286328 0 -0.0003480047380083452 0.0010944724739240189 0 -0.00036281772725387933 0.0011090507906286328 0 -0.00036210658068086814 0.0010993143975814919 0 -0.00036281772725387933 0.0011090507906286328 0 -0.00036210658068086814 0.0010993143975814919 0 -0.00035887581048054003 0.0011086092323304144 0 -0.00036210658068086814 0.0010993143975814919 0 -0.00035887581048054003 0.0011086092323304144 0 -0.00036036960574642186 0.0011028909452251671 0 -0.00035346680813924463 0.0011213884706210244 0 -0.00035887581048054003 0.0011086092323304144 0 -0.00035149589454637714 0.0011078976445832492 0 -0.00035346680813924463 0.0011213884706210244 0 -0.00035149589454637714 0.0011078976445832492 0 -0.00033634300429632075 0.0011095870859187038 0 -0.00035887581048054003 0.0011086092323304144 0 -0.00035149589454637714 0.0011078976445832492 0 -0.00036036960574642186 0.0011028909452251671 0 -0.00035149589454637714 0.0011078976445832492 0 -0.00036036960574642186 0.0011028909452251671 0 -0.00034682017169948863 0.0011019808890630734 0 -0.00036036960574642186 0.0011028909452251671 0 -0.00037739420600668575 0.0010954232858314747 0 -0.00035615540244666706 0.0010916489854992766 0 -0.00036036960574642186 0.0011028909452251671 0 -0.00035615540244666706 0.0010916489854992766 0 -0.00034682017169948863 0.0011019808890630734 0 -0.00039840802661571234 0.0011044983773921884 0 -0.00038613063911582612 0.0010969308748943188 0 -0.00035615540244666706 0.0010916489854992766 0 -0.00034650429025506811 0.001097241995569915 0 -0.00034682017169948863 0.0011019808890630734 0 -0.00037739420600668575 0.0010954232858314747 0 -0.00036189558063356027 0.0011347640231994967 0 -0.00048905065863915536 0.0011259692506130419 0 -0.00034839933881130068 0.0011053474516524266 0 -0.00036210658068086814 0.0010993143975814919 0 -0.00037739420600668575 0.0010954232858314747 0 -0.00036210658068086814 0.0010993143975814919 0 -0.00036036960574642186 0.0011028909452251671 0 -0.00037739420600668575 0.0010954232858314747 0 -0.00034839933881130068 0.0011053474516524266 0 -0.00037739420600668575 0.0010954232858314747 0 -0.00036189558063356027 0.0011347640231994967 0 -0.00036189558063356027 0.0011347640231994967 0 -0.00048905065863915536 0.0011259692506130419 0 -0.00040288874356437545 0.0012156736754348728 0 -0.00030573017325873634 0.0011782159588211091 0 -0.00036189558063356027 0.0011347640231994967 0 -0.00040288874356437545 0.0012156736754348728 0 -0.00048905065863915536 0.0011259692506130419 0 -0.00050117344775562635 0.0012209999778039289 0 -0.00040288874356437545 0.0012156736754348728 0 -0.00035615540244666706 0.0010916489854992766 0 -0.00034634094611358981 0.0010921770318539361 0 -0.00034650429025506811 0.001097241995569915 0 -0.00038613063911582612 0.0010969308748943188 0 -0.00037844143674170219 0.0016499437144082926 0 -0.00048905065863915536 0.0011259692506130419 0 -0.00050117344775562635 0.0012209999778039289 0 -0.00059117109588286592 0.0011856798333159972 0 -0.00050117344775562635 0.0012209999778039289 0 -0.00040288874356437545 0.0012156736754348728 0 -0.00052865590960120355 0.001380353658040537 0 -0.00037844143674170219 0.0016499437144082926 0 -0.00042975235549608563 0.0017351880680723712 0 -0.00050117344775562635 0.0012209999778039289 0 -0.00059117109588286592 0.0011856798333159972 0 -0.00052865590960120355 0.001380353658040537 0 -0.00040288874356437545 0.0012156736754348728 0 -0.00052865590960120355 0.001380353658040537 0 -0.00032633383673979496 0.0013652490883530042 0 -0.00033508116917143558 0.0020895982086566855 0 -0.00032724210008367854 0.0021057350088053181 0 -0.00034878579945530572 0.0021070384572445802 0 -0.0003937475044492621 0.002549411723368495 0 -0.00052712194026704703 0.0023340236615071158 0 -0.00068516291659848885 0.0027771960588719941 0 -0.00040050969295397855 0.0031328377657453719 0 -0.00036453474332056489 0.0031187235259972396 0 -0.00038364672075543859 0.0030952272304364285 0 -0.00049208513696143239 0.0027967921370176995 0 -0.0004055568369090502 0.0031736386594383246 0 -0.00034390686537636247 0.0023059266677229041 0 -0.0004055568369090502 0.0031736386594383246 0 -0.00033508116917143558 0.0020895982086566855 0 -0.00032204571973983752 0.002075134155860566 0 -0.00030585453326703463 0.0020968446119423207 0 -0.00034390686537636247 0.0023059266677229041 0 -0.00037844143674170219 0.0016499437144082926 0 -0.00034634094611358981 0.0010921770318539361 0 -0.00034650429025506811 0.001097241995569915 0 -0.00033815221275988765 0.0011032413218529157 0 -0.00010411130394609436 0.0023231111319664279 0 -0.00052712194026704703 0.0023340236615071158 0 -0.00035281604775379543 0.0019168708057084745 0 -0.0003937475044492621 0.002549411723368495 0 -0.00010411130394609436 0.0023231111319664279 0 -0.00052712194026704703 0.0023340236615071158 0 -0.00037844143674170219 0.0016499437144082926 0 -0.0003745849438997624 0.0019343345757714923 0 -0.00049208513696143239 0.0027967921370176995 0 -0.0003745849438997624 0.0019343345757714923 0 -0.00040050969295397855 0.0031328377657453719 0 -0.00039116960608298173 0.0031815569090164835 0 -0.00036098613313249525 0.0031665460234221671 0 -0.00040050969295397855 0.0031328377657453719 0 -0.00039116960608298173 0.0031815569090164835 0 -0.00042556165698548254 0.0031757238836311956 0 -0.00039116960608298173 0.0031815569090164835 0 -0.00042556165698548254 0.0031757238836311956 0 -0.00040854596669943319 0.0032167332775064929 0 -0.0003745849438997624 0.0019343345757714923 0 -0.00032689170370029947 0.0024191064620313158 0 -0.00033815221275988765 0.0011032413218529157 0 -0.00034682017169948863 0.0011019808890630734 0 -0.00033634300429632075 0.0011095870859187038 0 -0.0003745849438997624 0.0019343345757714923 0 -0.00029357683035535656 0.0010750690884480357 0 -0.00034650429025506811 0.001097241995569915 0 -0.00033815221275988765 0.0011032413218529157 0 -0.00034682017169948863 0.0011019808890630734 0 -0.00037468634584347446 0.0014015041106062516 0 -0.00032608215123766551 0.0012638734696613304 0 -0.0004272309671031376 0.001308520654790998 0 -0.00032933230370911856 0.0011551412785000971 0 -0.00032608215123766551 0.0012638734696613304 0 -0.0004272309671031376 0.001308520654790998 0 -0.00035149589454637714 0.0011078976445832492 0 -0.00034682017169948863 0.0011019808890630734 0 -0.00033634300429632075 0.0011095870859187038 0 -0.00038032604444111529 0.0020723817212305053 0 -0.00032689170370029947 0.0024191064620313158 0 -0.00039116960608298173 0.0031815569090164835 0 -0.00040854596669943319 0.0032167332775064929 0 -0.0003527769716122329 0.003234746523674263 0 -0.00040854596669943319 0.0032167332775064929 0 -0.0003527769716122329 0.003234746523674263 0 -0.00035329890599420586 0.0033200267962074938 0 -0.00021609498465139748 0.0044078693052901031 0 -0.00025932942037238803 0.0043279842801034691 0 -0.00016662935087561768 0.0042833680627210532 0 -0.00034125034062039162 0.0043654102736825681 0 -0.00021609498465139748 0.0044078693052901031 0 -0.00025932942037238803 0.0043279842801034691 0 -0.00025932942037238803 0.0043279842801034691 0 -0.00029453853359548827 0.0042419644998130772 0 -0.00016662935087561768 0.0042833680627210532 0 -0.0002817498123495852 0.0043349713696559863 0 -0.00018870574343075302 0.004574600728380185 0 -0.00029453853359548827 0.0042419644998130772 0 -0.00027767270947981043 0.0041356626297189957 0 -0.00016662935087561768 0.0042833680627210532 0 -0.00039116960608298173 0.0031815569090164835 0 -0.0003527769716122329 0.003234746523674263 0 -0.00036098613313249525 0.0031665460234221671 0 -0.00034125034062039162 0.0043654102736825681 0 -0.00029453853359548827 0.0042419644998130772 0 -0.00034870842550115675 0.0042005012011610684 0 -0.00034125034062039162 0.0043654102736825681 0 -0.00025932942037238803 0.0043279842801034691 0 -0.00029453853359548827 0.0042419644998130772 0 -0.0003510254795081234 0.0038625173967817201 0 -0.00035088534164491407 0.003637981570936318 0 -0.00040050969295397855 0.0031328377657453719 0 -0.00036098613313249525 0.0031665460234221671 0 -0.00036453474332056489 0.0031187235259972396 0 -0.00034870842550115675 0.0042005012011610684 0 -0.00026623724144461241 0.0040961223751489013 0 -0.00034957807732337808 0.0039875762999182903 0 -0.00035088534164491407 0.003637981570936318 0 -0.00039370463498627779 0.003721770990947205 0 -0.0002817498123495852 0.0043349713696559863 0 -0.00039370463498627779 0.003721770990947205 0 -0.00027900756315092651 0.0041601354714408722 0 -0.0002817498123495852 0.0043349713696559863 0 -0.00029453853359548827 0.0042419644998130772 0 -0.00034870842550115675 0.0042005012011610684 0 -0.00026623724144461241 0.0040961223751489013 0 -0.00029923905790089596 0.0047400166705118098 0 -0.00021791326488855467 0.0047612632748680632 0 -0.00021801088726485724 0.004831151178985805 0 -0.00029923905790089596 0.0047400166705118098 0 -0.00023949502322607443 0.0047061514374972377 0 -0.00021791326488855467 0.0047612632748680632 0 -0.00029923905790089596 0.0047400166705118098 0 -0.00023949502322607443 0.0047061514374972377 0 -0.00029042167974830849 0.0046485400122097051 0 -0.0002817498123495852 0.0043349713696559863 0 -0.00036145841533640892 0.0044640557209989062 0 -0.00023949502322607443 0.0047061514374972377 0 -0.00029042167974830849 0.0046485400122097051 0 -0.00021881103732966905 0.0046552289861956911 0 -0.00039370463498627779 0.003721770990947205 0 -0.00047771157316216901 0.0042221084427856159 0 -0.00049038682900688114 0.0036177389836510219 0 -0.00039133594437390984 0.0037961972399267242 0 -0.00049659421781073109 0.0038778610784356102 0 -0.00039952805238728625 0.004118458153927214 0 -0.00042263906017968127 0.0042556002526414208 0 -0.00034336969702872526 0.0041910356355147945 0 -0.00042263906017968127 0.0042556002526414208 0 -0.00034336969702872526 0.0041910356355147945 0 -0.00034576370640605351 0.0043183873970578145 0 -0.00039370463498627779 0.003721770990947205 0 -0.0004055568369090502 0.0031736386594383246 0 -0.00049038682900688114 0.0036177389836510219 0 -0.00039133594437390984 0.0037961972399267242 0 -0.00036746099167744763 0.003777615304812632 0 -0.00010902892110382074 0.0046924096529765832 0 -0.00015937345592876442 0.0046626010855153107 0 -0.00017213180863040909 0.0047249124312906954 0 -0.00010902892110382074 0.0046924096529765832 0 -5.4154284960594248e-05 0.004633802345476095 0 -0.00011226237240354114 0.0046241394737359786 0 -0.00010902892110382074 0.0046924096529765832 0 -0.00015937345592876442 0.0046626010855153107 0 -0.00011226237240354114 0.0046241394737359786 0 -0.00015937345592876442 0.0046626010855153107 0 -0.00021881103732966905 0.0046552289861956911 0 -0.00017213180863040909 0.0047249124312906954 0 -0.00023949502322607443 0.0047061514374972377 0 -0.00021881103732966905 0.0046552289861956911 0 -0.00017213180863040909 0.0047249124312906954 0 -0.00017213180863040909 0.0047249124312906954 0 -0.00021791326488855467 0.0047612632748680632 0 -0.00015286439981057606 0.0048062000996537983 0 -0.00023949502322607443 0.0047061514374972377 0 -0.00017213180863040909 0.0047249124312906954 0 -0.00021791326488855467 0.0047612632748680632 0 -0.00010902892110382074 0.0046924096529765832 0 -0.00011045606172871558 0.0047642357229801058 0 -6.0686209426973012e-05 0.0047264098907128229 0 -0.00010902892110382074 0.0046924096529765832 0 -0.00017213180863040909 0.0047249124312906954 0 -0.00011045606172871558 0.0047642357229801058 0 -0.00017213180863040909 0.0047249124312906954 0 -0.00011045606172871558 0.0047642357229801058 0 -0.00015286439981057606 0.0048062000996537983 0 -0.00015286439981057606 0.0048062000996537983 0 -0.00013462981702777553 0.004907636328935731 0 -8.8207949087231078e-05 0.0048300984907797542 0 -0.00011045606172871558 0.0047642357229801058 0 -0.00015286439981057606 0.0048062000996537983 0 -8.8207949087231078e-05 0.0048300984907797542 0 -0.00021791326488855467 0.0047612632748680632 0 -0.00015286439981057606 0.0048062000996537983 0 -0.00021801088726485724 0.004831151178985805 0 -0.00015286439981057606 0.0048062000996537983 0 -0.00021801088726485724 0.004831151178985805 0 -0.00013462981702777553 0.004907636328935731 0 -0.00021609498465139748 0.0044078693052901031 0 -0.00016662935087561768 0.0042833680627210532 0 -6.4078016751212673e-05 0.0044363123339836424 0 -0.00018870574343075302 0.004574600728380185 0 -0.00010251408385043587 0.0046665908505903273 0 -0.00013462981702777553 0.004907636328935731 0 -4.4002330777391436e-05 0.0048752886359906718 0 -8.8207949087231078e-05 0.0048300984907797542 0 -0.00010251408385043587 0.0046665908505903273 0 -2.1472641306146581e-05 0.0047698727237707383 0 -6.4078016751212673e-05 0.0044363123339836424 0 -7.9056918309097652e-05 0.0045531011295926026 0 2.0546695265834335e-05 0.0045847069640799236 0 -0.00013462981702777553 0.004907636328935731 0 -5.9741935124256515e-05 0.0049587418516117811 0 -3.5874137059982066e-05 0.0049214196508702655 0 -7.9056918309097652e-05 0.0045531011295926026 0 -9.5383393764406963e-05 0.0046528511901832558 0 2.0546695265834335e-05 0.0045847069640799236 0 -0.00018158213984581661 0.0045336692098737899 0 -0.00023072667110144159 0.0046686226376996395 0 -9.5383393764406963e-05 0.0046528511901832558 0 -7.9056918309097652e-05 0.0045531011295926026 0 -0.00018158213984581661 0.0045336692098737899 0 -9.5383393764406963e-05 0.0046528511901832558 0 -0.00021609498465139748 0.0044078693052901031 0 -6.4078016751212673e-05 0.0044363123339836424 0 -0.00018158213984581661 0.0045336692098737899 0 -6.4078016751212673e-05 0.0044363123339836424 0 -7.9056918309097652e-05 0.0045531011295926026 0 -0.00018158213984581661 0.0045336692098737899 0 -0.00021609498465139748 0.0044078693052901031 0 -0.00018158213984581661 0.0045336692098737899 0 -0.00033860673665407983 0.0045109536607950895 0 -0.00034125034062039162 0.0043654102736825681 0 -0.00021609498465139748 0.0044078693052901031 0 -0.00033860673665407983 0.0045109536607950895 0 -0.0003510254795081234 0.0038625173967817201 0 -0.00031399625318401361 0.0036386696847833149 0 -0.00037699224222839569 0.0031239448722460814 0 -0.00032023988433818232 0.0030946917997997821 0 -0.00033081862465996127 0.003159679569743703 0 -0.00033937194674600493 0.003230854789141039 0 -0.00033679274089678157 0.0032238086640006725 0 -0.00032920850210569523 0.0032215400791618999 0 -0.00031399625318401361 0.0036386696847833149 0 -0.00033373248571899188 0.0031131287750064025 0 -0.00031399625318401361 0.0036386696847833149 0 -0.00027334971093924404 0.0039911356610729289 0 -0.00018158213984581661 0.0045336692098737899 0 -0.00033860673665407983 0.0045109536607950895 0 -0.00023072667110144159 0.0046686226376996395 0 -0.00033679274089678157 0.0032238086640006725 0 -0.00032920850210569523 0.0032215400791618999 0 -0.00034890909197085894 0.003224374626915973 0 -0.00033373248571899188 0.0031131287750064025 0 -0.00034411400878127716 0.0032446582607538821 0 -0.00032920850210569523 0.0032215400791618999 0 -0.00034890909197085894 0.003224374626915973 0 -0.00033366977105418896 0.0032487073932011609 0 -0.00037381207475532097 0.0031874085565875582 0 -0.00033081862465996127 0.003159679569743703 0 -0.00034890909197085894 0.003224374626915973 0 -0.00034993945461483965 0.0032852219011306866 0 -0.00037938765984645983 0.0032527731117429938 0 -0.00033366977105418896 0.0032487073932011609 0 -0.00037938765984645983 0.0032527731117429938 0 -0.00034890909197085894 0.003224374626915973 0 -0.00033366977105418896 0.0032487073932011609 0 -0.00027334971093924404 0.0039911356610729289 0 -0.0002049099516339497 0.0040276026632150791 0 -0.00034993945461483965 0.0032852219011306866 0 -0.00033366977105418896 0.0032487073932011609 0 -0.00028170785895723619 0.0032739929437820138 0 -0.00032920850210569523 0.0032215400791618999 0 -0.00033366977105418896 0.0032487073932011609 0 -0.00028170785895723619 0.0032739929437820138 0 3.76685654535646e-05 0.0048298526768519642 0 -0.00012017152155696443 0.0048020272465327989 0 -1.0723957118633281e-05 0.004730461404330609 0 -1.0723957118633281e-05 0.004730461404330609 0 -9.5383393764406963e-05 0.0046528511901832558 0 2.0546695265834335e-05 0.0045847069640799236 0 -0.00023072667110144159 0.0046686226376996395 0 -0.00012017152155696443 0.0048020272465327989 0 -9.5383393764406963e-05 0.0046528511901832558 0 -0.00012017152155696443 0.0048020272465327989 0 -1.0723957118633281e-05 0.004730461404330609 0 -9.5383393764406963e-05 0.0046528511901832558 0 4.8361943567405707e-07 0.0049822227344649616 0 3.8126894099329249e-05 0.0049747638502932396 0 1.4418621289073065e-05 0.004959529142583039 0 -1.0723957118633281e-05 0.004730461404330609 0 8.1013913124689216e-05 0.0047219504421867316 0 2.0546695265834335e-05 0.0045847069640799236 0 3.76685654535646e-05 0.0048298526768519642 0 -1.0723957118633281e-05 0.004730461404330609 0 8.1013913124689216e-05 0.0047219504421867316 0 3.76685654535646e-05 0.0048298526768519642 0 8.1013913124689216e-05 0.0047219504421867316 0 0.00010427188422629062 0.0048429905388675115 0 4.8361943567405707e-07 0.0049822227344649616 0 4.7162261793433699e-05 0.0049791468075954292 0 3.8126894099329249e-05 0.0049747638502932396 0 3.7513991244616294e-05 0.0048487650075854849 0 7.1328294682614267e-05 0.0049064819827505275 0 4.7162261793433699e-05 0.0049791468075954292 0 5.055167299962973e-05 0.0049765688199661217 0 3.8126894099329249e-05 0.0049747638502932396 0 5.055167299962973e-05 0.0049765688199661217 0 4.5934433971961608e-05 0.0049737734149260726 0 4.2797805100489352e-05 0.0049754497436571808 0 5.055167299962973e-05 0.0049765688199661217 0 3.8126894099329249e-05 0.0049747638502932396 0 4.5934433971961608e-05 0.0049737734149260726 0 3.8126894099329249e-05 0.0049747638502932396 0 4.2395344574752571e-05 0.004961268500187117 0 4.5934433971961608e-05 0.0049737734149260726 0 3.8126894099329249e-05 0.0049747638502932396 0 4.2395344574752571e-05 0.004961268500187117 0 1.4418621289073065e-05 0.004959529142583039 0 4.2395344574752571e-05 0.004961268500187117 0 2.9036757686492528e-05 0.0049377456395655146 0 1.4418621289073065e-05 0.004959529142583039 0 4.2395344574752571e-05 0.004961268500187117 0 5.1248184531528317e-05 0.0049529570860958388 0 4.5934433971961608e-05 0.0049737734149260726 0 4.2395344574752571e-05 0.004961268500187117 0 5.1248184531528317e-05 0.0049529570860958388 0 4.9907004333658475e-05 0.0049379762191394949 0 4.2395344574752571e-05 0.004961268500187117 0 4.9907004333658475e-05 0.0049379762191394949 0 2.9036757686492528e-05 0.0049377456395655146 0 5.1248184531528317e-05 0.0049529570860958388 0 4.9907004333658475e-05 0.0049379762191394949 0 5.9314316311015542e-05 0.0049439894093090443 0 4.9907004333658475e-05 0.0049379762191394949 0 4.6927517041382717e-05 0.0049118437875319059 0 6.1890794959804804e-05 0.0049275413593998169 0 4.9907004333658475e-05 0.0049379762191394949 0 6.1890794959804804e-05 0.0049275413593998169 0 5.9314316311015542e-05 0.0049439894093090443 0 2.9036757686492528e-05 0.0049377456395655146 0 9.0233080123322058e-06 0.004905845345566073 0 4.6927517041382717e-05 0.0049118437875319059 0 4.9907004333658475e-05 0.0049379762191394949 0 2.9036757686492528e-05 0.0049377456395655146 0 4.6927517041382717e-05 0.0049118437875319059 0 -6.6688945808260621e-06 0.0049364347992656172 0 -3.5874137059982066e-05 0.0049214196508702655 0 9.0233080123322058e-06 0.004905845345566073 0 2.9036757686492528e-05 0.0049377456395655146 0 -6.6688945808260621e-06 0.0049364347992656172 0 9.0233080123322058e-06 0.004905845345566073 0 2.9036757686492528e-05 0.0049377456395655146 0 -6.6688945808260621e-06 0.0049364347992656172 0 1.4418621289073065e-05 0.004959529142583039 0 4.8361943567405707e-07 0.0049822227344649616 0 1.4418621289073065e-05 0.004959529142583039 0 -5.9741935124256515e-05 0.0049587418516117811 0 -6.6688945808260621e-06 0.0049364347992656172 0 1.4418621289073065e-05 0.004959529142583039 0 -5.9741935124256515e-05 0.0049587418516117811 0 3.7513991244616294e-05 0.0048487650075854849 0 -2.1472641306146581e-05 0.0047698727237707383 0 -6.6688945808260621e-06 0.0049364347992656172 0 -5.9741935124256515e-05 0.0049587418516117811 0 -3.5874137059982066e-05 0.0049214196508702655 0 -0.00013462981702777553 0.004907636328935731 0 -3.5874137059982066e-05 0.0049214196508702655 0 -4.4002330777391436e-05 0.0048752886359906718 0 -3.5874137059982066e-05 0.0049214196508702655 0 -4.4002330777391436e-05 0.0048752886359906718 0 9.0233080123322058e-06 0.004905845345566073 0 -4.4002330777391436e-05 0.0048752886359906718 0 9.0233080123322058e-06 0.004905845345566073 0 8.8823418016423101e-06 0.0048640809551095 0 -4.4002330777391436e-05 0.0048752886359906718 0 8.8823418016423101e-06 0.0048640809551095 0 -3.1479581759660466e-05 0.0048276243711192742 0 8.8823418016423101e-06 0.0048640809551095 0 5.5284422104434293e-06 0.0048232332213348243 0 3.6888105885967092e-05 0.0048378438128140293 0 8.8823418016423101e-06 0.0048640809551095 0 -3.1479581759660466e-05 0.0048276243711192742 0 5.5284422104434293e-06 0.0048232332213348243 0 -3.1479581759660466e-05 0.0048276243711192742 0 5.5284422104434293e-06 0.0048232332213348243 0 -1.6953602167634761e-05 0.0047743852941147203 0 -0.00011045606172871558 0.0047642357229801058 0 -8.8207949087231078e-05 0.0048300984907797542 0 -6.191295277886256e-05 0.0047876233833975572 0 -4.4002330777391436e-05 0.0048752886359906718 0 -3.1479581759660466e-05 0.0048276243711192742 0 -8.8207949087231078e-05 0.0048300984907797542 0 -3.1479581759660466e-05 0.0048276243711192742 0 -8.8207949087231078e-05 0.0048300984907797542 0 -6.191295277886256e-05 0.0047876233833975572 0 -0.00011045606172871558 0.0047642357229801058 0 -6.191295277886256e-05 0.0047876233833975572 0 -6.0686209426973012e-05 0.0047264098907128229 0 -6.0686209426973012e-05 0.0047264098907128229 0 -1.6953602167634761e-05 0.0047743852941147203 0 -1.8522299838154312e-05 0.004693003923372574 0 -6.191295277886256e-05 0.0047876233833975572 0 -6.0686209426973012e-05 0.0047264098907128229 0 -1.6953602167634761e-05 0.0047743852941147203 0 -3.1479581759660466e-05 0.0048276243711192742 0 -6.191295277886256e-05 0.0047876233833975572 0 -1.6953602167634761e-05 0.0047743852941147203 0 -1.6953602167634761e-05 0.0047743852941147203 0 2.2996571855828493e-05 0.0047476898741329876 0 -1.8522299838154312e-05 0.004693003923372574 0 -1.6953602167634761e-05 0.0047743852941147203 0 2.2996571855828493e-05 0.0047476898741329876 0 3.7779770076202064e-05 0.0047973499804400167 0 5.5284422104434293e-06 0.0048232332213348243 0 -1.6953602167634761e-05 0.0047743852941147203 0 3.7779770076202064e-05 0.0047973499804400167 0 -1.8522299838154312e-05 0.004693003923372574 0 3.3154786914650284e-05 0.0046923390075615332 0 4.6581985675312319e-05 0.0045796238496628042 0 2.2996571855828493e-05 0.0047476898741329876 0 -1.8522299838154312e-05 0.004693003923372574 0 3.3154786914650284e-05 0.0046923390075615332 0 -6.0686209426973012e-05 0.0047264098907128229 0 -1.8522299838154312e-05 0.004693003923372574 0 -5.4154284960594248e-05 0.004633802345476095 0 -0.00010902892110382074 0.0046924096529765832 0 -6.0686209426973012e-05 0.0047264098907128229 0 -5.4154284960594248e-05 0.004633802345476095 0 0.00015827178729493441 0.0046989406868392977 0 9.3918470826488207e-05 0.0046591178775538481 0 0.00015519843209345211 0.0046220355153217384 0 0.00015827178729493441 0.0046989406868392977 0 9.3918470826488207e-05 0.0046591178775538481 0 0.00014167400733846653 0.0047350815615804691 0 0.00015827178729493441 0.0046989406868392977 0 0.00014167400733846653 0.0047350815615804691 0 0.00021697362506100117 0.0046671382216978757 0 0.00015827178729493441 0.0046989406868392977 0 0.00022875291349625662 0.0046396157621189536 0 0.00015519843209345211 0.0046220355153217384 0 0.00010910117133295138 0.0048152676678263739 0 0.00013538359386271442 0.0048441169771824746 0 8.0041801310537389e-05 0.0046787312230228443 0 5.8160467087976287e-05 0.0047505588749433602 0 0.00011542238798827982 0.0047752589589816494 0 8.4066439683125186e-05 0.0046569066300064599 0 0.00010910117133295138 0.0048152676678263739 0 3.3154786914650284e-05 0.0046923390075615332 0 8.0041801310537389e-05 0.0046787312230228443 0 5.8160467087976287e-05 0.0047505588749433602 0 2.2996571855828493e-05 0.0047476898741329876 0 3.3154786914650284e-05 0.0046923390075615332 0 5.8160467087976287e-05 0.0047505588749433602 0 2.2996571855828493e-05 0.0047476898741329876 0 5.8160467087976287e-05 0.0047505588749433602 0 3.7779770076202064e-05 0.0047973499804400167 0 5.8160467087976287e-05 0.0047505588749433602 0 6.9264631248970067e-05 0.0048121092875053747 0 0.00011542238798827982 0.0047752589589816494 0 5.8160467087976287e-05 0.0047505588749433602 0 3.7779770076202064e-05 0.0047973499804400167 0 6.9264631248970067e-05 0.0048121092875053747 0 6.9264631248970067e-05 0.0048121092875053747 0 7.997491360859892e-05 0.0048015632700260952 0 7.1102613031147314e-05 0.004830823796412185 0 8.6322280703702732e-05 0.0048136273028083088 0 0.00010910117133295138 0.0048152676678263739 0 7.1102613031147314e-05 0.004830823796412185 0 6.8486556673792452e-05 0.0048542547794212772 0 9.3637828557276159e-05 0.0048758558511141558 0 0.00010910117133295138 0.0048152676678263739 0 8.1154326331775773e-05 0.0049184286336950451 0 7.997491360859892e-05 0.0048015632700260952 0 7.1102613031147314e-05 0.004830823796412185 0 9.3637828557276159e-05 0.0048758558511141558 0 7.1102613031147314e-05 0.004830823796412185 0 6.8486556673792452e-05 0.0048542547794212772 0 5.7740258422513795e-05 0.0048396658926239764 0 6.8486556673792452e-05 0.0048542547794212772 0 7.1958289289328676e-05 0.0048819810079394595 0 5.9275663237930333e-05 0.0048863516018265813 0 6.8486556673792452e-05 0.0048542547794212772 0 4.4222726035905988e-05 0.0048768012882591943 0 5.9275663237930333e-05 0.0048863516018265813 0 6.8486556673792452e-05 0.0048542547794212772 0 7.1958289289328676e-05 0.0048819810079394595 0 9.3637828557276159e-05 0.0048758558511141558 0 7.1958289289328676e-05 0.0048819810079394595 0 7.8442761836058138e-05 0.0048928833960480362 0 9.3637828557276159e-05 0.0048758558511141558 0 5.5284422104434293e-06 0.0048232332213348243 0 3.7779770076202064e-05 0.0047973499804400167 0 3.6888105885967092e-05 0.0048378438128140293 0 3.7779770076202064e-05 0.0047973499804400167 0 6.9264631248970067e-05 0.0048121092875053747 0 3.6888105885967092e-05 0.0048378438128140293 0 6.9264631248970067e-05 0.0048121092875053747 0 3.6888105885967092e-05 0.0048378438128140293 0 5.7740258422513795e-05 0.0048396658926239764 0 6.9264631248970067e-05 0.0048121092875053747 0 7.1102613031147314e-05 0.004830823796412185 0 5.7740258422513795e-05 0.0048396658926239764 0 6.8486556673792452e-05 0.0048542547794212772 0 5.7740258422513795e-05 0.0048396658926239764 0 4.4222726035905988e-05 0.0048768012882591943 0 3.6888105885967092e-05 0.0048378438128140293 0 5.7740258422513795e-05 0.0048396658926239764 0 4.4222726035905988e-05 0.0048768012882591943 0 8.8823418016423101e-06 0.0048640809551095 0 3.6888105885967092e-05 0.0048378438128140293 0 4.4222726035905988e-05 0.0048768012882591943 0 9.0233080123322058e-06 0.004905845345566073 0 4.4222726035905988e-05 0.0048768012882591943 0 4.6927517041382717e-05 0.0049118437875319059 0 9.0233080123322058e-06 0.004905845345566073 0 8.8823418016423101e-06 0.0048640809551095 0 4.4222726035905988e-05 0.0048768012882591943 0 7.1958289289328676e-05 0.0048819810079394595 0 6.748217591774294e-05 0.004907202916985173 0 7.8442761836058138e-05 0.0048928833960480362 0 7.1958289289328676e-05 0.0048819810079394595 0 6.748217591774294e-05 0.004907202916985173 0 5.9275663237930333e-05 0.0048863516018265813 0 4.4222726035905988e-05 0.0048768012882591943 0 4.6927517041382717e-05 0.0049118437875319059 0 5.9275663237930333e-05 0.0048863516018265813 0 4.6927517041382717e-05 0.0049118437875319059 0 6.748217591774294e-05 0.004907202916985173 0 5.9275663237930333e-05 0.0048863516018265813 0 4.6927517041382717e-05 0.0049118437875319059 0 6.748217591774294e-05 0.004907202916985173 0 6.1890794959804804e-05 0.0049275413593998169 0 6.748217591774294e-05 0.004907202916985173 0 6.1890794959804804e-05 0.0049275413593998169 0 6.8703588594881286e-05 0.0049400291237572773 0 6.8703588594881286e-05 0.0049400291237572773 0 5.1387748294569206e-05 0.0049722887887622101 0 8.3885284999946237e-05 0.0049693246359711575 0 7.4468174603783328e-05 0.0049345707225683481 0 8.1154326331775773e-05 0.0049184286336950451 0 7.8442761836058138e-05 0.0048928833960480362 0 6.8703588594881286e-05 0.0049400291237572773 0 8.280910121525738e-05 0.0048892527298408208 0 6.748217591774294e-05 0.004907202916985173 0 7.8442761836058138e-05 0.0048928833960480362 0 6.8703588594881286e-05 0.0049400291237572773 0 6.8703588594881286e-05 0.0049400291237572773 0 4.2123566291090704e-05 0.0049588131141801986 0 5.1387748294569206e-05 0.0049722887887622101 0 6.8703588594881286e-05 0.0049400291237572773 0 4.2123566291090704e-05 0.0049588131141801986 0 5.0480111464327959e-05 0.004950558660089502 0 4.2123566291090704e-05 0.0049588131141801986 0 5.1387748294569206e-05 0.0049722887887622101 0 2.3394781560425848e-05 0.0049855513192159509 0 5.1387748294569206e-05 0.0049722887887622101 0 4.4367586619260821e-05 0.0049983221503245882 0 2.3394781560425848e-05 0.0049855513192159509 0 8.1154326331775773e-05 0.0049184286336950451 0 4.7418048135136033e-05 0.0049645353870720532 0 5.1387748294569206e-05 0.0049722887887622101 0 8.3885284999946237e-05 0.0049693246359711575 0 4.4367586619260821e-05 0.0049983221503245882 0 8.6411695058835123e-05 0.0049080043405541852 0 8.1154326331775773e-05 0.0049184286336950451 0 0.00010885585261415194 0.0049320070794166716 0 8.6314475326403414e-05 0.0048946083425897543 0 7.4240602885294212e-05 0.0049409267363930889 0 8.6314475326403414e-05 0.0048946083425897543 0 7.4240602885294212e-05 0.0049409267363930889 0 4.994223746769227e-05 0.0049277404258296397 0 7.4240602885294212e-05 0.0049409267363930889 0 4.994223746769227e-05 0.0049277404258296397 0 4.7942810488427317e-05 0.0049632768430527647 0 4.994223746769227e-05 0.0049277404258296397 0 4.7942810488427317e-05 0.0049632768430527647 0 1.4630989129374861e-05 0.004965368170989074 0 4.7942810488427317e-05 0.0049632768430527647 0 7.2965978827949538e-05 0.0049663126049746863 0 4.8273351639016059e-05 0.0049863326026614429 0 0.00010885585261415194 0.0049320070794166716 0 7.4240602885294212e-05 0.0049409267363930889 0 7.3566249508018365e-05 0.0049627936773607171 0 0.00018710452787987404 0.0046716957611940783 0 0.00016930219224853163 0.0047137973574545933 0 0.00015827178729493441 0.0046989406868392977 0 0.00021697362506100117 0.0046671382216978757 0 0.00021763520394404005 0.0046488181647221906 0 0.00013538359386271442 0.0048441169771824746 0 0.00016930219224853163 0.0047137973574545933 0 8.3818151264466166e-05 0.0049744398563785997 0 0.00013538359386271442 0.0048441169771824746 0 7.4240602885294212e-05 0.0049409267363930889 0 4.7942810488427317e-05 0.0049632768430527647 0 7.2965978827949538e-05 0.0049663126049746863 0 1.1635951267258137e-08 0.0050000212401801634 0 1.3422398062430338e-05 0.0050072188846212113 0 -2.497506282995551e-09 0.0050000028607240649 0 1.1635951267258137e-08 0.0050000212401801634 0 1.3422398062430338e-05 0.0050072188846212113 0 1.2171864056624611e-05 0.0049988034450445043 0 4.7942810488427317e-05 0.0049632768430527647 0 1.4630989129374861e-05 0.004965368170989074 0 3.0562294514006685e-05 0.004988664092622711 0 4.4367586619260821e-05 0.0049983221503245882 0 1.3422398062430338e-05 0.0050072188846212113 0 1.2171864056624611e-05 0.0049988034450445043 0 4.7418048135136033e-05 0.0049645353870720532 0 1.5933113872451783e-05 0.0049850097815333947 0 4.4367586619260821e-05 0.0049983221503245882 0 1.2171864056624611e-05 0.0049988034450445043 0 2.3394781560425848e-05 0.0049855513192159509 0 1.1635951267258137e-08 0.0050000212401801634 0 1.2171864056624611e-05 0.0049988034450445043 0 1.6022764892974669e-09 0.0049999390400925648 0 1.2171864056624611e-05 0.0049988034450445043 0 1.6022764892974669e-09 0.0049999390400925648 0 2.3394781560425848e-05 0.0049855513192159509 0 1.6022764892974669e-09 0.0049999390400925648 0 2.3394781560425848e-05 0.0049855513192159509 0 1.7153984335092436e-05 0.0049640075830761883 0 4.2123566291090704e-05 0.0049588131141801986 0 2.3394781560425848e-05 0.0049855513192159509 0 3.0537240397915749e-05 0.0049626933240704552 0 2.3394781560425848e-05 0.0049855513192159509 0 3.0537240397915749e-05 0.0049626933240704552 0 1.7153984335092436e-05 0.0049640075830761883 0 4.2123566291090704e-05 0.0049588131141801986 0 3.0537240397915749e-05 0.0049626933240704552 0 3.9656844025423724e-05 0.0049535040464174151 0 3.0706590514132752e-09 0.0049999941593598229 0 1.1423546648118578e-05 0.0049835926754477275 0 -1.159323569804475e-09 0.004999999488681052 0 3.0817624126063328e-06 0.0050015707671988733 0 6.6693743175580453e-09 0.0050000098548804491 0 1.1423546648118578e-05 0.0049835926754477275 0 2.6116091653918947e-05 0.0049777392168857144 0 3.0817624126063328e-06 0.0050015707671988733 0 6.6693743175580453e-09 0.0050000098548804491 0 1.4173429792172512e-05 0.0050010013772583831 0 6.6693743175580453e-09 0.0050000098548804491 0 1.4173429792172512e-05 0.0050010013772583831 0 6.4576174721329663e-09 0.0049999851992323773 0 3.4029184679875527e-05 0.0049811283516308265 0 3.9656844025423724e-05 0.0049535040464174151 0 4.2075045402313182e-05 0.0049632294904030658 0 3.232588734369696e-05 0.0049799684692346724 0 2.6116091653918947e-05 0.0049777392168857144 0 3.4029184679875527e-05 0.0049811283516308265 0 1.4173429792172512e-05 0.0050010013772583831 0 6.4576174721329663e-09 0.0049999851992323773 0 3.0537240397915749e-05 0.0049626933240704552 0 1.7153984335092436e-05 0.0049640075830761883 0 3.9656844025423724e-05 0.0049535040464174151 0 4.2123566291090704e-05 0.0049588131141801986 0 3.9656844025423724e-05 0.0049535040464174151 0 5.0480111464327959e-05 0.004950558660089502 0 3.9656844025423724e-05 0.0049535040464174151 0 5.0480111464327959e-05 0.004950558660089502 0 4.2075045402313182e-05 0.0049632294904030658 0 5.0480111464327959e-05 0.004950558660089502 0 4.9245839918803467e-05 0.0049595037765694776 0 4.2075045402313182e-05 0.0049632294904030658 0 6.1890794959804804e-05 0.0049275413593998169 0 6.8703588594881286e-05 0.0049400291237572773 0 5.9314316311015542e-05 0.0049439894093090443 0 6.8703588594881286e-05 0.0049400291237572773 0 5.0480111464327959e-05 0.004950558660089502 0 5.9314316311015542e-05 0.0049439894093090443 0 5.0480111464327959e-05 0.004950558660089502 0 5.9314316311015542e-05 0.0049439894093090443 0 4.9245839918803467e-05 0.0049595037765694776 0 5.1248184531528317e-05 0.0049529570860958388 0 5.9314316311015542e-05 0.0049439894093090443 0 4.9245839918803467e-05 0.0049595037765694776 0 4.9245839918803467e-05 0.0049595037765694776 0 4.2195021086710989e-05 0.0049732770178997484 0 4.5934433971961608e-05 0.0049737734149260726 0 5.1248184531528317e-05 0.0049529570860958388 0 4.9245839918803467e-05 0.0049595037765694776 0 4.5934433971961608e-05 0.0049737734149260726 0 4.9245839918803467e-05 0.0049595037765694776 0 4.2075045402313182e-05 0.0049632294904030658 0 4.2195021086710989e-05 0.0049732770178997484 0 3.4029184679875527e-05 0.0049811283516308265 0 4.2075045402313182e-05 0.0049632294904030658 0 4.2195021086710989e-05 0.0049732770178997484 0 3.4029184679875527e-05 0.0049811283516308265 0 4.2195021086710989e-05 0.0049732770178997484 0 3.656847714148643e-05 0.0049793584033723465 0 3.4029184679875527e-05 0.0049811283516308265 0 3.656847714148643e-05 0.0049793584033723465 0 1.8749207622432091e-05 0.004987777546875188 0 4.2195021086710989e-05 0.0049732770178997484 0 4.5934433971961608e-05 0.0049737734149260726 0 3.656847714148643e-05 0.0049793584033723465 0 4.5934433971961608e-05 0.0049737734149260726 0 4.2797805100489352e-05 0.0049754497436571808 0 3.656847714148643e-05 0.0049793584033723465 0 2.6534612427074684e-05 0.0049794095749727055 0 4.2797805100489352e-05 0.0049754497436571808 0 3.656847714148643e-05 0.0049793584033723465 0 2.6534612427074684e-05 0.0049794095749727055 0 3.656847714148643e-05 0.0049793584033723465 0 1.8749207622432091e-05 0.004987777546875188 0 1.8749207622432091e-05 0.004987777546875188 0 1.1001837609174203e-08 0.0049999815367528771 0 6.4576174721329663e-09 0.0049999851992323773 0 1.0485849153994916e-05 0.0049887470768660951 0 1.8749207622432091e-05 0.004987777546875188 0 1.1001837609174203e-08 0.0049999815367528771 0 3.4029184679875527e-05 0.0049811283516308265 0 1.8749207622432091e-05 0.004987777546875188 0 6.4576174721329663e-09 0.0049999851992323773 0 7.3625916142146657e-05 0.0048735758479296343 0 9.5959334453162086e-05 0.0048959885193205002 0 0.00016511641055799535 0.0047892318617266238 0 7.3625916142146657e-05 0.0048735758479296343 0 9.5959334453162086e-05 0.0048959885193205002 0 4.1869390175286118e-05 0.0049432495981322497 0 7.3625916142146657e-05 0.0048735758479296343 0 1.5109620114467297e-08 0.0049998886087832418 0 4.1869390175286118e-05 0.0049432495981322497 0 7.3625916142146657e-05 0.0048735758479296343 0 1.5109620114467297e-08 0.0049998886087832418 0 4.3344973391416187e-05 0.0049215315153850938 0 -1.5301854077586091e-08 0.0049999676396181294 0 2.9699718077320595e-05 0.0049855227029411732 0 1.1937518037730783e-10 0.0049999987883190197 0 6.5676927382585779e-07 0.0049986500316668171 0 1.2207369285390198e-09 0.0049999960434138546 0 2.9699718077320595e-05 0.0049855227029411732 0 9.0825819867711087e-05 0.0047884119512838878 0 6.5676927382585779e-07 0.0049986500316668171 0 1.1732681706770951e-06 0.004996762666129302 0 6.6188929494193048e-07 0.0049981583161938167 0 9.5959334453162086e-05 0.0048959885193205002 0 4.1869390175286118e-05 0.0049432495981322497 0 0.00013258219569149739 0.0050047764123740245 0 9.5959334453162086e-05 0.0048959885193205002 0 0.00013258219569149739 0.0050047764123740245 0 0.00016511641055799535 0.0047892318617266238 0 9.0825819867711087e-05 0.0047884119512838878 0 0.00015661280209461077 0.0048790620596002249 0 0.00011277436794216633 0.0049721672356041451 0 0.00020283508134167938 0.0048997422839690153 0 0.00025387439887102428 0.005041884057459636 0 0.00011277436794216633 0.0049721672356041451 0 0.00020283508134167938 0.0048997422839690153 0 0.00016511641055799535 0.0047892318617266238 0 0.00020283508134167938 0.0048997422839690153 0 0.0003224100880832567 0.0049301494843197978 0 0.00025387439887102428 0.005041884057459636 0 0.00020283508134167938 0.0048997422839690153 0 0.0003224100880832567 0.0049301494843197978 0 0.00024469202975479034 0.004633793782461669 0 0.0003230621867773947 0.004598269072796291 0 0.00024598269726232926 0.0045865238329914565 0 0.00028928626768322279 0.0041533188779650856 0 0.00024469202975479034 0.004633793782461669 0 0.00016357494877703376 0.0043740170890353858 0 7.3625916142146657e-05 0.0048735758479296343 0 0.00016511641055799535 0.0047892318617266238 0 0.00015055954939409983 0.0047466297376395012 0 0.00020283508134167938 0.0048997422839690153 0 0.00016511641055799535 0.0047892318617266238 0 0.00024469202975479034 0.004633793782461669 0 0.00016511641055799535 0.0047892318617266238 0 0.00015055954939409983 0.0047466297376395012 0 0.00024469202975479034 0.004633793782461669 0 0.00015055954939409983 0.0047466297376395012 0 0.00024469202975479034 0.004633793782461669 0 0.00017378971398533956 0.0046863388940160955 0 0.00015055954939409983 0.0047466297376395012 0 0.00017378971398533956 0.0046863388940160955 0 0.00010260930171649679 0.0048225842318157346 0 0.00024469202975479034 0.004633793782461669 0 0.00017126006707811748 0.0045501162721115242 0 0.00016357494877703376 0.0043740170890353858 0 0.00024469202975479034 0.004633793782461669 0 0.00017126006707811748 0.0045501162721115242 0 0.00017378971398533956 0.0046863388940160955 0 0.00017126006707811748 0.0045501162721115242 0 0.0001424548074878935 0.0046879239089098728 0 0.00012339677689290988 0.0045031144101601063 0 0.00017126006707811748 0.0045501162721115242 0 0.00017378971398533956 0.0046863388940160955 0 0.0001424548074878935 0.0046879239089098728 0 0.00017378971398533956 0.0046863388940160955 0 0.00012932381620557002 0.0047844839663140695 0 0.00010260930171649679 0.0048225842318157346 0 0.00017378971398533956 0.0046863388940160955 0 0.00012932381620557002 0.0047844839663140695 0 0.0001424548074878935 0.0046879239089098728 0 0.00012932381620557002 0.0047844839663140695 0 0.00010260930171649679 0.0048225842318157346 0 6.2609723404107812e-05 0.0048979404065942573 0 0.00012932381620557002 0.0047844839663140695 0 6.2609723404107812e-05 0.0048979404065942573 0 8.7578770766635962e-05 0.004880510925310934 0 7.3625916142146657e-05 0.0048735758479296343 0 0.00010260930171649679 0.0048225842318157346 0 4.3344973391416187e-05 0.0049215315153850938 0 0.00010260930171649679 0.0048225842318157346 0 4.3344973391416187e-05 0.0049215315153850938 0 6.2609723404107812e-05 0.0048979404065942573 0 7.3625916142146657e-05 0.0048735758479296343 0 0.00015055954939409983 0.0047466297376395012 0 0.00010260930171649679 0.0048225842318157346 0 1.5109620114467297e-08 0.0049998886087832418 0 4.3344973391416187e-05 0.0049215315153850938 0 3.6100601309170575e-08 0.0049998514683505454 0 4.3344973391416187e-05 0.0049215315153850938 0 3.6100601309170575e-08 0.0049998514683505454 0 6.2609723404107812e-05 0.0048979404065942573 0 3.6100601309170575e-08 0.0049998514683505454 0 4.9781890307029029e-08 0.0049999334725569422 0 6.2609723404107812e-05 0.0048979404065942573 0 4.9781890307029029e-08 0.0049999334725569422 0 6.2609723404107812e-05 0.0048979404065942573 0 8.7578770766635962e-05 0.004880510925310934 0 4.9781890307029029e-08 0.0049999334725569422 0 8.7578770766635962e-05 0.004880510925310934 0 4.1273125158339818e-08 0.0049996158275123111 0 0.00012932381620557002 0.0047844839663140695 0 8.7578770766635962e-05 0.004880510925310934 0 0.00013497567924507044 0.0047845109056309379 0 8.7578770766635962e-05 0.004880510925310934 0 0.00012273727009993717 0.0048212479608989263 0 0.00013497567924507044 0.0047845109056309379 0 8.7578770766635962e-05 0.004880510925310934 0 0.00012273727009993717 0.0048212479608989263 0 8.2067297565473915e-05 0.0048380609969297331 0 8.7578770766635962e-05 0.004880510925310934 0 4.1273125158339818e-08 0.0049996158275123111 0 8.2067297565473915e-05 0.0048380609969297331 0 1.6418859354067936e-08 0.0049999546395207593 0 1.6189209087313104e-05 0.0049897565528492296 0 1.3945971262214376e-05 0.0049859128999509865 0 1.6418859354067936e-08 0.0049999546395207593 0 -1.5484228578266714e-08 0.0050000437072561382 0 1.6189209087313104e-05 0.0049897565528492296 0 9.0638244441697568e-09 0.004999993954501806 0 5.6342935999310601e-06 0.0049989487059066461 0 2.1520375318702827e-08 0.0049999575649681827 0 5.2163063910706393e-05 0.0049191955462100784 0 -2.628334501827153e-09 0.0050000017872530141 0 7.7989228984009435e-09 0.0050000084800184766 0 6.2888530837757638e-06 0.005003316748328916 0 7.7989228984009435e-09 0.0050000084800184766 0 5.6966011729808686e-06 0.0049991080461970535 0 -1.0489044516025325e-08 0.0049999758543303272 0 5.6966011729808686e-06 0.0049991080461970535 0 6.2888530837757638e-06 0.005003316748328916 0 1.7926504528669539e-05 0.004998283410667762 0 7.7989228984009435e-09 0.0050000084800184766 0 5.6966011729808686e-06 0.0049991080461970535 0 6.2888530837757638e-06 0.005003316748328916 0 5.6342935999310601e-06 0.0049989487059066461 0 4.7691668915847383e-05 0.0049281691618341958 0 5.2163063910706393e-05 0.0049191955462100784 0 7.8928642523797311e-05 0.0048701765168790382 0 1.6189209087313104e-05 0.0049897565528492296 0 1.3945971262214376e-05 0.0049859128999509865 0 4.3125163335619787e-05 0.0049586676609058924 0 0.00012273727009993717 0.0048212479608989263 0 8.2067297565473915e-05 0.0048380609969297331 0 0.00011737003083052801 0.0048174210135299442 0 1.6189209087313104e-05 0.0049897565528492296 0 4.3125163335619787e-05 0.0049586676609058924 0 4.926281671884917e-05 0.0049620441230010187 0 4.7691668915847383e-05 0.0049281691618341958 0 4.5766271099742449e-05 0.0049440150311489761 0 4.7691668915847383e-05 0.0049281691618341958 0 7.8928642523797311e-05 0.0048701765168790382 0 6.2888530837757638e-06 0.005003316748328916 0 2.0612850779543382e-05 0.0049996874122075312 0 1.7926504528669539e-05 0.004998283410667762 0 1.7926504528669539e-05 0.004998283410667762 0 1.3926956609456906e-05 0.0049840890458188701 0 8.5144570982262404e-06 0.0049949349297315837 0 2.5054139304126469e-05 0.0050028990343174177 0 1.7926504528669539e-05 0.004998283410667762 0 3.0562294514006685e-05 0.004988664092622711 0 1.7926504528669539e-05 0.004998283410667762 0 3.0562294514006685e-05 0.004988664092622711 0 1.3926956609456906e-05 0.0049840890458188701 0 1.4630989129374861e-05 0.004965368170989074 0 3.0562294514006685e-05 0.004988664092622711 0 1.3926956609456906e-05 0.0049840890458188701 0 1.3926956609456906e-05 0.0049840890458188701 0 -1.0489044516025325e-08 0.0049999758543303272 0 8.5144570982262404e-06 0.0049949349297315837 0 1.5933113872451783e-05 0.0049850097815333947 0 5.2164793370517572e-09 0.0049999946338863035 0 1.4630989129374861e-05 0.004965368170989074 0 1.3926956609456906e-05 0.0049840890458188701 0 -1.0489044516025325e-08 0.0049999758543303272 0 5.6966011729808686e-06 0.0049991080461970535 0 -1.0489044516025325e-08 0.0049999758543303272 0 8.5144570982262404e-06 0.0049949349297315837 0 5.6966011729808686e-06 0.0049991080461970535 0 1.7926504528669539e-05 0.004998283410667762 0 8.5144570982262404e-06 0.0049949349297315837 0 0.00019541508829863365 0.0045979551174306164 0 0.0002311114206864388 0.0045712721178523263 0 0.00016113061728732157 0.0045492000105299864 0 0.00016930219224853163 0.0047137973574545933 0 0.0001862164963669388 0.0046399500702013763 0 0.00019541508829863365 0.0045979551174306164 0 0.00022875291349625662 0.0046396157621189536 0 0.00015519843209345211 0.0046220355153217384 0 0.00019541508829863365 0.0045979551174306164 0 0.00022875291349625662 0.0046396157621189536 0 0.0002311114206864388 0.0045712721178523263 0 0.0001580321409828481 0.0047943979882223492 0 0.00015713192243762452 0.0048156830016594307 0 0.00010270963066434731 0.0048430081511893599 0 7.8928642523797311e-05 0.0048701765168790382 0 0.00016930219224853163 0.0047137973574545933 0 5.9203165530395999e-05 0.0048983274115240137 0 0.00015713192243762452 0.0048156830016594307 0 0.00010270963066434731 0.0048430081511893599 0 0.00011586939378796348 0.0047402506454845049 0 0.00014469668679035496 0.0047153989920244496 0 0.00014373625398986074 0.0047350842486676183 0 0.00013538359386271442 0.0048441169771824746 0 6.8137207899192722e-05 0.0049208867406302006 0 4.7942810488427317e-05 0.0049632768430527647 0 3.0562294514006685e-05 0.004988664092622711 0 4.8273351639016059e-05 0.0049863326026614429 0 4.7450497272743661e-05 0.0048916693577510471 0 5.9203165530395999e-05 0.0048983274115240137 0 0.00010270963066434731 0.0048430081511893599 0 2.5054139304126469e-05 0.0050028990343174177 0 3.0562294514006685e-05 0.004988664092622711 0 4.8273351639016059e-05 0.0049863326026614429 0 4.7691668915847383e-05 0.0049281691618341958 0 6.8137207899192722e-05 0.0049208867406302006 0 0.00012273727009993717 0.0048212479608989263 0 0.00011737003083052801 0.0048174210135299442 0 0.00010537746574446616 0.0048231747851435938 0 0.00011586939378796348 0.0047402506454845049 0 0.00014373625398986074 0.0047350842486676183 0 0.00014282812080642778 0.004754381419531801 0 7.8928642523797311e-05 0.0048701765168790382 0 0.00014828588173229295 0.0046779918941744648 0 0.0001862164963669388 0.0046399500702013763 0 0.00014828588173229295 0.0046779918941744648 0 0.0002311114206864388 0.0045712721178523263 0 0.00023308136438661073 0.0045042236456240368 0 0.00016113061728732157 0.0045492000105299864 0 0.00014828588173229295 0.0046779918941744648 0 0.00012999436330777891 0.0047121288222483617 0 0.00012773720295827684 0.0046320423733987419 0 0.0001424548074878935 0.0046879239089098728 0 0.00013068965463626387 0.0046065362184933437 0 0.00010537746574446616 0.0048231747851435938 0 0.00013497567924507044 0.0047845109056309379 0 0.0001424548074878935 0.0046879239089098728 0 0.00012273727009993717 0.0048212479608989263 0 0.00010537746574446616 0.0048231747851435938 0 0.00013497567924507044 0.0047845109056309379 0 0.00012932381620557002 0.0047844839663140695 0 0.00013497567924507044 0.0047845109056309379 0 0.0001424548074878935 0.0046879239089098728 0 0.0001424548074878935 0.0046879239089098728 0 0.00013068965463626387 0.0046065362184933437 0 0.00012339677689290988 0.0045031144101601063 0 0.00013068965463626387 0.0046065362184933437 0 3.583186729215639e-05 0.0044008369073726397 0 0.00012339677689290988 0.0045031144101601063 0 0.00013292210579442034 0.0045037679283399315 0 4.3497463189712544e-05 0.0044227062645173952 0 0.00012503871802337262 0.0044433384188716247 0 2.0414302436186796e-05 0.0044701091051920728 0 3.583186729215639e-05 0.0044008369073726397 0 0.00012503871802337262 0.0044433384188716247 0 8.6791046274705167e-05 0.0045166008611661522 0 2.0414302436186796e-05 0.0044701091051920728 0 0.00023308136438661073 0.0045042236456240368 0 0.00012503871802337262 0.0044433384188716247 0 0.00016113061728732157 0.0045492000105299864 0 0.00014828588173229295 0.0046779918941744648 0 0.00013292210579442034 0.0045037679283399315 0 0.00012503871802337262 0.0044433384188716247 0 0.00016113061728732157 0.0045492000105299864 0 8.6791046274705167e-05 0.0045166008611661522 0 0.00016113061728732157 0.0045492000105299864 0 8.6791046274705167e-05 0.0045166008611661522 0 0.00010906253540293774 0.0045857563252430789 0 8.6791046274705167e-05 0.0045166008611661522 0 0.00010906253540293774 0.0045857563252430789 0 4.6581985675312319e-05 0.0045796238496628042 0 9.3918470826488207e-05 0.0046591178775538481 0 0.00010906253540293774 0.0045857563252430789 0 4.6581985675312319e-05 0.0045796238496628042 0 3.3154786914650284e-05 0.0046923390075615332 0 8.0041801310537389e-05 0.0046787312230228443 0 4.6581985675312319e-05 0.0045796238496628042 0 8.4066439683125186e-05 0.0046569066300064599 0 4.8936444215737213e-05 0.0045899762191115284 0 9.3918470826488207e-05 0.0046591178775538481 0 0.00010906253540293774 0.0045857563252430789 0 0.00015519843209345211 0.0046220355153217384 0 0.00019541508829863365 0.0045979551174306164 0 0.00016113061728732157 0.0045492000105299864 0 0.00015519843209345211 0.0046220355153217384 0 0.00016113061728732157 0.0045492000105299864 0 0.00010906253540293774 0.0045857563252430789 0 0.00015519843209345211 0.0046220355153217384 0 -5.4154284960594248e-05 0.004633802345476095 0 -2.8484926727565327e-05 0.0045471018147982744 0 -9.309238990547074e-05 0.0045633965046312933 0 -5.4154284960594248e-05 0.004633802345476095 0 -9.309238990547074e-05 0.0045633965046312933 0 -0.00011226237240354114 0.0046241394737359786 0 -5.4154284960594248e-05 0.004633802345476095 0 4.6581985675312319e-05 0.0045796238496628042 0 -2.8484926727565327e-05 0.0045471018147982744 0 -1.8522299838154312e-05 0.004693003923372574 0 -5.4154284960594248e-05 0.004633802345476095 0 4.6581985675312319e-05 0.0045796238496628042 0 4.6581985675312319e-05 0.0045796238496628042 0 -2.8484926727565327e-05 0.0045471018147982744 0 2.0414302436186796e-05 0.0044701091051920728 0 8.6791046274705167e-05 0.0045166008611661522 0 4.6581985675312319e-05 0.0045796238496628042 0 2.0414302436186796e-05 0.0044701091051920728 0 -2.8484926727565327e-05 0.0045471018147982744 0 2.0414302436186796e-05 0.0044701091051920728 0 -7.6999214891054833e-05 0.0044882516943255462 0 -2.8484926727565327e-05 0.0045471018147982744 0 -7.6999214891054833e-05 0.0044882516943255462 0 -9.309238990547074e-05 0.0045633965046312933 0 -3.6521600702765509e-05 0.0044173170380748519 0 2.0414302436186796e-05 0.0044701091051920728 0 -7.6999214891054833e-05 0.0044882516943255462 0 -3.6521600702765509e-05 0.0044173170380748519 0 2.0414302436186796e-05 0.0044701091051920728 0 3.583186729215639e-05 0.0044008369073726397 0 -3.6521600702765509e-05 0.0044173170380748519 0 -1.826456106900087e-05 0.0043381612986476067 0 -0.00010465415113891623 0.0043570951906370982 0 -3.6521600702765509e-05 0.0044173170380748519 0 3.583186729215639e-05 0.0044008369073726397 0 -1.826456106900087e-05 0.0043381612986476067 0 -1.826456106900087e-05 0.0043381612986476067 0 -5.7892799925569124e-05 0.0042097847709945298 0 -0.00010465415113891623 0.0043570951906370982 0 -1.826456106900087e-05 0.0043381612986476067 0 4.1246357556512567e-05 0.0043181051550602017 0 -5.7892799925569124e-05 0.0042097847709945298 0 2.6268517715501037e-06 0.0041527940479738129 0 4.1246357556512567e-05 0.0043181051550602017 0 -5.7892799925569124e-05 0.0042097847709945298 0 2.6268517715501037e-06 0.0041527940479738129 0 -8.2662707934453086e-05 0.0040005854041666603 0 -5.7892799925569124e-05 0.0042097847709945298 0 2.6268517715501037e-06 0.0041527940479738129 0 4.1246357556512567e-05 0.0043181051550602017 0 7.0303086124674593e-05 0.0042267888566197148 0 3.583186729215639e-05 0.0044008369073726397 0 -1.826456106900087e-05 0.0043381612986476067 0 4.1246357556512567e-05 0.0043181051550602017 0 4.1246357556512567e-05 0.0043181051550602017 0 0.00012339677689290988 0.0045031144101601063 0 0.00012209967586479748 0.0044144921802492677 0 3.583186729215639e-05 0.0044008369073726397 0 4.1246357556512567e-05 0.0043181051550602017 0 0.00012339677689290988 0.0045031144101601063 0 0.00017126006707811748 0.0045501162721115242 0 0.00012339677689290988 0.0045031144101601063 0 0.00012209967586479748 0.0044144921802492677 0 0.00017126006707811748 0.0045501162721115242 0 0.00012209967586479748 0.0044144921802492677 0 0.00016357494877703376 0.0043740170890353858 0 4.1246357556512567e-05 0.0043181051550602017 0 0.00012209967586479748 0.0044144921802492677 0 7.0303086124674593e-05 0.0042267888566197148 0 7.0303086124674593e-05 0.0042267888566197148 0 5.6129729493914688e-05 0.0040523438812604595 0 1.9915310282363582e-05 0.0040710070981327465 0 7.0303086124674593e-05 0.0042267888566197148 0 0.00016357494877703376 0.0043740170890353858 0 0.00013544904496509233 0.0041306851383173778 0 0.00012209967586479748 0.0044144921802492677 0 7.0303086124674593e-05 0.0042267888566197148 0 0.00016357494877703376 0.0043740170890353858 0 0.00028928626768322279 0.0041533188779650856 0 0.00013544904496509233 0.0041306851383173778 0 0.00020264960655852192 0.0039036839944866166 0 0.00028928626768322279 0.0041533188779650856 0 0.00016357494877703376 0.0043740170890353858 0 0.00013544904496509233 0.0041306851383173778 0 7.0303086124674593e-05 0.0042267888566197148 0 0.00013544904496509233 0.0041306851383173778 0 5.6129729493914688e-05 0.0040523438812604595 0 0.00013544904496509233 0.0041306851383173778 0 5.6129729493914688e-05 0.0040523438812604595 0 8.9778208628192474e-05 0.0039709337014561617 0 5.6129729493914688e-05 0.0040523438812604595 0 7.8667375247029024e-06 0.003930280147541502 0 4.2526521875826956e-05 0.0039404282776640551 0 7.8667375247029024e-06 0.003930280147541502 0 -2.5068902003913081e-05 0.0039919793984255674 0 1.9915310282363582e-05 0.0040710070981327465 0 5.6129729493914688e-05 0.0040523438812604595 0 7.8667375247029024e-06 0.003930280147541502 0 1.9915310282363582e-05 0.0040710070981327465 0 7.8667375247029024e-06 0.003930280147541502 0 -3.7191480589556483e-05 0.0038655141062568575 0 -2.5068902003913081e-05 0.0039919793984255674 0 -3.7191480589556483e-05 0.0038655141062568575 0 -2.5068902003913081e-05 0.0039919793984255674 0 -7.0772786582633398e-05 0.0038738292836263668 0 2.6268517715501037e-06 0.0041527940479738129 0 -2.5068902003913081e-05 0.0039919793984255674 0 1.9915310282363582e-05 0.0040710070981327465 0 2.6268517715501037e-06 0.0041527940479738129 0 -2.5068902003913081e-05 0.0039919793984255674 0 -8.2662707934453086e-05 0.0040005854041666603 0 2.6268517715501037e-06 0.0041527940479738129 0 7.0303086124674593e-05 0.0042267888566197148 0 1.9915310282363582e-05 0.0040710070981327465 0 -0.00019651246821511417 0.0039134783326811463 0 -8.2662707934453086e-05 0.0040005854041666603 0 -0.00014623113415372405 0.0037820827908683235 0 -8.2662707934453086e-05 0.0040005854041666603 0 -7.0772786582633398e-05 0.0038738292836263668 0 -0.00014623113415372405 0.0037820827908683235 0 -2.5068902003913081e-05 0.0039919793984255674 0 -8.2662707934453086e-05 0.0040005854041666603 0 -7.0772786582633398e-05 0.0038738292836263668 0 -7.0772786582633398e-05 0.0038738292836263668 0 -0.00014623113415372405 0.0037820827908683235 0 -7.3031086725113377e-05 0.0037440112552998544 0 -3.7191480589556483e-05 0.0038655141062568575 0 -7.0772786582633398e-05 0.0038738292836263668 0 -7.3031086725113377e-05 0.0037440112552998544 0 -0.00014623113415372405 0.0037820827908683235 0 -0.00015460974165484623 0.0036423680900902035 0 -7.3031086725113377e-05 0.0037440112552998544 0 -0.00014623113415372405 0.0037820827908683235 0 -0.00015460974165484623 0.0036423680900902035 0 -0.0002428716003900556 0.0036819884446037091 0 -0.00036852444063665608 0.0034616181344386053 0 -0.0002428716003900556 0.0036819884446037091 0 -0.00022511116013834877 0.0034818372451419642 0 -0.00015460974165484623 0.0036423680900902035 0 -0.0002428716003900556 0.0036819884446037091 0 -0.00022511116013834877 0.0034818372451419642 0 -0.00036852444063665608 0.0034616181344386053 0 -0.0002867933332965557 0.0032827189487439545 0 -0.00022511116013834877 0.0034818372451419642 0 -0.00036852444063665608 0.0034616181344386053 0 -0.0002428716003900556 0.0036819884446037091 0 -0.00036331365641294032 0.0039186893768508946 0 -0.0003850506684813522 0.0034351021541129917 0 -0.0004894584355862201 0.0033818578467976115 0 -0.00036852444063665608 0.0034616181344386053 0 -0.00036331365641294032 0.0039186893768508946 0 -0.00064545153030025012 0.00385154105348956 0 -0.00019651246821511417 0.0039134783326811463 0 -0.0002428716003900556 0.0036819884446037091 0 -0.00036331365641294032 0.0039186893768508946 0 -0.00019651246821511417 0.0039134783326811463 0 -0.00014623113415372405 0.0037820827908683235 0 -0.0002428716003900556 0.0036819884446037091 0 -0.00027899921971771363 0.0040742065736321057 0 -0.00036331365641294032 0.0039186893768508946 0 -0.00041187467516861119 0.0041565191401458134 0 -0.00019651246821511417 0.0039134783326811463 0 -0.00027899921971771363 0.0040742065736321057 0 -0.00036331365641294032 0.0039186893768508946 0 -0.00036331365641294032 0.0039186893768508946 0 -0.00058049143352175857 0.0040739401370734323 0 -0.00064545153030025012 0.00385154105348956 0 -0.00036331365641294032 0.0039186893768508946 0 -0.00041187467516861119 0.0041565191401458134 0 -0.00058049143352175857 0.0040739401370734323 0 -0.00041187467516861119 0.0041565191401458134 0 -0.00053022894524831755 0.0042682733717916291 0 -0.00058049143352175857 0.0040739401370734323 0 -0.00027899921971771363 0.0040742065736321057 0 -0.00041187467516861119 0.0041565191401458134 0 -0.00025541056521084039 0.004218924533051777 0 -0.00027899921971771363 0.0040742065736321057 0 -0.00025541056521084039 0.004218924533051777 0 -0.00016352973142514128 0.0040851743109309733 0 -0.00025541056521084039 0.004218924533051777 0 -0.00014632453704228806 0.0042202470203522666 0 -0.00016352973142514128 0.0040851743109309733 0 -0.00019651246821511417 0.0039134783326811463 0 -8.2662707934453086e-05 0.0040005854041666603 0 -0.00016352973142514128 0.0040851743109309733 0 -0.00019651246821511417 0.0039134783326811463 0 -0.00027899921971771363 0.0040742065736321057 0 -0.00016352973142514128 0.0040851743109309733 0 -8.2662707934453086e-05 0.0040005854041666603 0 -0.00016352973142514128 0.0040851743109309733 0 -5.7892799925569124e-05 0.0042097847709945298 0 -0.00014632453704228806 0.0042202470203522666 0 -5.7892799925569124e-05 0.0042097847709945298 0 -0.00010465415113891623 0.0043570951906370982 0 -0.00014632453704228806 0.0042202470203522666 0 -0.00016352973142514128 0.0040851743109309733 0 -5.7892799925569124e-05 0.0042097847709945298 0 -0.00014632453704228806 0.0042202470203522666 0 -0.00010465415113891623 0.0043570951906370982 0 -0.00018920766417245669 0.0043012767430268628 0 -0.00025541056521084039 0.004218924533051777 0 -0.00018920766417245669 0.0043012767430268628 0 -0.00025760683160301184 0.0043281874658754266 0 -0.00025541056521084039 0.004218924533051777 0 -0.00014632453704228806 0.0042202470203522666 0 -0.00018920766417245669 0.0043012767430268628 0 -0.00010465415113891623 0.0043570951906370982 0 -0.00018920766417245669 0.0043012767430268628 0 -0.00020180705179011454 0.004391501848636228 0 -0.00018920766417245669 0.0043012767430268628 0 -0.00025760683160301184 0.0043281874658754266 0 -0.00020180705179011454 0.004391501848636228 0 -0.00025760683160301184 0.0043281874658754266 0 -0.00020180705179011454 0.004391501848636228 0 -0.00030576667217371454 0.0044037083526630091 0 -0.00020180705179011454 0.004391501848636228 0 -0.0001506246382279492 0.0044568105891878308 0 -0.00022548991980813997 0.0044970137160967854 0 -0.00020180705179011454 0.004391501848636228 0 -0.00022548991980813997 0.0044970137160967854 0 -0.00030576667217371454 0.0044037083526630091 0 -3.6521600702765509e-05 0.0044173170380748519 0 -0.00010465415113891623 0.0043570951906370982 0 -7.6999214891054833e-05 0.0044882516943255462 0 -0.00010465415113891623 0.0043570951906370982 0 -0.00020180705179011454 0.004391501848636228 0 -0.0001506246382279492 0.0044568105891878308 0 -0.00010465415113891623 0.0043570951906370982 0 -0.0001506246382279492 0.0044568105891878308 0 -7.6999214891054833e-05 0.0044882516943255462 0 -7.6999214891054833e-05 0.0044882516943255462 0 -9.309238990547074e-05 0.0045633965046312933 0 -0.00015385891888906227 0.0045459492677291944 0 -0.0001506246382279492 0.0044568105891878308 0 -7.6999214891054833e-05 0.0044882516943255462 0 -0.00015385891888906227 0.0045459492677291944 0 -0.0001506246382279492 0.0044568105891878308 0 -0.00015385891888906227 0.0045459492677291944 0 -0.00022548991980813997 0.0044970137160967854 0 -0.00015385891888906227 0.0045459492677291944 0 -0.00022548991980813997 0.0044970137160967854 0 -0.00022270048025546161 0.004560117411882867 0 -0.00015385891888906227 0.0045459492677291944 0 -0.00022270048025546161 0.004560117411882867 0 -0.00018758582661325721 0.0046078559658718488 0 -0.00022270048025546161 0.004560117411882867 0 -0.00018758582661325721 0.0046078559658718488 0 -0.00024235236125060637 0.0046040234021048863 0 -0.00021881103732966905 0.0046552289861956911 0 -0.00018758582661325721 0.0046078559658718488 0 -0.00024235236125060637 0.0046040234021048863 0 -0.00015937345592876442 0.0046626010855153107 0 -0.00021881103732966905 0.0046552289861956911 0 -0.00018758582661325721 0.0046078559658718488 0 -0.00015385891888906227 0.0045459492677291944 0 -0.00018758582661325721 0.0046078559658718488 0 -0.00011226237240354114 0.0046241394737359786 0 -0.00015937345592876442 0.0046626010855153107 0 -0.00018758582661325721 0.0046078559658718488 0 -0.00011226237240354114 0.0046241394737359786 0 -9.309238990547074e-05 0.0045633965046312933 0 -0.00015385891888906227 0.0045459492677291944 0 -0.00011226237240354114 0.0046241394737359786 0 -0.00052503531168364762 0.0046331619081588496 0 -0.00046967375809643257 0.0045222934363321685 0 -0.00054185623662839912 0.0045406449775761779 0 -0.00057181376079558149 0.0037573661267044311 0 -0.0005235405967026277 0.0045561280315436024 0 -0.00040287198025516221 0.0039405540256989627 0 -0.00061831082760489798 0.0041062435937586792 0 -0.0006243453504437735 0.0044722828344542368 0 -0.00047771157316216901 0.0042221084427856159 0 -0.0005235405967026277 0.0045561280315436024 0 -0.00044100126143517483 0.0046181505810594815 0 -0.00034440585348623068 0.0045489936296617102 0 -0.00043959991180185531 0.0045374963685728764 0 -0.00057181376079558149 0.0037573661267044311 0 -0.00047771157316216901 0.0042221084427856159 0 -0.00057181376079558149 0.0037573661267044311 0 -0.0004055568369090502 0.0031736386594383246 0 -0.00042263906017968127 0.0042556002526414208 0 -0.00034576370640605351 0.0043183873970578145 0 -0.00044451713228301794 0.0043956198094209668 0 -0.00036145841533640892 0.0044640557209989062 0 -0.00036049099767128617 0.0045080630797180894 0 -0.00029042167974830849 0.0046485400122097051 0 -0.00024235236125060637 0.0046040234021048863 0 -0.0002828009598217827 0.0045517533739329328 0 -0.00029042167974830849 0.0046485400122097051 0 -0.00021881103732966905 0.0046552289861956911 0 -0.00024235236125060637 0.0046040234021048863 0 -0.00022270048025546161 0.004560117411882867 0 -0.00024235236125060637 0.0046040234021048863 0 -0.0002828009598217827 0.0045517533739329328 0 -0.00047771157316216901 0.0042221084427856159 0 -0.00036049099767128617 0.0045080630797180894 0 -0.00034440585348623068 0.0045489936296617102 0 -0.00037741493903275847 0.0044847634320661859 0 -0.00030576667217371454 0.0044037083526630091 0 -0.00034440585348623068 0.0045489936296617102 0 -0.00037741493903275847 0.0044847634320661859 0 -0.00043959991180185531 0.0045374963685728764 0 -0.00036049099767128617 0.0045080630797180894 0 -0.0003083316451216209 0.0044343765095946324 0 -0.00022548991980813997 0.0044970137160967854 0 -0.00033217379601015602 0.004577617611352165 0 -0.00030576667217371454 0.0044037083526630091 0 -0.00022548991980813997 0.0044970137160967854 0 -0.00022270048025546161 0.004560117411882867 0 -0.0002828009598217827 0.0045517533739329328 0 -0.00023440365284029251 0.004501488756896435 0 -0.00036049099767128617 0.0045080630797180894 0 -0.0005235405967026277 0.0045561280315436024 0 -0.0004016638012651544 0.0044185705880185871 0 -0.00046505279164664725 0.0044630275136363128 0 -0.0004677378502742737 0.0045091723245536423 0 -0.00039913559445603779 0.004426008955851074 0 -0.00037741493903275847 0.0044847634320661859 0 -0.00043959991180185531 0.0045374963685728764 0 -0.00039913559445603779 0.004426008955851074 0 -0.0004677378502742737 0.0045091723245536423 0 -0.00047097017838064811 0.0045224303736673913 0 -0.00039913559445603779 0.004426008955851074 0 -0.00052114827593979264 0.004549550000698197 0 -0.0005235405967026277 0.0045561280315436024 0 -0.00046967375809643257 0.0045222934363321685 0 -0.00050648960717160265 0.0044840395248153782 0 -0.00054185623662839912 0.0045406449775761779 0 -0.0004677378502742737 0.0045091723245536423 0 -0.00046967375809643257 0.0045222934363321685 0 -0.00050648960717160265 0.0044840395248153782 0 -0.00046505279164664725 0.0044630275136363128 0 -0.0004677378502742737 0.0045091723245536423 0 -0.00050648960717160265 0.0044840395248153782 0 -0.00046505279164664725 0.0044630275136363128 0 -0.00050648960717160265 0.0044840395248153782 0 -0.00048477998220888965 0.0044314100534123867 0 -0.00046676780919508668 0.0043645161752984569 0 -0.00053022894524831755 0.0042682733717916291 0 -0.00057423409324678406 0.0044140052324106718 0 -0.00050648960717160265 0.0044840395248153782 0 -0.00048477998220888965 0.0044314100534123867 0 -0.00057423409324678406 0.0044140052324106718 0 -0.00048477998220888965 0.0044314100534123867 0 -0.00046676780919508668 0.0043645161752984569 0 -0.00057423409324678406 0.0044140052324106718 0 -0.00048477998220888965 0.0044314100534123867 0 -0.00039913559445603779 0.004426008955851074 0 -0.00046676780919508668 0.0043645161752984569 0 -0.00046505279164664725 0.0044630275136363128 0 -0.00048477998220888965 0.0044314100534123867 0 -0.00039913559445603779 0.004426008955851074 0 -0.00039913559445603779 0.004426008955851074 0 -0.00046676780919508668 0.0043645161752984569 0 -0.00036871184991293796 0.0043087567161464212 0 -0.00037741493903275847 0.0044847634320661859 0 -0.00039913559445603779 0.004426008955851074 0 -0.00030576667217371454 0.0044037083526630091 0 -0.00039913559445603779 0.004426008955851074 0 -0.00030576667217371454 0.0044037083526630091 0 -0.00036871184991293796 0.0043087567161464212 0 -0.00041187467516861119 0.0041565191401458134 0 -0.00025541056521084039 0.004218924533051777 0 -0.00036871184991293796 0.0043087567161464212 0 -0.00025760683160301184 0.0043281874658754266 0 -0.00030576667217371454 0.0044037083526630091 0 -0.00036871184991293796 0.0043087567161464212 0 -0.00025541056521084039 0.004218924533051777 0 -0.00025760683160301184 0.0043281874658754266 0 -0.00036871184991293796 0.0043087567161464212 0 -0.00041187467516861119 0.0041565191401458134 0 -0.00036871184991293796 0.0043087567161464212 0 -0.00053022894524831755 0.0042682733717916291 0 -0.00046676780919508668 0.0043645161752984569 0 -0.00036871184991293796 0.0043087567161464212 0 -0.00053022894524831755 0.0042682733717916291 0 -0.00064927675851711366 0.0042005989920998847 0 -0.00065606921399481548 0.0043045197608334793 0 -0.00053022894524831755 0.0042682733717916291 0 -0.00064927675851711366 0.0042005989920998847 0 -0.00065606921399481548 0.0043045197608334793 0 -0.00075392087547387465 0.0042478132671118435 0 -0.00065606921399481548 0.0043045197608334793 0 -0.00075392087547387465 0.0042478132671118435 0 -0.00077114086546874519 0.0043873800061802462 0 -0.00065606921399481548 0.0043045197608334793 0 -0.00077114086546874519 0.0043873800061802462 0 -0.00057423409324678406 0.0044140052324106718 0 -0.00065606921399481548 0.0043045197608334793 0 -0.00053022894524831755 0.0042682733717916291 0 -0.00057423409324678406 0.0044140052324106718 0 -0.00050648960717160265 0.0044840395248153782 0 -0.00057423409324678406 0.0044140052324106718 0 -0.00054185623662839912 0.0045406449775761779 0 -0.00057423409324678406 0.0044140052324106718 0 -0.00064164914686647427 0.0045281011050026304 0 -0.00054185623662839912 0.0045406449775761779 0 -0.00055326450801014581 0.0032861968466002542 0 -0.00048299189544636685 0.0033491017871167669 0 -0.00077114086546874519 0.0043873800061802462 0 -0.00057423409324678406 0.0044140052324106718 0 -0.00064164914686647427 0.0045281011050026304 0 -0.00032211510072718803 0.0021366031989093269 0 -0.00033347355680694607 0.0021205625788948577 0 -0.00031387334509303807 0.0021143303249830771 0 -0.00033347355680694607 0.0021205625788948577 0 -0.00032724210008367854 0.0021057350088053181 0 -0.00031387334509303807 0.0021143303249830771 0 -0.00033508116917143558 0.0020895982086566855 0 -0.00032724210008367854 0.0021057350088053181 0 -0.00030585453326703463 0.0020968446119423207 0 -0.00052503531168364762 0.0046331619081588496 0 -0.00054185623662839912 0.0045406449775761779 0 -0.00053543568328275721 0.0046409484582294758 0 -0.00064164914686647427 0.0045281011050026304 0 -0.00054185623662839912 0.0045406449775761779 0 -0.00053543568328275721 0.0046409484582294758 0 -0.00033347355680694607 0.0021205625788948577 0 -0.00032724210008367854 0.0021057350088053181 0 -0.00034878579945530572 0.0021070384572445802 0 -0.00048299189544636685 0.0033491017871167669 0 -0.0004055568369090502 0.0031736386594383246 0 -0.00052865590960120355 0.001380353658040537 0 -0.00041221304423424992 0.0017079275990168766 0 -0.00032633383673979496 0.0013652490883530042 0 -0.00032724210008367854 0.0021057350088053181 0 -0.00030585453326703463 0.0020968446119423207 0 -0.00031387334509303807 0.0021143303249830771 0 -0.00030585453326703463 0.0020968446119423207 0 -0.00031387334509303807 0.0021143303249830771 0 -0.00027319144720778908 0.0021035719504538869 0 -0.00031387334509303807 0.0021143303249830771 0 -0.00027319144720778908 0.0021035719504538869 0 -0.00030436422559152566 0.002133750178461949 0 -0.00042975235549608563 0.0017351880680723712 0 -0.0003290632714930933 0.0019127875702439404 0 -0.00027319144720778908 0.0021035719504538869 0 -0.00030436422559152566 0.002133750178461949 0 -0.00029675872067271258 0.0021524056579380743 0 -0.00027319144720778908 0.0021035719504538869 0 -0.00029675872067271258 0.0021524056579380743 0 -0.0001437487954602337 0.0021378925939382512 0 -0.00055326450801014581 0.0032861968466002542 0 -0.00046095691471987487 0.0029655026400851429 0 -0.00032211510072718803 0.0021366031989093269 0 -0.00031387334509303807 0.0021143303249830771 0 -0.00030436422559152566 0.002133750178461949 0 -0.00032211510072718803 0.0021366031989093269 0 -0.00030436422559152566 0.002133750178461949 0 -0.00030696241462090378 0.0021675362332634544 0 -0.00030436422559152566 0.002133750178461949 0 -0.00030696241462090378 0.0021675362332634544 0 -0.00029675872067271258 0.0021524056579380743 0 -0.00075392087547387465 0.0042478132671118435 0 -0.00077114086546874519 0.0043873800061802462 0 -0.00089396306977880795 0.0042293931989172114 0 -0.00075392087547387465 0.0042478132671118435 0 -0.00089396306977880795 0.0042293931989172114 0 -0.00076718828015961385 0.0040704306921872805 0 -0.00046095691471987487 0.0029655026400851429 0 -0.0001489781613969053 0.0022359190289282546 0 -0.00029675872067271258 0.0021524056579380743 0 -0.00022632389072472356 0.0022628604157403768 0 -0.0001437487954602337 0.0021378925939382512 0 -0.00039163081702758747 0.0022169295160272325 0 -0.00029675872067271258 0.0021524056579380743 0 -0.00022632389072472356 0.0022628604157403768 0 -0.00022632389072472356 0.0022628604157403768 0 -0.0002352527492081673 0.0024754857652757728 0 -0.0001243459764823569 0.0023779591295655647 0 -0.00027116661722564737 0.0024940876170394012 0 -0.0002352527492081673 0.0024754857652757728 0 -0.00027319006135702214 0.0025597919249434192 0 -0.00046095691471987487 0.0029655026400851429 0 -0.00028815654782113174 0.0023136807170167635 0 -0.00039163081702758747 0.0022169295160272325 0 -0.00022632389072472356 0.0022628604157403768 0 -0.0002352527492081673 0.0024754857652757728 0 -0.0002352527492081673 0.0024754857652757728 0 -0.00023780196546596609 0.0026640409616894784 0 -0.00027319006135702214 0.0025597919249434192 0 -0.00023780196546596609 0.0026640409616894784 0 -0.00018501648319743251 0.0028126547564827978 0 -0.00015508277397293884 0.0026054995495565867 0 -0.0002352527492081673 0.0024754857652757728 0 -0.00023780196546596609 0.0026640409616894784 0 -0.00015508277397293884 0.0026054995495565867 0 -0.00023780196546596609 0.0026640409616894784 0 -0.00034499364428053055 0.0026393204926942544 0 -0.00024257377091947918 0.0028581101526699189 0 -0.00046095691471987487 0.0029655026400851429 0 -0.00059177548434134817 0.0034286548222271567 0 -0.00023780196546596609 0.0026640409616894784 0 -0.00027319006135702214 0.0025597919249434192 0 -0.00034499364428053055 0.0026393204926942544 0 -0.00027116661722564737 0.0024940876170394012 0 -0.00027319006135702214 0.0025597919249434192 0 -0.00034499364428053055 0.0026393204926942544 0 -0.00034499364428053055 0.0026393204926942544 0 -0.00029427418302413076 0.0030375558003523173 0 -0.00024257377091947918 0.0028581101526699189 0 -0.00034499364428053055 0.0026393204926942544 0 -0.00029427418302413076 0.0030375558003523173 0 -0.00039879444200360511 0.0029570207345501376 0 -0.00064927675851711366 0.0042005989920998847 0 -0.00075392087547387465 0.0042478132671118435 0 -0.00076718828015961385 0.0040704306921872805 0 -0.00064927675851711366 0.0042005989920998847 0 -0.00053022894524831755 0.0042682733717916291 0 -0.00058049143352175857 0.0040739401370734323 0 -0.00064927675851711366 0.0042005989920998847 0 -0.00076718828015961385 0.0040704306921872805 0 -0.00058049143352175857 0.0040739401370734323 0 -0.00076718828015961385 0.0040704306921872805 0 -0.00058049143352175857 0.0040739401370734323 0 -0.00064545153030025012 0.00385154105348956 0 -0.00059177548434134817 0.0034286548222271567 0 -0.0004894584355862201 0.0033818578467976115 0 -0.00036852444063665608 0.0034616181344386053 0 -0.00029427418302413076 0.0030375558003523173 0 -0.00039879444200360511 0.0029570207345501376 0 -0.00036852444063665608 0.0034616181344386053 0 -0.00029427418302413076 0.0030375558003523173 0 -0.0002867933332965557 0.0032827189487439545 0 -0.00029427418302413076 0.0030375558003523173 0 -0.00023461205907187858 0.0030961208690596011 0 -0.0002867933332965557 0.0032827189487439545 0 -0.00029427418302413076 0.0030375558003523173 0 -0.00023461205907187858 0.0030961208690596011 0 -0.00018916591305201245 0.0029782224722894853 0 -0.00023461205907187858 0.0030961208690596011 0 -0.00018916591305201245 0.0029782224722894853 0 -0.00019457728313969334 0.0030426003225435243 0 -0.00018916591305201245 0.0029782224722894853 0 -0.00013516268431436503 0.0029535732481469419 0 -0.0001273855190230912 0.0028816891433543863 0 -0.00018916591305201245 0.0029782224722894853 0 -0.00018501648319743251 0.0028126547564827978 0 -0.0001273855190230912 0.0028816891433543863 0 -0.00023780196546596609 0.0026640409616894784 0 -0.00018501648319743251 0.0028126547564827978 0 -0.00024257377091947918 0.0028581101526699189 0 -0.00029427418302413076 0.0030375558003523173 0 -0.00018916591305201245 0.0029782224722894853 0 -0.00024257377091947918 0.0028581101526699189 0 -0.00018916591305201245 0.0029782224722894853 0 -0.00018501648319743251 0.0028126547564827978 0 -0.00024257377091947918 0.0028581101526699189 0 -0.00015779315827709733 0.0030221259435264198 0 -0.00019347229005739854 0.0030846237095251286 0 -0.00015261968476602009 0.0030034594807440015 0 -0.00015779315827709733 0.0030221259435264198 0 -0.00019347229005739854 0.0030846237095251286 0 -0.00017642863563435075 0.0030670553474322275 0 -0.00015779315827709733 0.0030221259435264198 0 -0.00015261968476602009 0.0030034594807440015 0 -0.00011864610602497042 0.0029519302582155654 0 -0.00015779315827709733 0.0030221259435264198 0 -0.00012619043917704953 0.0029511893062787856 0 -0.00011864610602497042 0.0029519302582155654 0 -0.00018916591305201245 0.0029782224722894853 0 -0.00015261968476602009 0.0030034594807440015 0 -0.00013516268431436503 0.0029535732481469419 0 -0.00015261968476602009 0.0030034594807440015 0 -0.00011864610602497042 0.0029519302582155654 0 -0.00011532126837863476 0.0029493291260995302 0 -0.00015261968476602009 0.0030034594807440015 0 -0.00013516268431436503 0.0029535732481469419 0 -0.00011532126837863476 0.0029493291260995302 0 -0.00019347229005739854 0.0030846237095251286 0 -0.00015261968476602009 0.0030034594807440015 0 -0.00019457728313969334 0.0030426003225435243 0 -0.00023461205907187858 0.0030961208690596011 0 -0.00019347229005739854 0.0030846237095251286 0 -0.00019457728313969334 0.0030426003225435243 0 -0.00018916591305201245 0.0029782224722894853 0 -0.00015261968476602009 0.0030034594807440015 0 -0.00019457728313969334 0.0030426003225435243 0 -0.00023461205907187858 0.0030961208690596011 0 -0.00023463729704284529 0.0031679953191562078 0 -0.0002867933332965557 0.0032827189487439545 0 -0.00023461205907187858 0.0030961208690596011 0 -0.00019347229005739854 0.0030846237095251286 0 -0.00023463729704284529 0.0031679953191562078 0 -0.00023463729704284529 0.0031679953191562078 0 -0.0002867933332965557 0.0032827189487439545 0 -0.00021654409954052729 0.0031973365481312906 0 -0.00021654409954052729 0.0031973365481312906 0 -0.00018142480491097106 0.0032262162335007834 0 -0.00019893595431934481 0.0033320183397236381 0 -0.0002867933332965557 0.0032827189487439545 0 -0.00021654409954052729 0.0031973365481312906 0 -0.00019893595431934481 0.0033320183397236381 0 -0.00019347229005739854 0.0030846237095251286 0 -0.00023463729704284529 0.0031679953191562078 0 -0.00021654409954052729 0.0031973365481312906 0 -0.00019347229005739854 0.0030846237095251286 0 -0.00021654409954052729 0.0031973365481312906 0 -0.00017642863563435075 0.0030670553474322275 0 -0.00018583892428498022 0.0031281137730270153 0 -0.00016455658104321322 0.0031355440590531167 0 -0.00016831774306275254 0.0030360528501540552 0 -0.00021654409954052729 0.0031973365481312906 0 -0.00018583892428498022 0.0031281137730270153 0 -0.00017642863563435075 0.0030670553474322275 0 -0.00018583892428498022 0.0031281137730270153 0 -0.00016831774306275254 0.0030360528501540552 0 -0.00017642863563435075 0.0030670553474322275 0 -0.00018583892428498022 0.0031281137730270153 0 -0.00018142480491097106 0.0032262162335007834 0 -0.00016455658104321322 0.0031355440590531167 0 -0.00021654409954052729 0.0031973365481312906 0 -0.00018583892428498022 0.0031281137730270153 0 -0.00018142480491097106 0.0032262162335007834 0 -0.00018142480491097106 0.0032262162335007834 0 -0.00016455658104321322 0.0031355440590531167 0 -0.00014759925183362095 0.0032160055581176104 0 -0.00016455658104321322 0.0031355440590531167 0 -0.00015245686821192169 0.0030459343491245337 0 -0.00012596151585094511 0.0031455112765349804 0 -0.00016455658104321322 0.0031355440590531167 0 -0.00012596151585094511 0.0031455112765349804 0 -0.00014759925183362095 0.0032160055581176104 0 -0.00015245686821192169 0.0030459343491245337 0 -0.00010898617961542167 0.0030188919481566726 0 -0.00012596151585094511 0.0031455112765349804 0 -0.00016455658104321322 0.0031355440590531167 0 -0.00015245686821192169 0.0030459343491245337 0 -0.00016831774306275254 0.0030360528501540552 0 -0.00015245686821192169 0.0030459343491245337 0 -0.00016831774306275254 0.0030360528501540552 0 -0.00015527129176613679 0.0029693610172662828 0 -0.00016831774306275254 0.0030360528501540552 0 -0.00015527129176613679 0.0029693610172662828 0 -0.00013915966496031272 0.0029204972147339973 0 -0.00016831774306275254 0.0030360528501540552 0 -0.00013915966496031272 0.0029204972147339973 0 -0.0001357595506875075 0.0029496165735812788 0 -0.00015779315827709733 0.0030221259435264198 0 -0.00017642863563435075 0.0030670553474322275 0 -0.0001357595506875075 0.0029496165735812788 0 -0.00016831774306275254 0.0030360528501540552 0 -0.00017642863563435075 0.0030670553474322275 0 -0.0001357595506875075 0.0029496165735812788 0 -0.00015779315827709733 0.0030221259435264198 0 -0.00012619043917704953 0.0029511893062787856 0 -0.0001357595506875075 0.0029496165735812788 0 -0.00012619043917704953 0.0029511893062787856 0 -0.0001357595506875075 0.0029496165735812788 0 -0.00010563267198661904 0.0028958191235361041 0 -0.0001357595506875075 0.0029496165735812788 0 -8.8488080211311657e-05 0.0028346984224971198 0 -0.00010563267198661904 0.0028958191235361041 0 -0.00013915966496031272 0.0029204972147339973 0 -0.0001357595506875075 0.0029496165735812788 0 -8.8488080211311657e-05 0.0028346984224971198 0 -0.00013915966496031272 0.0029204972147339973 0 -0.00011172566245529446 0.0028324905542236813 0 -8.8488080211311657e-05 0.0028346984224971198 0 -0.00011172566245529446 0.0028324905542236813 0 -8.8488080211311657e-05 0.0028346984224971198 0 -5.2219967156241889e-05 0.0027291242717891956 0 -0.00013915966496031272 0.0029204972147339973 0 -0.00011172566245529446 0.0028324905542236813 0 -0.0001483200720368967 0.0029029248262220511 0 -0.00015527129176613679 0.0029693610172662828 0 -0.00013915966496031272 0.0029204972147339973 0 -0.0001483200720368967 0.0029029248262220511 0 -0.00011172566245529446 0.0028324905542236813 0 -0.00015246767631044354 0.0028707561980422301 0 -0.0001483200720368967 0.0029029248262220511 0 -6.6055399144037866e-05 0.0027756421842116321 0 -2.3268798724144053e-05 0.0026759406009945965 0 -0.00011172566245529446 0.0028324905542236813 0 -0.00015246767631044354 0.0028707561980422301 0 -7.986735918074309e-05 0.0027860131127529913 0 -0.00011172566245529446 0.0028324905542236813 0 -7.986735918074309e-05 0.0027860131127529913 0 -5.2219967156241889e-05 0.0027291242717891956 0 4.6405029026853953e-05 0.0025843985845429725 0 1.9676548180488635e-05 0.0026685498293381313 0 2.7309435272475234e-05 0.0025733358256556627 0 5.145926634813476e-06 0.0026840851000852653 0 4.6405029026853953e-05 0.0025843985845429725 0 1.9676548180488635e-05 0.0026685498293381313 0 1.9676548180488635e-05 0.0026685498293381313 0 1.4319079412542848e-07 0.0027261531500537704 0 3.1232813732077644e-06 0.0028052451909530369 0 1.9676548180488635e-05 0.0026685498293381313 0 1.4319079412542848e-07 0.0027261531500537704 0 2.7309435272475234e-05 0.0025733358256556627 0 1.4319079412542848e-07 0.0027261531500537704 0 2.7309435272475234e-05 0.0025733358256556627 0 4.0072993245120984e-08 0.0024748152000699632 0 -2.5255059538877124e-07 0.0029776975283351843 0 -2.1778532770369821e-05 0.0031979019722804631 0 4.8911675209266333e-08 0.0032010960692314427 0 -2.5255059538877124e-07 0.0029776975283351843 0 -2.1778532770369821e-05 0.0031979019722804631 0 -9.4492509576957619e-05 0.0033472144547637504 0 -2.6705841455918974e-07 0.0029769627266544689 0 3.1232813732077644e-06 0.0028052451909530369 0 -0.00014882200617934293 0.0027174452795108634 0 -4.1532901167053132e-08 0.0029774478354253385 0 -0.00010878754672449745 0.0030461775801709978 0 1.4319079412542848e-07 0.0027261531500537704 0 -2.6705841455918974e-07 0.0029769627266544689 0 3.1232813732077644e-06 0.0028052451909530369 0 5.145926634813476e-06 0.0026840851000852653 0 3.1232813732077644e-06 0.0028052451909530369 0 -7.3123586072710759e-05 0.0027852788108583748 0 5.145926634813476e-06 0.0026840851000852653 0 1.9676548180488635e-05 0.0026685498293381313 0 3.1232813732077644e-06 0.0028052451909530369 0 3.1232813732077644e-06 0.0028052451909530369 0 -0.00014882200617934293 0.0027174452795108634 0 -0.00012666300931589355 0.0026760265776538598 0 -1.9039598494364276e-06 0.0028149912213861236 0 -0.00011710584409483411 0.0026905993442435838 0 -0.00014882200617934293 0.0027174452795108634 0 -0.00012666300931589355 0.0026760265776538598 0 -0.00019575088620449576 0.0025868991045946326 0 -0.00011710584409483411 0.0026905993442435838 0 -0.00011451087785258681 0.0030283249731714707 0 5.145926634813476e-06 0.0026840851000852653 0 -7.3123586072710759e-05 0.0027852788108583748 0 -7.5962075839087467e-05 0.0028258193197729007 0 -7.3123586072710759e-05 0.0027852788108583748 0 -7.5962075839087467e-05 0.0028258193197729007 0 -4.6848343291225148e-05 0.0029149432578386837 0 -7.5962075839087467e-05 0.0028258193197729007 0 -0.00013451668253665312 0.0029007769472776607 0 -0.00010691268157502576 0.0029219070737646117 0 -7.5962075839087467e-05 0.0028258193197729007 0 -0.00010691268157502576 0.0029219070737646117 0 -4.6848343291225148e-05 0.0029149432578386837 0 -0.00015246767631044354 0.0028707561980422301 0 -7.5962075839087467e-05 0.0028258193197729007 0 -0.00013451668253665312 0.0029007769472776607 0 -0.00015246767631044354 0.0028707561980422301 0 -0.00013451668253665312 0.0029007769472776607 0 -0.0001483200720368967 0.0029029248262220511 0 -6.6055399144037866e-05 0.0027756421842116321 0 -6.6314793832844703e-05 0.0028178735277003381 0 -0.00013451668253665312 0.0029007769472776607 0 -0.0001483200720368967 0.0029029248262220511 0 -0.00014162531877683773 0.0029581539628440847 0 -0.00015245686821192169 0.0030459343491245337 0 -0.00015527129176613679 0.0029693610172662828 0 -0.00014162531877683773 0.0029581539628440847 0 -0.00015527129176613679 0.0029693610172662828 0 -0.0001483200720368967 0.0029029248262220511 0 -0.00014162531877683773 0.0029581539628440847 0 -0.00010691268157502576 0.0029219070737646117 0 -0.00010898617961542167 0.0030188919481566726 0 -4.6848343291225148e-05 0.0029149432578386837 0 -0.00013451668253665312 0.0029007769472776607 0 -0.00014162531877683773 0.0029581539628440847 0 -0.00010691268157502576 0.0029219070737646117 0 -0.00014162531877683773 0.0029581539628440847 0 -0.00010691268157502576 0.0029219070737646117 0 -0.00010898617961542167 0.0030188919481566726 0 -0.00015245686821192169 0.0030459343491245337 0 -0.00014162531877683773 0.0029581539628440847 0 -0.00010898617961542167 0.0030188919481566726 0 -0.00013133092147078374 0.0031187250422206052 0 -0.0001991163291262675 0.0029689836587806426 0 -4.5205453024521473e-05 0.0031586234720135786 0 -0.00011451087785258681 0.0030283249731714707 0 -1.3024770619626131e-06 0.0034643629144214668 0 -0.00010898617961542167 0.0030188919481566726 0 -3.4588647329013406e-05 0.0030512444375917144 0 -4.6848343291225148e-05 0.0029149432578386837 0 -0.00010898617961542167 0.0030188919481566726 0 -3.4588647329013406e-05 0.0030512444375917144 0 -8.6787829059286657e-05 0.0031196457605966645 0 -9.6624435531216088e-05 0.0030758859612942955 0 -0.00011451087785258681 0.0030283249731714707 0 1.734987334400828e-05 0.0035788188107596813 0 -7.5240606826806718e-05 0.0035614031019085995 0 4.4506918054540202e-05 0.0036971902395537284 0 1.734987334400828e-05 0.0035788188107596813 0 5.222544719689612e-05 0.0037112757061346989 0 4.4506918054540202e-05 0.0036971902395537284 0 5.222544719689612e-05 0.0037112757061346989 0 2.4794137378105856e-05 0.0036718037116807356 0 4.4506918054540202e-05 0.0036971902395537284 0 1.734987334400828e-05 0.0035788188107596813 0 -1.3605239950295901e-05 0.0034468692245669457 0 8.5104856699288567e-05 0.0034108176869555749 0 1.734987334400828e-05 0.0035788188107596813 0 8.5104856699288567e-05 0.0034108176869555749 0 5.222544719689612e-05 0.0037112757061346989 0 -0.00010878754672449745 0.0030461775801709978 0 -0.00011451087785258681 0.0030283249731714707 0 1.734987334400828e-05 0.0035788188107596813 0 -1.3605239950295901e-05 0.0034468692245669457 0 -7.5240606826806718e-05 0.0035614031019085995 0 -9.4492509576957619e-05 0.0033472144547637504 0 -1.3605239950295901e-05 0.0034468692245669457 0 -7.5240606826806718e-05 0.0035614031019085995 0 -2.1778532770369821e-05 0.0031979019722804631 0 -9.4492509576957619e-05 0.0033472144547637504 0 2.0559914913391719e-05 0.0033187067121758927 0 -9.4492509576957619e-05 0.0033472144547637504 0 -1.3605239950295901e-05 0.0034468692245669457 0 2.0559914913391719e-05 0.0033187067121758927 0 -1.3605239950295901e-05 0.0034468692245669457 0 2.0559914913391719e-05 0.0033187067121758927 0 8.5104856699288567e-05 0.0034108176869555749 0 9.9728529352268302e-08 0.0034241257952093754 0 2.0559914913391719e-05 0.0033187067121758927 0 8.5104856699288567e-05 0.0034108176869555749 0 9.9728529352268302e-08 0.0034241257952093754 0 4.8911675209266333e-08 0.0032010960692314427 0 2.0559914913391719e-05 0.0033187067121758927 0 -2.1778532770369821e-05 0.0031979019722804631 0 4.8911675209266333e-08 0.0032010960692314427 0 2.0559914913391719e-05 0.0033187067121758927 0 -8.6517490922439642e-08 0.0034254731018309105 0 -2.2753622155549844e-05 0.0037400775290501792 0 4.1931530046674387e-05 0.0039109692551503325 0 1.1853758516912315e-08 0.0034245931203156048 0 3.0958813581986717e-05 0.0035788116406750697 0 -2.2753622155549844e-05 0.0037400775290501792 0 2.0220150891377924e-05 0.0038190597361401389 0 4.1931530046674387e-05 0.0039109692551503325 0 -2.2753622155549844e-05 0.0037400775290501792 0 5.222544719689612e-05 0.0037112757061346989 0 2.0220150891377924e-05 0.0038190597361401389 0 3.0958813581986717e-05 0.0035788116406750697 0 4.9531889117857278e-05 0.0036945014732063554 0 5.222544719689612e-05 0.0037112757061346989 0 2.0220150891377924e-05 0.0038190597361401389 0 4.4248130949690606e-06 0.003716188043774648 0 2.0220150891377924e-05 0.0038190597361401389 0 4.4248130949690606e-06 0.003716188043774648 0 1.9558552741956174e-05 0.0038278705095942224 0 4.4248130949690606e-06 0.003716188043774648 0 3.1542434230758199e-06 0.0037457197471867515 0 1.9558552741956174e-05 0.0038278705095942224 0 4.4248130949690606e-06 0.003716188043774648 0 3.1542434230758199e-06 0.0037457197471867515 0 -1.3086453572401343e-05 0.0036565561500349667 0 3.1542434230758199e-06 0.0037457197471867515 0 -1.3086453572401343e-05 0.0036565561500349667 0 1.8710788366116807e-06 0.0037411323771920982 0 -1.3086453572401343e-05 0.0036565561500349667 0 4.935968978986683e-06 0.0035276208306991869 0 -4.3701438381069828e-05 0.0035856043401899925 0 4.935968978986683e-06 0.0035276208306991869 0 -0.00011125792327484378 0.0034562178919040776 0 -4.3701438381069828e-05 0.0035856043401899925 0 4.4248130949690606e-06 0.003716188043774648 0 -1.3086453572401343e-05 0.0036565561500349667 0 4.935968978986683e-06 0.0035276208306991869 0 4.4248130949690606e-06 0.003716188043774648 0 4.935968978986683e-06 0.0035276208306991869 0 2.4794137378105856e-05 0.0036718037116807356 0 5.222544719689612e-05 0.0037112757061346989 0 4.4248130949690606e-06 0.003716188043774648 0 2.4794137378105856e-05 0.0036718037116807356 0 -4.6048277058291914e-06 0.0034891013064944016 0 -1.3024770619626131e-06 0.0034643629144214668 0 4.935968978986683e-06 0.0035276208306991869 0 2.4794137378105856e-05 0.0036718037116807356 0 4.4506918054540202e-05 0.0036971902395537284 0 4.935968978986683e-06 0.0035276208306991869 0 -4.5205453024521473e-05 0.0031586234720135786 0 -7.1489128103075015e-05 0.0032812348319196838 0 -0.00013133092147078374 0.0031187250422206052 0 -4.5205453024521473e-05 0.0031586234720135786 0 -7.1489128103075015e-05 0.0032812348319196838 0 -7.1489128103075015e-05 0.0032812348319196838 0 -0.00012596151585094511 0.0031455112765349804 0 -0.00011679291712961311 0.0032691769736705018 0 -7.1489128103075015e-05 0.0032812348319196838 0 -8.6787829059286657e-05 0.0031196457605966645 0 -0.00012596151585094511 0.0031455112765349804 0 -0.00010898617961542167 0.0030188919481566726 0 -8.6787829059286657e-05 0.0031196457605966645 0 -0.00012596151585094511 0.0031455112765349804 0 -3.4588647329013406e-05 0.0030512444375917144 0 -7.1489128103075015e-05 0.0032812348319196838 0 -8.6787829059286657e-05 0.0031196457605966645 0 -9.6624435531216088e-05 0.0030758859612942955 0 -6.1210717877228696e-05 0.0032430060014402222 0 -0.00012596151585094511 0.0031455112765349804 0 -0.00014759925183362095 0.0032160055581176104 0 -0.00011679291712961311 0.0032691769736705018 0 -0.00014759925183362095 0.0032160055581176104 0 -0.00011679291712961311 0.0032691769736705018 0 -0.00014016060741074078 0.0033127815352064073 0 -0.00011679291712961311 0.0032691769736705018 0 -0.00014016060741074078 0.0033127815352064073 0 -8.5676015779211743e-05 0.0033904074065372256 0 -0.00018142480491097106 0.0032262162335007834 0 -0.00014759925183362095 0.0032160055581176104 0 -0.00014016060741074078 0.0033127815352064073 0 4.935968978986683e-06 0.0035276208306991869 0 -8.5676015779211743e-05 0.0033904074065372256 0 -0.00011125792327484378 0.0034562178919040776 0 4.935968978986683e-06 0.0035276208306991869 0 -7.1489128103075015e-05 0.0032812348319196838 0 -8.5676015779211743e-05 0.0033904074065372256 0 -7.1489128103075015e-05 0.0032812348319196838 0 -0.00011679291712961311 0.0032691769736705018 0 -8.5676015779211743e-05 0.0033904074065372256 0 -0.00014016060741074078 0.0033127815352064073 0 -8.5676015779211743e-05 0.0033904074065372256 0 -0.00011125792327484378 0.0034562178919040776 0 -0.00011125792327484378 0.0034562178919040776 0 -0.00019893595431934481 0.0033320183397236381 0 -0.00022511116013834877 0.0034818372451419642 0 -0.00014016060741074078 0.0033127815352064073 0 -0.00011125792327484378 0.0034562178919040776 0 -0.00019893595431934481 0.0033320183397236381 0 -0.00018142480491097106 0.0032262162335007834 0 -0.00014016060741074078 0.0033127815352064073 0 -0.00019893595431934481 0.0033320183397236381 0 -0.0002867933332965557 0.0032827189487439545 0 -0.00019893595431934481 0.0033320183397236381 0 -0.00022511116013834877 0.0034818372451419642 0 -0.00011125792327484378 0.0034562178919040776 0 -0.00022511116013834877 0.0034818372451419642 0 -9.9449928830486973e-05 0.0035977751653936277 0 -0.00015460974165484623 0.0036423680900902035 0 -0.00022511116013834877 0.0034818372451419642 0 -9.9449928830486973e-05 0.0035977751653936277 0 -0.00015460974165484623 0.0036423680900902035 0 -9.9449928830486973e-05 0.0035977751653936277 0 -7.3031086725113377e-05 0.0037440112552998544 0 -3.7191480589556483e-05 0.0038655141062568575 0 -7.3031086725113377e-05 0.0037440112552998544 0 -1.13667595555724e-05 0.0038142584535079899 0 -9.9449928830486973e-05 0.0035977751653936277 0 -7.3031086725113377e-05 0.0037440112552998544 0 -2.1236471097489037e-05 0.003720380747712396 0 -7.3031086725113377e-05 0.0037440112552998544 0 -2.1236471097489037e-05 0.003720380747712396 0 -1.13667595555724e-05 0.0038142584535079899 0 -1.3086453572401343e-05 0.0036565561500349667 0 -2.1236471097489037e-05 0.003720380747712396 0 1.8710788366116807e-06 0.0037411323771920982 0 -1.3086453572401343e-05 0.0036565561500349667 0 -2.1236471097489037e-05 0.003720380747712396 0 -4.3701438381069828e-05 0.0035856043401899925 0 -9.9449928830486973e-05 0.0035977751653936277 0 -2.1236471097489037e-05 0.003720380747712396 0 -4.3701438381069828e-05 0.0035856043401899925 0 -0.00011125792327484378 0.0034562178919040776 0 -9.9449928830486973e-05 0.0035977751653936277 0 -4.3701438381069828e-05 0.0035856043401899925 0 1.8252627424263251e-05 0.0038009490467651825 0 -1.13667595555724e-05 0.0038142584535079899 0 2.3114751818448733e-05 0.0038626676194642921 0 1.8252627424263251e-05 0.0038009490467651825 0 2.3114751818448733e-05 0.0038626676194642921 0 4.1831363369427599e-05 0.0038569198141218228 0 1.8252627424263251e-05 0.0038009490467651825 0 4.1831363369427599e-05 0.0038569198141218228 0 3.8743392106438327e-05 0.0038755091470256513 0 -2.1236471097489037e-05 0.003720380747712396 0 1.8252627424263251e-05 0.0038009490467651825 0 -1.13667595555724e-05 0.0038142584535079899 0 -2.1236471097489037e-05 0.003720380747712396 0 1.8252627424263251e-05 0.0038009490467651825 0 1.8710788366116807e-06 0.0037411323771920982 0 7.8667375247029024e-06 0.003930280147541502 0 -3.7191480589556483e-05 0.0038655141062568575 0 -1.13667595555724e-05 0.0038142584535079899 0 7.8667375247029024e-06 0.003930280147541502 0 -1.13667595555724e-05 0.0038142584535079899 0 2.3114751818448733e-05 0.0038626676194642921 0 7.8667375247029024e-06 0.003930280147541502 0 2.3114751818448733e-05 0.0038626676194642921 0 4.2526521875826956e-05 0.0039404282776640551 0 8.9778208628192474e-05 0.0039709337014561617 0 4.9379531467661122e-05 0.0038944060891075521 0 5.671969033552839e-05 0.0038548276484249504 0 5.6129729493914688e-05 0.0040523438812604595 0 4.2526521875826956e-05 0.0039404282776640551 0 8.9778208628192474e-05 0.0039709337014561617 0 2.3114751818448733e-05 0.0038626676194642921 0 4.2526521875826956e-05 0.0039404282776640551 0 4.9379531467661122e-05 0.0038944060891075521 0 4.2526521875826956e-05 0.0039404282776640551 0 8.9778208628192474e-05 0.0039709337014561617 0 4.9379531467661122e-05 0.0038944060891075521 0 0.00013544904496509233 0.0041306851383173778 0 8.9778208628192474e-05 0.0039709337014561617 0 0.00020264960655852192 0.0039036839944866166 0 2.8958398655091705e-05 0.004169798095663306 0 1.7406102827892535e-05 0.0041716529444758479 0 2.6744106972408586e-05 0.0041738550661817838 0 8.9778208628192474e-05 0.0039709337014561617 0 0.00020264960655852192 0.0039036839944866166 0 5.671969033552839e-05 0.0038548276484249504 0 -3.285783569511884e-05 0.0038064283652453519 0 5.671969033552839e-05 0.0038548276484249504 0 -1.037504484663567e-05 0.0039006767506821133 0 0.00012410757228032467 0.0042661029042449384 0 -1.4506155779623191e-05 0.0039821531299101777 0 0.00012410757228032467 0.0042661029042449384 0 -6.4305124040684777e-06 0.003821835662329721 0 2.3114751818448733e-05 0.0038626676194642921 0 4.9379531467661122e-05 0.0038944060891075521 0 4.1831363369427599e-05 0.0038569198141218228 0 4.9379531467661122e-05 0.0038944060891075521 0 5.671969033552839e-05 0.0038548276484249504 0 4.1831363369427599e-05 0.0038569198141218228 0 5.671969033552839e-05 0.0038548276484249504 0 4.1831363369427599e-05 0.0038569198141218228 0 4.3109106331977366e-05 0.0039031564957297256 0 4.3109106331977366e-05 0.0039031564957297256 0 3.4449471796200986e-05 0.0039713631163459358 0 3.8743392106438327e-05 0.0038755091470256513 0 4.1831363369427599e-05 0.0038569198141218228 0 4.3109106331977366e-05 0.0039031564957297256 0 3.8743392106438327e-05 0.0038755091470256513 0 1.7406102827892535e-05 0.0041716529444758479 0 1.1842613036732793e-05 0.0040565567001498524 0 3.5192581060841334e-05 0.0041567851206914808 0 -1.4506155779623191e-05 0.0039821531299101777 0 1.9524424532481233e-05 0.0040793123129616157 0 4.3109106331977366e-05 0.0039031564957297256 0 -1.037504484663567e-05 0.0039006767506821133 0 1.1842613036732793e-05 0.0040565567001498524 0 1.7406102827892535e-05 0.0041716529444758479 0 3.5192581060841334e-05 0.0041567851206914808 0 2.6744106972408586e-05 0.0041738550661817838 0 5.671969033552839e-05 0.0038548276484249504 0 4.3109106331977366e-05 0.0039031564957297256 0 -1.037504484663567e-05 0.0039006767506821133 0 1.1842613036732793e-05 0.0040565567001498524 0 2.9356171618106422e-05 0.0041721519390678649 0 3.5192581060841334e-05 0.0041567851206914808 0 1.1842613036732793e-05 0.0040565567001498524 0 3.4449471796200986e-05 0.0039713631163459358 0 3.2415136142117213e-05 0.0041478117358830979 0 4.3109106331977366e-05 0.0039031564957297256 0 1.1842613036732793e-05 0.0040565567001498524 0 3.4449471796200986e-05 0.0039713631163459358 0 3.4449471796200986e-05 0.0039713631163459358 0 3.2868960954004742e-05 0.0038734798276940565 0 3.4805114185827375e-05 0.0039345606561004207 0 3.2868960954004742e-05 0.0038734798276940565 0 1.9558552741956174e-05 0.0038278705095942224 0 3.4805114185827375e-05 0.0039345606561004207 0 3.4449471796200986e-05 0.0039713631163459358 0 3.2868960954004742e-05 0.0038734798276940565 0 3.8743392106438327e-05 0.0038755091470256513 0 1.8252627424263251e-05 0.0038009490467651825 0 3.2868960954004742e-05 0.0038734798276940565 0 3.8743392106438327e-05 0.0038755091470256513 0 1.8252627424263251e-05 0.0038009490467651825 0 3.2868960954004742e-05 0.0038734798276940565 0 1.630196070765013e-05 0.0038013097093818784 0 1.8252627424263251e-05 0.0038009490467651825 0 1.8710788366116807e-06 0.0037411323771920982 0 1.630196070765013e-05 0.0038013097093818784 0 3.1542434230758199e-06 0.0037457197471867515 0 1.8710788366116807e-06 0.0037411323771920982 0 1.630196070765013e-05 0.0038013097093818784 0 3.2868960954004742e-05 0.0038734798276940565 0 1.630196070765013e-05 0.0038013097093818784 0 1.9558552741956174e-05 0.0038278705095942224 0 3.1542434230758199e-06 0.0037457197471867515 0 1.630196070765013e-05 0.0038013097093818784 0 1.9558552741956174e-05 0.0038278705095942224 0 -8.6517490922439642e-08 0.0034254731018309105 0 4.1931530046674387e-05 0.0039109692551503325 0 1.7577109959541054e-07 0.0042881074977033206 0 3.4805114185827375e-05 0.0039345606561004207 0 4.1931530046674387e-05 0.0039109692551503325 0 3.2415136142117213e-05 0.0041478117358830979 0 2.0220150891377924e-05 0.0038190597361401389 0 1.9558552741956174e-05 0.0038278705095942224 0 3.4805114185827375e-05 0.0039345606561004207 0 2.0220150891377924e-05 0.0038190597361401389 0 3.4805114185827375e-05 0.0039345606561004207 0 4.1931530046674387e-05 0.0039109692551503325 0 4.1931530046674387e-05 0.0039109692551503325 0 1.7577109959541054e-07 0.0042881074977033206 0 3.2415136142117213e-05 0.0041478117358830979 0 1.7577109959541054e-07 0.0042881074977033206 0 3.2415136142117213e-05 0.0041478117358830979 0 2.5649970473214642e-05 0.0045188137433404959 0 3.4449471796200986e-05 0.0039713631163459358 0 3.4805114185827375e-05 0.0039345606561004207 0 3.2415136142117213e-05 0.0041478117358830979 0 1.1842613036732793e-05 0.0040565567001498524 0 3.2415136142117213e-05 0.0041478117358830979 0 2.9356171618106422e-05 0.0041721519390678649 0 3.2415136142117213e-05 0.0041478117358830979 0 2.9356171618106422e-05 0.0041721519390678649 0 2.8218907652415335e-05 0.0042967801059744567 0 3.2415136142117213e-05 0.0041478117358830979 0 2.8218907652415335e-05 0.0042967801059744567 0 2.5649970473214642e-05 0.0045188137433404959 0 2.8218907652415335e-05 0.0042967801059744567 0 -3.0900268620046764e-06 0.0043326029382793488 0 2.5649970473214642e-05 0.0045188137433404959 0 2.9356171618106422e-05 0.0041721519390678649 0 2.8218907652415335e-05 0.0042967801059744567 0 2.5022616957141363e-05 0.0042244704401985236 0 1.7577109959541054e-07 0.0042881074977033206 0 2.5649970473214642e-05 0.0045188137433404959 0 5.7401689602280372e-08 0.0050002089929874422 0 2.8218907652415335e-05 0.0042967801059744567 0 -3.0900268620046764e-06 0.0043326029382793488 0 2.5022616957141363e-05 0.0042244704401985236 0 2.5649970473214642e-05 0.0045188137433404959 0 5.7401689602280372e-08 0.0050002089929874422 0 -4.4273483511627148e-07 0.0049986137426272165 0 -2.4390371613510217e-10 0.004999999745747232 0 1.2077224114726342e-07 0.0049993294750181258 0 1.2256654389083348e-10 0.0049999968236611675 0 2.5649970473214642e-05 0.0045188137433404959 0 -4.4273483511627148e-07 0.0049986137426272165 0 -7.8239243487671222e-05 0.0045120834162968079 0 -1.8245459761787521e-08 0.0049999071633060107 0 -3.0845861534512812e-05 0.0047482996634475175 0 -3.0900268620046764e-06 0.0043326029382793488 0 2.5649970473214642e-05 0.0045188137433404959 0 -7.8239243487671222e-05 0.0045120834162968079 0 1.2077224114726342e-07 0.0049993294750181258 0 1.2256654389083348e-10 0.0049999968236611675 0 4.4499175690496215e-07 0.0049978625931418105 0 1.2256654389083348e-10 0.0049999968236611675 0 4.4499175690496215e-07 0.0049978625931418105 0 2.9039433538205942e-10 0.0049999955691163835 0 -3.0845861534512812e-05 0.0047482996634475175 0 -3.4967756985633498e-05 0.0046390037556579625 0 4.4499175690496215e-07 0.0049978625931418105 0 2.9039433538205942e-10 0.0049999955691163835 0 9.0173432696688259e-07 0.0049965973885190643 0 -7.5184312431143298e-05 0.0042571309567786863 0 -7.3059588827487404e-06 0.0042076888623111819 0 -2.5674647411288772e-05 0.0041695687675921238 0 -3.4967756985633498e-05 0.0046390037556579625 0 -1.911968235039588e-05 0.004541001675958032 0 -3.0900268620046764e-06 0.0043326029382793488 0 -7.8239243487671222e-05 0.0045120834162968079 0 -7.5184312431143298e-05 0.0042571309567786863 0 -3.0900268620046764e-06 0.0043326029382793488 0 -7.5184312431143298e-05 0.0042571309567786863 0 -7.3059588827487404e-06 0.0042076888623111819 0 -3.0900268620046764e-06 0.0043326029382793488 0 2.5022616957141363e-05 0.0042244704401985236 0 -7.3059588827487404e-06 0.0042076888623111819 0 2.9356171618106422e-05 0.0041721519390678649 0 2.5022616957141363e-05 0.0042244704401985236 0 3.5192581060841334e-05 0.0041567851206914808 0 2.5022616957141363e-05 0.0042244704401985236 0 3.5192581060841334e-05 0.0041567851206914808 0 2.3706473533931955e-05 0.0041803073244780862 0 3.5192581060841334e-05 0.0041567851206914808 0 2.3706473533931955e-05 0.0041803073244780862 0 2.6744106972408586e-05 0.0041738550661817838 0 2.3706473533931955e-05 0.0041803073244780862 0 -7.3059588827487404e-06 0.0042076888623111819 0 5.5490957742944965e-06 0.0041668953026136133 0 2.5022616957141363e-05 0.0042244704401985236 0 2.3706473533931955e-05 0.0041803073244780862 0 -7.3059588827487404e-06 0.0042076888623111819 0 -7.3059588827487404e-06 0.0042076888623111819 0 5.5490957742944965e-06 0.0041668953026136133 0 -2.5674647411288772e-05 0.0041695687675921238 0 2.3706473533931955e-05 0.0041803073244780862 0 5.5490957742944965e-06 0.0041668953026136133 0 2.1414630658029172e-05 0.004169807727497186 0 5.5490957742944965e-06 0.0041668953026136133 0 2.1414630658029172e-05 0.004169807727497186 0 1.6255941727895761e-05 0.0041565408501446615 0 2.3706473533931955e-05 0.0041803073244780862 0 2.6744106972408586e-05 0.0041738550661817838 0 2.1414630658029172e-05 0.004169807727497186 0 2.8958398655091705e-05 0.004169798095663306 0 2.6744106972408586e-05 0.0041738550661817838 0 2.1414630658029172e-05 0.004169807727497186 0 0.0003224100880832567 0.0049301494843197978 0 0.0003664840679735538 0.0050990778466732901 0 0.00025387439887102428 0.005041884057459636 0 0.0003230621867773947 0.004598269072796291 0 0.00012410757228032467 0.0042661029042449384 0 0.00012410757228032467 0.0042661029042449384 0 0.0001476014605815493 0.0046099888335334304 0 2.8958398655091705e-05 0.004169798095663306 0 2.1414630658029172e-05 0.004169807727497186 0 1.6255941727895761e-05 0.0041565408501446615 0 9.0825819867711087e-05 0.0047884119512838878 0 0.0001476014605815493 0.0046099888335334304 0 -3.0420642453237545e-06 0.0041467384870732711 0 5.5490957742944965e-06 0.0041668953026136133 0 1.6255941727895761e-05 0.0041565408501446615 0 9.0825819867711087e-05 0.0047884119512838878 0 -1.911968235039588e-05 0.004541001675958032 0 -3.0420642453237545e-06 0.0041467384870732711 0 5.5490957742944965e-06 0.0041668953026136133 0 -2.5674647411288772e-05 0.0041695687675921238 0 1.1732681706770951e-06 0.004996762666129302 0 6.6188929494193048e-07 0.0049981583161938167 0 9.0173432696688259e-07 0.0049965973885190643 0 6.5676927382585779e-07 0.0049986500316668171 0 6.6188929494193048e-07 0.0049981583161938167 0 1.2207369285390198e-09 0.0049999960434138546 0 6.6188929494193048e-07 0.0049981583161938167 0 1.2207369285390198e-09 0.0049999960434138546 0 9.0173432696688259e-07 0.0049965973885190643 0 2.9039433538205942e-10 0.0049999955691163835 0 1.2207369285390198e-09 0.0049999960434138546 0 9.0173432696688259e-07 0.0049965973885190643 0 0.00020489157424555067 0.00059248348620546921 0 0.00015908162109578008 0.00065646622567252903 0 0.00016235633355603257 0.00061609817634542398 0 0.00017577830540545496 0.00064823165115772212 0 0.00015128644191132705 0.00056456365781445755 0 0.00016235633355603257 0.00061609817634542398 0 0.0001655479895298654 0.00063509781555688087 0 0.00017577830540545496 0.00064823165115772212 0 0.00016895153397462307 0.00063318060159207683 0 0.00016235633355603257 0.00061609817634542398 0 0.0001655479895298654 0.00063509781555688087 0 0.00016895153397462307 0.00063318060159207683 0 0.00016235633355603257 0.00061609817634542398 0 0.00017632853385664307 0.00063944136385574992 0 0.00016895153397462307 0.00063318060159207683 0 0.00017632853385664307 0.00063944136385574992 0 0.00017681102176253895 0.00063980259758408971 0 0.00017681102176253895 0.00063980259758408971 0 0.00021504245774375249 0.00065156680629997114 0 0.00018339312875653588 0.00061558888492526873 0 0.00017632853385664307 0.00063944136385574992 0 0.00017681102176253895 0.00063980259758408971 0 0.00021504245774375249 0.00065156680629997114 0 0.00017681102176253895 0.00063980259758408971 0 0.00016715258824792257 0.00063854191098846301 0 0.00018339312875653588 0.00061558888492526873 0 0.00016895153397462307 0.00063318060159207683 0 0.00017681102176253895 0.00063980259758408971 0 0.0001655479895298654 0.00063509781555688087 0 0.00017681102176253895 0.00063980259758408971 0 0.0001655479895298654 0.00063509781555688087 0 0.00016715258824792257 0.00063854191098846301 0 0.0001655479895298654 0.00063509781555688087 0 0.00016573965263670467 0.00064132646274892274 0 0.00016715258824792257 0.00063854191098846301 0 0.0001655479895298654 0.00063509781555688087 0 0.00016573965263670467 0.00064132646274892274 0 0.00017577830540545496 0.00064823165115772212 0 0.00016573965263670467 0.00064132646274892274 0 0.00016715258824792257 0.00063854191098846301 0 0.00015997842800767132 0.00064173105715862027 0 0.00015997842800767132 0.00064173105715862027 0 0.00015149187983121319 0.00064618079721233043 0 0.00014400324187876858 0.0006326661547823041 0 0.00021792913067223825 0.00036298589749571026 0 0.00015428233060514506 0.00032489485971939154 0 0.00013179352452061485 0.00042891323572123485 0 0.00021389801143123936 0.00038709303655775566 0 0.00014199502606086355 0.00047343711647885423 0 0.00016715258824792257 0.00063854191098846301 0 0.00015997842800767132 0.00064173105715862027 0 0.00014400324187876858 0.0006326661547823041 0 0.00020489157424555067 0.00059248348620546921 0 0.00015428233060514506 0.00032489485971939154 0 0.00019663244953716853 0.00059813042271283099 0 0.00020489157424555067 0.00059248348620546921 0 0.00016573965263670467 0.00064132646274892274 0 0.00015997842800767132 0.00064173105715862027 0 0.00017577830540545496 0.00064823165115772212 0 0.00020489157424555067 0.00059248348620546921 0 0.00021792913067223825 0.00036298589749571026 0 0.00014794886737886354 -3.4064058411805962e-05 0 0.00014808855987993494 -3.4519578435750645e-05 0 0.00014792346609497037 -3.327205407687422e-05 0 0.00014794886737886354 -3.4064058411805962e-05 0 0.00014808855987993494 -3.4519578435750645e-05 0 0.00014828826186341328 -3.5625887454674863e-05 0 0.00032245393343926322 0.00086898829699875492 0 0.00029395782821758671 0.00071181567063908883 0 0.00052501519052531795 0.00068295682680612972 0 0.00020847602575146994 0.00092150884375609638 0 0.00032245393343926322 0.00086898829699875492 0 0.00029395782821758671 0.00071181567063908883 0 0.00020847602575146994 0.00092150884375609638 0 0.00029395782821758671 0.00071181567063908883 0 0.00015128644191132705 0.00056456365781445755 0 0.00029395782821758671 0.00071181567063908883 0 0.00029508746679073007 0.00055924301160494678 0 0.00052501519052531795 0.00068295682680612972 0 0.00029395782821758671 0.00071181567063908883 0 0.00029508746679073007 0.00055924301160494678 0 0.00015128644191132705 0.00056456365781445755 0 0.00029508746679073007 0.00055924301160494678 0 0.00015128644191132705 0.00056456365781445755 0 0.00016398908757461156 0.00039963405383859244 0 0.00015128644191132705 0.00056456365781445755 0 0.00014219427989995288 0.00053908653389718106 0 0.00014453950084591488 0.00047480023782706907 0 0.00015128644191132705 0.00056456365781445755 0 0.00015007404845746535 0.0005768067846920787 0 0.00014219427989995288 0.00053908653389718106 0 0.00016235633355603257 0.00061609817634542398 0 0.00015128644191132705 0.00056456365781445755 0 0.00016274592015098503 0.00060849650478156077 0 0.00016235633355603257 0.00061609817634542398 0 0.00017632853385664307 0.00063944136385574992 0 0.00016274592015098503 0.00060849650478156077 0 0.00017632853385664307 0.00063944136385574992 0 0.00016274592015098503 0.00060849650478156077 0 0.00017712948041831084 0.00063059389285750553 0 0.00016274592015098503 0.00060849650478156077 0 0.00015007404845746535 0.0005768067846920787 0 0.00017712948041831084 0.00063059389285750553 0 0.00015128644191132705 0.00056456365781445755 0 0.00016274592015098503 0.00060849650478156077 0 0.00015007404845746535 0.0005768067846920787 0 0.00015007404845746535 0.0005768067846920787 0 0.00017712948041831084 0.00063059389285750553 0 0.00012201817016602572 0.00053655342219108249 0 0.00015007404845746535 0.0005768067846920787 0 0.00014219427989995288 0.00053908653389718106 0 0.00012201817016602572 0.00053655342219108249 0 0.00023825703424812251 0.00070189683509421809 0 0.00017712948041831084 0.00063059389285750553 0 0.00012201817016602572 0.00053655342219108249 0 0.000512918064916555 0.0011907489731571882 0 0.00058316277812821564 0.0012787282374990836 0 0.00064776918393465079 0.0014869948033956579 0 0.00040966563134322149 0.00090767618437937716 0 0.00038835844232350166 0.0010558723447533903 0 0.00023825703424812251 0.00070189683509421809 0 0.00017712948041831084 0.00063059389285750553 0 0.00021543737073272589 0.00066877983724965555 0 0.00058560576271748195 0.0015337868981259522 0 0.00057688042915392571 0.0014541893925777041 0 0.00058316277812821564 0.0012787282374990836 0 0.00058240718403172525 0.001038866493562681 0 0.00070188391124537466 0.00097794256496432476 0 0.00060211325694607416 0.001775328679530584 0 0.00049157199787851279 0.0018301298614613868 0 0.00050097889264221233 0.0017531773016495585 0 0.00060211325694607416 0.001775328679530584 0 0.00054748914630561277 0.0016756080511926977 0 0.00050097889264221233 0.0017531773016495585 0 0.000512918064916555 0.0011907489731571882 0 0.00058316277812821564 0.0012787282374990836 0 0.00058240718403172525 0.001038866493562681 0 0.00040966563134322149 0.00090767618437937716 0 0.00051679594419539983 0.00075769284193603805 0 0.000512918064916555 0.0011907489731571882 0 0.00058240718403172525 0.001038866493562681 0 0.00050997704930407168 0.00075804459080669223 0 0.00023825703424812251 0.00070189683509421809 0 0.00028382960302274885 0.00068597422404100071 0 0.00050997704930407168 0.00075804459080669223 0 0.00058240718403172525 0.001038866493562681 0 0.00050997704930407168 0.00075804459080669223 0 0.00061903591718731805 0.00091929043698751195 0 0.00017632853385664307 0.00063944136385574992 0 0.00021543737073272589 0.00066877983724965555 0 0.00021504245774375249 0.00065156680629997114 0 0.00017632853385664307 0.00063944136385574992 0 0.00017712948041831084 0.00063059389285750553 0 0.00021543737073272589 0.00066877983724965555 0 0.00023825703424812251 0.00070189683509421809 0 0.00021543737073272589 0.00066877983724965555 0 0.00028382960302274885 0.00068597422404100071 0 0.00021543737073272589 0.00066877983724965555 0 0.00028382960302274885 0.00068597422404100071 0 0.00021504245774375249 0.00065156680629997114 0 0.00027289886640909056 0.00059578113077941679 0 0.00017702821316849642 0.00051343484247845311 0 0.00018339312875653588 0.00061558888492526873 0 0.00021504245774375249 0.00065156680629997114 0 0.00027289886640909056 0.00059578113077941679 0 0.00018339312875653588 0.00061558888492526873 0 0.00028382960302274885 0.00068597422404100071 0 0.00021504245774375249 0.00065156680629997114 0 0.00027289886640909056 0.00059578113077941679 0 0.00027289886640909056 0.00059578113077941679 0 0.00050997704930407168 0.00075804459080669223 0 0.00041334953420701622 0.00047705326391418241 0 0.00028382960302274885 0.00068597422404100071 0 0.00027289886640909056 0.00059578113077941679 0 0.00050997704930407168 0.00075804459080669223 0 4.782753152126247e-05 0.0005023880452058383 0 8.1981089338400244e-05 0.0005247410656765959 0 5.03354861492814e-05 0.00054540582073371157 0 4.782753152126247e-05 0.0005023880452058383 0 1.8047072294511369e-05 0.00052835686330237675 0 5.03354861492814e-05 0.00054540582073371157 0 0.00027289886640909056 0.00059578113077941679 0 0.00041334953420701622 0.00047705326391418241 0 0.00017702821316849642 0.00051343484247845311 0 4.782753152126247e-05 0.0005023880452058383 0 8.1981089338400244e-05 0.0005247410656765959 0 0.0001336611331209403 0.0005025189351084132 0 0.00023719041014698205 0.00050802424778130355 0 0.0001316029727733607 0.00044010719756917691 0 0.0001316029727733607 0.00044010719756917691 0 7.5278963623874766e-05 0.00049838005136707182 0 8.1981089338400244e-05 0.0005247410656765959 0 0.0001336611331209403 0.0005025189351084132 0 9.6029116562133601e-05 0.00054878928604675068 0 0.0001316029727733607 0.00044010719756917691 0 0.00012174793638349545 0.00012633603734698545 0 8.3881480782407815e-05 0.00036649478743045719 0 9.5298386724722918e-05 0.00039146613924794595 0 6.4957845311615486e-05 0.00039024031889041942 0 8.3881480782407815e-05 0.00036649478743045719 0 0.00011941906914050498 0.00036611640271446327 0 9.5298386724722918e-05 0.00039146613924794595 0 0.00017702821316849642 0.00051343484247845311 0 0.00018339312875653588 0.00061558888492526873 0 0.00014400324187876858 0.0006326661547823041 0 0.0001316029727733607 0.00044010719756917691 0 0.00015428233060514506 0.00032489485971939154 0 0.00013722294520057392 0.00030004467468676996 0 0.00013395910358064383 0.00030367584138179561 0 0.00013277092434912111 0.00029878582261402148 0 0.00016715258824792257 0.00063854191098846301 0 0.00018339312875653588 0.00061558888492526873 0 0.00014400324187876858 0.0006326661547823041 0 0.00015428233060514506 0.00032489485971939154 0 0.00012174793638349545 0.00012633603734698545 0 0.00014808855987993494 -3.4519578435750645e-05 0 0.00014803714533374537 -3.3881263955529549e-05 0 0.00014827186119050021 -3.5728242756284767e-05 0 0.00014808855987993494 -3.4519578435750645e-05 0 0.00014792346609497037 -3.327205407687422e-05 0 0.00014803714533374537 -3.3881263955529549e-05 0 0.00014031575183853868 6.1801386281308711e-05 0 0.00011643445646495452 4.5824045365152675e-05 0 0.0001348910613818448 3.8781130372139456e-05 0 0.00012174793638349545 0.00012633603734698545 0 0.00010614713350617492 0.00040219619825697145 0 0.00014803714533374537 -3.3881263955529549e-05 0 0.00014834750704286788 -3.7463426718430024e-05 0 0.00014827186119050021 -3.5728242756284767e-05 0 0.00012174793638349545 0.00012633603734698545 0 0.00014796386362589999 4.0689826314081358e-05 0 0.00014031575183853868 6.1801386281308711e-05 0 0.00011643445646495452 4.5824045365152675e-05 0 0.00010096116140577892 5.7886976825882376e-05 0 0.00010096116140577892 5.7886976825882376e-05 0 8.0663414624551703e-05 4.2287617145453282e-05 0 9.9336791164902118e-05 3.2756298090076836e-05 0 0.00011643445646495452 4.5824045365152675e-05 0 0.00010096116140577892 5.7886976825882376e-05 0 9.9336791164902118e-05 3.2756298090076836e-05 0 0.00014834750704286788 -3.7463426718430024e-05 0 0.00014850261829011643 -3.7182374146892461e-05 0 0.00014823172813985402 -3.9041380248611597e-05 0 0.00014850261829011643 -3.7182374146892461e-05 0 0.00014823172813985402 -3.9041380248611597e-05 0 0.00014865759311859545 -3.8684228012474838e-05 0 0.00014850261829011643 -3.7182374146892461e-05 0 0.00014827186119050021 -3.5728242756284767e-05 0 0.00014828826186341328 -3.5625887454674863e-05 0 0.00014834750704286788 -3.7463426718430024e-05 0 0.00014850261829011643 -3.7182374146892461e-05 0 0.00014827186119050021 -3.5728242756284767e-05 0 0.00014808855987993494 -3.4519578435750645e-05 0 0.00014827186119050021 -3.5728242756284767e-05 0 0.00014828826186341328 -3.5625887454674863e-05 0 1.8079073366081911e-05 -0.00037037679567288029 0 -6.8969819557267303e-05 -0.00079173123864443651 0 -0.00022137846513727748 -0.0007303031075154183 0 -0.00019233727322379832 -0.00069391040514258642 0 -0.00015461568490819695 -0.00073661219822025161 0 8.379094852098308e-05 -0.00072495839904967193 0 7.4293501867175952e-05 -0.00071131667055548216 0 4.9507219583040063e-05 -0.00073195257654785732 0 0.00014796386362589999 4.0689826314081358e-05 0 1.8079073366081911e-05 -0.00037037679567288029 0 0.00010096116140577892 5.7886976825882376e-05 0 8.0663414624551703e-05 4.2287617145453282e-05 0 6.0014485982352741e-05 5.2445787077038456e-05 0 0.00014834750704286788 -3.7463426718430024e-05 0 0.00014701697961639015 -4.1960149833088995e-05 0 0.00014823172813985402 -3.9041380248611597e-05 0 0.00014701697961639015 -4.1960149833088995e-05 0 0.00014823172813985402 -3.9041380248611597e-05 0 0.00014805168476640605 -4.0541220479996338e-05 0 1.8079073366081911e-05 -0.00037037679567288029 0 0.00016871154731664331 -0.00035328894275153227 0 0.00014823172813985402 -3.9041380248611597e-05 0 0.00014805168476640605 -4.0541220479996338e-05 0 0.00014865759311859545 -3.8684228012474838e-05 0 8.379094852098308e-05 -0.00072495839904967193 0 7.4293501867175952e-05 -0.00071131667055548216 0 8.2542698751766352e-05 -0.00070080265171163045 0 0.00016871154731664331 -0.00035328894275153227 0 0.00010909477976086793 -0.00055489805140828709 0 7.4293501867175952e-05 -0.00071131667055548216 0 8.2542698751766352e-05 -0.00070080265171163045 0 6.7598135944320307e-05 -0.0007016121006689943 0 7.4293501867175952e-05 -0.00071131667055548216 0 6.7598135944320307e-05 -0.0007016121006689943 0 6.2955738653148747e-05 -0.00070879128161866508 0 0.00010909477976086793 -0.00055489805140828709 0 5.4270608853582081e-05 -0.00065346329426779217 0 0.00031896800388658581 -0.00045617412586052334 0 0.00031631731075328312 -0.00042645631547457959 0 0.00020136760218651253 -0.00048734860564157912 0 0.00026811993618277473 -0.00032651128505854126 0 0.00026849380057877679 -0.00040127304323001669 0 0.0002439416084833602 -0.00055290091728378132 0 0.00031896800388658581 -0.00045617412586052334 0 0.00020136760218651253 -0.00048734860564157912 0 0.00010909477976086793 -0.00055489805140828709 0 0.00022828923931263081 -0.00024671905796553933 0 0.00021651047074958276 -0.00043295149545427829 0 0.00010339826265386262 -0.00042806369237673045 0 0.00020398642098098889 -0.00030021346770742619 0 0.00016871154731664331 -0.00035328894275153227 0 0.00022828923931263081 -0.00024671905796553933 0 0.00014805168476640605 -4.0541220479996338e-05 0 0.00014867744873786981 -4.0106527424296157e-05 0 0.00014865759311859545 -3.8684228012474838e-05 0 0.00014867744873786981 -4.0106527424296157e-05 0 0.00014865759311859545 -3.8684228012474838e-05 0 0.00014890565919878384 -3.8822830499935209e-05 0 0.00028834171010453595 -0.00035705310216711588 0 0.00028988269085106807 -0.00035793901590302075 0 0.00028983496084335311 -0.0003581661403873693 0 0.00014890565919878384 -3.8822830499935209e-05 0 0.00014912652285449936 -3.8928640113648662e-05 0 0.00014894510361035076 -3.9428069236251751e-05 0 0.00022019542953514279 -2.6942368335259785e-05 0 0.00022509218950311197 -0.00019901964340299948 0 0.00025896967527556285 -0.00011194133722138854 0 0.00023295111305214706 -9.8788423449218957e-05 0 0.00019818439072964039 -0.00014317007222323491 0 0.00024737217388059855 -6.0654515142119885e-05 0 0.00023079222343855334 -5.2357461070486898e-05 0 0.00026821054314207164 -3.1822963923282144e-05 0 0.00022019542953514279 -2.6942368335259785e-05 0 0.00024810101882699495 -0.00017115594659388038 0 0.00024810101882699495 -0.00017115594659388038 0 0.00022509218950311197 -0.00019901964340299948 0 0.00028834171010453595 -0.00035705310216711588 0 0.0002887520542157445 -0.0003563358306878405 0 0.00028988269085106807 -0.00035793901590302075 0 0.00014867744873786981 -4.0106527424296157e-05 0 0.00014890565919878384 -3.8822830499935209e-05 0 0.00014894510361035076 -3.9428069236251751e-05 0 0.00022509218950311197 -0.00019901964340299948 0 0.00026811993618277473 -0.00032651128505854126 0 0.00021203139469298465 -0.00026870918772933339 0 0.00024176038046145893 -0.000231052016322125 0 0.0002101335150958848 -0.00024712829466132946 0 0.00022828923931263081 -0.00024671905796553933 0 0.00022509218950311197 -0.00019901964340299948 0 0.00029052127536865579 -0.00035987371523574962 0 0.00028948802949996439 -0.00035967213053554007 0 0.00028879933828119766 -0.00036241574999337886 0 0.0002887520542157445 -0.0003563358306878405 0 0.00028989690364515566 -0.00035565657930033528 0 0.00028988269085106807 -0.00035793901590302075 0 0.00029052127536865579 -0.00035987371523574962 0 0.00028988269085106807 -0.00035793901590302075 0 0.00028948802949996439 -0.00035967213053554007 0 0.00026811993618277473 -0.00032651128505854126 0 0.00028080807501278934 -0.00035914650863714859 0 0.00022828923931263081 -0.00024671905796553933 0 0.00026811993618277473 -0.00032651128505854126 0 0.00028988269085106807 -0.00035793901590302075 0 0.00028948802949996439 -0.00035967213053554007 0 0.00028944412448682881 -0.00035872351615027842 0 0.00021792913067223825 0.00036298589749571026 0 0.00021120739224349402 7.632104874576547e-05 0 0.00014794886737886354 -3.4064058411805962e-05 0 0.00014828826186341328 -3.5625887454674863e-05 0 0.0001486905033633299 -3.6983107713739209e-05 0 0.00014850261829011643 -3.7182374146892461e-05 0 0.00014828826186341328 -3.5625887454674863e-05 0 0.0001486905033633299 -3.6983107713739209e-05 0 0.00019635009208119123 0.00025345898500858292 0 0.00026574995951538459 0.00021480405428536348 0 0.00023767654188960402 0.00020130688403569485 0 0.00021792913067223825 0.00036298589749571026 0 0.00037730549488920203 0.00045221752755716124 0 0.00014865759311859545 -3.8684228012474838e-05 0 0.00014890565919878384 -3.8822830499935209e-05 0 0.0001486905033633299 -3.6983107713739209e-05 0 0.00014850261829011643 -3.7182374146892461e-05 0 0.00014865759311859545 -3.8684228012474838e-05 0 0.0001486905033633299 -3.6983107713739209e-05 0 0.00033241668559950272 0.00017805088489051177 0 0.00026574995951538459 0.00021480405428536348 0 0.00027828356325153964 0.00015157540584431297 0 0.00022019542953514279 -2.6942368335259785e-05 0 0.00021120739224349402 7.632104874576547e-05 0 0.00014890565919878384 -3.8822830499935209e-05 0 0.00014912652285449936 -3.8928640113648662e-05 0 0.0001486905033633299 -3.6983107713739209e-05 0 0.00022019542953514279 -2.6942368335259785e-05 0 0.00036890156194606714 0.00015977657174722352 0 0.00026574995951538459 0.00021480405428536348 0 0.00023767654188960402 0.00020130688403569485 0 0.00027828356325153964 0.00015157540584431297 0 0.00052501519052531795 0.00068295682680612972 0 0.00041762698613017653 0.00041933513943965726 0 0.00081829399682147085 0.00041363377629529947 0 0.00037730549488920203 0.00045221752755716124 0 0.00036890156194606714 0.00015977657174722352 0 0.00029508746679073007 0.00055924301160494678 0 0.00052501519052531795 0.00068295682680612972 0 0.00041762698613017653 0.00041933513943965726 0 0.00036890156194606714 0.00015977657174722352 0 0.00023558116947103788 5.0470364982847334e-05 0 0.00017777697810650241 -6.3839868433971026e-05 0 0.00018387777668010769 -7.9628850820296328e-05 0 0.00017472239216617585 4.1877140050557318e-05 0 0.00041762698613017653 0.00041933513943965726 0 0.00081829399682147085 0.00041363377629529947 0 0.00017472239216617585 4.1877140050557318e-05 0 0.00036890156194606714 0.00015977657174722352 0 0.0002437845713011828 -0.00010572593375881328 0 0.00030866918123562337 -2.9025083381195307e-05 0 0.00026821054314207164 -3.1822963923282144e-05 0 0.00027786172183879746 7.3388858961163728e-06 0 0.00023079222343855334 -5.2357461070486898e-05 0 0.00026821054314207164 -3.1822963923282144e-05 0 0.00027786172183879746 7.3388858961163728e-06 0 0.00024737217388059855 -6.0654515142119885e-05 0 0.00030866918123562337 -2.9025083381195307e-05 0 0.00026821054314207164 -3.1822963923282144e-05 0 0.00024810101882699495 -0.00017115594659388038 0 0.0002437845713011828 -0.00010572593375881328 0 0.00017777697810650241 -6.3839868433971026e-05 0 0.00018387777668010769 -7.9628850820296328e-05 0 0.00019484618798762645 -7.1200137367766043e-05 0 0.00017777697810650241 -6.3839868433971026e-05 0 0.00019484618798762645 -7.1200137367766043e-05 0 0.00017028042353778013 -0.00012362121308680927 0 0.00021008554103585622 -0.00012424020690057284 0 0.00027860091346755366 -0.00014187738646261736 0 0.00015453659053007179 -0.00018939281000051637 0 7.1975873325798737e-05 -0.00028359791058808954 0 9.0607000002518176e-05 -0.00024384719679940498 0 0.00015453659053007179 -0.00018939281000051637 0 0.00020298307082438803 -6.8826769186956284e-05 0 0.00021008554103585622 -0.00012424020690057284 0 0.00017028042353778013 -0.00012362121308680927 0 0.00016655479678556804 -0.00021139089059400021 0 0.00015459607148312962 -0.00019895147782268436 0 0.0002437845713011828 -0.00010572593375881328 0 0.00017507678268355209 -0.00011775417594831054 0 0.00020298307082438803 -6.8826769186956284e-05 0 0.00021008554103585622 -0.00012424020690057284 0 0.00027860091346755366 -0.00014187738646261736 0 0.0002437845713011828 -0.00010572593375881328 0 0.00016655479678556804 -0.00021139089059400021 0 0.00021008554103585622 -0.00012424020690057284 0 0.00017028042353778013 -0.00012362121308680927 0 0.00015453659053007179 -0.00018939281000051637 0 0.00017028042353778013 -0.00012362121308680927 0 0.00016245155779167028 -0.0001495011153523297 0 0.00015453659053007179 -0.00018939281000051637 0 0.00017777697810650241 -6.3839868433971026e-05 0 0.00017141670715036043 -7.2962424556559014e-05 0 0.00017472239216617585 4.1877140050557318e-05 0 0.00017028042353778013 -0.00012362121308680927 0 0.00016245155779167028 -0.0001495011153523297 0 0.00017182067862512587 -9.5693675534854448e-05 0 0.00016245155779167028 -0.0001495011153523297 0 0.00017141670715036043 -7.2962424556559014e-05 0 0.00017182067862512587 -9.5693675534854448e-05 0 0.00016245155779167028 -0.0001495011153523297 0 0.00017141670715036043 -7.2962424556559014e-05 0 0.00013599991839948982 -0.00013595041901559566 0 0.00017777697810650241 -6.3839868433971026e-05 0 0.00017141670715036043 -7.2962424556559014e-05 0 0.00017182067862512587 -9.5693675534854448e-05 0 0.00017777697810650241 -6.3839868433971026e-05 0 0.00017028042353778013 -0.00012362121308680927 0 0.00017182067862512587 -9.5693675534854448e-05 0 0.00028944412448682881 -0.00035872351615027842 0 0.00028983496084335311 -0.0003581661403873693 0 0.00028839340726716369 -0.0003570675779068061 0 0.00021448865395451609 -0.00021683036178019992 0 0.00021413194830006651 -0.00021749313716782143 0 0.00021523257740917881 -0.00021794923519131575 0 0.00028988269085106807 -0.00035793901590302075 0 0.00028944412448682881 -0.00035872351615027842 0 0.00028983496084335311 -0.0003581661403873693 0 0.00021448865395451609 -0.00021683036178019992 0 0.00021378846584628941 -0.00021664288262475417 0 0.00021413194830006651 -0.00021749313716782143 0 0.00021385526824778913 -0.00021568882488204094 0 0.00021317914841300893 -0.00021601804394854972 0 0.00021378846584628941 -0.00021664288262475417 0 0.00021385526824778913 -0.00021568882488204094 0 0.00021448865395451609 -0.00021683036178019992 0 0.00021378846584628941 -0.00021664288262475417 0 0.00024810101882699495 -0.00017115594659388038 0 0.00026299359221189231 -0.0002964568900403884 0 6.5332004996818027e-05 -0.00026713761216255548 0 6.4344168387284699e-05 -0.00026563689405052933 0 7.3753108704876681e-05 -0.00026654732078630828 0 0.00016655479678556804 -0.00021139089059400021 0 0.00013256032341985561 -0.00024443950290730054 0 0.00021317914841300893 -0.00021601804394854972 0 0.00021378846584628941 -0.00021664288262475417 0 0.00021332281448471454 -0.00021711436063312896 0 0.00021378846584628941 -0.00021664288262475417 0 0.00021332281448471454 -0.00021711436063312896 0 0.00021413194830006651 -0.00021749313716782143 0 6.5332004996818027e-05 -0.00026713761216255548 0 7.1975873325798737e-05 -0.00028359791058808954 0 9.0607000002518176e-05 -0.00024384719679940498 0 0.00014971307392811116 -0.00021570451051700797 0 0.00016655479678556804 -0.00021139089059400021 0 6.5332004996818027e-05 -0.00026713761216255548 0 7.3753108704876681e-05 -0.00026654732078630828 0 6.6146322973415793e-05 -0.00027234456253427138 0 7.3753108704876681e-05 -0.00026654732078630828 0 7.3869677915417074e-05 -0.00029509214745845018 0 6.6146322973415793e-05 -0.00027234456253427138 0 7.3753108704876681e-05 -0.00026654732078630828 0 7.3869677915417074e-05 -0.00029509214745845018 0 0.0001126501848511713 -0.00031839877188124811 0 7.3869677915417074e-05 -0.00029509214745845018 0 8.7242343158248673e-05 -0.00034730488649808186 0 0.0001126501848511713 -0.00031839877188124811 0 7.3869677915417074e-05 -0.00029509214745845018 0 6.4961729664661229e-05 -0.00030177317161148758 0 8.7242343158248673e-05 -0.00034730488649808186 0 7.3869677915417074e-05 -0.00029509214745845018 0 6.6446362922002096e-05 -0.00026565536448148932 0 6.4961729664661229e-05 -0.00030177317161148758 0 7.3869677915417074e-05 -0.00029509214745845018 0 6.6446362922002096e-05 -0.00026565536448148932 0 6.6146322973415793e-05 -0.00027234456253427138 0 6.5332004996818027e-05 -0.00026713761216255548 0 6.6146322973415793e-05 -0.00027234456253427138 0 7.4868450596461851e-05 -0.00025038654686987589 0 6.6446362922002096e-05 -0.00026565536448148932 0 6.6146322973415793e-05 -0.00027234456253427138 0 7.4868450596461851e-05 -0.00025038654686987589 0 6.5332004996818027e-05 -0.00026713761216255548 0 7.4868450596461851e-05 -0.00025038654686987589 0 9.0607000002518176e-05 -0.00024384719679940498 0 7.4868450596461851e-05 -0.00025038654686987589 0 9.0607000002518176e-05 -0.00024384719679940498 0 9.9236883216056697e-05 -0.00022652013886142111 0 7.4868450596461851e-05 -0.00025038654686987589 0 9.9236883216056697e-05 -0.00022652013886142111 0 8.3232408912864404e-05 -0.00023157776733964932 0 6.6446362922002096e-05 -0.00026565536448148932 0 7.4868450596461851e-05 -0.00025038654686987589 0 8.3232408912864404e-05 -0.00023157776733964932 0 6.6446362922002096e-05 -0.00026565536448148932 0 6.3667452398656621e-05 -0.00024925184216376475 0 8.3232408912864404e-05 -0.00023157776733964932 0 5.7128434079003027e-05 -0.00028125579053921461 0 5.4960007012198848e-05 -0.00034113284087689672 0 6.3667452398656621e-05 -0.00024925184216376475 0 5.4960007012198848e-05 -0.00034113284087689672 0 6.3667452398656621e-05 -0.00024925184216376475 0 6.4961729664661229e-05 -0.00030177317161148758 0 6.6446362922002096e-05 -0.00026565536448148932 0 6.3667452398656621e-05 -0.00024925184216376475 0 6.4961729664661229e-05 -0.00030177317161148758 0 5.4960007012198848e-05 -0.00034113284087689672 0 8.7242343158248673e-05 -0.00034730488649808186 0 8.5905492327275287e-05 -0.00043428173609410284 0 5.4960007012198848e-05 -0.00034113284087689672 0 6.4961729664661229e-05 -0.00030177317161148758 0 8.7242343158248673e-05 -0.00034730488649808186 0 0.00013102228483690337 -0.00019891720134493769 0 0.00015419012476760408 -0.00020990963053559789 0 9.6598735718477608e-05 -0.00017486763344860297 0 0.00016245155779167028 -0.0001495011153523297 0 0.00015419012476760408 -0.00020990963053559789 0 0.00013599991839948982 -0.00013595041901559566 0 0.00016245155779167028 -0.0001495011153523297 0 0.00013102228483690337 -0.00019891720134493769 0 0.00015419012476760408 -0.00020990963053559789 0 0.00016245155779167028 -0.0001495011153523297 0 0.00013102228483690337 -0.00019891720134493769 0 0.00015453659053007179 -0.00018939281000051637 0 0.00013102228483690337 -0.00019891720134493769 0 0.00015453659053007179 -0.00018939281000051637 0 0.00011184981003931809 -0.00021016879913133454 0 0.00015453659053007179 -0.00018939281000051637 0 0.00011184981003931809 -0.00021016879913133454 0 9.9236883216056697e-05 -0.00022652013886142111 0 9.0607000002518176e-05 -0.00024384719679940498 0 0.00015453659053007179 -0.00018939281000051637 0 9.9236883216056697e-05 -0.00022652013886142111 0 0.00011184981003931809 -0.00021016879913133454 0 9.9236883216056697e-05 -0.00022652013886142111 0 8.3232408912864404e-05 -0.00023157776733964932 0 6.3667452398656621e-05 -0.00024925184216376475 0 8.3232408912864404e-05 -0.00023157776733964932 0 8.901342849838449e-05 -0.0002046208198881958 0 0.00011184981003931809 -0.00021016879913133454 0 8.3232408912864404e-05 -0.00023157776733964932 0 8.901342849838449e-05 -0.0002046208198881958 0 0.00013102228483690337 -0.00019891720134493769 0 0.00011184981003931809 -0.00021016879913133454 0 8.901342849838449e-05 -0.0002046208198881958 0 0.00013102228483690337 -0.00019891720134493769 0 8.901342849838449e-05 -0.0002046208198881958 0 9.6598735718477608e-05 -0.00017486763344860297 0 5.7128434079003027e-05 -0.00028125579053921461 0 6.3667452398656621e-05 -0.00024925184216376475 0 5.8061767679127392e-05 -0.00018760915456239539 0 8.901342849838449e-05 -0.0002046208198881958 0 5.8061767679127392e-05 -0.00018760915456239539 0 9.6598735718477608e-05 -0.00017486763344860297 0 6.3667452398656621e-05 -0.00024925184216376475 0 8.901342849838449e-05 -0.0002046208198881958 0 5.8061767679127392e-05 -0.00018760915456239539 0 0.00027216752962926885 0.00018644133115909383 0 3.7124517262322241e-05 -9.0602743763359235e-05 0 0.00019616228589823634 -0.00011230629113221108 0 5.8061767679127392e-05 -0.00018760915456239539 0 3.7124517262322241e-05 -9.0602743763359235e-05 0 9.6598735718477608e-05 -0.00017486763344860297 0 0.00015419012476760408 -0.00020990963053559789 0 9.6598735718477608e-05 -0.00017486763344860297 0 0.00019616228589823634 -0.00011230629113221108 0 3.7124517262322241e-05 -9.0602743763359235e-05 0 9.6598735718477608e-05 -0.00017486763344860297 0 0.00019616228589823634 -0.00011230629113221108 0 0.00027216752962926885 0.00018644133115909383 0 0.00043092963576515063 -2.0576773172978906e-05 0 0.00019616228589823634 -0.00011230629113221108 0 0.00043092963576515063 -2.0576773172978906e-05 0 0.00019616228589823634 -0.00011230629113221108 0 0.00034464647672161546 -0.00020648682534470328 0 0.00043092963576515063 -2.0576773172978906e-05 0 0.00057071821261553629 -0.00027287255840074742 0 0.0007191766036942288 6.6974481405785257e-05 0 0.0005122006576630863 0.00021591518266974495 0 0.00043092963576515063 -2.0576773172978906e-05 0 0.0007191766036942288 6.6974481405785257e-05 0 0.00074315805380206215 0.00054966241588942524 0 0.00078899654516279341 0.00054550476516145236 0 0.00043092963576515063 -2.0576773172978906e-05 0 0.00057071821261553629 -0.00027287255840074742 0 0.00034464647672161546 -0.00020648682534470328 0 0.00057071821261553629 -0.00027287255840074742 0 0.00034464647672161546 -0.00020648682534470328 0 0.00030079696611439886 -0.0003871497813784545 0 0.00015419012476760408 -0.00020990963053559789 0 0.00019616228589823634 -0.00011230629113221108 0 0.00034464647672161546 -0.00020648682534470328 0 0.00015419012476760408 -0.00020990963053559789 0 0.00034464647672161546 -0.00020648682534470328 0 0.00030079696611439886 -0.0003871497813784545 0 0.0001572731639514532 -0.00020169309510874393 0 0.00027869030283090228 -0.00029950094255062432 0 0.00017141670715036043 -7.2962424556559014e-05 0 0.00013599991839948982 -0.00013595041901559566 0 0.00015504811534805386 -5.726460186188215e-05 0 0.00017141670715036043 -7.2962424556559014e-05 0 0.00015504811534805386 -5.726460186188215e-05 0 0.00017472239216617585 4.1877140050557318e-05 0 0.00015504811534805386 -5.726460186188215e-05 0 0.00017472239216617585 4.1877140050557318e-05 0 -3.1381121845873574e-06 -2.4450309679074791e-05 0 0.00027869030283090228 -0.00029950094255062432 0 0.00032572514863073583 0.00045875562572467236 0 0.00013599991839948982 -0.00013595041901559566 0 0.00015504811534805386 -5.726460186188215e-05 0 -3.1381121845873574e-06 -2.4450309679074791e-05 0 0.00074315805380206215 0.00054966241588942524 0 0.00032572514863073583 0.00045875562572467236 0 0.00086628136487866471 0.0013539887556102295 0 0.00075113846509083709 0.0014909857846440871 0 0.00080927431689532228 0.0015035872751278099 0 0.00075113846509083709 0.0014909857846440871 0 0.00080927431689532228 0.0015035872751278099 0 0.00068554986054836882 0.0015306619562614832 0 0.00057071821261553629 -0.00027287255840074742 0 0.00030079696611439886 -0.0003871497813784545 0 0.00044692342317482949 -0.00054621537274017755 0 0.00032572514863073583 0.00045875562572467236 0 0.00038835844232350166 0.0010558723447533903 0 0.00015153885237649024 0.0003958266351574298 0 0.00014453950084591488 0.00047480023782706907 0 0.00016398908757461156 0.00039963405383859244 0 0.00015153885237649024 0.0003958266351574298 0 0.00014453950084591488 0.00047480023782706907 0 0.00012201817016602572 0.00053655342219108249 0 0.00080927431689532228 0.0015035872751278099 0 0.00064776918393465079 0.0014869948033956579 0 0.00068554986054836882 0.0015306619562614832 0 0.00014219427989995288 0.00053908653389718106 0 0.00014453950084591488 0.00047480023782706907 0 0.00012201817016602572 0.00053655342219108249 0 0.00015128644191132705 0.00056456365781445755 0 0.00014453950084591488 0.00047480023782706907 0 0.00016398908757461156 0.00039963405383859244 0 0.00029508746679073007 0.00055924301160494678 0 0.00041762698613017653 0.00041933513943965726 0 0.00016398908757461156 0.00039963405383859244 0 0.00041762698613017653 0.00041933513943965726 0 0.00017472239216617585 4.1877140050557318e-05 0 0.00016398908757461156 0.00039963405383859244 0 0.00017472239216617585 4.1877140050557318e-05 0 -3.1381121845873574e-06 -2.4450309679074791e-05 0 0.00016398908757461156 0.00039963405383859244 0 0.00032572514863073583 0.00045875562572467236 0 0.00012923259058157208 0.00027470584591174336 0 0.00061764837624238224 0.0016177689668528672 0 0.00066425870225533194 0.0015324498030774227 0 0.0005508400693848114 0.0015835002172666095 0 0.00061764837624238224 0.0016177689668528672 0 0.00054748914630561277 0.0016756080511926977 0 0.0005508400693848114 0.0015835002172666095 0 0.00054748914630561277 0.0016756080511926977 0 0.0005508400693848114 0.0015835002172666095 0 0.00047601260642433902 0.0016713799609159529 0 0.00060211325694607416 0.001775328679530584 0 0.00061764837624238224 0.0016177689668528672 0 0.00054748914630561277 0.0016756080511926977 0 0.00060211325694607416 0.001775328679530584 0 0.00061764837624238224 0.0016177689668528672 0 0.00068554986054836882 0.0015306619562614832 0 0.00058560576271748195 0.0015337868981259522 0 0.00065339240718870607 0.0015396352927398353 0 0.00058316277812821564 0.0012787282374990836 0 0.00064776918393465079 0.0014869948033956579 0 0.00068554986054836882 0.0015306619562614832 0 0.00061764837624238224 0.0016177689668528672 0 0.00068554986054836882 0.0015306619562614832 0 0.00066425870225533194 0.0015324498030774227 0 0.00086628136487866471 0.0013539887556102295 0 0.00075113846509083709 0.0014909857846440871 0 0.0007189134622666688 0.0014471302676491626 0 0.00075113846509083709 0.0014909857846440871 0 0.00066425870225533194 0.0015324498030774227 0 0.0007189134622666688 0.0014471302676491626 0 0.00075113846509083709 0.0014909857846440871 0 0.00068554986054836882 0.0015306619562614832 0 0.00066425870225533194 0.0015324498030774227 0 0.00066425870225533194 0.0015324498030774227 0 0.0007189134622666688 0.0014471302676491626 0 0.00061728765136284496 0.0014472057602639703 0 0.00066425870225533194 0.0015324498030774227 0 0.00061728765136284496 0.0014472057602639703 0 0.0005508400693848114 0.0015835002172666095 0 0.00061728765136284496 0.0014472057602639703 0 0.0005508400693848114 0.0015835002172666095 0 0.00047459084855727614 0.001469710855217299 0 0.00061728765136284496 0.0014472057602639703 0 0.00054902647248452783 0.0012696477639738801 0 0.00047459084855727614 0.001469710855217299 0 0.00061728765136284496 0.0014472057602639703 0 0.00054902647248452783 0.0012696477639738801 0 0.00073045925569980327 0.001290977073998067 0 0.00086628136487866471 0.0013539887556102295 0 0.0007189134622666688 0.0014471302676491626 0 0.00073045925569980327 0.001290977073998067 0 0.00086628136487866471 0.0013539887556102295 0 0.00073045925569980327 0.001290977073998067 0 0.00089931550718390341 0.0010479155154725591 0 0.0007189134622666688 0.0014471302676491626 0 0.00061728765136284496 0.0014472057602639703 0 0.00073045925569980327 0.001290977073998067 0 0.00063619635280964153 0.00093057182802069242 0 0.00073045925569980327 0.001290977073998067 0 0.00089931550718390341 0.0010479155154725591 0 0.00063619635280964153 0.00093057182802069242 0 0.00054902647248452783 0.0012696477639738801 0 0.00073045925569980327 0.001290977073998067 0 0.00063619635280964153 0.00093057182802069242 0 0.00054902647248452783 0.0012696477639738801 0 0.00033741222850566474 0.0010211789770988048 0 0.00054902647248452783 0.0012696477639738801 0 0.00033741222850566474 0.0010211789770988048 0 0.00032440382531633829 0.0013735290504403557 0 0.00032440382531633829 0.0013735290504403557 0 0.00047459084855727614 0.001469710855217299 0 0.00033827841466266956 0.0015157390353709862 0 0.00054902647248452783 0.0012696477639738801 0 0.00032440382531633829 0.0013735290504403557 0 0.00047459084855727614 0.001469710855217299 0 0.00033827841466266956 0.0015157390353709862 0 0.00031154595089464437 0.0015272883555841759 0 0.00032810916549736927 0.0016319067788132713 0 0.00032440382531633829 0.0013735290504403557 0 0.00033827841466266956 0.0015157390353709862 0 0.00031154595089464437 0.0015272883555841759 0 0.00031339759743941503 0.0013852380645040408 0 0.00010709678185980947 0.0013698579102869102 0 0.00033741222850566474 0.0010211789770988048 0 0.00032440382531633829 0.0013735290504403557 0 -0.0001342804527537132 0.0012174774262814424 0 5.0910710495521675e-05 0.00084305355174372945 0 0.00033741222850566474 0.0010211789770988048 0 -0.0001342804527537132 0.0012174774262814424 0 -0.00037528325244152658 0.00094677264006393634 0 -0.00021173605516022957 0.00081538046991299381 0 -0.0001342804527537132 0.0012174774262814424 0 0.00010709678185980947 0.0013698579102869102 0 -0.00015310949261034142 0.0013259980793824178 0 -0.00037528325244152658 0.00094677264006393634 0 -0.0001342804527537132 0.0012174774262814424 0 -0.0005068531490735386 0.0011018266175646179 0 0.00025755370408826262 0.0015538829856769089 0 0.00027986965749408969 0.0016512684940998639 0 0.00021039134821979803 0.0016232263811865391 0 0.00031154595089464437 0.0015272883555841759 0 0.00025755370408826262 0.0015538829856769089 0 0.00027986965749408969 0.0016512684940998639 0 0.00031154595089464437 0.0015272883555841759 0 0.00027986965749408969 0.0016512684940998639 0 0.00032810916549736927 0.0016319067788132713 0 0.00030041128512487547 0.0017304345430955892 0 0.00034897920343592432 0.0017595423170297909 0 0.00032810916549736927 0.0016319067788132713 0 0.00027986965749408969 0.0016512684940998639 0 0.00030041128512487547 0.0017304345430955892 0 0.00032810916549736927 0.0016319067788132713 0 0.00027986965749408969 0.0016512684940998639 0 0.00026678526604953328 0.0017817462853811101 0 0.00019964067932202325 0.0017511818031759629 0 0.00027986965749408969 0.0016512684940998639 0 0.00030041128512487547 0.0017304345430955892 0 0.00026678526604953328 0.0017817462853811101 0 0.00026678526604953328 0.0017817462853811101 0 0.00028960357367195178 0.0018452443203362226 0 0.00024682983306563281 0.0019522269075127514 0 0.00030041128512487547 0.0017304345430955892 0 0.00026678526604953328 0.0017817462853811101 0 0.00028960357367195178 0.0018452443203362226 0 0.00030041128512487547 0.0017304345430955892 0 0.00028960357367195178 0.0018452443203362226 0 0.00034897920343592432 0.0017595423170297909 0 0.00028960357367195178 0.0018452443203362226 0 0.00034897920343592432 0.0017595423170297909 0 0.00032198742185558549 0.0018600402514662041 0 0.00034897920343592432 0.0017595423170297909 0 0.00039025895862058665 0.0016842740739268305 0 0.00043213647568793729 0.0017432790049351488 0 0.00034897920343592432 0.0017595423170297909 0 0.00039025895862058665 0.0016842740739268305 0 0.00032810916549736927 0.0016319067788132713 0 0.00034897920343592432 0.0017595423170297909 0 0.00043213647568793729 0.0017432790049351488 0 0.00040270738996413101 0.0018116401705088345 0 0.00043213647568793729 0.0017432790049351488 0 0.00047601260642433902 0.0016713799609159529 0 0.00050097889264221233 0.0017531773016495585 0 0.00054748914630561277 0.0016756080511926977 0 0.00047601260642433902 0.0016713799609159529 0 0.00050097889264221233 0.0017531773016495585 0 0.00039025895862058665 0.0016842740739268305 0 0.00043213647568793729 0.0017432790049351488 0 0.00047601260642433902 0.0016713799609159529 0 0.00039025895862058665 0.0016842740739268305 0 0.00047601260642433902 0.0016713799609159529 0 0.00041395709189104979 0.0015933700691015565 0 0.0005508400693848114 0.0015835002172666095 0 0.00047459084855727614 0.001469710855217299 0 0.00041395709189104979 0.0015933700691015565 0 0.00047459084855727614 0.001469710855217299 0 0.00033827841466266956 0.0015157390353709862 0 0.00041395709189104979 0.0015933700691015565 0 0.0005508400693848114 0.0015835002172666095 0 0.00047601260642433902 0.0016713799609159529 0 0.00041395709189104979 0.0015933700691015565 0 0.00033827841466266956 0.0015157390353709862 0 0.00041395709189104979 0.0015933700691015565 0 0.00032810916549736927 0.0016319067788132713 0 0.00039025895862058665 0.0016842740739268305 0 0.00041395709189104979 0.0015933700691015565 0 0.00032810916549736927 0.0016319067788132713 0 -0.00041221304423424992 0.0017079275990168766 0 -0.00018712448018995593 0.0016266208400738341 0 -0.00032633383673979496 0.0013652490883530042 0 -0.00041221304423424992 0.0017079275990168766 0 -0.00018712448018995593 0.0016266208400738341 0 -8.1348332303687383e-05 0.0018309276575704198 0 -0.00018712448018995593 0.0016266208400738341 0 -0.00032633383673979496 0.0013652490883530042 0 -0.00016898200142889791 0.0014060933746665081 0 -0.00023007514900027869 0.00121340098909167 0 -0.00032633383673979496 0.0013652490883530042 0 -0.00016898200142889791 0.0014060933746665081 0 -0.00018712448018995593 0.0016266208400738341 0 -0.00016898200142889791 0.0014060933746665081 0 -8.4163870102133359e-06 0.0014688154903874969 0 1.0979560627890768e-05 0.0012759469954670142 0 -0.00016898200142889791 0.0014060933746665081 0 -8.4163870102133359e-06 0.0014688154903874969 0 -0.00018712448018995593 0.0016266208400738341 0 3.055061259796475e-05 0.0015685194767316149 0 8.8714854913764626e-06 0.0016848394607351781 0 -0.00018941237648613358 0.0016299929415136091 0 5.1082573578169142e-05 0.0015165465623564987 0 -0.00018712448018995593 0.0016266208400738341 0 8.8714854913764626e-06 0.0016848394607351781 0 -8.1348332303687383e-05 0.0018309276575704198 0 0.00012491893484403984 0.0016463255950783576 0 0.00019964067932202325 0.0017511818031759629 0 9.2153189679384257e-05 0.0017691118832399153 0 8.8714854913764626e-06 0.0016848394607351781 0 0.00012491893484403984 0.0016463255950783576 0 9.2153189679384257e-05 0.0017691118832399153 0 3.055061259796475e-05 0.0015685194767316149 0 8.8714854913764626e-06 0.0016848394607351781 0 0.00012491893484403984 0.0016463255950783576 0 5.1082573578169142e-05 0.0015165465623564987 0 -0.00020766644899837997 0.001214263412856382 0 3.055061259796475e-05 0.0015685194767316149 0 0.00012491893484403984 0.0016463255950783576 0 0.0001523346306816979 0.0015156429083208352 0 1.0979560627890768e-05 0.0012759469954670142 0 -8.4163870102133359e-06 0.0014688154903874969 0 0.00020587216439990947 0.0013259767467086435 0 0.00025755370408826262 0.0015538829856769089 0 0.0001523346306816979 0.0015156429083208352 0 0.00021039134821979803 0.0016232263811865391 0 0.00012491893484403984 0.0016463255950783576 0 0.0001523346306816979 0.0015156429083208352 0 0.00021039134821979803 0.0016232263811865391 0 -0.00015310949261034142 0.0013259980793824178 0 -0.00020766644899837997 0.001214263412856382 0 0.00027986965749408969 0.0016512684940998639 0 0.00021039134821979803 0.0016232263811865391 0 0.00019964067932202325 0.0017511818031759629 0 0.00012491893484403984 0.0016463255950783576 0 0.00021039134821979803 0.0016232263811865391 0 0.00019964067932202325 0.0017511818031759629 0 0.00026678526604953328 0.0017817462853811101 0 0.00019964067932202325 0.0017511818031759629 0 0.00024682983306563281 0.0019522269075127514 0 0.00019964067932202325 0.0017511818031759629 0 0.00024682983306563281 0.0019522269075127514 0 0.00011249047270816955 0.0019757226099636305 0 0.00024682983306563281 0.0019522269075127514 0 0.00011249047270816955 0.0019757226099636305 0 0.00023585927746974785 0.0021389022224259564 0 0.00019964067932202325 0.0017511818031759629 0 0.00011249047270816955 0.0019757226099636305 0 9.2153189679384257e-05 0.0017691118832399153 0 0.00011249047270816955 0.0019757226099636305 0 9.2153189679384257e-05 0.0017691118832399153 0 -8.1348332303687383e-05 0.0018309276575704198 0 8.8714854913764626e-06 0.0016848394607351781 0 9.2153189679384257e-05 0.0017691118832399153 0 -8.1348332303687383e-05 0.0018309276575704198 0 0.00011249047270816955 0.0019757226099636305 0 -0.0001437487954602337 0.0021378925939382512 0 4.0491793797379447e-05 0.0022423641943741524 0 0.00011249047270816955 0.0019757226099636305 0 -8.1348332303687383e-05 0.0018309276575704198 0 -0.0001437487954602337 0.0021378925939382512 0 -0.00022632389072472356 0.0022628604157403768 0 -0.0001437487954602337 0.0021378925939382512 0 -0.0001243459764823569 0.0023779591295655647 0 -0.00041221304423424992 0.0017079275990168766 0 -8.1348332303687383e-05 0.0018309276575704198 0 -0.0001437487954602337 0.0021378925939382512 0 -0.0003290632714930933 0.0019127875702439404 0 -0.00015877356659863126 0.0021316529241513799 0 -0.00015508277397293884 0.0026054995495565867 0 -0.0001243459764823569 0.0023779591295655647 0 -6.9691096892824107e-06 0.0025387868935603007 0 -0.00015508277397293884 0.0026054995495565867 0 -6.9691096892824107e-06 0.0025387868935603007 0 -8.2285289568082487e-05 0.0027349234118945044 0 -0.0001437487954602337 0.0021378925939382512 0 -0.0001243459764823569 0.0023779591295655647 0 4.0491793797379447e-05 0.0022423641943741524 0 -0.0002352527492081673 0.0024754857652757728 0 -0.00015508277397293884 0.0026054995495565867 0 -0.0001243459764823569 0.0023779591295655647 0 -0.0001243459764823569 0.0023779591295655647 0 4.0491793797379447e-05 0.0022423641943741524 0 -6.9691096892824107e-06 0.0025387868935603007 0 -6.9691096892824107e-06 0.0025387868935603007 0 0.00018741734244108037 0.0024712526435343618 0 0.00011684432008200414 0.0026222386947591203 0 4.0491793797379447e-05 0.0022423641943741524 0 -6.9691096892824107e-06 0.0025387868935603007 0 0.00018741734244108037 0.0024712526435343618 0 0.00018741734244108037 0.0024712526435343618 0 0.00023585927746974785 0.0021389022224259564 0 0.00047782962139846717 0.0026988519412202007 0 0.00018741734244108037 0.0024712526435343618 0 0.00022738411248970477 0.002638705762516918 0 0.00011684432008200414 0.0026222386947591203 0 4.0491793797379447e-05 0.0022423641943741524 0 0.00018741734244108037 0.0024712526435343618 0 0.00023585927746974785 0.0021389022224259564 0 0.00011249047270816955 0.0019757226099636305 0 4.0491793797379447e-05 0.0022423641943741524 0 0.00023585927746974785 0.0021389022224259564 0 0.00024682983306563281 0.0019522269075127514 0 0.00023585927746974785 0.0021389022224259564 0 0.00024407724201488934 0.0020388431389496524 0 0.0002704227475221769 0.0021845886237889522 0 0.00029974400915992966 0.0022763651210218447 0 0.00024407724201488934 0.0020388431389496524 0 0.00025629513799274833 0.0020224826093061653 0 0.00025994401510851277 0.0020302304943249768 0 0.00023585927746974785 0.0021389022224259564 0 0.00024407724201488934 0.0020388431389496524 0 0.00025629513799274833 0.0020224826093061653 0 0.00029974400915992966 0.0022763651210218447 0 0.00035230283009623879 0.0019514487338723691 0 0.00039062504349488198 0.0019237194875817926 0 0.00039496878465874075 0.0019348437024527118 0 0.00041171984394853145 0.0019159722842582133 0 0.00019345492634683002 0.0024908368017773678 0 0.00022668614474480924 0.0025897707498537792 0 3.7427643441669364e-05 0.0025380942977469875 0 0.00029974400915992966 0.0022763651210218447 0 0.00016934230114285252 0.0023549227601753074 0 -0.00013503348407204309 0.0029140342197427099 0 -0.00013230154935690058 0.0028998266413479469 0 -0.00014642429998418114 0.0028895996918457119 0 0.00016934230114285252 0.0023549227601753074 0 -2.9400987965222066e-05 0.0019346880689690813 0 -0.00013503348407204309 0.0029140342197427099 0 -0.00013230154935690058 0.0028998266413479469 0 -0.00011686097453233753 0.0029062338812755953 0 -0.00013503348407204309 0.0029140342197427099 0 -0.00011686097453233753 0.0029062338812755953 0 -9.880989878775922e-05 0.0029144952209887737 0 0.00016934230114285252 0.0023549227601753074 0 -8.9443962199486975e-05 0.0028100419571343085 0 0.00022668614474480924 0.0025897707498537792 0 3.7427643441669364e-05 0.0025380942977469875 0 -4.4910919438711227e-06 0.0025891982003235841 0 -0.00011686097453233753 0.0029062338812755953 0 -0.00010384124202839832 0.0029086495308592096 0 -9.880989878775922e-05 0.0029144952209887737 0 0.00029974400915992966 0.0022763651210218447 0 9.6896240422457146e-05 0.0026640332265815067 0 0.00047782962139846717 0.0026988519412202007 0 0.00015423124640560345 0.0027610880840932962 0 0.00022738411248970477 0.002638705762516918 0 0.00018741734244108037 0.0024712526435343618 0 0.00047782962139846717 0.0026988519412202007 0 0.00022738411248970477 0.002638705762516918 0 0.00015423124640560345 0.0027610880840932962 0 0.00022738411248970477 0.002638705762516918 0 0.00011684432008200414 0.0026222386947591203 0 0.00015423124640560345 0.0027610880840932962 0 2.5430522649272475e-05 0.0026883754069440945 0 -3.067380538778665e-05 0.0028362499959714328 0 9.6896240422457146e-05 0.0026640332265815067 0 -7.550205655627523e-05 0.0027648636260057171 0 0.00015423124640560345 0.0027610880840932962 0 0.00011684432008200414 0.0026222386947591203 0 2.5430522649272475e-05 0.0026883754069440945 0 -6.9691096892824107e-06 0.0025387868935603007 0 0.00011684432008200414 0.0026222386947591203 0 2.5430522649272475e-05 0.0026883754069440945 0 -6.9691096892824107e-06 0.0025387868935603007 0 2.5430522649272475e-05 0.0026883754069440945 0 -8.2285289568082487e-05 0.0027349234118945044 0 3.7427643441669364e-05 0.0025380942977469875 0 -4.4910919438711227e-06 0.0025891982003235841 0 -0.00011823646465925714 0.0025896452096644622 0 -0.00010384124202839832 0.0029086495308592096 0 -9.6933763364530308e-05 0.002914909267130015 0 -9.944906301066273e-05 0.0029137602639859005 0 -0.00010384124202839832 0.0029086495308592096 0 -9.880989878775922e-05 0.0029144952209887737 0 -9.6933763364530308e-05 0.002914909267130015 0 -9.6933763364530308e-05 0.002914909267130015 0 -0.00010476028912881291 0.0029286168097885437 0 -9.944906301066273e-05 0.0029137602639859005 0 -9.880989878775922e-05 0.0029144952209887737 0 -9.6933763364530308e-05 0.002914909267130015 0 -0.00010413153011490818 0.0028982899553813514 0 -8.9443962199486975e-05 0.0028100419571343085 0 -7.550205655627523e-05 0.0027648636260057171 0 -9.6933763364530308e-05 0.002914909267130015 0 -0.0001273855190230912 0.0028816891433543863 0 -0.00010476028912881291 0.0029286168097885437 0 -9.6933763364530308e-05 0.002914909267130015 0 -0.00010413153011490818 0.0028982899553813514 0 -0.0001273855190230912 0.0028816891433543863 0 -0.00013516268431436503 0.0029535732481469419 0 -0.0001273855190230912 0.0028816891433543863 0 -0.00010476028912881291 0.0029286168097885437 0 -7.550205655627523e-05 0.0027648636260057171 0 -0.0001217861957078422 0.0028603731335723834 0 -0.00018501648319743251 0.0028126547564827978 0 -0.0001273855190230912 0.0028816891433543863 0 -8.2285289568082487e-05 0.0027349234118945044 0 -0.00018501648319743251 0.0028126547564827978 0 -0.00015508277397293884 0.0026054995495565867 0 -8.2285289568082487e-05 0.0027349234118945044 0 2.5430522649272475e-05 0.0026883754069440945 0 -3.067380538778665e-05 0.0028362499959714328 0 -8.2285289568082487e-05 0.0027349234118945044 0 -3.067380538778665e-05 0.0028362499959714328 0 -0.0001273855190230912 0.0028816891433543863 0 -8.2285289568082487e-05 0.0027349234118945044 0 0.00038078149539454631 0.0019159937006574498 0 0.00045062180539832947 0.001915517072853523 0 0.00033939312321714109 0.0019827620810905101 0 0.00057688042915392571 0.0014541893925777041 0 0.00072814368328099623 0.0013197813939945194 0 0.00045062180539832947 0.001915517072853523 0 0.00046430442319898363 0.0019166386217697661 0 0.00043592050722531309 0.0019190760994502311 0 0.00045062180539832947 0.001915517072853523 0 0.00042990096292040713 0.0019122847668403629 0 0.00043592050722531309 0.0019190760994502311 0 0.00044396231970535643 0.0019209112271080192 0 0.00038020166891453383 0.0019492472680940271 0 0.00038078149539454631 0.0019159937006574498 0 0.00045062180539832947 0.001915517072853523 0 0.00041684594146513718 0.0018745404292393332 0 0.00038078149539454631 0.0019159937006574498 0 0.00033769612427771422 0.0019198851361997122 0 0.00033939312321714109 0.0019827620810905101 0 0.00064776092372054281 0.00085708034034516001 0 0.00070188391124537466 0.00097794256496432476 0 0.00073667260709120051 0.00074699941298130566 0 0.00070188391124537466 0.00097794256496432476 0 0.00092842068520782939 0.00072197131642329866 0 0.00073667260709120051 0.00074699941298130566 0 0.00050997704930407168 0.00075804459080669223 0 0.00064776092372054281 0.00085708034034516001 0 0.00061903591718731805 0.00091929043698751195 0 0.00064776092372054281 0.00085708034034516001 0 0.00061903591718731805 0.00091929043698751195 0 0.00070188391124537466 0.00097794256496432476 0 0.00058240718403172525 0.001038866493562681 0 0.00061903591718731805 0.00091929043698751195 0 0.00070188391124537466 0.00097794256496432476 0 0.00045062180539832947 0.001915517072853523 0 0.00045413211874711798 0.0018764768382129524 0 0.00041684594146513718 0.0018745404292393332 0 0.00045062180539832947 0.001915517072853523 0 0.00046430442319898363 0.0019166386217697661 0 0.00045413211874711798 0.0018764768382129524 0 0.00060211325694607416 0.001775328679530584 0 0.00046430442319898363 0.0019166386217697661 0 0.00049157199787851279 0.0018301298614613868 0 0.00045413211874711798 0.0018764768382129524 0 0.00044819918873050647 0.0018271405558299679 0 0.00041684594146513718 0.0018745404292393332 0 0.00046430442319898363 0.0019166386217697661 0 0.00045413211874711798 0.0018764768382129524 0 0.00049157199787851279 0.0018301298614613868 0 0.00045413211874711798 0.0018764768382129524 0 0.00049157199787851279 0.0018301298614613868 0 0.00044819918873050647 0.0018271405558299679 0 0.00049157199787851279 0.0018301298614613868 0 0.00050097889264221233 0.0017531773016495585 0 0.00044819918873050647 0.0018271405558299679 0 0.00043213647568793729 0.0017432790049351488 0 0.00044819918873050647 0.0018271405558299679 0 0.00040270738996413101 0.0018116401705088345 0 0.00043213647568793729 0.0017432790049351488 0 0.00050097889264221233 0.0017531773016495585 0 0.00044819918873050647 0.0018271405558299679 0 0.00034897920343592432 0.0017595423170297909 0 0.00040270738996413101 0.0018116401705088345 0 0.00036666747701083994 0.0018682502583010447 0 0.00044819918873050647 0.0018271405558299679 0 0.00040270738996413101 0.0018116401705088345 0 0.00041684594146513718 0.0018745404292393332 0 0.00040270738996413101 0.0018116401705088345 0 0.00041684594146513718 0.0018745404292393332 0 0.00036666747701083994 0.0018682502583010447 0 0.00038078149539454631 0.0019159937006574498 0 0.00041684594146513718 0.0018745404292393332 0 0.00036666747701083994 0.0018682502583010447 0 0.00038078149539454631 0.0019159937006574498 0 0.00036666747701083994 0.0018682502583010447 0 0.00033769612427771422 0.0019198851361997122 0 0.00034897920343592432 0.0017595423170297909 0 0.00036666747701083994 0.0018682502583010447 0 0.00032198742185558549 0.0018600402514662041 0 0.00028960357367195178 0.0018452443203362226 0 0.00032198742185558549 0.0018600402514662041 0 0.000290145280080403 0.0019461751200813991 0 0.00032198742185558549 0.0018600402514662041 0 0.000290145280080403 0.0019461751200813991 0 0.00033769612427771422 0.0019198851361997122 0 0.00036666747701083994 0.0018682502583010447 0 0.00032198742185558549 0.0018600402514662041 0 0.00033769612427771422 0.0019198851361997122 0 0.00028960357367195178 0.0018452443203362226 0 0.00024682983306563281 0.0019522269075127514 0 0.000290145280080403 0.0019461751200813991 0 0.00024682983306563281 0.0019522269075127514 0 0.00024407724201488934 0.0020388431389496524 0 0.000290145280080403 0.0019461751200813991 0 0.00024407724201488934 0.0020388431389496524 0 0.000290145280080403 0.0019461751200813991 0 0.00025994401510851277 0.0020302304943249768 0 0.00038020166891453383 0.0019492472680940271 0 0.00035230283009623879 0.0019514487338723691 0 0.000290145280080403 0.0019461751200813991 0 0.00033939312321714109 0.0019827620810905101 0 0.00025994401510851277 0.0020302304943249768 0 0.000290145280080403 0.0019461751200813991 0 0.00033769612427771422 0.0019198851361997122 0 0.00033939312321714109 0.0019827620810905101 0 0.00042990096292040713 0.0019122847668403629 0 0.00042399540937389143 0.001919777541282984 0 0.00043592050722531309 0.0019190760994502311 0 0.00042399540937389143 0.001919777541282984 0 0.00042133307515508037 0.0019296952180078569 0 0.00043592050722531309 0.0019190760994502311 0 0.00044827559198434651 0.0011115296220641346 0 0.00072814368328099623 0.0013197813939945194 0 0.00042399540937389143 0.001919777541282984 0 0.00041171984394853145 0.0019159722842582133 0 0.00042133307515508037 0.0019296952180078569 0 0.00042990096292040713 0.0019122847668403629 0 0.00042399540937389143 0.001919777541282984 0 0.00041171984394853145 0.0019159722842582133 0 0.00039496878465874075 0.0019348437024527118 0 0.00041171984394853145 0.0019159722842582133 0 0.00042133307515508037 0.0019296952180078569 0 0.00044827559198434651 0.0011115296220641346 0 -2.9400987965222066e-05 0.0019346880689690813 0 0.00016934230114285252 0.0023549227601753074 0 0.00044827559198434651 0.0011115296220641346 0 7.4779022850873466e-05 0.0017097652043659172 0 0.0004107719612845983 0.0017116461711994275 0 0.00015074637642622748 0.0019351928387970568 0 -0.00011516210420147225 0.000514540914708656 0 -3.3817844999355066e-05 0.00050598120814137617 0 -0.00010468100311337357 0.00058210026657583118 0 0.00044827559198434651 0.0011115296220641346 0 0.00039990232561655422 0.00043730840883122362 0 0.0011448370975313939 0.0005307147757583966 0 0.00081455918677038157 0.00050454441957412902 0 0.00092842068520782939 0.00072197131642329866 0 0.00081455918677038157 0.00050454441957412902 0 0.00092842068520782939 0.00072197131642329866 0 0.00073667260709120051 0.00074699941298130566 0 0.00041334953420701622 0.00047705326391418241 0 0.00081455918677038157 0.00050454441957412902 0 0.00073667260709120051 0.00074699941298130566 0 0.00050997704930407168 0.00075804459080669223 0 0.00041334953420701622 0.00047705326391418241 0 0.00073667260709120051 0.00074699941298130566 0 0.00050997704930407168 0.00075804459080669223 0 0.00064776092372054281 0.00085708034034516001 0 0.00073667260709120051 0.00074699941298130566 0 4.782753152126247e-05 0.0005023880452058383 0 -3.3817844999355066e-05 0.00050598120814137617 0 1.8047072294511369e-05 0.00052835686330237675 0 0.00023719041014698205 0.00050802424778130355 0 0.00039990232561655422 0.00043730840883122362 0 -3.3817844999355066e-05 0.00050598120814137617 0 1.8047072294511369e-05 0.00052835686330237675 0 9.0095696859063144e-06 0.00056000406231749655 0 -3.3817844999355066e-05 0.00050598120814137617 0 9.0095696859063144e-06 0.00056000406231749655 0 -3.8641204674399565e-05 0.00057317894093746231 0 9.0095696859063144e-06 0.00056000406231749655 0 -4.844677219065817e-06 0.00059345968860847662 0 -3.8641204674399565e-05 0.00057317894093746231 0 9.0095696859063144e-06 0.00056000406231749655 0 -4.844677219065817e-06 0.00059345968860847662 0 3.3963098069336872e-05 0.00059169752394593912 0 -4.844677219065817e-06 0.00059345968860847662 0 -5.3106972213185381e-05 0.00062572670131065956 0 -3.8641204674399565e-05 0.00057317894093746231 0 -4.844677219065817e-06 0.00059345968860847662 0 3.3963098069336872e-05 0.00059169752394593912 0 2.6614708793299288e-05 0.0006136637061072281 0 -4.844677219065817e-06 0.00059345968860847662 0 -3.7145946501290944e-06 0.00062351965624765323 0 -5.3106972213185381e-05 0.00062572670131065956 0 -4.844677219065817e-06 0.00059345968860847662 0 -3.7145946501290944e-06 0.00062351965624765323 0 2.6614708793299288e-05 0.0006136637061072281 0 -5.3106972213185381e-05 0.00062572670131065956 0 -3.8641204674399565e-05 0.00057317894093746231 0 -0.00010468100311337357 0.00058210026657583118 0 -3.3817844999355066e-05 0.00050598120814137617 0 -3.8641204674399565e-05 0.00057317894093746231 0 -0.00010468100311337357 0.00058210026657583118 0 -0.00010468100311337357 0.00058210026657583118 0 -0.00015715176987057998 0.00063707547292580363 0 -0.0001752080659984365 0.00057237680051390406 0 -0.00011516210420147225 0.000514540914708656 0 -0.00010468100311337357 0.00058210026657583118 0 -0.0001752080659984365 0.00057237680051390406 0 -0.00021404419349421174 0.0016788060379180167 0 -2.9400987965222066e-05 0.0019346880689690813 0 -5.3106972213185381e-05 0.00062572670131065956 0 -0.00010468100311337357 0.00058210026657583118 0 -0.00011649087170993102 0.00065166431029498127 0 -0.00010468100311337357 0.00058210026657583118 0 -0.00015715176987057998 0.00063707547292580363 0 -0.00011649087170993102 0.00065166431029498127 0 -0.00015715176987057998 0.00063707547292580363 0 -0.00011649087170993102 0.00065166431029498127 0 -0.00015692575612757969 0.00070637263111494452 0 -0.00021404419349421174 0.0016788060379180167 0 -0.00020280596587641834 0.0016923037340226721 0 -0.00022173834143070291 0.0028115086398563735 0 -0.00026075979615057505 0.0026531982524091616 0 -0.00013724182701209281 0.0026494737694284865 0 -0.00026075979615057505 0.0026531982524091616 0 -0.00013724182701209281 0.0026494737694284865 0 -0.00015496008265177049 0.0024827333822321435 0 -0.00011649087170993102 0.00065166431029498127 0 -0.00015692575612757969 0.00070637263111494452 0 -8.4753284797666522e-05 0.00069937690956018827 0 -0.00015692575612757969 0.00070637263111494452 0 -8.4753284797666522e-05 0.00069937690956018827 0 -0.00017399617325094047 0.0008061294574183373 0 -8.4753284797666522e-05 0.00069937690956018827 0 -3.2451396254447945e-06 0.00071871162245029305 0 -7.3300923774085336e-05 0.00076834119077801391 0 -8.4753284797666522e-05 0.00069937690956018827 0 -3.2451396254447945e-06 0.00071871162245029305 0 -6.6133338334678808e-06 0.000667570513327836 0 -3.2451396254447945e-06 0.00071871162245029305 0 -6.6133338334678808e-06 0.000667570513327836 0 5.2327672787005884e-05 0.00068162462189362029 0 -3.7145946501290944e-06 0.00062351965624765323 0 -5.3106972213185381e-05 0.00062572670131065956 0 -6.6133338334678808e-06 0.000667570513327836 0 -3.7145946501290944e-06 0.00062351965624765323 0 -6.6133338334678808e-06 0.000667570513327836 0 3.7783593229431467e-05 0.00063522865307267249 0 -6.6133338334678808e-06 0.000667570513327836 0 3.3677465863562973e-05 0.00065960044868245196 0 3.7783593229431467e-05 0.00063522865307267249 0 -3.7145946501290944e-06 0.00062351965624765323 0 3.7783593229431467e-05 0.00063522865307267249 0 2.6614708793299288e-05 0.0006136637061072281 0 -5.3106972213185381e-05 0.00062572670131065956 0 -0.00011649087170993102 0.00065166431029498127 0 -8.4753284797666522e-05 0.00069937690956018827 0 -5.3106972213185381e-05 0.00062572670131065956 0 -8.4753284797666522e-05 0.00069937690956018827 0 -6.6133338334678808e-06 0.000667570513327836 0 -0.00010157337778687642 0.002913047510855706 0 -9.1998633675629217e-05 0.0028533702532232584 0 -0.00010058925583165097 0.0028987137733644669 0 -0.00012619043917704953 0.0029511893062787856 0 -0.00011864610602497042 0.0029519302582155654 0 -0.00010058925583165097 0.0028987137733644669 0 -0.00010157337778687642 0.002913047510855706 0 -0.00011864610602497042 0.0029519302582155654 0 -0.00010058925583165097 0.0028987137733644669 0 -0.00010157337778687642 0.002913047510855706 0 -0.00011864610602497042 0.0029519302582155654 0 -0.00011532126837863476 0.0029493291260995302 0 -0.00013516268431436503 0.0029535732481469419 0 -0.00011532126837863476 0.0029493291260995302 0 -0.00010476028912881291 0.0029286168097885437 0 -0.00011532126837863476 0.0029493291260995302 0 -0.00010476028912881291 0.0029286168097885437 0 -0.00010064864333254822 0.0029180058045317923 0 -0.00010157337778687642 0.002913047510855706 0 -0.00011532126837863476 0.0029493291260995302 0 -0.00010064864333254822 0.0029180058045317923 0 -0.00010476028912881291 0.0029286168097885437 0 -0.00010064864333254822 0.0029180058045317923 0 -9.944906301066273e-05 0.0029137602639859005 0 -0.00010064864333254822 0.0029180058045317923 0 -9.944906301066273e-05 0.0029137602639859005 0 -0.00010228815448489759 0.002901975822206537 0 -0.00010384124202839832 0.0029086495308592096 0 -9.944906301066273e-05 0.0029137602639859005 0 -0.00010228815448489759 0.002901975822206537 0 -0.00010064864333254822 0.0029180058045317923 0 -0.00010228815448489759 0.002901975822206537 0 -9.8995364464284988e-05 0.0028878409785887799 0 -0.00010157337778687642 0.002913047510855706 0 -0.00010064864333254822 0.0029180058045317923 0 -9.8995364464284988e-05 0.0028878409785887799 0 -0.00010157337778687642 0.002913047510855706 0 -9.8995364464284988e-05 0.0028878409785887799 0 -9.1998633675629217e-05 0.0028533702532232584 0 -9.8995364464284988e-05 0.0028878409785887799 0 -0.00010768226381150319 0.0028473537104728376 0 -9.1998633675629217e-05 0.0028533702532232584 0 -0.00010768226381150319 0.0028473537104728376 0 -0.00010979320908844138 0.0028827458157287362 0 -0.00013825661000331941 0.0028797927265571798 0 -9.8995364464284988e-05 0.0028878409785887799 0 -0.00010768226381150319 0.0028473537104728376 0 -0.00010979320908844138 0.0028827458157287362 0 -0.00010228815448489759 0.002901975822206537 0 -9.8995364464284988e-05 0.0028878409785887799 0 -0.00010979320908844138 0.0028827458157287362 0 -0.00010228815448489759 0.002901975822206537 0 -0.00010979320908844138 0.0028827458157287362 0 -0.0001166492182083221 0.0028951877665215502 0 -0.00011686097453233753 0.0029062338812755953 0 -0.00010384124202839832 0.0029086495308592096 0 -0.0001166492182083221 0.0028951877665215502 0 -0.00010384124202839832 0.0029086495308592096 0 -0.00010228815448489759 0.002901975822206537 0 -0.0001166492182083221 0.0028951877665215502 0 -0.00013230154935690058 0.0028998266413479469 0 -0.00011686097453233753 0.0029062338812755953 0 -0.0001166492182083221 0.0028951877665215502 0 -0.00010979320908844138 0.0028827458157287362 0 -0.0001166492182083221 0.0028951877665215502 0 -0.00013825661000331941 0.0028797927265571798 0 -0.00022173834143070291 0.0028115086398563735 0 -0.00013825661000331941 0.0028797927265571798 0 -0.00018161107955380986 0.0029089363992012992 0 -0.00013230154935690058 0.0028998266413479469 0 -0.0001166492182083221 0.0028951877665215502 0 -0.00013825661000331941 0.0028797927265571798 0 -0.00013230154935690058 0.0028998266413479469 0 -0.00013825661000331941 0.0028797927265571798 0 -0.00014642429998418114 0.0028895996918457119 0 -0.00034944975021882174 0.0029241158675147524 0 -2.9400987965222066e-05 0.0019346880689690813 0 -0.00010768226381150319 0.0028473537104728376 0 -0.00013825661000331941 0.0028797927265571798 0 -0.00013425711308613875 0.0027955657567570544 0 -0.00022173834143070291 0.0028115086398563735 0 -0.00013825661000331941 0.0028797927265571798 0 -0.00013425711308613875 0.0027955657567570544 0 -0.00022173834143070291 0.0028115086398563735 0 -0.00013425711308613875 0.0027955657567570544 0 -0.00013724182701209281 0.0026494737694284865 0 -0.00013425711308613875 0.0027955657567570544 0 -0.00013724182701209281 0.0026494737694284865 0 -8.9655820335258823e-05 0.0027622082073796624 0 -8.9655820335258823e-05 0.0027622082073796624 0 -5.1269499701605235e-05 0.0026876484997860324 0 -7.8294874684948785e-05 0.0026436128769559502 0 -0.00013724182701209281 0.0026494737694284865 0 -8.9655820335258823e-05 0.0027622082073796624 0 -7.8294874684948785e-05 0.0026436128769559502 0 -0.00010768226381150319 0.0028473537104728376 0 -0.00013425711308613875 0.0027955657567570544 0 -8.9655820335258823e-05 0.0027622082073796624 0 -0.00010768226381150319 0.0028473537104728376 0 -8.9655820335258823e-05 0.0027622082073796624 0 -9.1998633675629217e-05 0.0028533702532232584 0 -8.9655820335258823e-05 0.0027622082073796624 0 -9.1998633675629217e-05 0.0028533702532232584 0 -8.1297597138268212e-05 0.0028225627039301427 0 -9.1998633675629217e-05 0.0028533702532232584 0 -8.1297597138268212e-05 0.0028225627039301427 0 -0.00010058925583165097 0.0028987137733644669 0 -8.9655820335258823e-05 0.0027622082073796624 0 -8.1297597138268212e-05 0.0028225627039301427 0 -5.1269499701605235e-05 0.0026876484997860324 0 -8.1297597138268212e-05 0.0028225627039301427 0 -8.8488080211311657e-05 0.0028346984224971198 0 -0.00010563267198661904 0.0028958191235361041 0 -8.1297597138268212e-05 0.0028225627039301427 0 -8.8488080211311657e-05 0.0028346984224971198 0 -5.1269499701605235e-05 0.0026876484997860324 0 -8.1297597138268212e-05 0.0028225627039301427 0 -0.00010563267198661904 0.0028958191235361041 0 -0.00010058925583165097 0.0028987137733644669 0 -0.00012619043917704953 0.0029511893062787856 0 -0.00010563267198661904 0.0028958191235361041 0 -0.00010058925583165097 0.0028987137733644669 0 -2.3268798724144053e-05 0.0026759406009945965 0 -1.5325567466670858e-05 0.0025560848380070315 0 -7.986735918074309e-05 0.0027860131127529913 0 -5.2219967156241889e-05 0.0027291242717891956 0 -3.5426013672728595e-06 0.002526051620923469 0 -8.8488080211311657e-05 0.0028346984224971198 0 -5.2219967156241889e-05 0.0027291242717891956 0 -5.1269499701605235e-05 0.0026876484997860324 0 -5.2219967156241889e-05 0.0027291242717891956 0 -5.1269499701605235e-05 0.0026876484997860324 0 -3.5426013672728595e-06 0.002526051620923469 0 -3.5426013672728595e-06 0.002526051620923469 0 -5.9721265467346916e-05 0.0024877351768187957 0 -1.1861109501840069e-05 0.0022918827974950091 0 -5.1269499701605235e-05 0.0026876484997860324 0 -3.5426013672728595e-06 0.002526051620923469 0 -5.9721265467346916e-05 0.0024877351768187957 0 -5.1269499701605235e-05 0.0026876484997860324 0 -7.8294874684948785e-05 0.0026436128769559502 0 -5.9721265467346916e-05 0.0024877351768187957 0 -0.00013724182701209281 0.0026494737694284865 0 -7.8294874684948785e-05 0.0026436128769559502 0 -5.9721265467346916e-05 0.0024877351768187957 0 -0.00013724182701209281 0.0026494737694284865 0 -5.9721265467346916e-05 0.0024877351768187957 0 -0.00015496008265177049 0.0024827333822321435 0 -5.9721265467346916e-05 0.0024877351768187957 0 -1.1861109501840069e-05 0.0022918827974950091 0 -7.6053377994561905e-05 0.0021842619546011358 0 -5.9721265467346916e-05 0.0024877351768187957 0 -0.00015496008265177049 0.0024827333822321435 0 -7.6053377994561905e-05 0.0021842619546011358 0 -3.6467190805442802e-08 0.0019723408146887036 0 -1.1861109501840069e-05 0.0022918827974950091 0 -7.6053377994561905e-05 0.0021842619546011358 0 -3.6467190805442802e-08 0.0019723408146887036 0 -1.1861109501840069e-05 0.0022918827974950091 0 4.1622170588596195e-08 0.0022235775678724539 0 -3.5426013672728595e-06 0.002526051620923469 0 -1.1861109501840069e-05 0.0022918827974950091 0 2.1549077565294441e-05 0.0024321962659761523 0 -1.1861109501840069e-05 0.0022918827974950091 0 4.1622170588596195e-08 0.0022235775678724539 0 2.1549077565294441e-05 0.0024321962659761523 0 4.1622170588596195e-08 0.0022235775678724539 0 4.0072993245120984e-08 0.0024748152000699632 0 2.1549077565294441e-05 0.0024321962659761523 0 2.7309435272475234e-05 0.0025733358256556627 0 4.0072993245120984e-08 0.0024748152000699632 0 2.1549077565294441e-05 0.0024321962659761523 0 4.6405029026853953e-05 0.0025843985845429725 0 2.7309435272475234e-05 0.0025733358256556627 0 2.1549077565294441e-05 0.0024321962659761523 0 4.6405029026853953e-05 0.0025843985845429725 0 -3.5426013672728595e-06 0.002526051620923469 0 2.1549077565294441e-05 0.0024321962659761523 0 -5.6192846250007969e-05 0.00086401266692302337 0 -0.00017399617325094047 0.0008061294574183373 0 -0.00017949146456713359 0.0010131039818058905 0 -5.6192846250007969e-05 0.00086401266692302337 0 1.9939408028191919e-05 0.00078529786690130954 0 6.995790428210221e-05 0.00086599422397698467 0 -3.2451396254447945e-06 0.00071871162245029305 0 1.9939408028191919e-05 0.00078529786690130954 0 -7.3300923774085336e-05 0.00076834119077801391 0 -5.6192846250007969e-05 0.00086401266692302337 0 1.9939408028191919e-05 0.00078529786690130954 0 -7.3300923774085336e-05 0.00076834119077801391 0 -5.6192846250007969e-05 0.00086401266692302337 0 -7.3300923774085336e-05 0.00076834119077801391 0 -0.00017399617325094047 0.0008061294574183373 0 -8.4753284797666522e-05 0.00069937690956018827 0 -7.3300923774085336e-05 0.00076834119077801391 0 -0.00017399617325094047 0.0008061294574183373 0 -0.00020280596587641834 0.0016923037340226721 0 -0.00022474982193873864 0.0016038336689125135 0 -0.00026075979615057505 0.0026531982524091616 0 -0.00028329227516960882 0.0023939362536984764 0 -0.00015496008265177049 0.0024827333822321435 0 -0.00028329227516960882 0.0023939362536984764 0 -0.00015496008265177049 0.0024827333822321435 0 -7.6053377994561905e-05 0.0021842619546011358 0 -0.00028329227516960882 0.0023939362536984764 0 -7.6053377994561905e-05 0.0021842619546011358 0 -0.00022875347982196495 0.0020094125785513972 0 -0.00022474982193873864 0.0016038336689125135 0 -0.00018336170708670426 0.0015284951162772031 0 -7.6053377994561905e-05 0.0021842619546011358 0 1.329616690743313e-08 0.0017209607645549011 0 -0.00022875347982196495 0.0020094125785513972 0 -3.6467190805442802e-08 0.0019723408146887036 0 -7.6053377994561905e-05 0.0021842619546011358 0 1.329616690743313e-08 0.0017209607645549011 0 1.329616690743313e-08 0.0017209607645549011 0 -5.9019401384845572e-07 0.0014701742774359051 0 -0.00022875347982196495 0.0020094125785513972 0 -7.266248484039032e-07 0.0014689812379572139 0 -0.00017949146456713359 0.0010131039818058905 0 3.3945415853972556e-05 0.0010661217736647887 0 -6.7419813100127395e-08 0.0014696797200693037 0 -0.00018336170708670426 0.0015284951162772031 0 -5.6192846250007969e-05 0.00086401266692302337 0 -0.00017949146456713359 0.0010131039818058905 0 3.3945415853972556e-05 0.0010661217736647887 0 -5.6192846250007969e-05 0.00086401266692302337 0 3.3945415853972556e-05 0.0010661217736647887 0 6.995790428210221e-05 0.00086599422397698467 0 3.3945415853972556e-05 0.0010661217736647887 0 6.2121336681242442e-07 0.0012636535603715482 0 6.0647142475368109e-05 0.0010680935103922465 0 -7.266248484039032e-07 0.0014689812379572139 0 3.3945415853972556e-05 0.0010661217736647887 0 6.2121336681242442e-07 0.0012636535603715482 0 6.2121336681242442e-07 0.0012636535603715482 0 6.0647142475368109e-05 0.0010680935103922465 0 0.00010456528686146114 0.0010119149846414335 0 6.2121336681242442e-07 0.0012636535603715482 0 0.00010456528686146114 0.0010119149846414335 0 0.00016025328334104758 0.00097033657893136468 0 8.5432182313305568e-09 0.0012634372308004628 0 7.7421077871847794e-05 0.00098942630852484419 0 6.0647142475368109e-05 0.0010680935103922465 0 0.00010456528686146114 0.0010119149846414335 0 9.2131093154126736e-05 0.00095799965088193533 0 -1.6015379238683323e-09 0.0012634868986502029 0 -3.7172220712321219e-08 0.00096848766308636357 0 -2.292694589862362e-06 0.0010059927821173362 0 0.00016025328334104758 0.00097033657893136468 0 0.00013943579105636173 0.00089898795119848279 0 0.00016006081263295275 0.0008208187243127985 0 0.00010456528686146114 0.0010119149846414335 0 0.00016025328334104758 0.00097033657893136468 0 0.00013943579105636173 0.00089898795119848279 0 0.00013943579105636173 0.00089898795119848279 0 0.00011779337040348717 0.00085749440477675615 0 9.2131093154126736e-05 0.00095799965088193533 0 0.00013943579105636173 0.00089898795119848279 0 0.00014689542774887988 0.00080230609554098671 0 0.00016006081263295275 0.0008208187243127985 0 0.00014689542774887988 0.00080230609554098671 0 0.00011779337040348717 0.00085749440477675615 0 0.00012147024794777052 0.00077917848243238121 0 0.00013943579105636173 0.00089898795119848279 0 0.00014689542774887988 0.00080230609554098671 0 0.00011779337040348717 0.00085749440477675615 0 3.3945415853972556e-05 0.0010661217736647887 0 9.2131093154126736e-05 0.00095799965088193533 0 6.995790428210221e-05 0.00086599422397698467 0 0.00011779337040348717 0.00085749440477675615 0 9.2131093154126736e-05 0.00095799965088193533 0 6.995790428210221e-05 0.00086599422397698467 0 3.3945415853972556e-05 0.0010661217736647887 0 6.0647142475368109e-05 0.0010680935103922465 0 9.2131093154126736e-05 0.00095799965088193533 0 0.00010456528686146114 0.0010119149846414335 0 0.00013943579105636173 0.00089898795119848279 0 9.2131093154126736e-05 0.00095799965088193533 0 8.014237184783851e-05 0.00073713225150519898 0 6.5211881473053576e-05 0.00057082433347554009 0 6.8274899214106158e-08 0.00067354037928388569 0 -4.9784952881044744e-06 0.00074765129088034759 0 5.862222285338815e-05 0.00052806065615077066 0 7.7421077871847794e-05 0.00098942630852484419 0 8.014237184783851e-05 0.00073713225150519898 0 -3.7172220712321219e-08 0.00096848766308636357 0 6.8274899214106158e-08 0.00067354037928388569 0 -4.9784952881044744e-06 0.00074765129088034759 0 0.00016025328334104758 0.00097033657893136468 0 0.00016558750746827056 0.00072784611857971678 0 0.00016006081263295275 0.0008208187243127985 0 -3.7172220712321219e-08 0.00096848766308636357 0 -2.292694589862362e-06 0.0010059927821173362 0 -4.9784952881044744e-06 0.00074765129088034759 0 0.00016558750746827056 0.00072784611857971678 0 0.00016006081263295275 0.0008208187243127985 0 0.00015539852188041722 0.00072151924366969304 0 0.00014689542774887988 0.00080230609554098671 0 0.00016006081263295275 0.0008208187243127985 0 0.00015539852188041722 0.00072151924366969304 0 0.00014689542774887988 0.00080230609554098671 0 0.00015539852188041722 0.00072151924366969304 0 0.00014580648796705395 0.00072798369735649999 0 0.00013760471351784197 0.00065475012474297046 0 0.00012038752961622679 0.00060276985118839696 0 5.862222285338815e-05 0.00052806065615077066 0 0.00016558750746827056 0.00072784611857971678 0 0.00015539852188041722 0.00072151924366969304 0 0.00013760471351784197 0.00065475012474297046 0 0.00016558750746827056 0.00072784611857971678 0 0.00013760471351784197 0.00065475012474297046 0 5.862222285338815e-05 0.00052806065615077066 0 0.00015539852188041722 0.00072151924366969304 0 0.00013760471351784197 0.00065475012474297046 0 0.00014135271711319063 0.00065346719723052794 0 0.00013760471351784197 0.00065475012474297046 0 0.00012038752961622679 0.00060276985118839696 0 0.00014135271711319063 0.00065346719723052794 0 0.00012038752961622679 0.00060276985118839696 0 0.00013389577792060064 0.00060481945227932156 0 0.00014135271711319063 0.00065346719723052794 0 0.00013389577792060064 0.00060481945227932156 0 0.00014135271711319063 0.00065346719723052794 0 0.00014573937257411583 0.00066657217030998491 0 0.00013389577792060064 0.00060481945227932156 0 0.00014573937257411583 0.00066657217030998491 0 0.0001416365552491382 0.00063285855144954231 0 0.00014573937257411583 0.00066657217030998491 0 0.00014580648796705395 0.00072798369735649999 0 0.00014139568053390391 0.00067787706559487265 0 0.00015539852188041722 0.00072151924366969304 0 0.00014573937257411583 0.00066657217030998491 0 0.00014580648796705395 0.00072798369735649999 0 0.00015539852188041722 0.00072151924366969304 0 0.00014135271711319063 0.00065346719723052794 0 0.00014573937257411583 0.00066657217030998491 0 0.00014580648796705395 0.00072798369735649999 0 0.00014139568053390391 0.00067787706559487265 0 0.00013134624434610098 0.00071478119768443832 0 0.00013116821203060903 0.00067348076746304207 0 0.00014139568053390391 0.00067787706559487265 0 0.00013134624434610098 0.00071478119768443832 0 0.00013116821203060903 0.00067348076746304207 0 0.00013859966046065973 0.00064189781638881115 0 0.00014139568053390391 0.00067787706559487265 0 0.00013116821203060903 0.00067348076746304207 0 0.00013859966046065973 0.00064189781638881115 0 0.00012996498172110953 0.00064254818274540632 0 0.00014573937257411583 0.00066657217030998491 0 0.00014139568053390391 0.00067787706559487265 0 0.0001416365552491382 0.00063285855144954231 0 0.00013859966046065973 0.00064189781638881115 0 0.00014139568053390391 0.00067787706559487265 0 0.0001416365552491382 0.00063285855144954231 0 0.00013859966046065973 0.00064189781638881115 0 0.0001416365552491382 0.00063285855144954231 0 0.00013865897138935152 0.00061446090352613081 0 0.00013865897138935152 0.00061446090352613081 0 0.00013449849029277037 0.00059942242649370814 0 0.00013201165163156299 0.00058276910595245277 0 0.0001416365552491382 0.00063285855144954231 0 0.00013865897138935152 0.00061446090352613081 0 0.00013201165163156299 0.00058276910595245277 0 0.00013389577792060064 0.00060481945227932156 0 0.0001416365552491382 0.00063285855144954231 0 0.00013201165163156299 0.00058276910595245277 0 8.2983851457412851e-05 0.0007725354915171785 0 6.995790428210221e-05 0.00086599422397698467 0 0.00012147024794777052 0.00077917848243238121 0 0.00011779337040348717 0.00085749440477675615 0 6.995790428210221e-05 0.00086599422397698467 0 0.00012147024794777052 0.00077917848243238121 0 1.9939408028191919e-05 0.00078529786690130954 0 8.2983851457412851e-05 0.0007725354915171785 0 6.995790428210221e-05 0.00086599422397698467 0 0.00014689542774887988 0.00080230609554098671 0 0.00014580648796705395 0.00072798369735649999 0 0.00012147024794777052 0.00077917848243238121 0 0.00014580648796705395 0.00072798369735649999 0 0.00012147024794777052 0.00077917848243238121 0 0.00013134624434610098 0.00071478119768443832 0 0.00012147024794777052 0.00077917848243238121 0 0.00013134624434610098 0.00071478119768443832 0 0.0001069002987756874 0.00072736133397946479 0 8.2983851457412851e-05 0.0007725354915171785 0 0.00012147024794777052 0.00077917848243238121 0 0.0001069002987756874 0.00072736133397946479 0 0.00013134624434610098 0.00071478119768443832 0 0.0001069002987756874 0.00072736133397946479 0 0.00011844800173104661 0.00069510269733664455 0 0.00013116821203060903 0.00067348076746304207 0 0.00013134624434610098 0.00071478119768443832 0 0.00011844800173104661 0.00069510269733664455 0 0.00011844800173104661 0.00069510269733664455 0 0.0001012401214444317 0.00069265098852211828 0 0.00011678830929349053 0.00066974058485597143 0 0.00013116821203060903 0.00067348076746304207 0 0.00011844800173104661 0.00069510269733664455 0 0.00011678830929349053 0.00066974058485597143 0 0.0001069002987756874 0.00072736133397946479 0 0.00011844800173104661 0.00069510269733664455 0 0.0001012401214444317 0.00069265098852211828 0 0.0001069002987756874 0.00072736133397946479 0 0.0001012401214444317 0.00069265098852211828 0 7.1772573612187442e-05 0.00071572640805339085 0 0.0001012401214444317 0.00069265098852211828 0 7.1772573612187442e-05 0.00071572640805339085 0 8.0616572185822041e-05 0.00068933272683590599 0 -3.2451396254447945e-06 0.00071871162245029305 0 1.9939408028191919e-05 0.00078529786690130954 0 7.1772573612187442e-05 0.00071572640805339085 0 8.2983851457412851e-05 0.0007725354915171785 0 0.0001069002987756874 0.00072736133397946479 0 7.1772573612187442e-05 0.00071572640805339085 0 1.9939408028191919e-05 0.00078529786690130954 0 8.2983851457412851e-05 0.0007725354915171785 0 7.1772573612187442e-05 0.00071572640805339085 0 -3.2451396254447945e-06 0.00071871162245029305 0 7.1772573612187442e-05 0.00071572640805339085 0 5.2327672787005884e-05 0.00068162462189362029 0 7.1772573612187442e-05 0.00071572640805339085 0 5.2327672787005884e-05 0.00068162462189362029 0 8.0616572185822041e-05 0.00068933272683590599 0 5.2327672787005884e-05 0.00068162462189362029 0 8.0616572185822041e-05 0.00068933272683590599 0 9.4644064436183776e-05 0.00066682402483881622 0 5.2327672787005884e-05 0.00068162462189362029 0 6.5699356317544869e-05 0.00065184927621712125 0 9.4644064436183776e-05 0.00066682402483881622 0 -6.6133338334678808e-06 0.000667570513327836 0 5.2327672787005884e-05 0.00068162462189362029 0 3.3677465863562973e-05 0.00065960044868245196 0 5.2327672787005884e-05 0.00068162462189362029 0 3.3677465863562973e-05 0.00065960044868245196 0 6.5699356317544869e-05 0.00065184927621712125 0 3.3677465863562973e-05 0.00065960044868245196 0 6.5699356317544869e-05 0.00065184927621712125 0 3.7783593229431467e-05 0.00063522865307267249 0 6.5699356317544869e-05 0.00065184927621712125 0 3.7783593229431467e-05 0.00063522865307267249 0 7.6318959160179921e-05 0.00062639508382194133 0 3.7783593229431467e-05 0.00063522865307267249 0 7.6318959160179921e-05 0.00062639508382194133 0 5.7173361240306531e-05 0.00061049391408526932 0 3.7783593229431467e-05 0.00063522865307267249 0 2.6614708793299288e-05 0.0006136637061072281 0 5.7173361240306531e-05 0.00061049391408526932 0 0.00010075184513679487 0.00061992374450880116 0 7.6318959160179921e-05 0.00062639508382194133 0 8.79361513974263e-05 0.00060215471237023293 0 0.00010075184513679487 0.00061992374450880116 0 7.6318959160179921e-05 0.00062639508382194133 0 9.3574736829425472e-05 0.00064384895295921591 0 6.5699356317544869e-05 0.00065184927621712125 0 7.6318959160179921e-05 0.00062639508382194133 0 9.3574736829425472e-05 0.00064384895295921591 0 0.00010075184513679487 0.00061992374450880116 0 9.3574736829425472e-05 0.00064384895295921591 0 0.0001092073737704859 0.00063164988290591393 0 9.3574736829425472e-05 0.00064384895295921591 0 0.0001092073737704859 0.00063164988290591393 0 0.00011356705256980244 0.00064972795116104403 0 9.3574736829425472e-05 0.00064384895295921591 0 0.00011356705256980244 0.00064972795116104403 0 9.4644064436183776e-05 0.00066682402483881622 0 6.5699356317544869e-05 0.00065184927621712125 0 9.3574736829425472e-05 0.00064384895295921591 0 9.4644064436183776e-05 0.00066682402483881622 0 0.0001012401214444317 0.00069265098852211828 0 8.0616572185822041e-05 0.00068933272683590599 0 9.4644064436183776e-05 0.00066682402483881622 0 0.0001012401214444317 0.00069265098852211828 0 9.4644064436183776e-05 0.00066682402483881622 0 0.00011678830929349053 0.00066974058485597143 0 0.00011356705256980244 0.00064972795116104403 0 9.4644064436183776e-05 0.00066682402483881622 0 0.00011678830929349053 0.00066974058485597143 0 0.00013116821203060903 0.00067348076746304207 0 0.00011678830929349053 0.00066974058485597143 0 0.00012996498172110953 0.00064254818274540632 0 0.00011356705256980244 0.00064972795116104403 0 0.00011678830929349053 0.00066974058485597143 0 0.00012996498172110953 0.00064254818274540632 0 0.00013859966046065973 0.00064189781638881115 0 0.00012996498172110953 0.00064254818274540632 0 0.00013676344908860859 0.00061978392419182935 0 0.00012996498172110953 0.00064254818274540632 0 0.00012172395322588414 0.00063114933450715875 0 0.00013218668448239412 0.00061668883231027973 0 0.00012996498172110953 0.00064254818274540632 0 0.00013676344908860859 0.00061978392419182935 0 0.00013218668448239412 0.00061668883231027973 0 0.00011356705256980244 0.00064972795116104403 0 0.00012996498172110953 0.00064254818274540632 0 0.00012172395322588414 0.00063114933450715875 0 0.0001092073737704859 0.00063164988290591393 0 0.00011356705256980244 0.00064972795116104403 0 0.00012172395322588414 0.00063114933450715875 0 0.00013865897138935152 0.00061446090352613081 0 0.00013449849029277037 0.00059942242649370814 0 0.00013676344908860859 0.00061978392419182935 0 0.00013859966046065973 0.00064189781638881115 0 0.00013865897138935152 0.00061446090352613081 0 0.00013676344908860859 0.00061978392419182935 0 0.00013676344908860859 0.00061978392419182935 0 0.00013423700563171395 0.00060544524191339874 0 0.00013218668448239412 0.00061668883231027973 0 0.00013449849029277037 0.00059942242649370814 0 0.00013676344908860859 0.00061978392419182935 0 0.00013423700563171395 0.00060544524191339874 0 0.00013423700563171395 0.00060544524191339874 0 0.00013218668448239412 0.00061668883231027973 0 0.00013261532828800913 0.00060267398453171979 0 0.00013423700563171395 0.00060544524191339874 0 0.00013261532828800913 0.00060267398453171979 0 0.00012808196793063879 0.00059178333501893547 0 0.00013218668448239412 0.00061668883231027973 0 0.00012885209649154459 0.00060865664607361166 0 0.00013261532828800913 0.00060267398453171979 0 0.00012885209649154459 0.00060865664607361166 0 0.00013261532828800913 0.00060267398453171979 0 0.00013158514967181765 0.00060124287125751751 0 0.00013261532828800913 0.00060267398453171979 0 0.00013158514967181765 0.00060124287125751751 0 0.00012532252465361816 0.00059794977061352402 0 0.0001092073737704859 0.00063164988290591393 0 0.00012172395322588414 0.00063114933450715875 0 0.00011923587370853292 0.0006164509150096279 0 0.00013218668448239412 0.00061668883231027973 0 0.00012885209649154459 0.00060865664607361166 0 0.00011923587370853292 0.0006164509150096279 0 0.00012172395322588414 0.00063114933450715875 0 0.00013218668448239412 0.00061668883231027973 0 0.00011923587370853292 0.0006164509150096279 0 0.00012885209649154459 0.00060865664607361166 0 0.00011923587370853292 0.0006164509150096279 0 0.0001249395299313206 0.00060066196110955669 0 0.00010075184513679487 0.00061992374450880116 0 0.00011923587370853292 0.0006164509150096279 0 0.00011065765985311705 0.00060261009323735897 0 0.00010075184513679487 0.00061992374450880116 0 0.0001092073737704859 0.00063164988290591393 0 0.00011923587370853292 0.0006164509150096279 0 0.00011923587370853292 0.0006164509150096279 0 0.00011065765985311705 0.00060261009323735897 0 0.0001249395299313206 0.00060066196110955669 0 0.00011065765985311705 0.00060261009323735897 0 0.0001249395299313206 0.00060066196110955669 0 0.00011812691688468177 0.00059082508039249443 0 0.0001249395299313206 0.00060066196110955669 0 0.00011812691688468177 0.00059082508039249443 0 0.00012728834124065434 0.00059171763340738575 0 0.00011065765985311705 0.00060261009323735897 0 0.00011812691688468177 0.00059082508039249443 0 0.00010307686501090702 0.00058668635860209214 0 0.00013158514967181765 0.00060124287125751751 0 0.0001325604245611242 0.00059962732939150142 0 0.00012532252465361816 0.00059794977061352402 0 0.00012885209649154459 0.00060865664607361166 0 0.0001249395299313206 0.00060066196110955669 0 0.00013158514967181765 0.00060124287125751751 0 0.0001249395299313206 0.00060066196110955669 0 0.00013158514967181765 0.00060124287125751751 0 0.00012728834124065434 0.00059171763340738575 0 0.00013158514967181765 0.00060124287125751751 0 0.0001325604245611242 0.00059962732939150142 0 0.00012728834124065434 0.00059171763340738575 0 0.00010614713350617492 0.00040219619825697145 0 0.00010986556817222936 0.00048331674880120872 0 0.00011941906914050498 0.00036611640271446327 0 0.0001254143864944454 0.00039290853308518664 0 9.5298386724722918e-05 0.00039146613924794595 0 0.00012728834124065434 0.00059171763340738575 0 0.00013446815844174106 0.00058308568717320279 0 0.00011717516305994172 0.00057293155403821325 0 0.00014552905330430981 0.00062723046347652885 0 0.00010614713350617492 0.00040219619825697145 0 0.0001325604245611242 0.00059962732939150142 0 0.00012728834124065434 0.00059171763340738575 0 0.00013446815844174106 0.00058308568717320279 0 0.00010986556817222936 0.00048331674880120872 0 7.5278963623874766e-05 0.00049838005136707182 0 0.00011812691688468177 0.00059082508039249443 0 0.00011717516305994172 0.00057293155403821325 0 0.00010307686501090702 0.00058668635860209214 0 0.00011717516305994172 0.00057293155403821325 0 9.5028284958041781e-05 0.00057366175856157298 0 0.00010307686501090702 0.00058668635860209214 0 0.00011812691688468177 0.00059082508039249443 0 0.00012728834124065434 0.00059171763340738575 0 0.00011717516305994172 0.00057293155403821325 0 0.00011717516305994172 0.00057293155403821325 0 9.5028284958041781e-05 0.00057366175856157298 0 8.686554201152746e-05 0.00056032586423178745 0 9.5028284958041781e-05 0.00057366175856157298 0 0.00010307686501090702 0.00058668635860209214 0 8.6186603260904248e-05 0.00058382690288597482 0 9.5028284958041781e-05 0.00057366175856157298 0 7.664228862835352e-05 0.00056654687869064414 0 8.6186603260904248e-05 0.00058382690288597482 0 7.664228862835352e-05 0.00056654687869064414 0 6.6460196161493554e-05 0.00058961978702388063 0 8.6186603260904248e-05 0.00058382690288597482 0 8.1981089338400244e-05 0.0005247410656765959 0 9.6029116562133601e-05 0.00054878928604675068 0 5.03354861492814e-05 0.00054540582073371157 0 7.664228862835352e-05 0.00056654687869064414 0 9.0054751658237092e-05 0.00055012344534576853 0 5.03354861492814e-05 0.00054540582073371157 0 7.5278963623874766e-05 0.00049838005136707182 0 6.325026716900722e-05 0.00053793111670897382 0 9.5028284958041781e-05 0.00057366175856157298 0 7.664228862835352e-05 0.00056654687869064414 0 8.686554201152746e-05 0.00056032586423178745 0 6.2716767460022725e-05 0.00053938899387958401 0 7.5278963623874766e-05 0.00049838005136707182 0 7.664228862835352e-05 0.00056654687869064414 0 5.03354861492814e-05 0.00054540582073371157 0 4.7846213054403407e-05 0.00057097446157807982 0 9.0095696859063144e-06 0.00056000406231749655 0 5.03354861492814e-05 0.00054540582073371157 0 4.7846213054403407e-05 0.00057097446157807982 0 1.8047072294511369e-05 0.00052835686330237675 0 9.0095696859063144e-06 0.00056000406231749655 0 5.03354861492814e-05 0.00054540582073371157 0 9.0095696859063144e-06 0.00056000406231749655 0 4.7846213054403407e-05 0.00057097446157807982 0 3.3963098069336872e-05 0.00059169752394593912 0 7.664228862835352e-05 0.00056654687869064414 0 4.7846213054403407e-05 0.00057097446157807982 0 6.6460196161493554e-05 0.00058961978702388063 0 4.7846213054403407e-05 0.00057097446157807982 0 6.6460196161493554e-05 0.00058961978702388063 0 3.3963098069336872e-05 0.00059169752394593912 0 6.6460196161493554e-05 0.00058961978702388063 0 3.3963098069336872e-05 0.00059169752394593912 0 5.7173361240306531e-05 0.00061049391408526932 0 3.3963098069336872e-05 0.00059169752394593912 0 2.6614708793299288e-05 0.0006136637061072281 0 5.7173361240306531e-05 0.00061049391408526932 0 7.6318959160179921e-05 0.00062639508382194133 0 5.7173361240306531e-05 0.00061049391408526932 0 8.79361513974263e-05 0.00060215471237023293 0 6.6460196161493554e-05 0.00058961978702388063 0 5.7173361240306531e-05 0.00061049391408526932 0 8.79361513974263e-05 0.00060215471237023293 0 0.00010075184513679487 0.00061992374450880116 0 0.00011065765985311705 0.00060261009323735897 0 8.79361513974263e-05 0.00060215471237023293 0 0.00011065765985311705 0.00060261009323735897 0 8.79361513974263e-05 0.00060215471237023293 0 0.00010307686501090702 0.00058668635860209214 0 8.79361513974263e-05 0.00060215471237023293 0 0.00010307686501090702 0.00058668635860209214 0 8.6186603260904248e-05 0.00058382690288597482 0 6.6460196161493554e-05 0.00058961978702388063 0 8.79361513974263e-05 0.00060215471237023293 0 8.6186603260904248e-05 0.00058382690288597482 0 7.8308446508410862e-05 0.00061059127401714617 0 0.00010136986183486671 0.00059800845750565372 0 7.5431815596919743e-05 0.00059214882518456231 0 -3.3580011517755412e-05 -0.00017952606806555707 0 -7.8527694205495147e-05 0.00017173995718164082 0 -0.00022390402149548478 -0.00066173498678805934 0 -0.0002449317215495188 -0.00069406156029053786 0 -0.00025467790307090731 -0.00062982063948211018 0 -0.00022390402149548478 -0.00066173498678805934 0 -0.00025467790307090731 -0.00062982063948211018 0 -0.00019601624959498284 -0.00062755958841301121 0 -0.00022390402149548478 -0.00066173498678805934 0 -0.00019233727322379832 -0.00069391040514258642 0 -0.00019601624959498284 -0.00062755958841301121 0 -0.00022390402149548478 -0.00066173498678805934 0 -0.00019233727322379832 -0.00069391040514258642 0 -0.0002449317215495188 -0.00069406156029053786 0 -0.00022137846513727748 -0.0007303031075154183 0 -0.00019233727322379832 -0.00069391040514258642 0 -0.00022448001981564215 -0.00069338882916758786 0 -0.00027568252171746173 -0.00069553693290253589 0 -3.3580011517755412e-05 -0.00017952606806555707 0 -3.3580011517755412e-05 -0.00017952606806555707 0 0.00013344575746704454 0.00036275010501823462 0 1.8079073366081911e-05 -0.00037037679567288029 0 -3.3580011517755412e-05 -0.00017952606806555707 0 8.0663414624551703e-05 4.2287617145453282e-05 0 6.0014485982352741e-05 5.2445787077038456e-05 0 6.2285180242100695e-05 2.598215611166146e-05 0 8.0663414624551703e-05 4.2287617145453282e-05 0 6.2285180242100695e-05 2.598215611166146e-05 0 9.9336791164902118e-05 3.2756298090076836e-05 0 7.8308446508410862e-05 0.00061059127401714617 0 0.00010796982630362614 0.00061428244259344005 0 0.00010136986183486671 0.00059800845750565372 0 0.00010614713350617492 0.00040219619825697145 0 0.00013344575746704454 0.00036275010501823462 0 0.00013503808644532234 0.00061220239805512711 0 0.00010796982630362614 0.00061428244259344005 0 0.00012032930482318245 0.00060391676281720211 0 0.00011643445646495452 4.5824045365152675e-05 0 0.0001348910613818448 3.8781130372139456e-05 0 9.9336791164902118e-05 3.2756298090076836e-05 0 0.0001325604245611242 0.00059962732939150142 0 0.00013503808644532234 0.00061220239805512711 0 0.00012032930482318245 0.00060391676281720211 0 0.00012032930482318245 0.00060391676281720211 0 0.00012532252465361816 0.00059794977061352402 0 0.00010136986183486671 0.00059800845750565372 0 0.0001325604245611242 0.00059962732939150142 0 0.00012032930482318245 0.00060391676281720211 0 0.00012532252465361816 0.00059794977061352402 0 0.00010796982630362614 0.00061428244259344005 0 0.00012032930482318245 0.00060391676281720211 0 0.00010136986183486671 0.00059800845750565372 0 0.00010136986183486671 0.00059800845750565372 0 0.00011208445269966978 0.00058493587383252226 0 9.3987859349078774e-05 0.00057201618138502653 0 0.00012532252465361816 0.00059794977061352402 0 0.00010136986183486671 0.00059800845750565372 0 0.00011208445269966978 0.00058493587383252226 0 0.00011208445269966978 0.00058493587383252226 0 9.3987859349078774e-05 0.00057201618138502653 0 0.00011292797155864141 0.00056767156591230156 0 0.00013261532828800913 0.00060267398453171979 0 0.00012532252465361816 0.00059794977061352402 0 0.00012808196793063879 0.00059178333501893547 0 0.00012532252465361816 0.00059794977061352402 0 0.00011208445269966978 0.00058493587383252226 0 0.00012808196793063879 0.00059178333501893547 0 0.00011208445269966978 0.00058493587383252226 0 0.00012808196793063879 0.00059178333501893547 0 0.00011292797155864141 0.00056767156591230156 0 0.00013449849029277037 0.00059942242649370814 0 0.00013423700563171395 0.00060544524191339874 0 0.00012808196793063879 0.00059178333501893547 0 0.00013449849029277037 0.00059942242649370814 0 0.00012808196793063879 0.00059178333501893547 0 0.0001253869556327613 0.00057903643098102333 0 0.00012808196793063879 0.00059178333501893547 0 0.0001253869556327613 0.00057903643098102333 0 0.00011292797155864141 0.00056767156591230156 0 0.0001253869556327613 0.00057903643098102333 0 0.00011292797155864141 0.00056767156591230156 0 0.00011833757906419249 0.00055635344711162593 0 0.00013449849029277037 0.00059942242649370814 0 0.0001253869556327613 0.00057903643098102333 0 0.00013201165163156299 0.00058276910595245277 0 9.3987859349078774e-05 0.00057201618138502653 0 0.00011292797155864141 0.00056767156591230156 0 9.6182745827915928e-05 0.00052872426436351562 0 0.00011292797155864141 0.00056767156591230156 0 0.00011833757906419249 0.00055635344711162593 0 9.6182745827915928e-05 0.00052872426436351562 0 9.3987859349078774e-05 0.00057201618138502653 0 5.8550112683959535e-05 0.00053173867079193634 0 9.6182745827915928e-05 0.00052872426436351562 0 5.8550112683959535e-05 0.00053173867079193634 0 4.088435613518136e-05 0.0006400192235603687 0 -1.5960366915590019e-05 0.0005461884327930235 0 5.8550112683959535e-05 0.00053173867079193634 0 -1.5960366915590019e-05 0.0005461884327930235 0 2.5840989524518649e-05 0.00047701858982265822 0 8.3766254363187222e-05 0.00071870959804092927 0 -7.8527694205495147e-05 0.00017173995718164082 0 9.3987859349078774e-05 0.00057201618138502653 0 5.8550112683959535e-05 0.00053173867079193634 0 7.5431815596919743e-05 0.00059214882518456231 0 0.00010136986183486671 0.00059800845750565372 0 9.3987859349078774e-05 0.00057201618138502653 0 7.5431815596919743e-05 0.00059214882518456231 0 -7.8527694205495147e-05 0.00017173995718164082 0 -0.00013829385078035423 -4.0783095622500016e-05 0 -0.00025467790307090731 -0.00062982063948211018 0 -0.00023358419411196541 -0.00056025032666387313 0 -0.00019601624959498284 -0.00062755958841301121 0 -0.00023358419411196541 -0.00056025032666387313 0 -0.00019601624959498284 -0.00062755958841301121 0 -0.00019882889106080212 -0.00057366728727244545 0 -0.00023358419411196541 -0.00056025032666387313 0 -0.00019882889106080212 -0.00057366728727244545 0 -0.00020591292894827916 -0.00052825883590060013 0 -1.5960366915590019e-05 0.0005461884327930235 0 -1.655082994046122e-05 0.0004270887799937135 0 -0.0001062814229102168 0.00035765594682376589 0 -0.00023358419411196541 -0.00056025032666387313 0 -0.00022417710056284906 -0.0004545245750067939 0 -0.00020591292894827916 -0.00052825883590060013 0 -1.5960366915590019e-05 0.0005461884327930235 0 -1.655082994046122e-05 0.0004270887799937135 0 2.5840989524518649e-05 0.00047701858982265822 0 -0.00013829385078035423 -4.0783095622500016e-05 0 -0.00014565000603325594 -4.0449115508804112e-05 0 -1.655082994046122e-05 0.0004270887799937135 0 -9.5204584901216896e-06 0.00033609137786191667 0 -0.0001062814229102168 0.00035765594682376589 0 -1.655082994046122e-05 0.0004270887799937135 0 2.5840989524518649e-05 0.00047701858982265822 0 2.6274776385664203e-05 0.00040479592000306711 0 -1.655082994046122e-05 0.0004270887799937135 0 2.6274776385664203e-05 0.00040479592000306711 0 -9.5204584901216896e-06 0.00033609137786191667 0 5.8550112683959535e-05 0.00053173867079193634 0 2.5840989524518649e-05 0.00047701858982265822 0 6.3723383915529697e-05 0.00047442306037950746 0 2.5840989524518649e-05 0.00047701858982265822 0 6.3723383915529697e-05 0.00047442306037950746 0 2.6274776385664203e-05 0.00040479592000306711 0 5.8550112683959535e-05 0.00053173867079193634 0 6.3723383915529697e-05 0.00047442306037950746 0 9.6182745827915928e-05 0.00052872426436351562 0 6.3723383915529697e-05 0.00047442306037950746 0 6.363862011380082e-05 0.00041266588369200292 0 8.8344130451286024e-05 0.00048245856859266422 0 6.3723383915529697e-05 0.00047442306037950746 0 2.6274776385664203e-05 0.00040479592000306711 0 6.363862011380082e-05 0.00041266588369200292 0 2.6274776385664203e-05 0.00040479592000306711 0 6.363862011380082e-05 0.00041266588369200292 0 3.4424724154166923e-05 0.00031853556686539701 0 6.363862011380082e-05 0.00041266588369200292 0 6.0012421031278439e-05 0.00036469350501295764 0 3.4424724154166923e-05 0.00031853556686539701 0 3.4424724154166923e-05 0.00031853556686539701 0 -1.06877675040854e-05 0.00017188216039165657 0 -9.5204584901216896e-06 0.00033609137786191667 0 -1.06877675040854e-05 0.00017188216039165657 0 -9.5204584901216896e-06 0.00033609137786191667 0 -0.0001062814229102168 0.00035765594682376589 0 2.6274776385664203e-05 0.00040479592000306711 0 3.4424724154166923e-05 0.00031853556686539701 0 -9.5204584901216896e-06 0.00033609137786191667 0 0.00013389577792060064 0.00060481945227932156 0 0.00013201165163156299 0.00058276910595245277 0 0.00011684190849931303 0.00054649218629540606 0 0.00013201165163156299 0.00058276910595245277 0 0.00011833757906419249 0.00055635344711162593 0 0.00010993649769444181 0.00052318278008991472 0 0.0001253869556327613 0.00057903643098102333 0 0.00013201165163156299 0.00058276910595245277 0 0.00011833757906419249 0.00055635344711162593 0 0.00013201165163156299 0.00058276910595245277 0 0.00010993649769444181 0.00052318278008991472 0 0.00011684190849931303 0.00054649218629540606 0 0.00010993649769444181 0.00052318278008991472 0 8.8344130451286024e-05 0.00048245856859266422 0 9.2930540588784491e-05 0.00047051886939206237 0 0.00011833757906419249 0.00055635344711162593 0 0.00010993649769444181 0.00052318278008991472 0 9.6182745827915928e-05 0.00052872426436351562 0 0.00010993649769444181 0.00052318278008991472 0 9.6182745827915928e-05 0.00052872426436351562 0 8.8344130451286024e-05 0.00048245856859266422 0 6.3723383915529697e-05 0.00047442306037950746 0 9.6182745827915928e-05 0.00052872426436351562 0 8.8344130451286024e-05 0.00048245856859266422 0 6.363862011380082e-05 0.00041266588369200292 0 8.8344130451286024e-05 0.00048245856859266422 0 9.2930540588784491e-05 0.00047051886939206237 0 6.363862011380082e-05 0.00041266588369200292 0 6.0012421031278439e-05 0.00036469350501295764 0 9.2930540588784491e-05 0.00047051886939206237 0 6.0012421031278439e-05 0.00036469350501295764 0 9.2930540588784491e-05 0.00047051886939206237 0 7.4297655374197264e-05 0.0004461475539413086 0 9.2930540588784491e-05 0.00047051886939206237 0 0.00010310865389884543 0.00053272384860603822 0 7.4297655374197264e-05 0.0004461475539413086 0 0.00010993649769444181 0.00052318278008991472 0 9.2930540588784491e-05 0.00047051886939206237 0 0.00011684190849931303 0.00054649218629540606 0 9.2930540588784491e-05 0.00047051886939206237 0 0.00011684190849931303 0.00054649218629540606 0 0.00010310865389884543 0.00053272384860603822 0 0.00012038752961622679 0.00060276985118839696 0 0.00013389577792060064 0.00060481945227932156 0 0.00010310865389884543 0.00053272384860603822 0 0.00013389577792060064 0.00060481945227932156 0 0.00011684190849931303 0.00054649218629540606 0 0.00010310865389884543 0.00053272384860603822 0 0.00010310865389884543 0.00053272384860603822 0 7.4297655374197264e-05 0.0004461475539413086 0 5.862222285338815e-05 0.00052806065615077066 0 0.00012038752961622679 0.00060276985118839696 0 0.00010310865389884543 0.00053272384860603822 0 5.862222285338815e-05 0.00052806065615077066 0 6.0012421031278439e-05 0.00036469350501295764 0 3.5244510129769878e-05 0.00033581533422864318 0 7.4297655374197264e-05 0.0004461475539413086 0 3.5244510129769878e-05 0.00033581533422864318 0 7.4297655374197264e-05 0.0004461475539413086 0 5.862222285338815e-05 0.00052806065615077066 0 3.5244510129769878e-05 0.00033581533422864318 0 1.2194408398200525e-07 0.00037859077116192213 0 5.862222285338815e-05 0.00052806065615077066 0 6.8274899214106158e-08 0.00067354037928388569 0 1.2194408398200525e-07 0.00037859077116192213 0 5.862222285338815e-05 0.00052806065615077066 0 -1.06877675040854e-05 0.00017188216039165657 0 2.4367371586176887e-05 0.00022386116156979815 0 -2.7705742117107526e-05 7.8161775617149018e-06 0 3.4424724154166923e-05 0.00031853556686539701 0 -1.06877675040854e-05 0.00017188216039165657 0 2.4367371586176887e-05 0.00022386116156979815 0 6.0012421031278439e-05 0.00036469350501295764 0 3.4424724154166923e-05 0.00031853556686539701 0 2.4367371586176887e-05 0.00022386116156979815 0 6.0012421031278439e-05 0.00036469350501295764 0 3.5244510129769878e-05 0.00033581533422864318 0 2.4367371586176887e-05 0.00022386116156979815 0 3.5244510129769878e-05 0.00033581533422864318 0 2.4367371586176887e-05 0.00022386116156979815 0 -2.5995462152046584e-08 8.3593808881784305e-05 0 3.5244510129769878e-05 0.00033581533422864318 0 1.2194408398200525e-07 0.00037859077116192213 0 -2.5995462152046584e-08 8.3593808881784305e-05 0 2.4367371586176887e-05 0.00022386116156979815 0 -2.5995462152046584e-08 8.3593808881784305e-05 0 -2.7705742117107526e-05 7.8161775617149018e-06 0 -8.7858245869148498e-05 -0.00013227294989551805 0 -2.7705742117107526e-05 7.8161775617149018e-06 0 -8.5312619858044758e-08 -0.00021134396511860899 0 -2.5995462152046584e-08 8.3593808881784305e-05 0 -2.7705742117107526e-05 7.8161775617149018e-06 0 -8.5312619858044758e-08 -0.00021134396511860899 0 -1.06877675040854e-05 0.00017188216039165657 0 -8.7858245869148498e-05 -0.00013227294989551805 0 -2.7705742117107526e-05 7.8161775617149018e-06 0 -8.7858245869148498e-05 -0.00013227294989551805 0 1.1312882074259608e-05 -0.00035986239780105676 0 2.9420453352175712e-05 -0.00043016234860479568 0 -8.7858245869148498e-05 -0.00013227294989551805 0 -8.5312619858044758e-08 -0.00021134396511860899 0 1.1312882074259608e-05 -0.00035986239780105676 0 -8.5312619858044758e-08 -0.00021134396511860899 0 6.9936679134193444e-08 -0.00050634164231960722 0 1.1312882074259608e-05 -0.00035986239780105676 0 6.9936679134193444e-08 -0.00050634164231960722 0 1.1312882074259608e-05 -0.00035986239780105676 0 2.921872147319362e-05 -0.00062402200512420608 0 1.1312882074259608e-05 -0.00035986239780105676 0 5.4552416125408845e-05 -0.00053559190682779458 0 2.921872147319362e-05 -0.00062402200512420608 0 1.1312882074259608e-05 -0.00035986239780105676 0 2.9420453352175712e-05 -0.00043016234860479568 0 5.4552416125408845e-05 -0.00053559190682779458 0 2.9420453352175712e-05 -0.00043016234860479568 0 5.4552416125408845e-05 -0.00053559190682779458 0 6.2435538002602505e-05 -0.00053578820062918702 0 5.4552416125408845e-05 -0.00053559190682779458 0 6.2435538002602505e-05 -0.00053578820062918702 0 5.8153255283623793e-05 -0.0005797157618302101 0 2.2990257843058623e-05 -0.00051854841942899443 0 8.0183637003529478e-06 -0.00060990624856610109 0 6.2435538002602505e-05 -0.00053578820062918702 0 5.454759176148233e-05 -0.00053662834324731234 0 6.1677755154759565e-05 -0.00055068045056210803 0 6.2435538002602505e-05 -0.00053578820062918702 0 5.8153255283623793e-05 -0.0005797157618302101 0 6.1677755154759565e-05 -0.00055068045056210803 0 2.9420453352175712e-05 -0.00043016234860479568 0 6.2435538002602505e-05 -0.00053578820062918702 0 5.454759176148233e-05 -0.00053662834324731234 0 2.2990257843058623e-05 -0.00051854841942899443 0 -7.0411768412402407e-05 -0.00049584117061067978 0 -2.5893962810068615e-05 -0.00050773514399586248 0 -0.00010757451775649188 -0.00049115580401227295 0 -0.00010283907224726142 -0.0005561682814440921 0 2.9420453352175712e-05 -0.00043016234860479568 0 5.454759176148233e-05 -0.00053662834324731234 0 -2.136977977908481e-05 -0.0004978548915794466 0 -0.00010757451775649188 -0.00049115580401227295 0 -0.00015521942893590357 -0.00052693431113913622 0 -0.00010283907224726142 -0.0005561682814440921 0 -7.0411768412402407e-05 -0.00049584117061067978 0 -0.00018818535430320153 -0.00047387350536499495 0 -2.136977977908481e-05 -0.0004978548915794466 0 -0.0002010351310994323 -0.00047233395632625199 0 -9.267814369607496e-05 -0.00036299181717817415 0 -0.00010757451775649188 -0.00049115580401227295 0 -0.0002010351310994323 -0.00047233395632625199 0 -0.00015521942893590357 -0.00052693431113913622 0 -0.0002010351310994323 -0.00047233395632625199 0 -0.00020591292894827916 -0.00052825883590060013 0 -0.00015521942893590357 -0.00052693431113913622 0 -0.0002010351310994323 -0.00047233395632625199 0 -0.00022417710056284906 -0.0004545245750067939 0 -0.00020591292894827916 -0.00052825883590060013 0 -0.00010164426140156774 -0.00010912632672810553 0 -0.00014565000603325594 -4.0449115508804112e-05 0 -1.06877675040854e-05 0.00017188216039165657 0 -8.7858245869148498e-05 -0.00013227294989551805 0 -0.0001062814229102168 0.00035765594682376589 0 -0.0002010351310994323 -0.00047233395632625199 0 -0.00022417710056284906 -0.0004545245750067939 0 -9.267814369607496e-05 -0.00036299181717817415 0 -8.7858245869148498e-05 -0.00013227294989551805 0 -0.00022417710056284906 -0.0004545245750067939 0 -9.267814369607496e-05 -0.00036299181717817415 0 2.9420453352175712e-05 -0.00043016234860479568 0 -2.136977977908481e-05 -0.0004978548915794466 0 -9.267814369607496e-05 -0.00036299181717817415 0 -8.7858245869148498e-05 -0.00013227294989551805 0 2.9420453352175712e-05 -0.00043016234860479568 0 -9.267814369607496e-05 -0.00036299181717817415 0 -3.1692260752228262e-05 -0.0010099315223005207 0 -9.1607246119871153e-05 -0.0012425398564664676 0 -4.2099926013894848e-05 -0.0010219997678309715 0 -4.0265122641014228e-05 -0.00096304576599406933 0 -5.9617276693945989e-05 -0.00095321315071628457 0 -4.2099926013894848e-05 -0.0010219997678309715 0 -1.3539062994428825e-05 -0.0011484626690416316 0 4.58284272753569e-06 -0.0013044654631768065 0 -4.2099926013894848e-05 -0.0010219997678309715 0 -1.3539062994428825e-05 -0.0011484626690416316 0 -2.2052016425989897e-05 -0.001080434089719323 0 -4.0635373809888904e-06 -0.0011887482445024514 0 -8.3184045025053014e-08 -0.0010962499300784471 0 1.2655632668377421e-07 -0.0013912942510156425 0 -1.3539062994428825e-05 -0.0011484626690416316 0 -4.0635373809888904e-06 -0.0011887482445024514 0 -2.2052016425989897e-05 -0.001080434089719323 0 -4.0635373809888904e-06 -0.0011887482445024514 0 -8.3184045025053014e-08 -0.0010962499300784471 0 -2.2052016425989897e-05 -0.001080434089719323 0 -4.2099926013894848e-05 -0.0010219997678309715 0 -2.2052016425989897e-05 -0.001080434089719323 0 -8.5962440182730938e-06 -0.00096116971226851609 0 -8.3184045025053014e-08 -0.0010962499300784471 0 -2.2052016425989897e-05 -0.001080434089719323 0 -8.5962440182730938e-06 -0.00096116971226851609 0 -8.3184045025053014e-08 -0.0010962499300784471 0 -8.5962440182730938e-06 -0.00096116971226851609 0 6.1445243465201678e-08 -0.00080133039290837451 0 -8.5962440182730938e-06 -0.00096116971226851609 0 -4.0265122641014228e-05 -0.00096304576599406933 0 -2.6111840759172194e-06 -0.00083821414137820601 0 -8.5962440182730938e-06 -0.00096116971226851609 0 -2.6111840759172194e-06 -0.00083821414137820601 0 1.9368580138257429e-05 -0.00077080708238234409 0 -4.2099926013894848e-05 -0.0010219997678309715 0 -8.5962440182730938e-06 -0.00096116971226851609 0 -4.0265122641014228e-05 -0.00096304576599406933 0 -4.0265122641014228e-05 -0.00096304576599406933 0 -2.6111840759172194e-06 -0.00083821414137820601 0 -2.9232313844281398e-05 -0.0007617742626017857 0 -2.6111840759172194e-06 -0.00083821414137820601 0 1.9368580138257429e-05 -0.00077080708238234409 0 1.7609036102028753e-05 -0.00072664375310915286 0 1.9368580138257429e-05 -0.00077080708238234409 0 4.5814519313823219e-05 -0.00064795616900232948 0 1.7609036102028753e-05 -0.00072664375310915286 0 -8.5962440182730938e-06 -0.00096116971226851609 0 1.9368580138257429e-05 -0.00077080708238234409 0 6.1445243465201678e-08 -0.00080133039290837451 0 1.9368580138257429e-05 -0.00077080708238234409 0 6.1445243465201678e-08 -0.00080133039290837451 0 2.921872147319362e-05 -0.00062402200512420608 0 6.9936679134193444e-08 -0.00050634164231960722 0 6.1445243465201678e-08 -0.00080133039290837451 0 2.921872147319362e-05 -0.00062402200512420608 0 5.4552416125408845e-05 -0.00053559190682779458 0 2.921872147319362e-05 -0.00062402200512420608 0 4.5814519313823219e-05 -0.00064795616900232948 0 1.9368580138257429e-05 -0.00077080708238234409 0 2.921872147319362e-05 -0.00062402200512420608 0 4.5814519313823219e-05 -0.00064795616900232948 0 4.5814519313823219e-05 -0.00064795616900232948 0 5.8153255283623793e-05 -0.0005797157618302101 0 2.7022493348926842e-05 -0.00060798322245763671 0 5.4552416125408845e-05 -0.00053559190682779458 0 4.5814519313823219e-05 -0.00064795616900232948 0 5.8153255283623793e-05 -0.0005797157618302101 0 -1.5278909581959663e-05 -0.00069285012119188775 0 -3.4973442047750637e-05 -0.00071395766572091869 0 -4.3506176259683782e-05 -0.00068879424604319272 0 8.0183637003529478e-06 -0.00060990624856610109 0 1.7498847080815252e-06 -0.00066763369833002894 0 5.8153255283623793e-05 -0.0005797157618302101 0 6.1677755154759565e-05 -0.00055068045056210803 0 2.7022493348926842e-05 -0.00060798322245763671 0 -3.4973442047750637e-05 -0.00071395766572091869 0 -4.8710551254970029e-05 -0.0007158631765712901 0 -5.1702224797431328e-05 -0.00069583060271823517 0 -3.4973442047750637e-05 -0.00071395766572091869 0 -5.1702224797431328e-05 -0.00069583060271823517 0 -4.3506176259683782e-05 -0.00068879424604319272 0 1.7498847080815252e-06 -0.00066763369833002894 0 -3.1491456398233964e-05 -0.00074147268115988118 0 4.5814519313823219e-05 -0.00064795616900232948 0 2.7022493348926842e-05 -0.00060798322245763671 0 1.7609036102028753e-05 -0.00072664375310915286 0 2.7022493348926842e-05 -0.00060798322245763671 0 1.7609036102028753e-05 -0.00072664375310915286 0 -2.9232313844281398e-05 -0.0007617742626017857 0 -3.4973442047750637e-05 -0.00071395766572091869 0 -2.9232313844281398e-05 -0.0007617742626017857 0 -4.8710551254970029e-05 -0.0007158631765712901 0 -4.0265122641014228e-05 -0.00096304576599406933 0 -2.9232313844281398e-05 -0.0007617742626017857 0 -0.00010891618301391503 -0.00073112241251190935 0 -2.9232313844281398e-05 -0.0007617742626017857 0 -4.8710551254970029e-05 -0.0007158631765712901 0 -0.00010891618301391503 -0.00073112241251190935 0 -2.6111840759172194e-06 -0.00083821414137820601 0 1.7609036102028753e-05 -0.00072664375310915286 0 -2.9232313844281398e-05 -0.0007617742626017857 0 -4.8710551254970029e-05 -0.0007158631765712901 0 -7.8738644503564562e-05 -0.00070567030566351689 0 -0.00010891618301391503 -0.00073112241251190935 0 -4.8710551254970029e-05 -0.0007158631765712901 0 -6.1302575705555118e-05 -0.0007005387352419614 0 -5.1702224797431328e-05 -0.00069583060271823517 0 -4.8710551254970029e-05 -0.0007158631765712901 0 -6.1302575705555118e-05 -0.0007005387352419614 0 -7.8738644503564562e-05 -0.00070567030566351689 0 -5.9617276693945989e-05 -0.00095321315071628457 0 -8.1009581606642346e-05 -0.00094909223933055333 0 -8.4450043043347091e-05 -0.0009391665690578737 0 -7.5775063618307886e-05 -0.00086343636700671829 0 -9.3326115512119652e-05 -0.00075654763026400678 0 -7.8738644503564562e-05 -0.00070567030566351689 0 -0.00010891618301391503 -0.00073112241251190935 0 -7.9715700871318723e-05 -0.00069836352259272779 0 -7.8738644503564562e-05 -0.00070567030566351689 0 -7.3119942770226662e-05 -0.00069774375862455891 0 -7.9715700871318723e-05 -0.00069836352259272779 0 -6.1302575705555118e-05 -0.0007005387352419614 0 -7.8738644503564562e-05 -0.00070567030566351689 0 -7.3119942770226662e-05 -0.00069774375862455891 0 -4.3619976554734054e-05 -0.00094894386917553715 0 -7.5775063618307886e-05 -0.00086343636700671829 0 -4.2099926013894848e-05 -0.0010219997678309715 0 -5.9617276693945989e-05 -0.00095321315071628457 0 -9.6223475955248687e-05 -0.00096570412578595648 0 -6.7128006627208058e-05 -0.00070218284726538088 0 -6.6933138232113775e-05 -0.00069956228610989829 0 -6.3420503554148763e-05 -0.00070483788169275845 0 -6.7128006627208058e-05 -0.00070218284726538088 0 -6.657331856311835e-05 -0.00069667704810038678 0 -6.3542567272158076e-05 -0.00069722123278568909 0 -6.7128006627208058e-05 -0.00070218284726538088 0 -6.657331856311835e-05 -0.00069667704810038678 0 -6.6933138232113775e-05 -0.00069956228610989829 0 -6.657331856311835e-05 -0.00069667704810038678 0 -6.6933138232113775e-05 -0.00069956228610989829 0 -7.0435455067417436e-05 -0.00069676898195267256 0 -7.0435455067417436e-05 -0.00069676898195267256 0 -7.2295416860453313e-05 -0.00069708804237461001 0 -7.3119942770226662e-05 -0.00069774375862455891 0 -7.2295416860453313e-05 -0.00069708804237461001 0 -7.3119942770226662e-05 -0.00069774375862455891 0 -7.9715700871318723e-05 -0.00069836352259272779 0 -6.657331856311835e-05 -0.00069667704810038678 0 -7.0435455067417436e-05 -0.00069676898195267256 0 -6.4030999946603325e-05 -0.00069431331016057269 0 -7.0435455067417436e-05 -0.00069676898195267256 0 -7.3119942770226662e-05 -0.00069774375862455891 0 -6.4030999946603325e-05 -0.00069431331016057269 0 -6.1302575705555118e-05 -0.0007005387352419614 0 -7.3119942770226662e-05 -0.00069774375862455891 0 -6.4030999946603325e-05 -0.00069431331016057269 0 -6.1302575705555118e-05 -0.0007005387352419614 0 -6.4030999946603325e-05 -0.00069431331016057269 0 -5.1702224797431328e-05 -0.00069583060271823517 0 -6.4030999946603325e-05 -0.00069431331016057269 0 -6.224031906803374e-05 -0.0006941391614963267 0 -5.4268610772065773e-05 -0.00069025394150641574 0 -6.4030999946603325e-05 -0.00069431331016057269 0 -5.4268610772065773e-05 -0.00069025394150641574 0 -5.1702224797431328e-05 -0.00069583060271823517 0 -6.224031906803374e-05 -0.0006941391614963267 0 -5.8776906386535563e-05 -0.0006931505975731005 0 -5.4268610772065773e-05 -0.00069025394150641574 0 -6.657331856311835e-05 -0.00069667704810038678 0 -6.224031906803374e-05 -0.0006941391614963267 0 -6.3542567272158076e-05 -0.00069722123278568909 0 -6.657331856311835e-05 -0.00069667704810038678 0 -6.4030999946603325e-05 -0.00069431331016057269 0 -6.224031906803374e-05 -0.0006941391614963267 0 -6.224031906803374e-05 -0.0006941391614963267 0 -6.3542567272158076e-05 -0.00069722123278568909 0 -5.8776906386535563e-05 -0.0006931505975731005 0 -6.3542567272158076e-05 -0.00069722123278568909 0 -5.8776906386535563e-05 -0.0006931505975731005 0 -6.0803122867852747e-05 -0.0006964402559635907 0 -5.8776906386535563e-05 -0.0006931505975731005 0 -5.5959454136107e-05 -0.0006899494562517171 0 -5.6975543312033617e-05 -0.00069322305540986905 0 -5.5959454136107e-05 -0.0006899494562517171 0 -5.8142924088209531e-05 -0.00068828984563660135 0 -5.6975543312033617e-05 -0.00069322305540986905 0 -5.5959454136107e-05 -0.0006899494562517171 0 -5.4268610772065773e-05 -0.00069025394150641574 0 -5.4624811955886801e-05 -0.00068534195588502468 0 -5.8776906386535563e-05 -0.0006931505975731005 0 -5.5959454136107e-05 -0.0006899494562517171 0 -5.4268610772065773e-05 -0.00069025394150641574 0 -5.4268610772065773e-05 -0.00069025394150641574 0 -4.3506176259683782e-05 -0.00068879424604319272 0 -5.4624811955886801e-05 -0.00068534195588502468 0 -5.4268610772065773e-05 -0.00069025394150641574 0 -5.1702224797431328e-05 -0.00069583060271823517 0 -4.3506176259683782e-05 -0.00068879424604319272 0 -5.973222952146799e-05 -0.00067152464612471217 0 -4.3506176259683782e-05 -0.00068879424604319272 0 -6.3419305448333914e-05 -0.00067655496508636954 0 -4.3506176259683782e-05 -0.00068879424604319272 0 -6.3419305448333914e-05 -0.00067655496508636954 0 -5.4624811955886801e-05 -0.00068534195588502468 0 8.0183637003529478e-06 -0.00060990624856610109 0 -5.3675852351376298e-05 -0.00068221955177515754 0 -6.3419305448333914e-05 -0.00067655496508636954 0 -5.4624811955886801e-05 -0.00068534195588502468 0 -6.3854775980941167e-05 -0.00068108209044303637 0 -5.5959454136107e-05 -0.0006899494562517171 0 -5.4624811955886801e-05 -0.00068534195588502468 0 -5.8142924088209531e-05 -0.00068828984563660135 0 -5.4624811955886801e-05 -0.00068534195588502468 0 -6.3854775980941167e-05 -0.00068108209044303637 0 -5.8142924088209531e-05 -0.00068828984563660135 0 -6.3854775980941167e-05 -0.00068108209044303637 0 -5.8142924088209531e-05 -0.00068828984563660135 0 -6.8729692144259901e-05 -0.00068687027859851938 0 -5.4798311503269542e-05 -0.00069568683364707904 0 -5.0407635287024586e-05 -0.00070006393057245547 0 -5.8142924088209531e-05 -0.00068828984563660135 0 -5.7401538205586538e-05 -0.00069458631764093923 0 -5.6975543312033617e-05 -0.00069322305540986905 0 -5.8142924088209531e-05 -0.00068828984563660135 0 -5.7401538205586538e-05 -0.00069458631764093923 0 -6.8729692144259901e-05 -0.00068687027859851938 0 -5.7401538205586538e-05 -0.00069458631764093923 0 -4.9748612834363367e-05 -0.00071255475190712099 0 -6.9491159945198012e-05 -0.00070820226236650613 0 -5.7401538205586538e-05 -0.00069458631764093923 0 -4.9748612834363367e-05 -0.00071255475190712099 0 -3.3466266212929713e-05 -0.00070346354817391629 0 -4.9748612834363367e-05 -0.00071255475190712099 0 -6.9491159945198012e-05 -0.00070820226236650613 0 -5.1201953512412229e-05 -0.00073101591080323969 0 -4.9748612834363367e-05 -0.00071255475190712099 0 -3.2028126271321706e-05 -0.0007214698354324388 0 -5.1201953512412229e-05 -0.00073101591080323969 0 -5.0407635287024586e-05 -0.00070006393057245547 0 -6.1323246936384896e-05 -0.00085264113694477313 0 -3.3466266212929713e-05 -0.00070346354817391629 0 -3.2028126271321706e-05 -0.0007214698354324388 0 -1.2254998963370971e-05 -0.00071219922948181805 0 -4.9748612834363367e-05 -0.00071255475190712099 0 -3.3466266212929713e-05 -0.00070346354817391629 0 -3.2028126271321706e-05 -0.0007214698354324388 0 6.5728027789209063e-05 -0.0012336566697481487 0 5.0896371582151565e-05 -0.0012413852167857072 0 6.0329109748854432e-05 -0.0012278219457285281 0 -5.7401538205586538e-05 -0.00069458631764093923 0 -5.7440372099993883e-05 -0.00069444796601233463 0 -5.6975543312033617e-05 -0.00069322305540986905 0 -5.7440372099993883e-05 -0.00069444796601233463 0 -5.6975543312033617e-05 -0.00069322305540986905 0 -5.9466817294629512e-05 -0.00069578164974109645 0 -5.8776906386535563e-05 -0.0006931505975731005 0 -5.6975543312033617e-05 -0.00069322305540986905 0 -6.0803122867852747e-05 -0.0006964402559635907 0 -5.6975543312033617e-05 -0.00069322305540986905 0 -6.0803122867852747e-05 -0.0006964402559635907 0 -5.9466817294629512e-05 -0.00069578164974109645 0 -6.3542567272158076e-05 -0.00069722123278568909 0 -6.0803122867852747e-05 -0.0006964402559635907 0 -6.4073238392330949e-05 -0.00070097981886179815 0 -6.4073238392330949e-05 -0.00070097981886179815 0 -5.9466817294629512e-05 -0.00069578164974109645 0 -6.1241963614005543e-05 -0.00069500481096938045 0 -6.4073238392330949e-05 -0.00070097981886179815 0 -6.1241963614005543e-05 -0.00069500481096938045 0 -6.6686468422311415e-05 -0.0007014292901164718 0 -6.0803122867852747e-05 -0.0006964402559635907 0 -6.4073238392330949e-05 -0.00070097981886179815 0 -5.9466817294629512e-05 -0.00069578164974109645 0 -6.1323246936384896e-05 -0.00085264113694477313 0 -8.4466996488573109e-05 -0.0010566963542072109 0 -5.7440372099993883e-05 -0.00069444796601233463 0 -5.9466817294629512e-05 -0.00069578164974109645 0 -6.1241963614005543e-05 -0.00069500481096938045 0 1.7245662401497682e-05 -0.00097587507734170343 0 -6.1323246936384896e-05 -0.00085264113694477313 0 -6.1323246936384896e-05 -0.00085264113694477313 0 -0.00012415314522359503 -0.00075140072732505993 0 5.0896371582151565e-05 -0.0012413852167857072 0 3.6811448900589041e-05 -0.0012395363279725732 0 4.1382432751195946e-05 -0.0012320697302457995 0 -0.00027803094035496622 -0.00084026303072287894 0 -0.00016060850631947728 -0.00088059047245430896 0 -0.00017455195039064501 -0.00078572123466882763 0 -0.00016060850631947728 -0.00088059047245430896 0 -0.00017455195039064501 -0.00078572123466882763 0 -9.3345316282277761e-05 -0.00081675273498864733 0 -0.00017455195039064501 -0.00078572123466882763 0 -6.5668077878826593e-05 -0.00072608729668001708 0 -9.3345316282277761e-05 -0.00081675273498864733 0 -6.6686468422311415e-05 -0.0007014292901164718 0 -6.7417924083353506e-05 -0.00070946861691637746 0 -6.5668077878826593e-05 -0.00072608729668001708 0 -0.00012415314522359503 -0.00075140072732505993 0 -6.9426196664796829e-05 -0.0007245138477412036 0 -6.4073238392330949e-05 -0.00070097981886179815 0 -6.6686468422311415e-05 -0.0007014292901164718 0 -6.7417924083353506e-05 -0.00070946861691637746 0 -6.7128006627208058e-05 -0.00070218284726538088 0 -6.4073238392330949e-05 -0.00070097981886179815 0 -6.7417924083353506e-05 -0.00070946861691637746 0 -6.7128006627208058e-05 -0.00070218284726538088 0 -6.3542567272158076e-05 -0.00069722123278568909 0 -6.4073238392330949e-05 -0.00070097981886179815 0 -6.7128006627208058e-05 -0.00070218284726538088 0 -6.7417924083353506e-05 -0.00070946861691637746 0 -6.3420503554148763e-05 -0.00070483788169275845 0 -0.00012753378592268483 -0.00064813998137520923 0 -0.00010283907224726142 -0.0005561682814440921 0 -3.4447012381836656e-05 -0.00058488548983399947 0 -0.00012753378592268483 -0.00064813998137520923 0 -0.00016609601255134971 -0.00057720649362111916 0 -0.00010283907224726142 -0.0005561682814440921 0 -0.00012753378592268483 -0.00064813998137520923 0 -0.00019601624959498284 -0.00062755958841301121 0 -0.00016609601255134971 -0.00057720649362111916 0 -0.00019601624959498284 -0.00062755958841301121 0 -0.00016609601255134971 -0.00057720649362111916 0 -0.00019882889106080212 -0.00057366728727244545 0 -0.00016609601255134971 -0.00057720649362111916 0 -0.00019882889106080212 -0.00057366728727244545 0 -0.00020591292894827916 -0.00052825883590060013 0 -0.00016609601255134971 -0.00057720649362111916 0 -0.00020591292894827916 -0.00052825883590060013 0 -0.00015521942893590357 -0.00052693431113913622 0 -0.00016609601255134971 -0.00057720649362111916 0 -0.00015521942893590357 -0.00052693431113913622 0 -0.00010283907224726142 -0.0005561682814440921 0 -2.5893962810068615e-05 -0.00050773514399586248 0 -0.00010283907224726142 -0.0005561682814440921 0 -3.4447012381836656e-05 -0.00058488548983399947 0 -5.973222952146799e-05 -0.00067152464612471217 0 -6.3419305448333914e-05 -0.00067655496508636954 0 -8.4719266458951935e-05 -0.00066239808021495731 0 8.0183637003529478e-06 -0.00060990624856610109 0 -6.3712225929662107e-05 -0.00062271184399411111 0 -2.5893962810068615e-05 -0.00050773514399586248 0 5.4884881406307158e-05 -0.00052293101469325055 0 -3.4447012381836656e-05 -0.00058488548983399947 0 -6.3419305448333914e-05 -0.00067655496508636954 0 -8.4719266458951935e-05 -0.00066239808021495731 0 -7.9741634751357129e-05 -0.00067326667708254005 0 -6.3419305448333914e-05 -0.00067655496508636954 0 -6.3854775980941167e-05 -0.00068108209044303637 0 -7.9741634751357129e-05 -0.00067326667708254005 0 -6.3854775980941167e-05 -0.00068108209044303637 0 -7.9741634751357129e-05 -0.00067326667708254005 0 -6.8729692144259901e-05 -0.00068687027859851938 0 -0.00012333711817477381 -0.00065005916849081476 0 -6.3712225929662107e-05 -0.00062271184399411111 0 -0.00012753378592268483 -0.00064813998137520923 0 -8.4719266458951935e-05 -0.00066239808021495731 0 -7.9741634751357129e-05 -0.00067326667708254005 0 -0.00012753378592268483 -0.00064813998137520923 0 -7.9741634751357129e-05 -0.00067326667708254005 0 -9.1679451511224257e-05 -0.00068940724191873652 0 -5.7401538205586538e-05 -0.00069458631764093923 0 -6.8729692144259901e-05 -0.00068687027859851938 0 -6.9491159945198012e-05 -0.00070820226236650613 0 -9.1679451511224257e-05 -0.00068940724191873652 0 -6.8729692144259901e-05 -0.00068687027859851938 0 -6.9491159945198012e-05 -0.00070820226236650613 0 -7.9741634751357129e-05 -0.00067326667708254005 0 -9.1679451511224257e-05 -0.00068940724191873652 0 -6.8729692144259901e-05 -0.00068687027859851938 0 -9.1679451511224257e-05 -0.00068940724191873652 0 -6.9491159945198012e-05 -0.00070820226236650613 0 -9.2415803372626848e-05 -0.00073333187763417404 0 -9.1679451511224257e-05 -0.00068940724191873652 0 -0.00013664887940489432 -0.00069358057041079895 0 -9.2415803372626848e-05 -0.00073333187763417404 0 -0.00012753378592268483 -0.00064813998137520923 0 -9.1679451511224257e-05 -0.00068940724191873652 0 -0.00013664887940489432 -0.00069358057041079895 0 -0.00019233727322379832 -0.00069391040514258642 0 -0.00019601624959498284 -0.00062755958841301121 0 -0.00013664887940489432 -0.00069358057041079895 0 -0.00012753378592268483 -0.00064813998137520923 0 -0.00019601624959498284 -0.00062755958841301121 0 -0.00013664887940489432 -0.00069358057041079895 0 -0.00019233727322379832 -0.00069391040514258642 0 -0.00013664887940489432 -0.00069358057041079895 0 -0.00015461568490819695 -0.00073661219822025161 0 4.9507219583040063e-05 -0.00073195257654785732 0 3.2714848341547881e-05 -0.00072433599701455208 0 1.5232892737765723e-05 -0.0007398843411806251 0 -6.8969819557267303e-05 -0.00079173123864443651 0 -5.5408693570251709e-05 -0.00068583463047774311 0 -0.00013664887940489432 -0.00069358057041079895 0 -0.00015461568490819695 -0.00073661219822025161 0 -9.2415803372626848e-05 -0.00073333187763417404 0 4.9507219583040063e-05 -0.00073195257654785732 0 3.2714848341547881e-05 -0.00072433599701455208 0 4.8569389251872985e-05 -0.00071686554339180813 0 3.2714848341547881e-05 -0.00072433599701455208 0 4.8569389251872985e-05 -0.00071686554339180813 0 3.9944099994774995e-05 -0.00070585204171254117 0 4.8569389251872985e-05 -0.00071686554339180813 0 6.2955738653148747e-05 -0.00070879128161866508 0 3.9944099994774995e-05 -0.00070585204171254117 0 4.9507219583040063e-05 -0.00073195257654785732 0 4.8569389251872985e-05 -0.00071686554339180813 0 6.2955738653148747e-05 -0.00070879128161866508 0 6.7484998180238789e-05 -0.00070275209267077845 0 6.2955738653148747e-05 -0.00070879128161866508 0 3.9944099994774995e-05 -0.00070585204171254117 0 7.4293501867175952e-05 -0.00071131667055548216 0 4.9507219583040063e-05 -0.00073195257654785732 0 6.2955738653148747e-05 -0.00070879128161866508 0 0.00010909477976086793 -0.00055489805140828709 0 0.00018516485115253442 -0.00082692517535159897 0 0.00028879933828119766 -0.00036241574999337886 0 0.00028757748393595626 -0.00036496646213791045 0 0.00028792101160005426 -0.00036163193660746341 0 0.00026849380057877679 -0.00040127304323001669 0 0.00018516485115253442 -0.00082692517535159897 0 0.0002439416084833602 -0.00055290091728378132 0 0.00020136760218651253 -0.00048734860564157912 0 8.7477782769094175e-05 -0.00054854859203832857 0 0.00028757748393595626 -0.00036496646213791045 0 0.00028792101160005426 -0.00036163193660746341 0 0.0002876369986699663 -0.0003618926796985012 0 0.00028734392338389004 -0.00036001412158545522 0 0.0002876369986699663 -0.0003618926796985012 0 0.00028394414243754223 -0.0003585139453988828 0 0.00028792101160005426 -0.00036163193660746341 0 0.00028734392338389004 -0.00036001412158545522 0 0.0002876369986699663 -0.0003618926796985012 0 0.00028792101160005426 -0.00036163193660746341 0 0.00028734392338389004 -0.00036001412158545522 0 0.00028867049122534728 -0.00035982805174129617 0 0.00028948802949996439 -0.00035967213053554007 0 0.00028879933828119766 -0.00036241574999337886 0 0.00028867049122534728 -0.00035982805174129617 0 0.00028879933828119766 -0.00036241574999337886 0 0.00028792101160005426 -0.00036163193660746341 0 0.00028867049122534728 -0.00035982805174129617 0 0.00028948802949996439 -0.00035967213053554007 0 0.00028944412448682881 -0.00035872351615027842 0 0.00028867049122534728 -0.00035982805174129617 0 0.00029171522260026879 -0.00036079979252507001 0 0.00028939505668705985 -0.00036908857054172075 0 0.0002988898119228311 -0.00035836754710320042 0 0.00029171522260026879 -0.00036079979252507001 0 0.0002876369986699663 -0.0003618926796985012 0 0.00028394414243754223 -0.0003585139453988828 0 0.00028757748393595626 -0.00036496646213791045 0 0.0002876369986699663 -0.0003618926796985012 0 0.00029007952975916438 -0.00036541750866036474 0 0.00018516485115253442 -0.00082692517535159897 0 0.00031440394788513133 -0.00093130818918617849 0 0.00029171522260026879 -0.00036079979252507001 0 0.0002876369986699663 -0.0003618926796985012 0 0.00029007952975916438 -0.00036541750866036474 0 0.00031440394788513133 -0.00093130818918617849 0 0.00018415773628568054 -0.0012155558413617562 0 0.00029171522260026879 -0.00036079979252507001 0 0.00029007952975916438 -0.00036541750866036474 0 0.00028939505668705985 -0.00036908857054172075 0 0.00024951153491324055 -0.0015363160307528166 0 0.00024679439255961908 -0.0015582874519927 0 0.00023059674176472203 -0.0015193208176812417 0 0.00026657071156238669 -0.001515686690823855 0 0.00024951153491324055 -0.0015363160307528166 0 0.00023059674176472203 -0.0015193208176812417 0 0.00026657071156238669 -0.001515686690823855 0 0.00024951153491324055 -0.0015363160307528166 0 0.00025654530063484038 -0.0015465022595669885 0 0.00024951153491324055 -0.0015363160307528166 0 0.00025654530063484038 -0.0015465022595669885 0 0.00024679439255961908 -0.0015582874519927 0 3.2714848341547881e-05 -0.00072433599701455208 0 3.9944099994774995e-05 -0.00070585204171254117 0 1.0075654315444082e-05 -0.00072687636710814141 0 0.00031061163841714545 -0.0015073702226535111 0 0.00026657071156238669 -0.001515686690823855 0 0.00025654530063484038 -0.0015465022595669885 0 0.00018516485115253442 -0.00082692517535159897 0 0.00012881781568687155 -0.0011936762251813227 0 3.2714848341547881e-05 -0.00072433599701455208 0 1.0075654315444082e-05 -0.00072687636710814141 0 1.5232892737765723e-05 -0.0007398843411806251 0 0.00025654530063484038 -0.0015465022595669885 0 0.00024679439255961908 -0.0015582874519927 0 0.00024370732754167796 -0.0015684768649724434 0 0.00012881781568687155 -0.0011936762251813227 0 5.8136313178166838e-05 -0.0010433768178227361 0 -6.9491159945198012e-05 -0.00070820226236650613 0 -9.2415803372626848e-05 -0.00073333187763417404 0 -5.1201953512412229e-05 -0.00073101591080323969 0 -5.5408693570251709e-05 -0.00068583463047774311 0 5.8136313178166838e-05 -0.0010433768178227361 0 1.0075654315444082e-05 -0.00072687636710814141 0 1.5232892737765723e-05 -0.0007398843411806251 0 -1.806368235280809e-05 -0.0007486424173513322 0 0.00024679439255961908 -0.0015582874519927 0 0.00024370732754167796 -0.0015684768649724434 0 0.00025115141738191405 -0.0015748627832205971 0 0.00024370732754167796 -0.0015684768649724434 0 0.00025871362649072013 -0.0015765566841602452 0 0.00025115141738191405 -0.0015748627832205971 0 5.8136313178166838e-05 -0.0010433768178227361 0 0.00018097348731638575 -0.0014171240955216666 0 0.00024370732754167796 -0.0015684768649724434 0 0.00027260087945873437 -0.0015703393271827416 0 0.00025871362649072013 -0.0015765566841602452 0 6.5728027789209063e-05 -0.0012336566697481487 0 8.0940500402554836e-05 -0.0012237543827483828 0 6.0329109748854432e-05 -0.0012278219457285281 0 1.7245662401497682e-05 -0.00097587507734170343 0 5.8136313178166838e-05 -0.0010433768178227361 0 0.00027260087945873437 -0.0015703393271827416 0 0.00025871362649072013 -0.0015765566841602452 0 0.00026771865994566096 -0.0015813210474694256 0 0.00027260087945873437 -0.0015703393271827416 0 0.00026771865994566096 -0.0015813210474694256 0 0.00027204549690761369 -0.0015763824531881436 0 0.00025871362649072013 -0.0015765566841602452 0 0.00026107880199922542 -0.0015856084805867482 0 0.00025115141738191405 -0.0015748627832205971 0 0.00025871362649072013 -0.0015765566841602452 0 0.00026107880199922542 -0.0015856084805867482 0 0.00026771865994566096 -0.0015813210474694256 0 0.00026771865994566096 -0.0015813210474694256 0 0.000267628136486798 -0.0015973109371089321 0 0.00027697324156086237 -0.0015901427587434469 0 0.00026107880199922542 -0.0015856084805867482 0 0.00026771865994566096 -0.0015813210474694256 0 0.000267628136486798 -0.0015973109371089321 0 0.00026107880199922542 -0.0015856084805867482 0 0.00026215411385048238 -0.0015971523774562602 0 0.00025636550443872776 -0.0015893324616004338 0 0.00026107880199922542 -0.0015856084805867482 0 0.000267628136486798 -0.0015973109371089321 0 0.00026215411385048238 -0.0015971523774562602 0 0.00026215411385048238 -0.0015971523774562602 0 0.00025636550443872776 -0.0015893324616004338 0 0.00025916388844106234 -0.0016017728442209874 0 0.00025636550443872776 -0.0015893324616004338 0 0.000253359339969803 -0.001593495284527835 0 0.00025916388844106234 -0.0016017728442209874 0 0.00026374437247505042 -0.0016853017448627376 0 0.00018415773628568054 -0.0012155558413617562 0 0.00025636550443872776 -0.0015893324616004338 0 0.000253359339969803 -0.001593495284527835 0 0.00024878223757962629 -0.0015797226144699658 0 0.00024679439255961908 -0.0015582874519927 0 0.00024878223757962629 -0.0015797226144699658 0 0.00023909850666095446 -0.0016009850927348453 0 0.000253359339969803 -0.001593495284527835 0 0.00024878981265078409 -0.0015941930914369687 0 0.00024878223757962629 -0.0015797226144699658 0 0.00024878981265078409 -0.0015941930914369687 0 0.00024878223757962629 -0.0015797226144699658 0 0.00023909850666095446 -0.0016009850927348453 0 0.000253359339969803 -0.001593495284527835 0 0.00024878981265078409 -0.0015941930914369687 0 0.0002530939108470392 -0.0016022223832968645 0 0.00024679439255961908 -0.0015582874519927 0 0.00024878223757962629 -0.0015797226144699658 0 0.00025115141738191405 -0.0015748627832205971 0 0.00025636550443872776 -0.0015893324616004338 0 0.00024878223757962629 -0.0015797226144699658 0 0.00025115141738191405 -0.0015748627832205971 0 0.00026107880199922542 -0.0015856084805867482 0 0.00025636550443872776 -0.0015893324616004338 0 0.00025115141738191405 -0.0015748627832205971 0 3.6811448900589041e-05 -0.0012395363279725732 0 4.1382432751195946e-05 -0.0012320697302457995 0 2.4740889247348781e-05 -0.001238218605811625 0 0.00021757422029641262 -0.0015710747401031647 0 0.00023544629019324137 -0.0015818377071349725 0 0.00018843827149496841 -0.0015873415051107418 0 0.0001495265485552996 -0.0013882644955326986 0 3.7293632322783012e-05 -0.0017758348529752564 0 0.00021757422029641262 -0.0015710747401031647 0 0.00024090219042650129 -0.0015628691668433611 0 0.00021025362880555784 -0.0015614031189401551 0 0.00021757422029641262 -0.0015710747401031647 0 0.00023544629019324137 -0.0015818377071349725 0 0.00024090219042650129 -0.0015628691668433611 0 0.00018097348731638575 -0.0014171240955216666 0 0.0001495265485552996 -0.0013882644955326986 0 5.0896371582151565e-05 -0.0012413852167857072 0 6.0329109748854432e-05 -0.0012278219457285281 0 4.1382432751195946e-05 -0.0012320697302457995 0 0.00023544629019324137 -0.0015818377071349725 0 0.00024090219042650129 -0.0015628691668433611 0 0.00026830072600337403 -0.001570680042400386 0 0.00027260087945873437 -0.0015703393271827416 0 0.00023544629019324137 -0.0015818377071349725 0 0.00026830072600337403 -0.001570680042400386 0 0.00025804631510659859 -0.0015694663888025696 0 0.00027142708289685851 -0.0015727561440949749 0 0.00026830072600337403 -0.001570680042400386 0 0.00027969987798769693 -0.0015802530643809639 0 0.00027204549690761369 -0.0015763824531881436 0 0.00027260087945873437 -0.0015703393271827416 0 0.00026830072600337403 -0.001570680042400386 0 0.00027204549690761369 -0.0015763824531881436 0 0.00029372659900740386 -0.0015789591412204344 0 0.00026830072600337403 -0.001570680042400386 0 0.00027969987798769693 -0.0015802530643809639 0 0.000267628136486798 -0.0015973109371089321 0 0.00027697324156086237 -0.0015901427587434469 0 0.00027172685553926006 -0.0016196091964024485 0 0.00027697324156086237 -0.0015901427587434469 0 0.00029442949340806427 -0.0016038868610018819 0 0.00027172685553926006 -0.0016196091964024485 0 0.00026771865994566096 -0.0015813210474694256 0 0.00027204549690761369 -0.0015763824531881436 0 0.00027697324156086237 -0.0015901427587434469 0 0.00027969987798769693 -0.0015802530643809639 0 0.00027697324156086237 -0.0015901427587434469 0 0.00028839304336670467 -0.0015889640824927498 0 0.00027969987798769693 -0.0015802530643809639 0 0.00027204549690761369 -0.0015763824531881436 0 0.00027697324156086237 -0.0015901427587434469 0 0.00029442949340806427 -0.0016038868610018819 0 0.00028839304336670467 -0.0015889640824927498 0 0.00029775507826744133 -0.0015912960311775383 0 0.00027697324156086237 -0.0015901427587434469 0 0.00029442949340806427 -0.0016038868610018819 0 0.00028839304336670467 -0.0015889640824927498 0 0.00029372659900740386 -0.0015789591412204344 0 0.00027969987798769693 -0.0015802530643809639 0 0.00028839304336670467 -0.0015889640824927498 0 0.00029372659900740386 -0.0015789591412204344 0 0.00028839304336670467 -0.0015889640824927498 0 0.00029775507826744133 -0.0015912960311775383 0 0.00027153345063916001 -0.0016288165325372074 0 0.00027179498244432246 -0.0016314274168659991 0 0.00027204998480487535 -0.0016292519166416833 0 0.00026880498232990756 -0.0016290134582762586 0 0.00027153345063916001 -0.0016288165325372074 0 0.00027179498244432246 -0.0016314274168659991 0 0.00029372659900740386 -0.0015789591412204344 0 0.00029775507826744133 -0.0015912960311775383 0 0.00031477826578296133 -0.00159128637372486 0 0.00025804631510659859 -0.0015694663888025696 0 0.00024985178182392314 -0.0017100183102925584 0 0.0002944672972842979 -0.0016090258923919642 0 0.00024985178182392314 -0.0017100183102925584 0 0.00029442949340806427 -0.0016038868610018819 0 0.00029775507826744133 -0.0015912960311775383 0 0.00031477826578296133 -0.00159128637372486 0 0.00024090219042650129 -0.0015628691668433611 0 0.00020914388400781084 -0.0015480676706231048 0 0.00021025362880555784 -0.0015614031189401551 0 0.00020914388400781084 -0.0015480676706231048 0 0.00021025362880555784 -0.0015614031189401551 0 0.00019860866626810004 -0.0015542441449867596 0 0.00026887783064381333 -0.0016375576994497683 0 0.00022663044396057513 -0.001790689033064045 0 0.00026880498232990756 -0.0016290134582762586 0 0.00027179498244432246 -0.0016314274168659991 0 0.0002676643090545365 -0.001631339599361271 0 0.00027179498244432246 -0.0016314274168659991 0 0.0002676643090545365 -0.001631339599361271 0 0.00026444779363261217 -0.0016488096317004884 0 0.0002676643090545365 -0.001631339599361271 0 0.00027172685553926006 -0.0016196091964024485 0 0.00027041180577794884 -0.0016228098409364392 0 0.0002944672972842979 -0.0016090258923919642 0 0.00026843391880479104 -0.001622650801981641 0 0.00026880498232990756 -0.0016290134582762586 0 0.0002676643090545365 -0.001631339599361271 0 0.00027172685553926006 -0.0016196091964024485 0 0.00026855408435690027 -0.001632732640095141 0 0.00027041180577794884 -0.0016228098409364392 0 0.00027372176225629231 -0.0016222314673885346 0 0.0002676643090545365 -0.001631339599361271 0 0.00026855408435690027 -0.001632732640095141 0 0.00027041180577794884 -0.0016228098409364392 0 0.00026855408435690027 -0.001632732640095141 0 0.00026444779363261217 -0.0016488096317004884 0 0.00026385415238862884 -0.0016291506979833014 0 0.0002676643090545365 -0.001631339599361271 0 0.00026855408435690027 -0.001632732640095141 0 0.00026444779363261217 -0.0016488096317004884 0 0.00026887783064381333 -0.0016375576994497683 0 0.00026291201304497354 -0.0016561602355118887 0 0.00026208538567698726 -0.0016110059102032856 0 0.00024914615117489661 -0.0016023188297230909 0 0.00027229297044254716 -0.0016177217316145089 0 0.00026208538567698726 -0.0016110059102032856 0 0.00024914615117489661 -0.0016023188297230909 0 0.0002530939108470392 -0.0016022223832968645 0 0.00018415773628568054 -0.0012155558413617562 0 0.0002329021209994324 -0.001305265385422016 0 0.00024878981265078409 -0.0015941930914369687 0 0.00023909850666095446 -0.0016009850927348453 0 0.0002530939108470392 -0.0016022223832968645 0 0.00026208538567698726 -0.0016110059102032856 0 0.0002530939108470392 -0.0016022223832968645 0 0.00025916388844106234 -0.0016017728442209874 0 0.000253359339969803 -0.001593495284527835 0 0.0002530939108470392 -0.0016022223832968645 0 0.00025916388844106234 -0.0016017728442209874 0 0.00026208538567698726 -0.0016110059102032856 0 0.00025916388844106234 -0.0016017728442209874 0 0.00026569141392815464 -0.001611257175035227 0 0.00026215411385048238 -0.0015971523774562602 0 0.00025916388844106234 -0.0016017728442209874 0 0.00026569141392815464 -0.001611257175035227 0 0.000267628136486798 -0.0015973109371089321 0 0.00026215411385048238 -0.0015971523774562602 0 0.00026569141392815464 -0.001611257175035227 0 0.000267628136486798 -0.0015973109371089321 0 0.00027172685553926006 -0.0016196091964024485 0 0.00026569141392815464 -0.001611257175035227 0 0.00027172685553926006 -0.0016196091964024485 0 0.00026569141392815464 -0.001611257175035227 0 0.00027041180577794884 -0.0016228098409364392 0 0.00026208538567698726 -0.0016110059102032856 0 0.00026569141392815464 -0.001611257175035227 0 0.00027041180577794884 -0.0016228098409364392 0 0.00027041180577794884 -0.0016228098409364392 0 0.00027229297044254716 -0.0016177217316145089 0 0.00027372176225629231 -0.0016222314673885346 0 0.00026208538567698726 -0.0016110059102032856 0 0.00027041180577794884 -0.0016228098409364392 0 0.00027229297044254716 -0.0016177217316145089 0 0.00018415773628568054 -0.0012155558413617562 0 0.00029490572066196195 -0.00093796919750573527 0 0.00027229297044254716 -0.0016177217316145089 0 0.00027372176225629231 -0.0016222314673885346 0 0.00029171786472378551 -0.0016001755959505616 0 0.0002988898119228311 -0.00035836754710320042 0 0.00034017376784505152 -0.00037162410116592701 0 0.00029491814131552924 -0.00035794811549674793 0 0.00029490572066196195 -0.00093796919750573527 0 0.00031489364067081632 -0.00099580470640558776 0 0.00027372176225629231 -0.0016222314673885346 0 0.00029171786472378551 -0.0016001755959505616 0 0.00027137802869811129 -0.0016017214453225342 0 0.00026385415238862884 -0.0016291506979833014 0 0.00024667834004104232 -0.0016152075485207651 0 0.0002476786707383765 -0.001640369770743569 0 0.00026444779363261217 -0.0016488096317004884 0 0.00026385415238862884 -0.0016291506979833014 0 0.0002476786707383765 -0.001640369770743569 0 0.00027372176225629231 -0.0016222314673885346 0 0.00026385415238862884 -0.0016291506979833014 0 0.00027137802869811129 -0.0016017214453225342 0 0.00026855408435690027 -0.001632732640095141 0 0.00027372176225629231 -0.0016222314673885346 0 0.00026385415238862884 -0.0016291506979833014 0 0.00026385415238862884 -0.0016291506979833014 0 0.00027137802869811129 -0.0016017214453225342 0 0.00024667834004104232 -0.0016152075485207651 0 0.00027137802869811129 -0.0016017214453225342 0 0.00024633138535285149 -0.0015844810686452527 0 0.00024667834004104232 -0.0016152075485207651 0 0.00027137802869811129 -0.0016017214453225342 0 0.00024633138535285149 -0.0015844810686452527 0 0.00027079870686663829 -0.0015688325554666376 0 0.00024633138535285149 -0.0015844810686452527 0 0.00027079870686663829 -0.0015688325554666376 0 0.00025855609221664443 -0.0015377862907148096 0 0.00024633138535285149 -0.0015844810686452527 0 0.00025855609221664443 -0.0015377862907148096 0 0.00021861043303391143 -0.0015490253533156975 0 0.00034017376784505152 -0.00037162410116592701 0 0.00040328479618539117 -0.00047099554812456308 0 0.0003064240210280103 -0.00043535562654628719 0 0.00031489364067081632 -0.00099580470640558776 0 0.00035568966460561058 -0.0010312528281898289 0 0.00029171786472378551 -0.0016001755959505616 0 0.00027137802869811129 -0.0016017214453225342 0 0.00029860732432652375 -0.0015638922867482752 0 0.00027137802869811129 -0.0016017214453225342 0 0.00027079870686663829 -0.0015688325554666376 0 0.00029860732432652375 -0.0015638922867482752 0 0.00040328479618539117 -0.00047099554812456308 0 0.0003064240210280103 -0.00043535562654628719 0 0.00032953101684348932 -0.00055754008470820641 0 0.0003064240210280103 -0.00043535562654628719 0 0.00024045408390981678 -0.00042637634788961529 0 0.00025532391836978854 -0.00049668965996032979 0 0.0003064240210280103 -0.00043535562654628719 0 0.00025532391836978854 -0.00049668965996032979 0 0.00032953101684348932 -0.00055754008470820641 0 0.00034017376784505152 -0.00037162410116592701 0 0.0003064240210280103 -0.00043535562654628719 0 0.0002671611164598296 -0.00036510360906805758 0 0.0002671611164598296 -0.00036510360906805758 0 0.00017959529556536575 -0.0003853215955390284 0 0.00018214493968646907 -0.00029244394130073688 0 0.0003064240210280103 -0.00043535562654628719 0 0.0002671611164598296 -0.00036510360906805758 0 0.00024045408390981678 -0.00042637634788961529 0 0.0002671611164598296 -0.00036510360906805758 0 0.00024045408390981678 -0.00042637634788961529 0 0.00017959529556536575 -0.0003853215955390284 0 0.00024045408390981678 -0.00042637634788961529 0 0.00019104675228022246 -0.00047859634486001286 0 0.00017959529556536575 -0.0003853215955390284 0 0.00024045408390981678 -0.00042637634788961529 0 0.00025532391836978854 -0.00049668965996032979 0 0.00019104675228022246 -0.00047859634486001286 0 0.00019104675228022246 -0.00047859634486001286 0 0.00013104691094105052 -0.00041089610655957546 0 0.00017959529556536575 -0.0003853215955390284 0 8.7242343158248673e-05 -0.00034730488649808186 0 0.00013104691094105052 -0.00041089610655957546 0 0.0001126501848511713 -0.00031839877188124811 0 8.7242343158248673e-05 -0.00034730488649808186 0 0.00013104691094105052 -0.00041089610655957546 0 8.5905492327275287e-05 -0.00043428173609410284 0 0.00013104691094105052 -0.00041089610655957546 0 0.0001126501848511713 -0.00031839877188124811 0 0.00017959529556536575 -0.0003853215955390284 0 0.0001126501848511713 -0.00031839877188124811 0 0.00017959529556536575 -0.0003853215955390284 0 0.00018214493968646907 -0.00029244394130073688 0 0.0002245302341375381 -0.00032864029816143597 0 0.00022366893864503361 -0.00029731416850874674 0 0.0001126501848511713 -0.00031839877188124811 0 0.00018214493968646907 -0.00029244394130073688 0 0.0001217515003208088 -0.00025570678836047187 0 0.00013256032341985561 -0.00024443950290730054 0 0.00022366893864503361 -0.00029731416850874674 0 7.3753108704876681e-05 -0.00026654732078630828 0 0.0001126501848511713 -0.00031839877188124811 0 0.0001217515003208088 -0.00025570678836047187 0 0.00028944412448682881 -0.00035872351615027842 0 0.00028867049122534728 -0.00035982805174129617 0 0.00028839340726716369 -0.0003570675779068061 0 0.00026299359221189231 -0.0002964568900403884 0 0.00022366893864503361 -0.00029731416850874674 0 0.00028734392338389004 -0.00036001412158545522 0 0.00028867049122534728 -0.00035982805174129617 0 0.00028839340726716369 -0.0003570675779068061 0 0.0002756897270147768 -0.00036312723947556772 0 0.00026740794321064034 -0.00035864152044764812 0 0.00028394414243754223 -0.0003585139453988828 0 0.00028734392338389004 -0.00036001412158545522 0 0.00028839340726716369 -0.0003570675779068061 0 0.00028394414243754223 -0.0003585139453988828 0 0.00022366893864503361 -0.00029731416850874674 0 0.00030334585511016963 -0.00037318226274844437 0 0.00029171522260026879 -0.00036079979252507001 0 0.00028394414243754223 -0.0003585139453988828 0 0.00029491814131552924 -0.00035794811549674793 0 0.00029171522260026879 -0.00036079979252507001 0 0.0002988898119228311 -0.00035836754710320042 0 0.00029491814131552924 -0.00035794811549674793 0 0.00034017376784505152 -0.00037162410116592701 0 0.0002671611164598296 -0.00036510360906805758 0 0.00029491814131552924 -0.00035794811549674793 0 0.0002671611164598296 -0.00036510360906805758 0 0.00028394414243754223 -0.0003585139453988828 0 0.00029491814131552924 -0.00035794811549674793 0 0.00026462756456203522 -0.00035844504497424589 0 0.0002245302341375381 -0.00032864029816143597 0 0.0002671611164598296 -0.00036510360906805758 0 0.0002756897270147768 -0.00036312723947556772 0 0.00028394414243754223 -0.0003585139453988828 0 6.1203024215977751e-05 -0.001666410031736126 0 2.0649128607222089e-05 -0.0016603650438276787 0 6.9010741761826771e-05 -0.0016333823769598653 0 6.1203024215977751e-05 -0.001666410031736126 0 5.6565254846313572e-05 -0.0017044049448384428 0 2.0649128607222089e-05 -0.0016603650438276787 0 6.1203024215977751e-05 -0.001666410031736126 0 0.00011878621347663157 -0.0016610521983490458 0 6.9010741761826771e-05 -0.0016333823769598653 0 6.1203024215977751e-05 -0.001666410031736126 0 0.00011878621347663157 -0.0016610521983490458 0 5.6565254846313572e-05 -0.0017044049448384428 0 0.00011878621347663157 -0.0016610521983490458 0 5.6565254846313572e-05 -0.0017044049448384428 0 0.00012098901494168182 -0.0017148607798708969 0 -1.682770301441586e-05 -0.0024359613210187124 0 -2.4386683049971473e-05 -0.0024289765045158356 0 -9.3221733188409976e-05 -0.0031639879752128407 0 -1.3204509481865148e-05 -0.0031983564768228129 0 -1.3302309712691321e-05 -0.0031299813096465458 0 1.4169733822572412e-05 -0.0031641658848685019 0 -1.3204509481865148e-05 -0.0031983564768228129 0 3.3085983232669191e-05 -0.003198627597207588 0 1.4169733822572412e-05 -0.0031641658848685019 0 -1.3204509481865148e-05 -0.0031983564768228129 0 -1.3302309712691321e-05 -0.0031299813096465458 0 -1.3204509481865148e-05 -0.0031983564768228129 0 5.0080906349723837e-05 -0.0032283191317904335 0 3.3085983232669191e-05 -0.003198627597207588 0 -1.7420543176528891e-05 -0.0016677172689024131 0 -1.1121225342842089e-05 -0.0016556687723816525 0 -4.2779495782674238e-05 -0.0016704135394590861 0 -1.0388125980199726e-05 -0.001683562302537912 0 -1.7420543176528891e-05 -0.0016677172689024131 0 -4.2779495782674238e-05 -0.0016704135394590861 0 -2.4386683049971473e-05 -0.0024289765045158356 0 5.1752654527899621e-05 -0.0025141728360493719 0 -1.0388125980199726e-05 -0.001683562302537912 0 -1.7420543176528891e-05 -0.0016677172689024131 0 -1.1177138421480021e-05 -0.0016620244188399892 0 -1.7420543176528891e-05 -0.0016677172689024131 0 -1.1177138421480021e-05 -0.0016620244188399892 0 -1.1121225342842089e-05 -0.0016556687723816525 0 5.6565254846313572e-05 -0.0017044049448384428 0 -1.0388125980199726e-05 -0.001683562302537912 0 2.0649128607222089e-05 -0.0016603650438276787 0 -1.1177138421480021e-05 -0.0016620244188399892 0 2.0649128607222089e-05 -0.0016603650438276787 0 -4.1328402864257758e-06 -0.0016475470580605538 0 -1.0388125980199726e-05 -0.001683562302537912 0 -1.1177138421480021e-05 -0.0016620244188399892 0 2.0649128607222089e-05 -0.0016603650438276787 0 2.0649128607222089e-05 -0.0016603650438276787 0 -4.1328402864257758e-06 -0.0016475470580605538 0 2.3007545793345664e-05 -0.0016223120423968108 0 -1.1177138421480021e-05 -0.0016620244188399892 0 -4.1328402864257758e-06 -0.0016475470580605538 0 -3.4215978385287782e-05 -0.0016652961378233215 0 -4.1328402864257758e-06 -0.0016475470580605538 0 -1.924700063378953e-05 -0.0016359387350800582 0 -3.4215978385287782e-05 -0.0016652961378233215 0 -4.1328402864257758e-06 -0.0016475470580605538 0 -5.7111430599676757e-06 -0.0016234486567819073 0 -1.924700063378953e-05 -0.0016359387350800582 0 -5.7111430599676757e-06 -0.0016234486567819073 0 -2.5004870130425191e-05 -0.0016137285723440706 0 -6.0905402549276655e-06 -0.001590527886774217 0 -1.924700063378953e-05 -0.0016359387350800582 0 -3.4215978385287782e-05 -0.0016652961378233215 0 -3.2714452930490767e-05 -0.0016320592326740954 0 -1.924700063378953e-05 -0.0016359387350800582 0 -2.5004870130425191e-05 -0.0016137285723440706 0 -3.2714452930490767e-05 -0.0016320592326740954 0 -5.7111430599676757e-06 -0.0016234486567819073 0 -1.924700063378953e-05 -0.0016359387350800582 0 -2.5004870130425191e-05 -0.0016137285723440706 0 -4.1328402864257758e-06 -0.0016475470580605538 0 -5.7111430599676757e-06 -0.0016234486567819073 0 2.3007545793345664e-05 -0.0016223120423968108 0 -5.7111430599676757e-06 -0.0016234486567819073 0 2.3007545793345664e-05 -0.0016223120423968108 0 -6.0905402549276655e-06 -0.001590527886774217 0 5.7679459712641145e-05 -0.0015409340935955687 0 5.1752654527899621e-05 -0.0025141728360493719 0 -1.1121225342842089e-05 -0.0016556687723816525 0 0.00012673836849735046 -0.0017502502495470201 0 0.00018968840072748272 -0.001688697698978944 0 -1.1121225342842089e-05 -0.0016556687723816525 0 -3.4215978385287782e-05 -0.0016652961378233215 0 0.00012673836849735046 -0.0017502502495470201 0 -1.1177138421480021e-05 -0.0016620244188399892 0 -1.1121225342842089e-05 -0.0016556687723816525 0 -3.4215978385287782e-05 -0.0016652961378233215 0 -3.4215978385287782e-05 -0.0016652961378233215 0 -9.5745979618543604e-05 -0.0015918189979564866 0 -5.0958597860934563e-05 -0.0016119042960845201 0 -3.4215978385287782e-05 -0.0016652961378233215 0 -3.2714452930490767e-05 -0.0016320592326740954 0 -5.0958597860934563e-05 -0.0016119042960845201 0 -2.5004870130425191e-05 -0.0016137285723440706 0 -3.2714452930490767e-05 -0.0016320592326740954 0 -5.0958597860934563e-05 -0.0016119042960845201 0 -2.6937512921985182e-05 -0.0016772731389082828 0 -1.8424755000018158e-06 -0.0017821064734561997 0 -3.4215978385287782e-05 -0.0016652961378233215 0 0.00012673836849735046 -0.0017502502495470201 0 0.0001404677402702392 -0.0019294138916118077 0 -9.5745979618543604e-05 -0.0015918189979564866 0 -6.3345690159001479e-05 -0.0015928490975847128 0 -5.0958597860934563e-05 -0.0016119042960845201 0 -9.5745979618543604e-05 -0.0015918189979564866 0 -6.3345690159001479e-05 -0.0015928490975847128 0 -6.7861717605879361e-05 -0.0015756896708695608 0 -3.9329494346101613e-05 -0.0015921567350823398 0 -6.7861717605879361e-05 -0.0015756896708695608 0 -2.7457332356309786e-05 -0.0015701194439216759 0 -6.3345690159001479e-05 -0.0015928490975847128 0 -3.9329494346101613e-05 -0.0015921567350823398 0 -6.7861717605879361e-05 -0.0015756896708695608 0 -6.3345690159001479e-05 -0.0015928490975847128 0 -5.0958597860934563e-05 -0.0016119042960845201 0 -3.9329494346101613e-05 -0.0015921567350823398 0 -2.5004870130425191e-05 -0.0016137285723440706 0 -5.0958597860934563e-05 -0.0016119042960845201 0 -3.9329494346101613e-05 -0.0015921567350823398 0 -6.7861717605879361e-05 -0.0015756896708695608 0 -2.7457332356309786e-05 -0.0015701194439216759 0 -6.0470215721983952e-05 -0.0015384131838931114 0 -2.7457332356309786e-05 -0.0015701194439216759 0 -6.0470215721983952e-05 -0.0015384131838931114 0 -2.5200223034921575e-05 -0.0015408471591587538 0 -6.7861717605879361e-05 -0.0015756896708695608 0 -0.00011602616239076406 -0.0015687855044916466 0 -6.0470215721983952e-05 -0.0015384131838931114 0 -9.5745979618543604e-05 -0.0015918189979564866 0 -6.7861717605879361e-05 -0.0015756896708695608 0 -0.00011602616239076406 -0.0015687855044916466 0 2.3007545793345664e-05 -0.0016223120423968108 0 -6.0905402549276655e-06 -0.001590527886774217 0 2.8528194127246913e-05 -0.0015800165287341303 0 -6.0905402549276655e-06 -0.001590527886774217 0 -2.0190639093380506e-06 -0.0015593041311756117 0 2.8528194127246913e-05 -0.0015800165287341303 0 -2.5004870130425191e-05 -0.0016137285723440706 0 -3.9329494346101613e-05 -0.0015921567350823398 0 -6.0905402549276655e-06 -0.001590527886774217 0 -3.9329494346101613e-05 -0.0015921567350823398 0 -6.0905402549276655e-06 -0.001590527886774217 0 -2.7457332356309786e-05 -0.0015701194439216759 0 -6.0905402549276655e-06 -0.001590527886774217 0 -2.7457332356309786e-05 -0.0015701194439216759 0 -2.0190639093380506e-06 -0.0015593041311756117 0 -2.7457332356309786e-05 -0.0015701194439216759 0 -2.0190639093380506e-06 -0.0015593041311756117 0 -2.5200223034921575e-05 -0.0015408471591587538 0 -2.0190639093380506e-06 -0.0015593041311756117 0 2.5473021587384595e-05 -0.0015510919838077359 0 2.8528194127246913e-05 -0.0015800165287341303 0 -2.0190639093380506e-06 -0.0015593041311756117 0 2.5473021587384595e-05 -0.0015510919838077359 0 2.9154729400975367e-06 -0.0015316762426245052 0 2.5473021587384595e-05 -0.0015510919838077359 0 6.6852105893393083e-05 -0.0015528266365476017 0 2.8528194127246913e-05 -0.0015800165287341303 0 6.6852105893393083e-05 -0.0015528266365476017 0 2.8528194127246913e-05 -0.0015800165287341303 0 5.9830485892084666e-05 -0.0015981871057102778 0 2.3007545793345664e-05 -0.0016223120423968108 0 2.8528194127246913e-05 -0.0015800165287341303 0 5.9830485892084666e-05 -0.0015981871057102778 0 2.0649128607222089e-05 -0.0016603650438276787 0 2.3007545793345664e-05 -0.0016223120423968108 0 6.9010741761826771e-05 -0.0016333823769598653 0 2.3007545793345664e-05 -0.0016223120423968108 0 5.9830485892084666e-05 -0.0015981871057102778 0 6.9010741761826771e-05 -0.0016333823769598653 0 5.9830485892084666e-05 -0.0015981871057102778 0 6.9010741761826771e-05 -0.0016333823769598653 0 0.00011735495514359413 -0.0015925160328796404 0 0.00011878621347663157 -0.0016610521983490458 0 6.9010741761826771e-05 -0.0016333823769598653 0 0.00011735495514359413 -0.0015925160328796404 0 6.6852105893393083e-05 -0.0015528266365476017 0 0.00011735495514359413 -0.0015925160328796404 0 0.00011805077025808222 -0.001516472715821958 0 6.6852105893393083e-05 -0.0015528266365476017 0 5.9830485892084666e-05 -0.0015981871057102778 0 0.00011735495514359413 -0.0015925160328796404 0 0.00011735495514359413 -0.0015925160328796404 0 0.00019395721859228525 -0.0015519639050375858 0 0.00011805077025808222 -0.001516472715821958 0 0.00011735495514359413 -0.0015925160328796404 0 0.00019395721859228525 -0.0015519639050375858 0 0.00016876695479651512 -0.0016061045894537925 0 0.00016876695479651512 -0.0016061045894537925 0 0.00021570941246003327 -0.0015928451283965138 0 0.00018397628290075136 -0.0016316646510498955 0 0.00019395721859228525 -0.0015519639050375858 0 0.00016876695479651512 -0.0016061045894537925 0 0.00021570941246003327 -0.0015928451283965138 0 0.00011878621347663157 -0.0016610521983490458 0 0.00011735495514359413 -0.0015925160328796404 0 0.00016876695479651512 -0.0016061045894537925 0 0.00024633138535285149 -0.0015844810686452527 0 0.00021570941246003327 -0.0015928451283965138 0 0.00022686056943840149 -0.0015494614020621349 0 0.0002523070447096712 -0.0016159803991739928 0 0.0002233784835712412 -0.0014592034024957193 0 0.00019395721859228525 -0.0015519639050375858 0 0.00021570941246003327 -0.0015928451283965138 0 0.00022686056943840149 -0.0015494614020621349 0 0.00024633138535285149 -0.0015844810686452527 0 0.00021570941246003327 -0.0015928451283965138 0 0.00024667834004104232 -0.0016152075485207651 0 0.00021570941246003327 -0.0015928451283965138 0 0.00024667834004104232 -0.0016152075485207651 0 0.00022090408765765393 -0.0016378920237616554 0 0.00021570941246003327 -0.0015928451283965138 0 0.00022090408765765393 -0.0016378920237616554 0 0.00018397628290075136 -0.0016316646510498955 0 0.00022090408765765393 -0.0016378920237616554 0 0.00018384842486894002 -0.0016784888133689142 0 0.00023224074904157509 -0.0016682330962949419 0 0.00022090408765765393 -0.0016378920237616554 0 0.00018397628290075136 -0.0016316646510498955 0 0.00018384842486894002 -0.0016784888133689142 0 0.00024667834004104232 -0.0016152075485207651 0 0.00022090408765765393 -0.0016378920237616554 0 0.0002476786707383765 -0.001640369770743569 0 0.00022090408765765393 -0.0016378920237616554 0 0.0002476786707383765 -0.001640369770743569 0 0.00023224074904157509 -0.0016682330962949419 0 0.00011878621347663157 -0.0016610521983490458 0 0.00016876695479651512 -0.0016061045894537925 0 0.00018397628290075136 -0.0016316646510498955 0 0.00011878621347663157 -0.0016610521983490458 0 0.00018397628290075136 -0.0016316646510498955 0 0.00018384842486894002 -0.0016784888133689142 0 0.00011878621347663157 -0.0016610521983490458 0 0.00018384842486894002 -0.0016784888133689142 0 0.00012098901494168182 -0.0017148607798708969 0 -3.3483343282941282e-05 -0.0024110227534373625 0 -7.84943778550792e-05 -0.0024321684088458679 0 0.00018384842486894002 -0.0016784888133689142 0 0.00017258602779471793 -0.0017289086992316439 0 0.00020480574128077018 -0.0017081650942085726 0 0.00018384842486894002 -0.0016784888133689142 0 0.00012098901494168182 -0.0017148607798708969 0 0.00017258602779471793 -0.0017289086992316439 0 -0.00028945893203640116 -0.003061024128898198 0 -0.00021483673695136914 -0.0030325737869247422 0 -0.00027145385465061509 -0.0030005031631001422 0 -0.00019010487343113235 -0.0031183339460128397 0 -0.00028945893203640116 -0.003061024128898198 0 -0.00021483673695136914 -0.0030325737869247422 0 0.00026444779363261217 -0.0016488096317004884 0 0.0002476786707383765 -0.001640369770743569 0 0.00023224074904157509 -0.0016682330962949419 0 0.00025495665113322799 -0.0016842855679537804 0 0.00026444779363261217 -0.0016488096317004884 0 0.00023224074904157509 -0.0016682330962949419 0 0.00018384842486894002 -0.0016784888133689142 0 0.00023224074904157509 -0.0016682330962949419 0 0.00020480574128077018 -0.0017081650942085726 0 -0.00028945893203640116 -0.003061024128898198 0 -0.00037876001425825903 -0.0030031525981018665 0 -0.0003189306241993196 -0.0029826792551265651 0 0.00017258602779471793 -0.0017289086992316439 0 0.00020480574128077018 -0.0017081650942085726 0 0.00024015046074429548 -0.0017708534940948624 0 0.00023224074904157509 -0.0016682330962949419 0 0.00020480574128077018 -0.0017081650942085726 0 0.00024015046074429548 -0.0017708534940948624 0 -7.84943778550792e-05 -0.0024321684088458679 0 8.8660065277786887e-05 -0.0021016250325320545 0 0.00025495665113322799 -0.0016842855679537804 0 0.00023224074904157509 -0.0016682330962949419 0 0.00023603331126647911 -0.0016986646854991448 0 0.00027157541089777043 -0.0015120011174030179 0 8.8660065277786887e-05 -0.0021016250325320545 0 0.00013967205522673145 -0.0021708603673530448 0 -9.6448326424070603e-06 -0.0020104610034674909 0 -9.4263726158169696e-07 -0.0022580427663783163 0 8.8660065277786887e-05 -0.0021016250325320545 0 -0.00018193684905906332 -0.0025810942104862998 0 -0.00037876001425825903 -0.0030031525981018665 0 -0.00035775604779178218 -0.0029759866752661242 0 -0.00038041081903351118 -0.0029476656911534417 0 0.00016786126940919856 -0.0018881077982620762 0 -0.00018193684905906332 -0.0025810942104862998 0 0.00024985178182392314 -0.0017100183102925584 0 0.00016786126940919856 -0.0018881077982620762 0 0.00016786126940919856 -0.0018881077982620762 0 0.00022663044396057513 -0.001790689033064045 0 0.00022847162837394733 -0.0017758873214115719 0 0.00020408478051141434 -0.0017910330629112769 0 0.00021096506947828171 -0.0017667652968059906 0 0.00024985178182392314 -0.0017100183102925584 0 0.00022663044396057513 -0.001790689033064045 0 0.00025495665113322799 -0.0016842855679537804 0 0.00024983542201576371 -0.0017063086748992198 0 0.00023603331126647911 -0.0016986646854991448 0 0.00022663044396057513 -0.001790689033064045 0 8.8660065277786887e-05 -0.0021016250325320545 0 0.00013967205522673145 -0.0021708603673530448 0 0.00015986538110408685 -0.002099159366266052 0 -9.6448326424070603e-06 -0.0020104610034674909 0 -0.00035775604779178218 -0.0029759866752661242 0 -0.0003189306241993196 -0.0029826792551265651 0 -0.00031995827642182945 -0.0029107836352581305 0 -0.00037876001425825903 -0.0030031525981018665 0 -0.00035775604779178218 -0.0029759866752661242 0 -0.0003189306241993196 -0.0029826792551265651 0 -0.00033714494894142625 -0.0028897878544077368 0 -0.00018193684905906332 -0.0025810942104862998 0 -0.00027080102645210628 -0.0027957262855905604 0 -0.00028553750068255606 -0.0027914290417406507 0 -0.00029051784679854866 -0.0027960480544136253 0 -0.00035775604779178218 -0.0029759866752661242 0 -0.00031995827642182945 -0.0029107836352581305 0 -0.00038041081903351118 -0.0029476656911534417 0 -0.00027080102645210628 -0.0027957262855905604 0 -0.00028553750068255606 -0.0027914290417406507 0 -0.00028159106178378239 -0.0027808030723944508 0 3.6811448900589041e-05 -0.0012395363279725732 0 2.4077580939565493e-05 -0.0012404083137131229 0 2.4740889247348781e-05 -0.001238218605811625 0 -0.00018193684905906332 -0.0025810942104862998 0 -7.9139195937299238e-05 -0.002114469585691539 0 -0.00028553750068255606 -0.0027914290417406507 0 -0.00029051784679854866 -0.0027960480544136253 0 -0.00028952164962333868 -0.0027893929192601401 0 -0.00028553750068255606 -0.0027914290417406507 0 -0.00028952164962333868 -0.0027893929192601401 0 -0.00028948636132593698 -0.002787539394571428 0 -1.1664589107725577e-05 -0.0020905940447422549 0 -1.034020954712638e-05 -0.0021281039875204817 0 8.6400380673522289e-06 -0.0021273327040852801 0 -0.00014018733895829262 -0.0023229621842762102 0 -9.2385092057889134e-05 -0.002134134444574446 0 -0.00028553750068255606 -0.0027914290417406507 0 -0.00029378947173765282 -0.0027881012282479243 0 -0.00028865443881463811 -0.0027833240065938442 0 1.6034206597606752e-05 -0.0019723949365330474 0 -3.1461857835155533e-05 -0.0019572955833802265 0 2.6738535348996443e-05 -0.0019344796112443282 0 -2.7997180490426559e-05 -0.0016257283881560035 0 -9.2385092057889134e-05 -0.002134134444574446 0 -7.9139195937299238e-05 -0.002114469585691539 0 -9.2385092057889134e-05 -0.002134134444574446 0 -7.9139195937299238e-05 -0.002114469585691539 0 3.7293632322783012e-05 -0.0017758348529752564 0 -3.2303358769318113e-05 -0.0019363448942065801 0 -3.1461857835155533e-05 -0.0019572955833802265 0 2.6738535348996443e-05 -0.0019344796112443282 0 -2.7997180490426559e-05 -0.0016257283881560035 0 3.7293632322783012e-05 -0.0017758348529752564 0 2.6986169848417021e-05 -0.0020668214295112971 0 -1.1664589107725577e-05 -0.0020905940447422549 0 8.6400380673522289e-06 -0.0021273327040852801 0 0.00021025362880555784 -0.0015614031189401551 0 0.00019860866626810004 -0.0015542441449867596 0 0.00018843827149496841 -0.0015873415051107418 0 0.00021757422029641262 -0.0015710747401031647 0 0.00021025362880555784 -0.0015614031189401551 0 0.00018843827149496841 -0.0015873415051107418 0 0.00016786126940919856 -0.0018881077982620762 0 3.7293632322783012e-05 -0.0017758348529752564 0 -0.00021483673695136914 -0.0030325737869247422 0 -0.00027145385465061509 -0.0030005031631001422 0 -0.00023517362419627727 -0.0029541620165861623 0 -0.00021483673695136914 -0.0030325737869247422 0 -0.00023517362419627727 -0.0029541620165861623 0 -0.00017021122591887654 -0.0029832608390864945 0 -0.00028945893203640116 -0.003061024128898198 0 -0.0003189306241993196 -0.0029826792551265651 0 -0.00027145385465061509 -0.0030005031631001422 0 -0.0003189306241993196 -0.0029826792551265651 0 -0.00027145385465061509 -0.0030005031631001422 0 -0.00028531553380320971 -0.0029445176273788279 0 -0.00027145385465061509 -0.0030005031631001422 0 -0.00028531553380320971 -0.0029445176273788279 0 -0.00023517362419627727 -0.0029541620165861623 0 -0.00031995827642182945 -0.0029107836352581305 0 -0.00028531553380320971 -0.0029445176273788279 0 -0.00025947660049208387 -0.0028647976577355805 0 -0.00028531553380320971 -0.0029445176273788279 0 -0.00023517362419627727 -0.0029541620165861623 0 -0.00025947660049208387 -0.0028647976577355805 0 -0.0003189306241993196 -0.0029826792551265651 0 -0.00031995827642182945 -0.0029107836352581305 0 -0.00028531553380320971 -0.0029445176273788279 0 -0.00023517362419627727 -0.0029541620165861623 0 -0.00017021122591887654 -0.0029832608390864945 0 -0.00019159343760362228 -0.0028926430063178419 0 -0.00023517362419627727 -0.0029541620165861623 0 -0.00019159343760362228 -0.0028926430063178419 0 -0.00025947660049208387 -0.0028647976577355805 0 -0.00013158419309803837 -0.0029329292188000921 0 -0.00017021122591887654 -0.0029832608390864945 0 -0.00019159343760362228 -0.0028926430063178419 0 -0.00013158419309803837 -0.0029329292188000921 0 -7.9092352779726256e-05 -0.0029485225205170907 0 -0.00010013253839083084 -0.0030049192110110155 0 -7.9092352779726256e-05 -0.0029485225205170907 0 -4.6680220246991713e-05 -0.0029105290512824529 0 -9.1502946820511661e-05 -0.0028874343876195692 0 -0.00013158419309803837 -0.0029329292188000921 0 -7.9092352779726256e-05 -0.0029485225205170907 0 -9.1502946820511661e-05 -0.0028874343876195692 0 -0.00010013253839083084 -0.0030049192110110155 0 -5.5091524748774467e-05 -0.003030958515677573 0 -5.0032468038430859e-05 -0.0029923552155271716 0 -7.9092352779726256e-05 -0.0029485225205170907 0 -0.00010013253839083084 -0.0030049192110110155 0 -5.0032468038430859e-05 -0.0029923552155271716 0 -0.00010013253839083084 -0.0030049192110110155 0 -7.5965600116277359e-05 -0.0030625653370772435 0 -5.5091524748774467e-05 -0.003030958515677573 0 -0.00013158419309803837 -0.0029329292188000921 0 -0.00010013253839083084 -0.0030049192110110155 0 -0.00017021122591887654 -0.0029832608390864945 0 -0.00010013253839083084 -0.0030049192110110155 0 -0.00017021122591887654 -0.0029832608390864945 0 -0.00013315038543659224 -0.0030761390116375758 0 -0.00019010487343113235 -0.0031183339460128397 0 -0.00021483673695136914 -0.0030325737869247422 0 -0.00013315038543659224 -0.0030761390116375758 0 -0.00021483673695136914 -0.0030325737869247422 0 -0.00017021122591887654 -0.0029832608390864945 0 -0.00013315038543659224 -0.0030761390116375758 0 -0.00010013253839083084 -0.0030049192110110155 0 -0.00013315038543659224 -0.0030761390116375758 0 -7.5965600116277359e-05 -0.0030625653370772435 0 -0.00013315038543659224 -0.0030761390116375758 0 -7.5965600116277359e-05 -0.0030625653370772435 0 -6.6022153637523438e-05 -0.0031065221538932181 0 -9.3221733188409976e-05 -0.0031639879752128407 0 -0.00013315038543659224 -0.0030761390116375758 0 -6.6022153637523438e-05 -0.0031065221538932181 0 -9.3221733188409976e-05 -0.0031639879752128407 0 -0.00019010487343113235 -0.0031183339460128397 0 -0.00013315038543659224 -0.0030761390116375758 0 -1.682770301441586e-05 -0.0024359613210187124 0 -3.3483343282941282e-05 -0.0024110227534373625 0 1.4169733822572412e-05 -0.0031641658848685019 0 -1.3302309712691321e-05 -0.0031299813096465458 0 5.1264524586043234e-05 -0.0031026568457804657 0 -6.6022153637523438e-05 -0.0031065221538932181 0 -1.3302309712691321e-05 -0.0031299813096465458 0 -3.2872252252759479e-05 -0.0030750825352496812 0 -9.3221733188409976e-05 -0.0031639879752128407 0 -6.6022153637523438e-05 -0.0031065221538932181 0 -1.3302309712691321e-05 -0.0031299813096465458 0 -7.5965600116277359e-05 -0.0030625653370772435 0 -6.6022153637523438e-05 -0.0031065221538932181 0 -3.2872252252759479e-05 -0.0030750825352496812 0 -7.5965600116277359e-05 -0.0030625653370772435 0 -3.2872252252759479e-05 -0.0030750825352496812 0 -5.5091524748774467e-05 -0.003030958515677573 0 -1.3302309712691321e-05 -0.0031299813096465458 0 -3.2872252252759479e-05 -0.0030750825352496812 0 1.7205823970773419e-05 -0.0030769207440769519 0 -1.3302309712691321e-05 -0.0031299813096465458 0 1.7205823970773419e-05 -0.0030769207440769519 0 5.1264524586043234e-05 -0.0031026568457804657 0 -3.2872252252759479e-05 -0.0030750825352496812 0 1.7205823970773419e-05 -0.0030769207440769519 0 -1.0709296790338256e-05 -0.0030376072392121448 0 1.7205823970773419e-05 -0.0030769207440769519 0 2.6001538510816171e-05 -0.003047952681828258 0 5.1817059836079297e-05 -0.003037102347326113 0 2.6001538510816171e-05 -0.003047952681828258 0 4.159334346324084e-05 -0.0030411083626747789 0 5.1817059836079297e-05 -0.003037102347326113 0 2.6001538510816171e-05 -0.003047952681828258 0 4.159334346324084e-05 -0.0030411083626747789 0 2.8387198195004721e-05 -0.0030304467996574696 0 2.6001538510816171e-05 -0.003047952681828258 0 8.4961239204332034e-06 -0.0030262246805363201 0 -1.0709296790338256e-05 -0.0030376072392121448 0 1.7205823970773419e-05 -0.0030769207440769519 0 2.6001538510816171e-05 -0.003047952681828258 0 -1.0709296790338256e-05 -0.0030376072392121448 0 8.4961239204332034e-06 -0.0030262246805363201 0 -1.0709296790338256e-05 -0.0030376072392121448 0 -1.1978023835742541e-05 -0.0030004118046113729 0 2.6001538510816171e-05 -0.003047952681828258 0 8.4961239204332034e-06 -0.0030262246805363201 0 2.8387198195004721e-05 -0.0030304467996574696 0 8.4961239204332034e-06 -0.0030262246805363201 0 7.6613332257439664e-06 -0.0030036779909264994 0 -1.1978023835742541e-05 -0.0030004118046113729 0 8.4961239204332034e-06 -0.0030262246805363201 0 7.6613332257439664e-06 -0.0030036779909264994 0 2.8387198195004721e-05 -0.0030304467996574696 0 7.6613332257439664e-06 -0.0030036779909264994 0 2.8387198195004721e-05 -0.0030304467996574696 0 2.7723301819431158e-05 -0.0030071123675024813 0 4.7901737507181892e-05 -0.0030297388198892564 0 2.8387198195004721e-05 -0.0030304467996574696 0 2.7723301819431158e-05 -0.0030071123675024813 0 4.7901737507181892e-05 -0.0030297388198892564 0 4.8176324217220936e-05 -0.0030113954224031433 0 2.7723301819431158e-05 -0.0030071123675024813 0 4.7901737507181892e-05 -0.0030297388198892564 0 4.8176324217220936e-05 -0.0030113954224031433 0 7.671883645245509e-05 -0.0030347157159940417 0 4.7901737507181892e-05 -0.0030297388198892564 0 4.159334346324084e-05 -0.0030411083626747789 0 2.8387198195004721e-05 -0.0030304467996574696 0 -2.4261290157199862e-05 -0.0034389206833926808 0 -0.00022372549202845683 -0.0035881174098347417 0 4.7901737507181892e-05 -0.0030297388198892564 0 4.159334346324084e-05 -0.0030411083626747789 0 7.0375572329624505e-05 -0.0030453880092692009 0 -5.5091524748774467e-05 -0.003030958515677573 0 -1.0709296790338256e-05 -0.0030376072392121448 0 -5.0032468038430859e-05 -0.0029923552155271716 0 -3.2872252252759479e-05 -0.0030750825352496812 0 -5.5091524748774467e-05 -0.003030958515677573 0 -1.0709296790338256e-05 -0.0030376072392121448 0 -1.0709296790338256e-05 -0.0030376072392121448 0 -1.1978023835742541e-05 -0.0030004118046113729 0 -5.0032468038430859e-05 -0.0029923552155271716 0 -7.9092352779726256e-05 -0.0029485225205170907 0 -5.0032468038430859e-05 -0.0029923552155271716 0 -2.5216651394826727e-05 -0.0029557730967069689 0 -1.1978023835742541e-05 -0.0030004118046113729 0 -5.0032468038430859e-05 -0.0029923552155271716 0 -2.5216651394826727e-05 -0.0029557730967069689 0 -1.1978023835742541e-05 -0.0030004118046113729 0 -2.5216651394826727e-05 -0.0029557730967069689 0 2.358236578062235e-06 -0.002978584391841026 0 -2.5216651394826727e-05 -0.0029557730967069689 0 4.1163301804593109e-06 -0.0029065884916472683 0 -4.6680220246991713e-05 -0.0029105290512824529 0 -2.5216651394826727e-05 -0.0029557730967069689 0 1.1469611689163271e-05 -0.0029531688178969519 0 4.1163301804593109e-06 -0.0029065884916472683 0 -7.9092352779726256e-05 -0.0029485225205170907 0 -2.5216651394826727e-05 -0.0029557730967069689 0 -4.6680220246991713e-05 -0.0029105290512824529 0 3.2928858103819887e-05 -0.0029844935244365809 0 4.8176324217220936e-05 -0.0030113954224031433 0 6.0711441566691403e-05 -0.0030056846966717032 0 3.2928858103819887e-05 -0.0029844935244365809 0 4.8176324217220936e-05 -0.0030113954224031433 0 2.7723301819431158e-05 -0.0030071123675024813 0 3.2928858103819887e-05 -0.0029844935244365809 0 2.358236578062235e-06 -0.002978584391841026 0 1.1469611689163271e-05 -0.0029531688178969519 0 7.6613332257439664e-06 -0.0030036779909264994 0 2.7723301819431158e-05 -0.0030071123675024813 0 2.358236578062235e-06 -0.002978584391841026 0 3.2928858103819887e-05 -0.0029844935244365809 0 2.7723301819431158e-05 -0.0030071123675024813 0 2.358236578062235e-06 -0.002978584391841026 0 7.6613332257439664e-06 -0.0030036779909264994 0 -1.1978023835742541e-05 -0.0030004118046113729 0 2.358236578062235e-06 -0.002978584391841026 0 1.1469611689163271e-05 -0.0029531688178969519 0 4.7425489667475473e-05 -0.0029572492610141642 0 4.1163301804593109e-06 -0.0029065884916472683 0 -2.5216651394826727e-05 -0.0029557730967069689 0 2.358236578062235e-06 -0.002978584391841026 0 1.1469611689163271e-05 -0.0029531688178969519 0 3.2928858103819887e-05 -0.0029844935244365809 0 1.1469611689163271e-05 -0.0029531688178969519 0 4.7425489667475473e-05 -0.0029572492610141642 0 3.2928858103819887e-05 -0.0029844935244365809 0 4.7425489667475473e-05 -0.0029572492610141642 0 6.0711441566691403e-05 -0.0030056846966717032 0 4.7425489667475473e-05 -0.0029572492610141642 0 5.7926004761621098e-05 -0.0029006742271568782 0 4.1163301804593109e-06 -0.0029065884916472683 0 5.7926004761621098e-05 -0.0029006742271568782 0 1.7575102960898325e-05 -0.0028489003152912511 0 6.9477739701326354e-05 -0.0028205648588054046 0 5.7926004761621098e-05 -0.0029006742271568782 0 4.1163301804593109e-06 -0.0029065884916472683 0 1.7575102960898325e-05 -0.0028489003152912511 0 6.9477739701326354e-05 -0.0028205648588054046 0 -4.8941003834474389e-06 -0.0027870849846266632 0 6.9588945259396796e-06 -0.0027019987019044323 0 1.7575102960898325e-05 -0.0028489003152912511 0 6.9477739701326354e-05 -0.0028205648588054046 0 -4.8941003834474389e-06 -0.0027870849846266632 0 -4.8941003834474389e-06 -0.0027870849846266632 0 -4.1297514155022642e-05 -0.0028442513185016408 0 -6.7608361105572277e-05 -0.0027457792327488873 0 1.7575102960898325e-05 -0.0028489003152912511 0 -4.8941003834474389e-06 -0.0027870849846266632 0 -4.1297514155022642e-05 -0.0028442513185016408 0 4.1163301804593109e-06 -0.0029065884916472683 0 1.7575102960898325e-05 -0.0028489003152912511 0 -4.1297514155022642e-05 -0.0028442513185016408 0 4.1163301804593109e-06 -0.0029065884916472683 0 -4.1297514155022642e-05 -0.0028442513185016408 0 -4.6680220246991713e-05 -0.0029105290512824529 0 -4.1297514155022642e-05 -0.0028442513185016408 0 -4.6680220246991713e-05 -0.0029105290512824529 0 -9.1502946820511661e-05 -0.0028874343876195692 0 -0.00013158419309803837 -0.0029329292188000921 0 -9.1502946820511661e-05 -0.0028874343876195692 0 -0.0001428874985870008 -0.002856893782300599 0 -9.1502946820511661e-05 -0.0028874343876195692 0 -0.0001428874985870008 -0.002856893782300599 0 -9.7694427029961864e-05 -0.0028285431930543904 0 -0.0001428874985870008 -0.002856893782300599 0 -0.00014204266322654551 -0.002800198735255199 0 -9.7694427029961864e-05 -0.0028285431930543904 0 -4.1297514155022642e-05 -0.0028442513185016408 0 -9.1502946820511661e-05 -0.0028874343876195692 0 -9.7694427029961864e-05 -0.0028285431930543904 0 -0.00019159343760362228 -0.0028926430063178419 0 -0.0001428874985870008 -0.002856893782300599 0 -0.00018607684566839336 -0.0027977550704762471 0 -0.00013158419309803837 -0.0029329292188000921 0 -0.00019159343760362228 -0.0028926430063178419 0 -0.0001428874985870008 -0.002856893782300599 0 -0.0001428874985870008 -0.002856893782300599 0 -0.00018607684566839336 -0.0027977550704762471 0 -0.00014204266322654551 -0.002800198735255199 0 -0.00018607684566839336 -0.0027977550704762471 0 -0.00014204266322654551 -0.002800198735255199 0 -0.00015104250841527374 -0.0027487681697918776 0 -0.00018607684566839336 -0.0027977550704762471 0 -0.00015104250841527374 -0.0027487681697918776 0 -0.00019858205472092814 -0.0027436930104072299 0 -4.1297514155022642e-05 -0.0028442513185016408 0 -9.7694427029961864e-05 -0.0028285431930543904 0 -6.7608361105572277e-05 -0.0027457792327488873 0 -0.00014204266322654551 -0.002800198735255199 0 -9.7694427029961864e-05 -0.0028285431930543904 0 -6.7608361105572277e-05 -0.0027457792327488873 0 -0.00014204266322654551 -0.002800198735255199 0 -0.00015104250841527374 -0.0027487681697918776 0 -6.7608361105572277e-05 -0.0027457792327488873 0 -6.7236448037315207e-05 -0.0027414202186504962 0 -0.00015009843157194849 -0.002624108205131986 0 -0.00015104250841527374 -0.0027487681697918776 0 -6.7608361105572277e-05 -0.0027457792327488873 0 -0.00016129498428545363 -0.0026370567567601121 0 -0.00015104250841527374 -0.0027487681697918776 0 -0.00016129498428545363 -0.0026370567567601121 0 -0.0002835142325634196 -0.0026275653450256401 0 -0.00015529950025976587 -0.0027157408391710503 0 -0.00026627716457200526 -0.0027411281295521865 0 -6.7608361105572277e-05 -0.0027457792327488873 0 -0.00013767402618127103 -0.0026302569890615944 0 -6.7304817198672546e-05 -0.0025845018554507449 0 -0.00013767402618127103 -0.0026302569890615944 0 -6.7304817198672546e-05 -0.0025845018554507449 0 -0.00010319761181527736 -0.0025064273573134079 0 -6.7304817198672546e-05 -0.0025845018554507449 0 -1.0021221861663167e-05 -0.0025843887222473964 0 -3.87761091906384e-05 -0.00265062407440595 0 -6.6455441093939314e-05 -0.002591752912709697 0 -1.7461704003144657e-05 -0.0026757285133509803 0 -1.0021221861663167e-05 -0.0025843887222473964 0 -1.592190080557343e-06 -0.0026265908290454554 0 3.4592080718594755e-05 -0.0026158337248663767 0 -1.0021221861663167e-05 -0.0025843887222473964 0 -1.592190080557343e-06 -0.0026265908290454554 0 -3.87761091906384e-05 -0.00265062407440595 0 -1.592190080557343e-06 -0.0026265908290454554 0 9.4188279597123638e-06 -0.0026634949421794679 0 3.4592080718594755e-05 -0.0026158337248663767 0 3.6490401807767544e-05 -0.0027885780060108471 0 -1.7461704003144657e-05 -0.0026757285133509803 0 -1.5762089192255173e-06 -0.0027516959981921476 0 9.4188279597123638e-06 -0.0026634949421794679 0 -3.87761091906384e-05 -0.00265062407440595 0 -1.592190080557343e-06 -0.0026265908290454554 0 9.4188279597123638e-06 -0.0026634949421794679 0 -3.87761091906384e-05 -0.00265062407440595 0 -6.7608361105572277e-05 -0.0027457792327488873 0 -6.7304817198672546e-05 -0.0025845018554507449 0 6.9588945259396796e-06 -0.0027019987019044323 0 -4.8941003834474389e-06 -0.0027870849846266632 0 -6.7608361105572277e-05 -0.0027457792327488873 0 6.9588945259396796e-06 -0.0027019987019044323 0 -0.00021589830847887901 -0.0016978489009623597 0 -0.00020752872657113568 -0.0017957414863380191 0 -0.000182543205886553 -0.0016772682064386515 0 -0.00016670855142033323 -0.0018335591397364273 0 -0.00026211698039322408 -0.0022938405329019002 0 -0.00013185646454749018 -0.0011172391356229067 0 -0.00016670855142033323 -0.0018335591397364273 0 -3.9768278944326218e-05 -0.00071279767505423174 0 -6.5668077878826593e-05 -0.00072608729668001708 0 -1.4664943686661482e-05 -0.00083474525342628312 0 -6.7417924083353506e-05 -0.00070946861691637746 0 -6.5668077878826593e-05 -0.00072608729668001708 0 -6.3420503554148763e-05 -0.00070483788169275845 0 -3.9768278944326218e-05 -0.00071279767505423174 0 -6.5668077878826593e-05 -0.00072608729668001708 0 -6.3420503554148763e-05 -0.00070483788169275845 0 -0.0001875949673093286 -0.0016713571074033851 0 -0.00021589830847887901 -0.0016978489009623597 0 -0.000182543205886553 -0.0016772682064386515 0 -8.4466996488573109e-05 -0.0010566963542072109 0 -2.7997180490426559e-05 -0.0016257283881560035 0 -0.00016060850631947728 -0.00088059047245430896 0 -3.7732831664295716e-05 -0.00092524507491236233 0 -9.3345316282277761e-05 -0.00081675273498864733 0 -6.5668077878826593e-05 -0.00072608729668001708 0 -9.3345316282277761e-05 -0.00081675273498864733 0 -1.4664943686661482e-05 -0.00083474525342628312 0 -3.7732831664295716e-05 -0.00092524507491236233 0 -9.3345316282277761e-05 -0.00081675273498864733 0 -1.4664943686661482e-05 -0.00083474525342628312 0 -9.2385092057889134e-05 -0.002134134444574446 0 -0.00016670855142033323 -0.0018335591397364273 0 -2.7997180490426559e-05 -0.0016257283881560035 0 -0.00016670855142033323 -0.0018335591397364273 0 -0.00017126663333327452 -0.0018601634716377321 0 -0.00016264231028223944 -0.0018632859149573969 0 -0.00016477032522624165 -0.001833674998005662 0 -0.00029378947173765282 -0.0027881012282479243 0 -0.00029881066095843706 -0.0027718193600401756 0 -0.00028865443881463811 -0.0027833240065938442 0 -0.00029881066095843706 -0.0027718193600401756 0 -0.00028159106178378239 -0.0027808030723944508 0 -0.00027262326090856303 -0.0027685085363297192 0 -0.00027080102645210628 -0.0027957262855905604 0 -0.00028159106178378239 -0.0027808030723944508 0 -0.00027262326090856303 -0.0027685085363297192 0 -0.00028553750068255606 -0.0027914290417406507 0 -0.00028159106178378239 -0.0027808030723944508 0 -0.00028865443881463811 -0.0027833240065938442 0 -0.00029881066095843706 -0.0027718193600401756 0 -0.00028159106178378239 -0.0027808030723944508 0 -0.00028865443881463811 -0.0027833240065938442 0 -0.00029881066095843706 -0.0027718193600401756 0 -0.00027262326090856303 -0.0027685085363297192 0 -0.00029866347985966411 -0.0027367326161045146 0 -0.00027262326090856303 -0.0027685085363297192 0 -0.00029866347985966411 -0.0027367326161045146 0 -0.00026772048464652196 -0.0027379181127557793 0 -0.00027262326090856303 -0.0027685085363297192 0 -0.00023546620617665408 -0.0027504912178777834 0 -0.00026772048464652196 -0.0027379181127557793 0 -0.00027262326090856303 -0.0027685085363297192 0 -0.00023546620617665408 -0.0027504912178777834 0 -0.0002337099434021064 -0.0027931920047106697 0 -0.00027080102645210628 -0.0027957262855905604 0 -0.00027262326090856303 -0.0027685085363297192 0 -0.0002337099434021064 -0.0027931920047106697 0 -0.00033714494894142625 -0.0028897878544077368 0 -0.00023374971726098132 -0.0028206211423782252 0 -0.00019296566028290728 -0.0028005143093998569 0 -0.00023374971726098132 -0.0028206211423782252 0 -0.00019159343760362228 -0.0028926430063178419 0 -0.00018607684566839336 -0.0027977550704762471 0 -0.00025947660049208387 -0.0028647976577355805 0 -0.00018607684566839336 -0.0027977550704762471 0 -0.00023546620617665408 -0.0027504912178777834 0 -0.0002337099434021064 -0.0027931920047106697 0 -0.00018607684566839336 -0.0027977550704762471 0 -0.00023546620617665408 -0.0027504912178777834 0 -0.00019858205472092814 -0.0027436930104072299 0 -0.00015104250841527374 -0.0027487681697918776 0 -0.00019858205472092814 -0.0027436930104072299 0 -0.00021840799377882315 -0.0026837698490562909 0 -0.00023546620617665408 -0.0027504912178777834 0 -0.00019858205472092814 -0.0027436930104072299 0 -0.00021840799377882315 -0.0026837698490562909 0 -0.00016129498428545363 -0.0026370567567601121 0 -0.0002835142325634196 -0.0026275653450256401 0 -0.00027563283817354781 -0.0025121567043359708 0 -0.00015009843157194849 -0.002624108205131986 0 -0.00024785058969776505 -0.0026008743897368521 0 -0.00026627716457200526 -0.0027411281295521865 0 -0.00016553697987903903 -0.0020583112960552426 0 -0.00021840799377882315 -0.0026837698490562909 0 -0.000258412994169735 -0.0026965703998093893 0 -0.00027857757541465284 -0.0026196576039883928 0 -0.00023546620617665408 -0.0027504912178777834 0 -0.00021840799377882315 -0.0026837698490562909 0 -0.000258412994169735 -0.0026965703998093893 0 -0.00023546620617665408 -0.0027504912178777834 0 -0.00026772048464652196 -0.0027379181127557793 0 -0.000258412994169735 -0.0026965703998093893 0 -0.00026211698039322408 -0.0022938405329019002 0 -0.00023235331303723161 -0.0021491486551426455 0 -0.0001875949673093286 -0.0016713571074033851 0 -0.000182543205886553 -0.0016772682064386515 0 -0.00017170623330343363 -0.0016312467296158524 0 -0.00026772048464652196 -0.0027379181127557793 0 -0.000258412994169735 -0.0026965703998093893 0 -0.00029365681154074698 -0.0026820679072582397 0 -0.0001875949673093286 -0.0016713571074033851 0 -0.00017170623330343363 -0.0016312467296158524 0 -0.0002006007274506711 -0.0016446328977157841 0 -0.00029866347985966411 -0.0027367326161045146 0 -0.00026772048464652196 -0.0027379181127557793 0 -0.00029365681154074698 -0.0026820679072582397 0 -0.00023235331303723161 -0.0021491486551426455 0 -0.00016553697987903903 -0.0020583112960552426 0 -0.00017170623330343363 -0.0016312467296158524 0 -0.00020409312655162264 -0.0015922500790370611 0 -0.00015601183817151728 -0.001582651578337604 0 -0.000258412994169735 -0.0026965703998093893 0 -0.00029365681154074698 -0.0026820679072582397 0 -0.00027857757541465284 -0.0026196576039883928 0 -8.2689175333444223e-05 -0.00095337826325406899 0 -8.4450043043347091e-05 -0.0009391665690578737 0 -8.4703899161077604e-05 -0.00093979683537671107 0 -7.2295416860453313e-05 -0.00069708804237461001 0 -6.0277427443740233e-05 -0.00069756886995596911 0 -7.9715700871318723e-05 -0.00069836352259272779 0 -0.00017170623330343363 -0.0016312467296158524 0 -0.0002006007274506711 -0.0016446328977157841 0 -0.00020409312655162264 -0.0015922500790370611 0 -0.00014817316468549263 -0.0012042137106299195 0 -9.3326115512119652e-05 -0.00075654763026400678 0 -0.00014817316468549263 -0.0012042137106299195 0 -0.0001483060224481923 -0.0012868993541116586 0 -7.0435455067417436e-05 -0.00069676898195267256 0 -7.2295416860453313e-05 -0.00069708804237461001 0 -6.0277427443740233e-05 -0.00069756886995596911 0 -6.6933138232113775e-05 -0.00069956228610989829 0 -7.0435455067417436e-05 -0.00069676898195267256 0 -6.0277427443740233e-05 -0.00069756886995596911 0 -0.00013185646454749018 -0.0011172391356229067 0 -0.00014817316468549263 -0.0012042137106299195 0 -0.0001875949673093286 -0.0016713571074033851 0 -0.00021589830847887901 -0.0016978489009623597 0 -0.00022111466180263882 -0.0015978142228498355 0 -3.9768278944326218e-05 -0.00071279767505423174 0 -6.0277427443740233e-05 -0.00069756886995596911 0 -6.3420503554148763e-05 -0.00070483788169275845 0 -0.00011393937970514377 -0.0017129210245996065 0 -0.00014817316468549263 -0.0012042137106299195 0 -6.6933138232113775e-05 -0.00069956228610989829 0 -6.0277427443740233e-05 -0.00069756886995596911 0 -6.3420503554148763e-05 -0.00070483788169275845 0 -5.9617276693945989e-05 -0.00095321315071628457 0 -9.6223475955248687e-05 -0.00096570412578595648 0 -8.1009581606642346e-05 -0.00094909223933055333 0 -9.1607246119871153e-05 -0.0012425398564664676 0 -0.0001483060224481923 -0.0012868993541116586 0 -0.00020601116340232493 -0.0015337308882944062 0 -0.00020409312655162264 -0.0015922500790370611 0 -0.00015601183817151728 -0.001582651578337604 0 -9.6223475955248687e-05 -0.00096570412578595648 0 -8.1009581606642346e-05 -0.00094909223933055333 0 -8.4703899161077604e-05 -0.00093979683537671107 0 -8.1009581606642346e-05 -0.00094909223933055333 0 -8.4450043043347091e-05 -0.0009391665690578737 0 -8.4703899161077604e-05 -0.00093979683537671107 0 -0.00016553697987903903 -0.0020583112960552426 0 -0.00015507146622034573 -0.001888040696079339 0 -1.6974963321161349e-05 -0.0013723424524781536 0 0.00016357522469545403 -0.0013954055181777895 0 3.4163362711023615e-05 -0.0012706742282158265 0 -1.6974963321161349e-05 -0.0013723424524781536 0 0.00013047658073873778 -0.0015128812786668637 0 0.00016357522469545403 -0.0013954055181777895 0 -0.00015507146622034573 -0.001888040696079339 0 3.8195347390437132e-05 -0.001139949693149907 0 -9.1607246119871153e-05 -0.0012425398564664676 0 -0.00016553697987903903 -0.0020583112960552426 0 -0.00021741153371203009 -0.0023935197280860669 0 -0.00032672414614593278 -0.0024352164431928306 0 -0.00019378137101246703 -0.0025392485786347677 0 -0.00021741153371203009 -0.0023935197280860669 0 -0.00032672414614593278 -0.0024352164431928306 0 -0.00023625087214457162 -0.0022200076677282867 0 -0.0002835142325634196 -0.0026275653450256401 0 -0.00043607850027979855 -0.0024879056225307517 0 -0.00027563283817354781 -0.0025121567043359708 0 -0.00043607850027979855 -0.0024879056225307517 0 -0.00040608109990943942 -0.0023807052092828787 0 -0.00027563283817354781 -0.0025121567043359708 0 -0.00015507146622034573 -0.001888040696079339 0 -0.00024785058969776505 -0.0026008743897368521 0 -0.00019378137101246703 -0.0025392485786347677 0 -0.00016685537753290719 -0.0024151419596033529 0 -0.00014900258405541571 -0.0024973904769952614 0 -0.00013767402618127103 -0.0026302569890615944 0 -0.00019378137101246703 -0.0025392485786347677 0 -0.00014900258405541571 -0.0024973904769952614 0 -0.00016685537753290719 -0.0024151419596033529 0 -0.00014900258405541571 -0.0024973904769952614 0 -0.00013335064173497339 -0.0024055890987383132 0 -0.00021741153371203009 -0.0023935197280860669 0 -0.00019378137101246703 -0.0025392485786347677 0 -0.00016685537753290719 -0.0024151419596033529 0 -0.00021741153371203009 -0.0023935197280860669 0 -0.00016685537753290719 -0.0024151419596033529 0 -0.00016954005109340794 -0.0023514541433042272 0 -0.00016685537753290719 -0.0024151419596033529 0 -0.00016954005109340794 -0.0023514541433042272 0 -0.00013335064173497339 -0.0024055890987383132 0 -0.00016954005109340794 -0.0023514541433042272 0 -0.00014123291492559943 -0.0023618770911063651 0 -0.00023625087214457162 -0.0022200076677282867 0 -6.4411079513558407e-05 -0.0021697092039801649 0 -0.00023890763027304343 -0.0022219304279554107 0 4.5999014084146865e-05 -0.0019567994711006502 0 -3.5827457116415345e-05 -0.001927540575529888 0 -0.00023625087214457162 -0.0022200076677282867 0 -0.00016954005109340794 -0.0023514541433042272 0 -0.00014123291492559943 -0.0023618770911063651 0 -0.00013335064173497339 -0.0024055890987383132 0 -3.5827457116415345e-05 -0.001927540575529888 0 -5.3583407808531069e-07 -0.0016866997925269003 0 2.7606223467818429e-07 -0.0018957698075304033 0 4.5999014084146865e-05 -0.0019567994711006502 0 -3.5827457116415345e-05 -0.001927540575529888 0 2.7606223467818429e-07 -0.0018957698075304033 0 -7.5110378137006954e-08 -0.0016863110031810407 0 -0.0001423953052565733 -0.0017330615564145986 0 -3.5827457116415345e-05 -0.001927540575529888 0 -5.3583407808531069e-07 -0.0016866997925269003 0 -0.00024817164425188843 -0.0021285162314857164 0 -2.9491282932698095e-07 -0.0016858841295909648 0 -7.3332892758667159e-05 -0.0013465353904745421 0 6.0182212668962575e-06 -0.0013759728184138877 0 -0.00015507146622034573 -0.001888040696079339 0 -0.0001423953052565733 -0.0017330615564145986 0 -0.00032672414614593278 -0.0024352164431928306 0 -0.00024817164425188843 -0.0021285162314857164 0 -0.00023625087214457162 -0.0022200076677282867 0 -3.9793441668949484e-05 -0.0012403970200056558 0 -7.3332892758667159e-05 -0.0013465353904745421 0 -1.660244612559206e-05 -0.0012964025749491071 0 -3.5827457116415345e-05 -0.001927540575529888 0 -0.00024817164425188843 -0.0021285162314857164 0 -0.00023625087214457162 -0.0022200076677282867 0 -0.00021741153371203009 -0.0023935197280860669 0 -0.00016954005109340794 -0.0023514541433042272 0 -0.00023625087214457162 -0.0022200076677282867 0 -3.9793441668949484e-05 -0.0012403970200056558 0 -1.660244612559206e-05 -0.0012964025749491071 0 3.4163362711023615e-05 -0.0012706742282158265 0 6.0182212668962575e-06 -0.0013759728184138877 0 1.1551559556024416e-05 -0.0012866146833692461 0 3.4163362711023615e-05 -0.0012706742282158265 0 -1.660244612559206e-05 -0.0012964025749491071 0 6.0182212668962575e-06 -0.0013759728184138877 0 3.4163362711023615e-05 -0.0012706742282158265 0 -7.3332892758667159e-05 -0.0013465353904745421 0 -1.660244612559206e-05 -0.0012964025749491071 0 6.0182212668962575e-06 -0.0013759728184138877 0 -2.9491282932698095e-07 -0.0016858841295909648 0 6.0182212668962575e-06 -0.0013759728184138877 0 1.2655632668377421e-07 -0.0013912942510156425 0 6.0182212668962575e-06 -0.0013759728184138877 0 1.1551559556024416e-05 -0.0012866146833692461 0 1.2655632668377421e-07 -0.0013912942510156425 0 -4.0635373809888904e-06 -0.0011887482445024514 0 1.1551559556024416e-05 -0.0012866146833692461 0 1.2655632668377421e-07 -0.0013912942510156425 0 -4.0635373809888904e-06 -0.0011887482445024514 0 1.1551559556024416e-05 -0.0012866146833692461 0 3.4585992121787328e-06 -0.0012220988389768754 0 -9.1607246119871153e-05 -0.0012425398564664676 0 -3.3899261889631549e-06 -0.0012703607409453492 0 -1.6974963321161349e-05 -0.0013723424524781536 0 3.4585992121787328e-06 -0.0012220988389768754 0 3.4163362711023615e-05 -0.0012706742282158265 0 -1.3539062994428825e-05 -0.0011484626690416316 0 4.58284272753569e-06 -0.0013044654631768065 0 3.4585992121787328e-06 -0.0012220988389768754 0 -1.3539062994428825e-05 -0.0011484626690416316 0 -4.0635373809888904e-06 -0.0011887482445024514 0 3.4585992121787328e-06 -0.0012220988389768754 0 1.1551559556024416e-05 -0.0012866146833692461 0 3.4585992121787328e-06 -0.0012220988389768754 0 3.4163362711023615e-05 -0.0012706742282158265 0 -4.7881856037305451e-05 -0.0024838475228880722 0 -1.2912975432281957e-05 -0.0025381447721891204 0 -5.1221721676600711e-05 -0.0025327736771724395 0 -4.7881856037305451e-05 -0.0024838475228880722 0 -3.1974870811983263e-06 -0.0025093004888068417 0 -1.2912975432281957e-05 -0.0025381447721891204 0 -3.1974870811983263e-06 -0.0025093004888068417 0 3.5210886953318452e-05 -0.0025359940665557064 0 2.5484582414439473e-05 -0.0025477396279977795 0 -3.1974870811983263e-06 -0.0025093004888068417 0 -1.2912975432281957e-05 -0.0025381447721891204 0 2.5484582414439473e-05 -0.0025477396279977795 0 -1.0021221861663167e-05 -0.0025843887222473964 0 2.5484582414439473e-05 -0.0025477396279977795 0 3.7027438927808314e-05 -0.0025757238536674512 0 -1.0021221861663167e-05 -0.0025843887222473964 0 -1.2912975432281957e-05 -0.0025381447721891204 0 2.5484582414439473e-05 -0.0025477396279977795 0 -6.7304817198672546e-05 -0.0025845018554507449 0 -1.0021221861663167e-05 -0.0025843887222473964 0 -5.1221721676600711e-05 -0.0025327736771724395 0 -1.0021221861663167e-05 -0.0025843887222473964 0 -1.2912975432281957e-05 -0.0025381447721891204 0 -5.1221721676600711e-05 -0.0025327736771724395 0 -6.7304817198672546e-05 -0.0025845018554507449 0 -5.1221721676600711e-05 -0.0025327736771724395 0 -0.00010319761181527736 -0.0025064273573134079 0 -0.00013767402618127103 -0.0026302569890615944 0 -0.00010319761181527736 -0.0025064273573134079 0 -0.00014900258405541571 -0.0024973904769952614 0 -0.00010319761181527736 -0.0025064273573134079 0 -9.9025631698451233e-05 -0.0024306497901911703 0 -0.00013335064173497339 -0.0024055890987383132 0 -0.00010319761181527736 -0.0025064273573134079 0 -0.00014900258405541571 -0.0024973904769952614 0 -0.00013335064173497339 -0.0024055890987383132 0 -4.7881856037305451e-05 -0.0024838475228880722 0 -7.4264395139523063e-05 -0.0024892417979638119 0 -9.9025631698451233e-05 -0.0024306497901911703 0 -5.1221721676600711e-05 -0.0025327736771724395 0 -0.00010319761181527736 -0.0025064273573134079 0 -7.4264395139523063e-05 -0.0024892417979638119 0 -0.00010319761181527736 -0.0025064273573134079 0 -7.4264395139523063e-05 -0.0024892417979638119 0 -9.9025631698451233e-05 -0.0024306497901911703 0 -4.7881856037305451e-05 -0.0024838475228880722 0 -5.1221721676600711e-05 -0.0025327736771724395 0 -7.4264395139523063e-05 -0.0024892417979638119 0 -4.7881856037305451e-05 -0.0024838475228880722 0 -9.9025631698451233e-05 -0.0024306497901911703 0 -7.7296830258812899e-05 -0.0024242607415188629 0 -9.9025631698451233e-05 -0.0024306497901911703 0 -7.7296830258812899e-05 -0.0024242607415188629 0 -0.00011126581224446167 -0.0023990196874674324 0 -7.7296830258812899e-05 -0.0024242607415188629 0 -0.00011126581224446167 -0.0023990196874674324 0 -9.8411696137595597e-05 -0.0023821650914855313 0 -9.9025631698451233e-05 -0.0024306497901911703 0 -0.00013335064173497339 -0.0024055890987383132 0 -0.00011126581224446167 -0.0023990196874674324 0 -0.00014123291492559943 -0.0023618770911063651 0 -0.00013335064173497339 -0.0024055890987383132 0 -0.00011126581224446167 -0.0023990196874674324 0 4.5999014084146865e-05 -0.0019567994711006502 0 2.7606223467818429e-07 -0.0018957698075304033 0 7.2302634211442144e-06 -0.0020470565846597375 0 2.7606223467818429e-07 -0.0018957698075304033 0 -3.7917486784151594e-08 -0.0021052063326565938 0 7.2302634211442144e-06 -0.0020470565846597375 0 -0.00014123291492559943 -0.0023618770911063651 0 -0.00011126581224446167 -0.0023990196874674324 0 -9.8411696137595597e-05 -0.0023821650914855313 0 -6.4411079513558407e-05 -0.0021697092039801649 0 -2.8482539505695085e-05 -0.0022141945905732995 0 -3.7917486784151594e-08 -0.0021052063326565938 0 7.2302634211442144e-06 -0.0020470565846597375 0 -1.4453011091256771e-08 -0.0023146399477391002 0 -7.7296830258812899e-05 -0.0024242607415188629 0 -9.8411696137595597e-05 -0.0023821650914855313 0 -3.5125978078351254e-05 -0.0024379687940732928 0 -9.8411696137595597e-05 -0.0023821650914855313 0 -9.9528167469362913e-08 -0.0023151572593718057 0 -3.5125978078351254e-05 -0.0024379687940732928 0 -2.8482539505695085e-05 -0.0022141945905732995 0 2.5689662120372357e-08 -0.0023146723118010384 0 -9.9528167469362913e-08 -0.0023151572593718057 0 -3.5125978078351254e-05 -0.0024379687940732928 0 1.9492043106851489e-05 -0.0024537714155892757 0 -4.7881856037305451e-05 -0.0024838475228880722 0 -7.7296830258812899e-05 -0.0024242607415188629 0 -3.5125978078351254e-05 -0.0024379687940732928 0 -3.1974870811983263e-06 -0.0025093004888068417 0 -3.5125978078351254e-05 -0.0024379687940732928 0 1.5164586734938935e-05 -0.0024959329026977102 0 -4.7881856037305451e-05 -0.0024838475228880722 0 -3.1974870811983263e-06 -0.0025093004888068417 0 -3.5125978078351254e-05 -0.0024379687940732928 0 -3.5125978078351254e-05 -0.0024379687940732928 0 1.5164586734938935e-05 -0.0024959329026977102 0 1.9492043106851489e-05 -0.0024537714155892757 0 -3.1974870811983263e-06 -0.0025093004888068417 0 1.5164586734938935e-05 -0.0024959329026977102 0 3.5210886953318452e-05 -0.0025359940665557064 0 1.5164586734938935e-05 -0.0024959329026977102 0 1.9492043106851489e-05 -0.0024537714155892757 0 2.8957600786862504e-05 -0.0025336867961986303 0 1.5164586734938935e-05 -0.0024959329026977102 0 2.8957600786862504e-05 -0.0025336867961986303 0 3.5210886953318452e-05 -0.0025359940665557064 0 -9.9528167469362913e-08 -0.0023151572593718057 0 1.9492043106851489e-05 -0.0024537714155892757 0 1.3166654870689668e-07 -0.0025552228788835569 0 1.9492043106851489e-05 -0.0024537714155892757 0 1.3166654870689668e-07 -0.0025552228788835569 0 2.8957600786862504e-05 -0.0025336867961986303 0 2.8957600786862504e-05 -0.0025336867961986303 0 2.2118194359451846e-05 -0.00265080945632244 0 3.5894986441110808e-05 -0.0025747539486724118 0 1.3166654870689668e-07 -0.0025552228788835569 0 2.8957600786862504e-05 -0.0025336867961986303 0 2.2118194359451846e-05 -0.00265080945632244 0 1.3166654870689668e-07 -0.0025552228788835569 0 -9.7466402498600508e-09 -0.002796062898057386 0 2.2118194359451846e-05 -0.00265080945632244 0 -3.9830232975289237e-06 -0.0027820367416095592 0 -9.7466402498600508e-09 -0.002796062898057386 0 2.2118194359451846e-05 -0.00265080945632244 0 2.2118194359451846e-05 -0.00265080945632244 0 2.7545246069829323e-05 -0.0026214878840115506 0 3.5894986441110808e-05 -0.0025747539486724118 0 -3.9830232975289237e-06 -0.0027820367416095592 0 2.2118194359451846e-05 -0.00265080945632244 0 2.7545246069829323e-05 -0.0026214878840115506 0 -3.9830232975289237e-06 -0.0027820367416095592 0 2.7545246069829323e-05 -0.0026214878840115506 0 -6.6700870606625068e-06 -0.0025564055646206865 0 2.7545246069829323e-05 -0.0026214878840115506 0 3.3050234600822076e-05 -0.0025613994602265043 0 3.5894986441110808e-05 -0.0025747539486724118 0 3.3050234600822076e-05 -0.0025613994602265043 0 3.5149456655281757e-05 -0.002551780604440097 0 -6.6700870606625068e-06 -0.0025564055646206865 0 2.7545246069829323e-05 -0.0026214878840115506 0 3.3050234600822076e-05 -0.0025613994602265043 0 -6.6700870606625068e-06 -0.0025564055646206865 0 3.3050234600822076e-05 -0.0025613994602265043 0 3.5894986441110808e-05 -0.0025747539486724118 0 3.5210886953318452e-05 -0.0025359940665557064 0 2.8957600786862504e-05 -0.0025336867961986303 0 3.5894986441110808e-05 -0.0025747539486724118 0 3.5210886953318452e-05 -0.0025359940665557064 0 3.5210886953318452e-05 -0.0025359940665557064 0 2.5484582414439473e-05 -0.0025477396279977795 0 4.2016140108679174e-05 -0.0025500394727456517 0 2.5484582414439473e-05 -0.0025477396279977795 0 4.2016140108679174e-05 -0.0025500394727456517 0 4.4816236882229577e-05 -0.0025607392820243251 0 3.3050234600822076e-05 -0.0025613994602265043 0 3.5210886953318452e-05 -0.0025359940665557064 0 4.2016140108679174e-05 -0.0025500394727456517 0 3.3050234600822076e-05 -0.0025613994602265043 0 3.5149456655281757e-05 -0.002551780604440097 0 4.2016140108679174e-05 -0.0025500394727456517 0 3.5149456655281757e-05 -0.002551780604440097 0 4.2016140108679174e-05 -0.0025500394727456517 0 5.142584074600661e-05 -0.0025584179628761446 0 4.2016140108679174e-05 -0.0025500394727456517 0 5.142584074600661e-05 -0.0025584179628761446 0 4.4816236882229577e-05 -0.0025607392820243251 0 5.142584074600661e-05 -0.0025584179628761446 0 6.6368978979225524e-05 -0.0025804596368085766 0 4.4816236882229577e-05 -0.0025607392820243251 0 5.142584074600661e-05 -0.0025584179628761446 0 6.6368978979225524e-05 -0.0025804596368085766 0 6.8754298998782316e-05 -0.0025584374060474368 0 6.6368978979225524e-05 -0.0025804596368085766 0 3.7027438927808314e-05 -0.0025757238536674512 0 4.4816236882229577e-05 -0.0025607392820243251 0 2.5484582414439473e-05 -0.0025477396279977795 0 3.7027438927808314e-05 -0.0025757238536674512 0 4.4816236882229577e-05 -0.0025607392820243251 0 -0.00013109457431974441 -0.0034745506950221465 0 -0.00010815604985075556 -0.0033768593230143751 0 -6.1040799012678407e-05 -0.0034589587492557215 0 -0.00013109457431974441 -0.0034745506950221465 0 -0.00019369648692494918 -0.0034223210066797985 0 -0.00010815604985075556 -0.0033768593230143751 0 6.6368978979225524e-05 -0.0025804596368085766 0 6.8754298998782316e-05 -0.0025584374060474368 0 0.000117371355944677 -0.0026272424581702839 0 -0.00013109457431974441 -0.0034745506950221465 0 -0.00019369648692494918 -0.0034223210066797985 0 -0.00017556008430927832 -0.0035453493577492661 0 1.9495702623490719e-05 -0.0029626645665180242 0 -4.4728419758374285e-06 -0.0033201297887956397 0 3.5149456655281757e-05 -0.002551780604440097 0 6.8754298998782316e-05 -0.0025584374060474368 0 -6.6700870606625068e-06 -0.0025564055646206865 0 -3.3949401790243311e-06 -0.0028717345310915743 0 -5.2705735232073831e-06 -0.0028628115206261314 0 -5.7286482071903263e-06 -0.0028455813263890172 0 1.9495702623490719e-05 -0.0029626645665180242 0 -8.6472162174086072e-05 -0.0031104291679072264 0 1.9495702623490719e-05 -0.0029626645665180242 0 -7.8842062169594422e-06 -0.0026660764483858661 0 3.5149456655281757e-05 -0.002551780604440097 0 5.142584074600661e-05 -0.0025584179628761446 0 6.8754298998782316e-05 -0.0025584374060474368 0 -0.00019369648692494918 -0.0034223210066797985 0 -0.00010815604985075556 -0.0033768593230143751 0 -0.00013971767772893775 -0.0032874152975586914 0 -0.00010815604985075556 -0.0033768593230143751 0 -0.00013971767772893775 -0.0032874152975586914 0 -2.2593657096210596e-05 -0.0033411208307882034 0 -0.00013971767772893775 -0.0032874152975586914 0 -5.5515591736026877e-05 -0.0031623711966603696 0 -2.2593657096210596e-05 -0.0033411208307882034 0 -6.1590584081054801e-05 -0.0031742661164935889 0 -1.4204028531338098e-05 -0.0033033292771652654 0 -3.9830232975289237e-06 -0.0027820367416095592 0 -5.2705735232073831e-06 -0.0028628115206261314 0 6.9067969809703204e-06 -0.0028553961928672387 0 -5.2705735232073831e-06 -0.0028628115206261314 0 -5.7286482071903263e-06 -0.0028455813263890172 0 6.9067969809703204e-06 -0.0028553961928672387 0 -5.7286482071903263e-06 -0.0028455813263890172 0 6.9067969809703204e-06 -0.0028553961928672387 0 7.7092323503833574e-06 -0.002874252558387214 0 1.8445831923395115e-06 -0.0027987120749028266 0 -7.8842062169594422e-06 -0.0026660764483858661 0 -9.7466402498600508e-09 -0.002796062898057386 0 7.7092323503833574e-06 -0.002874252558387214 0 -5.9157174518790343e-08 -0.0030362097309048243 0 -5.7286482071903263e-06 -0.0028455813263890172 0 7.7092323503833574e-06 -0.002874252558387214 0 -5.9157174518790343e-08 -0.0030362097309048243 0 -3.9830232975289237e-06 -0.0027820367416095592 0 6.9067969809703204e-06 -0.0028553961928672387 0 7.7092323503833574e-06 -0.002874252558387214 0 -3.9830232975289237e-06 -0.0027820367416095592 0 -9.7466402498600508e-09 -0.002796062898057386 0 7.7092323503833574e-06 -0.002874252558387214 0 -8.6472162174086072e-05 -0.0031104291679072264 0 -8.0090019597894581e-09 -0.0030365509729924616 0 -0.00013971767772893775 -0.0032874152975586914 0 -2.3349013506785075e-07 -0.0030372777717883382 0 -5.5515591736026877e-05 -0.0031623711966603696 0 -2.3349013506785075e-07 -0.0030372777717883382 0 -5.5515591736026877e-05 -0.0031623711966603696 0 1.281881731462999e-05 -0.0032131250910256565 0 -2.3349013506785075e-07 -0.0030372777717883382 0 1.281881731462999e-05 -0.0032131250910256565 0 1.6326016388830966e-07 -0.0033288661065510772 0 1.281881731462999e-05 -0.0032131250910256565 0 1.6326016388830966e-07 -0.0033288661065510772 0 2.3610423780316014e-05 -0.003247288888358566 0 1.136400570504541e-08 -0.0033295207491255202 0 2.8094704184237216e-05 -0.0033794067748629045 0 2.3610423780316014e-05 -0.003247288888358566 0 -5.6825635084619944e-06 -0.0032769370344974927 0 2.6992624752955063e-05 -0.0032968370241119043 0 -5.5515591736026877e-05 -0.0031623711966603696 0 1.281881731462999e-05 -0.0032131250910256565 0 -5.6825635084619944e-06 -0.0032769370344974927 0 1.281881731462999e-05 -0.0032131250910256565 0 2.3610423780316014e-05 -0.003247288888358566 0 -5.6825635084619944e-06 -0.0032769370344974927 0 -2.1373766833328866e-08 -0.0035848880363321344 0 -9.6480199654020785e-05 -0.0037385445410786293 0 -5.0901894521766134e-07 -0.0035856049106013136 0 -0.00013291870134197987 -0.0039373375494002674 0 2.1125268077498144e-07 -0.0038334208892909999 0 1.8005319165107332e-05 -0.0034864373901169637 0 3.8805042060778203e-08 -0.0035842805136082879 0 -2.6952626290337197e-05 -0.0034694224175873395 0 -3.7980793622097437e-08 -0.0033301126342895567 0 1.8005319165107332e-05 -0.0034864373901169637 0 3.8805042060778203e-08 -0.0035842805136082879 0 2.3610423780316014e-05 -0.003247288888358566 0 8.6514810759885977e-05 -0.0033045316867147149 0 2.6992624752955063e-05 -0.0032968370241119043 0 2.8094704184237216e-05 -0.0033794067748629045 0 2.2695871747293342e-05 -0.0033352894433957181 0 1.8005319165107332e-05 -0.0034864373901169637 0 -2.6952626290337197e-05 -0.0034694224175873395 0 -1.3228060625486083e-05 -0.0034561672866531236 0 -0.00013291870134197987 -0.0039373375494002674 0 -0.00022450405225171523 -0.0042479883770611248 0 -5.4368315818509913e-05 -0.004155037041019969 0 -9.6480199654020785e-05 -0.0037385445410786293 0 3.9735578790415347e-05 -0.0037156701735722975 0 2.2695871747293342e-05 -0.0033352894433957181 0 3.9735578790415347e-05 -0.0037156701735722975 0 -2.6952626290337197e-05 -0.0034694224175873395 0 -1.3228060625486083e-05 -0.0034561672866531236 0 -2.2171302469373178e-05 -0.0034380768436121051 0 8.6514810759885977e-05 -0.0033045316867147149 0 2.6992624752955063e-05 -0.0032968370241119043 0 1.8467204602802221e-05 -0.0033749530551948521 0 0.00015252380382652916 -0.0034115407470558089 0 1.8467204602802221e-05 -0.0033749530551948521 0 0.00012129502282620219 -0.0035243815278809322 0 8.6514810759885977e-05 -0.0033045316867147149 0 0.00015252380382652916 -0.0034115407470558089 0 1.8467204602802221e-05 -0.0033749530551948521 0 2.9465192251823493e-05 -0.0034107656271331831 0 0.00011725604773915721 -0.003518537983007343 0 -0.00022450405225171523 -0.0042479883770611248 0 -0.00011755200062452004 -0.0043934186093215477 0 -5.4368315818509913e-05 -0.004155037041019969 0 -2.2593657096210596e-05 -0.0033411208307882034 0 3.0217376010768188e-05 -0.0034412302630759785 0 -6.1040799012678407e-05 -0.0034589587492557215 0 -0.00010815604985075556 -0.0033768593230143751 0 -2.2593657096210596e-05 -0.0033411208307882034 0 -6.1040799012678407e-05 -0.0034589587492557215 0 -1.4204028531338098e-05 -0.0033033292771652654 0 2.9465192251823493e-05 -0.0034107656271331831 0 -5.6825635084619944e-06 -0.0032769370344974927 0 2.6992624752955063e-05 -0.0032968370241119043 0 1.8467204602802221e-05 -0.0033749530551948521 0 3.0217376010768188e-05 -0.0034412302630759785 0 -6.1040799012678407e-05 -0.0034589587492557215 0 -1.4190049149052376e-05 -0.0035050738023876568 0 -9.8637559381064267e-05 -0.0035652272501976263 0 -1.4190049149052376e-05 -0.0035050738023876568 0 -2.0490539354794298e-05 -0.0036060786644839119 0 -6.1040799012678407e-05 -0.0034589587492557215 0 -9.8637559381064267e-05 -0.0035652272501976263 0 -1.4190049149052376e-05 -0.0035050738023876568 0 -1.4190049149052376e-05 -0.0035050738023876568 0 3.9035646474849606e-05 -0.0035450858091689748 0 -2.0490539354794298e-05 -0.0036060786644839119 0 3.0217376010768188e-05 -0.0034412302630759785 0 -1.4190049149052376e-05 -0.0035050738023876568 0 3.9035646474849606e-05 -0.0035450858091689748 0 3.9035646474849606e-05 -0.0035450858091689748 0 -2.0490539354794298e-05 -0.0036060786644839119 0 6.2090415910735644e-05 -0.0036252721119948805 0 -2.0490539354794298e-05 -0.0036060786644839119 0 6.2090415910735644e-05 -0.0036252721119948805 0 9.8555663686920082e-06 -0.0036779257764520353 0 -2.0490539354794298e-05 -0.0036060786644839119 0 -3.1327120953443306e-05 -0.0036804868481398315 0 9.8555663686920082e-06 -0.0036779257764520353 0 -2.0490539354794298e-05 -0.0036060786644839119 0 -8.1271202284680409e-05 -0.003644831841823654 0 -3.1327120953443306e-05 -0.0036804868481398315 0 -9.8637559381064267e-05 -0.0035652272501976263 0 -2.0490539354794298e-05 -0.0036060786644839119 0 -8.1271202284680409e-05 -0.003644831841823654 0 0.00015252380382652916 -0.0034115407470558089 0 0.00012129502282620219 -0.0035243815278809322 0 0.00016794468119188039 -0.0035657604400891798 0 0.00022530750420174739 -0.003754970366755094 0 0.00028409014336252831 -0.0038521328087571275 0 0.00024064282635215362 -0.0038665463954980776 0 3.9735578790415347e-05 -0.0037156701735722975 0 0.0002179543388117964 -0.003690113034963935 0 -0.00022450405225171523 -0.0042479883770611248 0 -0.00012975179530194301 -0.0045300004995520587 0 -0.00011755200062452004 -0.0043934186093215477 0 3.9735578790415347e-05 -0.0037156701735722975 0 5.0583579060121738e-05 -0.0044168367513283506 0 5.0583579060121738e-05 -0.0044168367513283506 0 -5.9031818167776101e-05 -0.0044448735035630587 0 0.00012129502282620219 -0.0035243815278809322 0 0.00011002257146321008 -0.0035810641982915478 0 0.00016794468119188039 -0.0035657604400891798 0 3.0217376010768188e-05 -0.0034412302630759785 0 3.9035646474849606e-05 -0.0035450858091689748 0 0.00012129502282620219 -0.0035243815278809322 0 3.9035646474849606e-05 -0.0035450858091689748 0 0.00012129502282620219 -0.0035243815278809322 0 0.00011002257146321008 -0.0035810641982915478 0 3.9035646474849606e-05 -0.0035450858091689748 0 6.2090415910735644e-05 -0.0036252721119948805 0 0.00011002257146321008 -0.0035810641982915478 0 6.2090415910735644e-05 -0.0036252721119948805 0 9.1538512782288423e-05 -0.0036983816831030088 0 9.8555663686920082e-06 -0.0036779257764520353 0 6.2090415910735644e-05 -0.0036252721119948805 0 0.00011002257146321008 -0.0035810641982915478 0 0.00015526325858709688 -0.0036482380115580187 0 6.2090415910735644e-05 -0.0036252721119948805 0 0.00015526325858709688 -0.0036482380115580187 0 9.1538512782288423e-05 -0.0036983816831030088 0 0.0002179543388117964 -0.003690113034963935 0 0.00023648545189377163 -0.0038662545848053885 0 5.0583579060121738e-05 -0.0044168367513283506 0 0.00023999019001334879 -0.0043987726677609017 0 0.00028409014336252831 -0.0038521328087571275 0 0.00024064282635215362 -0.0038665463954980776 0 0.00025706467931630269 -0.0039809317765446698 0 0.00016794468119188039 -0.0035657604400891798 0 0.00015526325858709688 -0.0036482380115580187 0 0.00021733780191092943 -0.0037308284585478176 0 0.00011002257146321008 -0.0035810641982915478 0 0.00016794468119188039 -0.0035657604400891798 0 0.00015526325858709688 -0.0036482380115580187 0 0.00028409014336252831 -0.0038521328087571275 0 0.00025706467931630269 -0.0039809317765446698 0 0.0003010583475528289 -0.0039994116504091645 0 0.00015526325858709688 -0.0036482380115580187 0 0.00014792736068849977 -0.003712334781284618 0 9.1538512782288423e-05 -0.0036983816831030088 0 0.00015526325858709688 -0.0036482380115580187 0 0.00021733780191092943 -0.0037308284585478176 0 0.00014792736068849977 -0.003712334781284618 0 0.00021733780191092943 -0.0037308284585478176 0 0.00014792736068849977 -0.003712334781284618 0 0.00012342994107045197 -0.0037877549006719957 0 0.00021733780191092943 -0.0037308284585478176 0 0.00012342994107045197 -0.0037877549006719957 0 0.0001640209075522071 -0.0039100601530050521 0 0.00012342994107045197 -0.0037877549006719957 0 4.7301662341831761e-06 -0.0037502949064618677 0 8.0737872891873213e-05 -0.0039196419474878908 0 0.00012342994107045197 -0.0037877549006719957 0 9.1538512782288423e-05 -0.0036983816831030088 0 4.7301662341831761e-06 -0.0037502949064618677 0 0.00014792736068849977 -0.003712334781284618 0 0.00012342994107045197 -0.0037877549006719957 0 9.1538512782288423e-05 -0.0036983816831030088 0 9.1538512782288423e-05 -0.0036983816831030088 0 4.7301662341831761e-06 -0.0037502949064618677 0 9.8555663686920082e-06 -0.0036779257764520353 0 4.7301662341831761e-06 -0.0037502949064618677 0 -6.7596501359206248e-05 -0.0039371420880789766 0 8.0737872891873213e-05 -0.0039196419474878908 0 -6.7596501359206248e-05 -0.0039371420880789766 0 8.0737872891873213e-05 -0.0039196419474878908 0 -1.1006683820694957e-05 -0.0040901357181314466 0 8.0737872891873213e-05 -0.0039196419474878908 0 0.0001640209075522071 -0.0039100601530050521 0 0.00011231715198314046 -0.0040780670223642939 0 8.0737872891873213e-05 -0.0039196419474878908 0 0.00011231715198314046 -0.0040780670223642939 0 -1.1006683820694957e-05 -0.0040901357181314466 0 0.00012342994107045197 -0.0037877549006719957 0 8.0737872891873213e-05 -0.0039196419474878908 0 0.0001640209075522071 -0.0039100601530050521 0 0.00023999019001334879 -0.0043987726677609017 0 0.00022412945631444326 -0.0045620479771336462 0 0.00021733780191092943 -0.0037308284585478176 0 0.0001640209075522071 -0.0039100601530050521 0 0.00027571733186185389 -0.004062402015174332 0 0.0003010583475528289 -0.0039994116504091645 0 0.00029964786004166045 -0.004277860208977277 0 0.00026604786855540283 -0.0041836838032807272 0 0.00023648545189377163 -0.0038662545848053885 0 0.0002610220650200735 -0.0041303807320553672 0 0.00025706467931630269 -0.0039809317765446698 0 0.0003010583475528289 -0.0039994116504091645 0 0.00026604786855540283 -0.0041836838032807272 0 0.0001640209075522071 -0.0039100601530050521 0 0.00027571733186185389 -0.004062402015174332 0 0.00011231715198314046 -0.0040780670223642939 0 -9.9978393255507433e-05 -0.0037024593448709538 0 -3.1327120953443306e-05 -0.0036804868481398315 0 -5.2840224644872856e-05 -0.0037340918418256536 0 -8.1271202284680409e-05 -0.003644831841823654 0 -9.9978393255507433e-05 -0.0037024593448709538 0 -3.1327120953443306e-05 -0.0036804868481398315 0 6.7641260385315546e-06 -0.0037370624463636884 0 -0.00017631815150166011 -0.0037976443477293993 0 4.7301662341831761e-06 -0.0037502949064618677 0 -3.1327120953443306e-05 -0.0036804868481398315 0 -5.2840224644872856e-05 -0.0037340918418256536 0 4.7301662341831761e-06 -0.0037502949064618677 0 -3.1327120953443306e-05 -0.0036804868481398315 0 9.8555663686920082e-06 -0.0036779257764520353 0 4.7301662341831761e-06 -0.0037502949064618677 0 -6.7596501359206248e-05 -0.0039371420880789766 0 -0.00023034880536791503 -0.0037969246933898765 0 -7.1407056652224865e-05 -0.0039264641388120818 0 -0.00028144245452852302 -0.0039434683562719081 0 -6.7596501359206248e-05 -0.0039371420880789766 0 -0.00023034880536791503 -0.0037969246933898765 0 -0.00025179246326733376 -0.0037658308997277428 0 -0.00017631815150166011 -0.0037976443477293993 0 -4.5674884579042573e-05 -0.0034275902712041398 0 -9.9978393255507433e-05 -0.0037024593448709538 0 -5.2840224644872856e-05 -0.0037340918418256536 0 -0.00013071117976625013 -0.0037603295867831297 0 -0.00023034880536791503 -0.0037969246933898765 0 -0.00020778539325615436 -0.0036982760947466544 0 -0.00025179246326733376 -0.0037658308997277428 0 0.00017094630508032247 -0.0030003841475969477 0 0.00016725525846045442 -0.0029906420645490995 0 0.00016770027748968131 -0.0029951835184763029 0 -4.5674884579042573e-05 -0.0034275902712041398 0 1.0510456433320402e-05 -0.0033084381355747653 0 -8.1271202284680409e-05 -0.003644831841823654 0 -9.9978393255507433e-05 -0.0037024593448709538 0 -0.00015580707475450569 -0.0036630123176835164 0 -9.9978393255507433e-05 -0.0037024593448709538 0 -0.00013071117976625013 -0.0037603295867831297 0 -0.00015580707475450569 -0.0036630123176835164 0 0.00016725525846045442 -0.0029906420645490995 0 0.00016435277259979717 -0.0029891526296405373 0 0.00016770027748968131 -0.0029951835184763029 0 0.00016725525846045442 -0.0029906420645490995 0 0.00016435277259979717 -0.0029891526296405373 0 0.00016401776505387041 -0.0029880453353829189 0 0.00016435277259979717 -0.0029891526296405373 0 0.00015976233184373316 -0.0029844138089804373 0 0.00016401776505387041 -0.0029880453353829189 0 0.00016770027748968131 -0.0029951835184763029 0 0.00016881467891006701 -0.0030000062254009557 0 0.00016431850337583978 -0.0029970256161221407 0 0.00017094630508032247 -0.0030003841475969477 0 0.00016881467891006701 -0.0030000062254009557 0 0.00017006924264272846 -0.0030066326535027688 0 0.00016435277259979717 -0.0029891526296405373 0 0.00016770027748968131 -0.0029951835184763029 0 0.00016431850337583978 -0.0029970256161221407 0 0.00017094630508032247 -0.0030003841475969477 0 0.00016770027748968131 -0.0029951835184763029 0 0.00016881467891006701 -0.0030000062254009557 0 0.00016881467891006701 -0.0030000062254009557 0 0.00016431850337583978 -0.0029970256161221407 0 0.00017006924264272846 -0.0030066326535027688 0 0.00016431850337583978 -0.0029970256161221407 0 0.00015976233184373316 -0.0029844138089804373 0 0.00012256189596787049 -0.0030248766291244293 0 0.00011722696733818782 -0.0029201758044380363 0 0.00014994789653278483 -0.0027810249082004406 0 0.00012256189596787049 -0.0030248766291244293 0 0.00014744599403773866 -0.0028989982094323611 0 0.00012496646106959579 -0.0030152948507346264 0 0.00016435277259979717 -0.0029891526296405373 0 0.00016431850337583978 -0.0029970256161221407 0 0.00015976233184373316 -0.0029844138089804373 0 -1.5762089192255173e-06 -0.0027516959981921476 0 0.00011722696733818782 -0.0029201758044380363 0 0.00014994789653278483 -0.0027810249082004406 0 5.7926004761621098e-05 -0.0029006742271568782 0 0.00011722696733818782 -0.0029201758044380363 0 8.5828658836630128e-05 -0.0029657744015727642 0 5.7926004761621098e-05 -0.0029006742271568782 0 6.9477739701326354e-05 -0.0028205648588054046 0 0.00011722696733818782 -0.0029201758044380363 0 3.6490401807767544e-05 -0.0027885780060108471 0 0.00011440451174161056 -0.002909195341763364 0 4.7425489667475473e-05 -0.0029572492610141642 0 5.7926004761621098e-05 -0.0029006742271568782 0 8.5828658836630128e-05 -0.0029657744015727642 0 -1.5762089192255173e-06 -0.0027516959981921476 0 0.00014994789653278483 -0.0027810249082004406 0 7.3133321198652818e-05 -0.0026742026622494273 0 7.3133321198652818e-05 -0.0026742026622494273 0 7.139442824569356e-05 -0.0026152625113487612 0 0.000117371355944677 -0.0026272424581702839 0 0.00014994789653278483 -0.0027810249082004406 0 7.3133321198652818e-05 -0.0026742026622494273 0 0.000117371355944677 -0.0026272424581702839 0 0.00014744599403773866 -0.0028989982094323611 0 0.00015834774776167724 -0.0027672740523161455 0 -1.5762089192255173e-06 -0.0027516959981921476 0 9.4188279597123638e-06 -0.0026634949421794679 0 7.3133321198652818e-05 -0.0026742026622494273 0 9.4188279597123638e-06 -0.0026634949421794679 0 7.3133321198652818e-05 -0.0026742026622494273 0 3.4592080718594755e-05 -0.0026158337248663767 0 -1.0021221861663167e-05 -0.0025843887222473964 0 3.7027438927808314e-05 -0.0025757238536674512 0 3.4592080718594755e-05 -0.0026158337248663767 0 7.3133321198652818e-05 -0.0026742026622494273 0 3.4592080718594755e-05 -0.0026158337248663767 0 7.139442824569356e-05 -0.0026152625113487612 0 3.7027438927808314e-05 -0.0025757238536674512 0 3.4592080718594755e-05 -0.0026158337248663767 0 7.139442824569356e-05 -0.0026152625113487612 0 6.6368978979225524e-05 -0.0025804596368085766 0 7.139442824569356e-05 -0.0026152625113487612 0 0.000117371355944677 -0.0026272424581702839 0 6.6368978979225524e-05 -0.0025804596368085766 0 3.7027438927808314e-05 -0.0025757238536674512 0 7.139442824569356e-05 -0.0026152625113487612 0 0.00015987571540389839 -0.0029920836845911368 0 0.00016418251652845314 -0.0029883657724231825 0 0.00016225806225054958 -0.002989692428860363 0 1.9495702623490719e-05 -0.0029626645665180242 0 0.00015834774776167724 -0.0027672740523161455 0 -0.00013109457431974441 -0.0034745506950221465 0 -6.1040799012678407e-05 -0.0034589587492557215 0 -9.8637559381064267e-05 -0.0035652272501976263 0 -0.00013109457431974441 -0.0034745506950221465 0 -9.8637559381064267e-05 -0.0035652272501976263 0 -0.00017556008430927832 -0.0035453493577492661 0 -9.8637559381064267e-05 -0.0035652272501976263 0 -8.1271202284680409e-05 -0.003644831841823654 0 -0.00015580707475450569 -0.0036630123176835164 0 -9.8637559381064267e-05 -0.0035652272501976263 0 -0.00015580707475450569 -0.0036630123176835164 0 -0.00017556008430927832 -0.0035453493577492661 0 1.0510456433320402e-05 -0.0033084381355747653 0 -4.4728419758374285e-06 -0.0033201297887956397 0 0.00016725525846045442 -0.0029906420645490995 0 0.00016225806225054958 -0.002989692428860363 0 0.00016401776505387041 -0.0029880453353829189 0 0.00016418251652845314 -0.0029883657724231825 0 0.00016225806225054958 -0.002989692428860363 0 0.00016401776505387041 -0.0029880453353829189 0 0.00015976233184373316 -0.0029844138089804373 0 0.00016418251652845314 -0.0029883657724231825 0 0.00016401776505387041 -0.0029880453353829189 0 6.9981412977838402e-05 -0.0047340832615897638 0 6.3783903321477416e-05 -0.0048803495062875284 0 -1.2239315104808757e-08 -0.0049989106377980371 0 1.4424545573764795e-07 -0.0049994884356612951 0 6.6690480062960178e-07 -0.0049988531376636324 0 -1.2239315104808757e-08 -0.0049989106377980371 0 -9.1782875148486058e-11 -0.0050000001685372546 0 1.4424545573764795e-07 -0.0049994884356612951 0 -9.1782875148486058e-11 -0.0050000001685372546 0 1.4424545573764795e-07 -0.0049994884356612951 0 5.4872039859820666e-10 -0.0049999969800898535 0 0.00013691734692067352 -0.0045170475648642116 0 0.00010289293654282047 -0.0045330228138240631 0 0.00014153360515295967 -0.0045619611402052422 0 0.00013691734692067352 -0.0045170475648642116 0 0.00010289293654282047 -0.0045330228138240631 0 9.7222362963627035e-05 -0.0044909519944569421 0 0.00013691734692067352 -0.0045170475648642116 0 0.00013171442305808488 -0.0044730315105905531 0 9.7222362963627035e-05 -0.0044909519944569421 0 -1.2239315104808757e-08 -0.0049989106377980371 0 4.0647063878772194e-10 -0.0049999949303583154 0 -7.6931948611449402e-07 -0.0049972603950204763 0 6.9981412977838402e-05 -0.0047340832615897638 0 -3.0064528504233998e-06 -0.0047706991342902853 0 -1.2239315104808757e-08 -0.0049989106377980371 0 -9.1782875148486058e-11 -0.0050000001685372546 0 4.0647063878772194e-10 -0.0049999949303583154 0 4.0502147456178698e-08 -0.0050000098975289051 0 -3.0064528504233998e-06 -0.0047706991342902853 0 -8.5392951300754884e-10 -0.0050001156932951004 0 6.7592482611855274e-06 -0.004966436265028293 0 -3.4854587155844868e-05 -0.0050248489602956383 0 -8.5392951300754884e-10 -0.0050001156932951004 0 6.7592482611855274e-06 -0.004966436265028293 0 5.6348227379227681e-08 -0.0049996730433314448 0 6.7592482611855274e-06 -0.004966436265028293 0 5.6348227379227681e-08 -0.0049996730433314448 0 -1.1191889811652439e-07 -0.0048139400128946524 0 6.7592482611855274e-06 -0.004966436265028293 0 -3.4854587155844868e-05 -0.0050248489602956383 0 -1.1191889811652439e-07 -0.0048139400128946524 0 -3.0064528504233998e-06 -0.0047706991342902853 0 -5.1776649960474884e-08 -0.0048134494402845432 0 0.00013171442305808488 -0.0044730315105905531 0 8.0058674503094611e-05 -0.0044506192878768017 0 9.7222362963627035e-05 -0.0044909519944569421 0 -7.8712483932670332e-05 -0.004571791328881151 0 -1.8540677788586446e-07 -0.0048129594438642261 0 3.4394967452852004e-05 -0.0045919941043464736 0 -3.0064528504233998e-06 -0.0047706991342902853 0 5.7036602632384113e-05 -0.0044843992582983471 0 -1.8540677788586446e-07 -0.0048129594438642261 0 3.4394967452852004e-05 -0.0045919941043464736 0 1.5051490685431841e-07 -0.004572322769024988 0 3.4394967452852004e-05 -0.0045919941043464736 0 1.5051490685431841e-07 -0.004572322769024988 0 2.35646642347184e-05 -0.004430583673906089 0 1.5051490685431841e-07 -0.004572322769024988 0 2.35646642347184e-05 -0.004430583673906089 0 -6.2527790063290615e-08 -0.0043315020846586968 0 4.5814473411727617e-05 -0.0044573775471490962 0 2.6603548040881776e-05 -0.0044680368114616235 0 2.35646642347184e-05 -0.004430583673906089 0 8.0058674503094611e-05 -0.0044506192878768017 0 4.5814473411727617e-05 -0.0044573775471490962 0 2.35646642347184e-05 -0.004430583673906089 0 5.7036602632384113e-05 -0.0044843992582983471 0 3.4190917804301658e-05 -0.0044572759006508162 0 8.0058674503094611e-05 -0.0044506192878768017 0 4.5814473411727617e-05 -0.0044573775471490962 0 5.5208546157095397e-05 -0.0044788005302659559 0 4.5814473411727617e-05 -0.0044573775471490962 0 5.5208546157095397e-05 -0.0044788005302659559 0 2.6603548040881776e-05 -0.0044680368114616235 0 5.5208546157095397e-05 -0.0044788005302659559 0 4.3561363286998796e-05 -0.0045085575292564484 0 2.6603548040881776e-05 -0.0044680368114616235 0 5.5208546157095397e-05 -0.0044788005302659559 0 7.4358356958383257e-05 -0.0045121903566597973 0 4.3561363286998796e-05 -0.0045085575292564484 0 8.0058674503094611e-05 -0.0044506192878768017 0 5.5208546157095397e-05 -0.0044788005302659559 0 9.7222362963627035e-05 -0.0044909519944569421 0 5.5208546157095397e-05 -0.0044788005302659559 0 9.7222362963627035e-05 -0.0044909519944569421 0 7.4358356958383257e-05 -0.0045121903566597973 0 0.00010289293654282047 -0.0045330228138240631 0 9.7222362963627035e-05 -0.0044909519944569421 0 7.4358356958383257e-05 -0.0045121903566597973 0 0.00010289293654282047 -0.0045330228138240631 0 7.4358356958383257e-05 -0.0045121903566597973 0 6.7689901619431928e-05 -0.0045468560940245236 0 4.3561363286998796e-05 -0.0045085575292564484 0 2.9921733983431407e-05 -0.0045479090189797311 0 6.7689901619431928e-05 -0.0045468560940245236 0 7.4358356958383257e-05 -0.0045121903566597973 0 4.3561363286998796e-05 -0.0045085575292564484 0 6.7689901619431928e-05 -0.0045468560940245236 0 4.3561363286998796e-05 -0.0045085575292564484 0 8.9403936672642218e-06 -0.0045034407035060573 0 2.9921733983431407e-05 -0.0045479090189797311 0 4.8455473501223341e-05 -0.0045014251755391838 0 8.1203608003211473e-05 -0.0045219264452877501 0 8.2045049680800128e-05 -0.0044834557807348473 0 6.0387114519424965e-05 -0.0045446315568067903 0 0.00014666260249303735 -0.0045421747265306511 0 8.2045049680800128e-05 -0.0044834557807348473 0 2.8529730435609286e-05 -0.0044783914180769801 0 6.0387114519424965e-05 -0.0045446315568067903 0 2.8529730435609286e-05 -0.0044783914180769801 0 -2.7384386057122409e-06 -0.0045086871468482366 0 6.0387114519424965e-05 -0.0045446315568067903 0 8.9403936672642218e-06 -0.0045034407035060573 0 9.9322277480195612e-06 -0.0044680936852796007 0 6.9960568567287372e-06 -0.0044657631547355458 0 4.8455473501223341e-05 -0.0045014251755391838 0 1.440637710664093e-05 -0.0044685982136747661 0 8.2045049680800128e-05 -0.0044834557807348473 0 2.8529730435609286e-05 -0.0044783914180769801 0 6.9960568567287372e-06 -0.0044657631547355458 0 2.8529730435609286e-05 -0.0044783914180769801 0 6.9960568567287372e-06 -0.0044657631547355458 0 9.4628925557654813e-06 -0.004479574847570938 0 -2.3599930500420737e-06 -0.0044623825215302608 0 6.9960568567287372e-06 -0.0044657631547355458 0 9.4628925557654813e-06 -0.004479574847570938 0 2.1608618892333155e-05 -0.0042369763328506949 0 3.7241349479094086e-05 -0.0043095918594527769 0 4.3561363286998796e-05 -0.0045085575292564484 0 8.9403936672642218e-06 -0.0045034407035060573 0 2.6603548040881776e-05 -0.0044680368114616235 0 8.9403936672642218e-06 -0.0045034407035060573 0 2.6603548040881776e-05 -0.0044680368114616235 0 9.9322277480195612e-06 -0.0044680936852796007 0 2.6603548040881776e-05 -0.0044680368114616235 0 1.3819699450749647e-05 -0.0044424006220201637 0 2.35646642347184e-05 -0.004430583673906089 0 9.9322277480195612e-06 -0.0044680936852796007 0 1.3819699450749647e-05 -0.0044424006220201637 0 -2.3599930500420737e-06 -0.0044623825215302608 0 2.6603548040881776e-05 -0.0044680368114616235 0 9.9322277480195612e-06 -0.0044680936852796007 0 1.3819699450749647e-05 -0.0044424006220201637 0 1.3819699450749647e-05 -0.0044424006220201637 0 2.35646642347184e-05 -0.004430583673906089 0 -6.2527790063290615e-08 -0.0043315020846586968 0 2.2382874544274912e-08 -0.0043310824758494423 0 2.1608618892333155e-05 -0.0042369763328506949 0 1.3819699450749647e-05 -0.0044424006220201637 0 -6.2527790063290615e-08 -0.0043315020846586968 0 -2.3599930500420737e-06 -0.0044623825215302608 0 -1.2074758707963454e-07 -0.0043307654219392712 0 8.0303399455597085e-08 -0.0040824988313174692 0 1.8407661453495521e-05 -0.004109967718604033 0 -1.2074758707963454e-07 -0.0043307654219392712 0 1.8407661453495521e-05 -0.004109967718604033 0 2.4107372302679952e-05 -0.0040085427309818865 0 8.0303399455597085e-08 -0.0040824988313174692 0 1.8407661453495521e-05 -0.004109967718604033 0 4.2333636734085741e-05 -0.0040143282226053553 0 1.8407661453495521e-05 -0.004109967718604033 0 2.4107372302679952e-05 -0.0040085427309818865 0 4.2333636734085741e-05 -0.0040143282226053553 0 9.9322277480195612e-06 -0.0044680936852796007 0 -2.3599930500420737e-06 -0.0044623825215302608 0 6.9960568567287372e-06 -0.0044657631547355458 0 4.4961820038744603e-05 -0.0040285248333623985 0 4.2333636734085741e-05 -0.0040143282226053553 0 1.0812506099098249e-05 -0.0040033554447866989 0 2.4107372302679952e-05 -0.0040085427309818865 0 4.4961820038744603e-05 -0.0040285248333623985 0 4.2333636734085741e-05 -0.0040143282226053553 0 4.2333636734085741e-05 -0.0040143282226053553 0 2.1125268077498144e-07 -0.0038334208892909999 0 1.0812506099098249e-05 -0.0040033554447866989 0 8.0303399455597085e-08 -0.0040824988313174692 0 4.2333636734085741e-05 -0.0040143282226053553 0 2.1125268077498144e-07 -0.0038334208892909999 0 -0.00013291870134197987 -0.0039373375494002674 0 2.1125268077498144e-07 -0.0038334208892909999 0 1.0812506099098249e-05 -0.0040033554447866989 0 -0.00013291870134197987 -0.0039373375494002674 0 1.0812506099098249e-05 -0.0040033554447866989 0 -5.4368315818509913e-05 -0.004155037041019969 0 1.0812506099098249e-05 -0.0040033554447866989 0 8.9768831781710049e-05 -0.0041235623623545204 0 -5.4368315818509913e-05 -0.004155037041019969 0 2.4107372302679952e-05 -0.0040085427309818865 0 4.4961820038744603e-05 -0.0040285248333623985 0 8.9768831781710049e-05 -0.0041235623623545204 0 4.4961820038744603e-05 -0.0040285248333623985 0 1.0812506099098249e-05 -0.0040033554447866989 0 8.9768831781710049e-05 -0.0041235623623545204 0 9.4628925557654813e-06 -0.004479574847570938 0 -6.4355445849201975e-05 -0.0044820921490895905 0 -2.7384386057122409e-06 -0.0045086871468482366 0 2.8529730435609286e-05 -0.0044783914180769801 0 9.4628925557654813e-06 -0.004479574847570938 0 -2.7384386057122409e-06 -0.0045086871468482366 0 3.7241349479094086e-05 -0.0043095918594527769 0 -6.1896630709640566e-05 -0.0044768274495777163 0 -0.00011755200062452004 -0.0043934186093215477 0 -5.4368315818509913e-05 -0.004155037041019969 0 -6.4355445849201975e-05 -0.0044820921490895905 0 8.9768831781710049e-05 -0.0041235623623545204 0 -5.4368315818509913e-05 -0.004155037041019969 0 -6.4355445849201975e-05 -0.0044820921490895905 0 -2.5916725522854286e-05 -0.0045338221024238306 0 -6.4355445849201975e-05 -0.0044820921490895905 0 -2.7384386057122409e-06 -0.0045086871468482366 0 -2.5916725522854286e-05 -0.0045338221024238306 0 1.8598361374970241e-07 -0.0045894168244533977 0 -5.9210622809413617e-05 -0.0045846077058914201 0 -2.5916725522854286e-05 -0.0045338221024238306 0 -6.7504173963447891e-05 -0.0045366342020562852 0 -6.4355445849201975e-05 -0.0044820921490895905 0 -2.5916725522854286e-05 -0.0045338221024238306 0 -6.7504173963447891e-05 -0.0045366342020562852 0 -5.9210622809413617e-05 -0.0045846077058914201 0 -0.00012838779399792271 -0.0045418436785471519 0 -0.00011755200062452004 -0.0043934186093215477 0 -6.4355445849201975e-05 -0.0044820921490895905 0 -0.00012838779399792271 -0.0045418436785471519 0 -6.7504173963447891e-05 -0.0045366342020562852 0 -5.9210622809413617e-05 -0.0045846077058914201 0 -0.00012838779399792271 -0.0045418436785471519 0 -6.7504173963447891e-05 -0.0045366342020562852 0 -6.4355445849201975e-05 -0.0044820921490895905 0 -2.5916725522854286e-05 -0.0045338221024238306 0 -2.7384386057122409e-06 -0.0045086871468482366 0 2.6745749568176766e-05 -0.0045575155034884782 0 -2.7384386057122409e-06 -0.0045086871468482366 0 2.6745749568176766e-05 -0.0045575155034884782 0 6.0387114519424965e-05 -0.0045446315568067903 0 -2.5916725522854286e-05 -0.0045338221024238306 0 2.6745749568176766e-05 -0.0045575155034884782 0 1.8598361374970241e-07 -0.0045894168244533977 0 -8.5788952752286701e-06 -0.0046566079980138175 0 -2.3367009438143486e-06 -0.0047593425331383631 0 4.3050396729799304e-05 -0.0046142873405459481 0 1.8598361374970241e-07 -0.0045894168244533977 0 -8.5788952752286701e-06 -0.0046566079980138175 0 -5.9210622809413617e-05 -0.0045846077058914201 0 1.8598361374970241e-07 -0.0045894168244533977 0 -8.5788952752286701e-06 -0.0046566079980138175 0 4.3050396729799304e-05 -0.0046142873405459481 0 2.6745749568176766e-05 -0.0045575155034884782 0 1.8598361374970241e-07 -0.0045894168244533977 0 4.3050396729799304e-05 -0.0046142873405459481 0 -8.5788952752286701e-06 -0.0046566079980138175 0 -5.9210622809413617e-05 -0.0045846077058914201 0 -5.2022022270993939e-05 -0.0047455558609725826 0 0.00012606128257419726 -0.0047852486785071556 0 0.00013887944657967139 -0.0048322224962077231 0 0.00014787952646622032 -0.0048361829676614376 0 -0.00012838779399792271 -0.0045418436785471519 0 -5.9210622809413617e-05 -0.0045846077058914201 0 -5.2022022270993939e-05 -0.0047455558609725826 0 5.0583579060121738e-05 -0.0044168367513283506 0 5.0836749958058571e-05 -0.0048372584457892489 0 0.00012606128257419726 -0.0047852486785071556 0 0.00013310984228289229 -0.0048422191246407153 0 0.00013887944657967139 -0.0048322224962077231 0 0.00013887944657967139 -0.0048322224962077231 0 0.00014787952646622032 -0.0048361829676614376 0 0.00014184578644662799 -0.0048429626529414701 0 0.00013310984228289229 -0.0048422191246407153 0 0.00013887944657967139 -0.0048322224962077231 0 0.00014184578644662799 -0.0048429626529414701 0 0.00014184578644662799 -0.0048429626529414701 0 0.00014307638607094332 -0.0048453714677860445 0 0.00012330994483032972 -0.0048478955009304513 0 0.00013310984228289229 -0.0048422191246407153 0 0.00014184578644662799 -0.0048429626529414701 0 0.00014307638607094332 -0.0048453714677860445 0 0.00013310984228289229 -0.0048422191246407153 0 0.00014307638607094332 -0.0048453714677860445 0 0.0001675615317233462 -0.0048407755625683429 0 0.00014787952646622032 -0.0048361829676614376 0 0.00014184578644662799 -0.0048429626529414701 0 0.00012330994483032972 -0.0048478955009304513 0 2.0517689698082087e-05 -0.0048602822905104192 0 -2.3367009438143486e-06 -0.0047593425331383631 0 4.5050128300836579e-05 -0.0048433668739624571 0 5.0836749958058571e-05 -0.0048372584457892489 0 6.7989099604250834e-05 -0.0048390897533915475 0 -5.2022022270993939e-05 -0.0047455558609725826 0 2.0517689698082087e-05 -0.0048602822905104192 0 -2.3367009438143486e-06 -0.0047593425331383631 0 -8.5788952752286701e-06 -0.0046566079980138175 0 -5.2022022270993939e-05 -0.0047455558609725826 0 -2.3367009438143486e-06 -0.0047593425331383631 0 -2.3367009438143486e-06 -0.0047593425331383631 0 4.5050128300836579e-05 -0.0048433668739624571 0 4.1771159682450582e-05 -0.0048264304455375873 0 -1.0520635188434185e-05 -0.0047640676176573188 0 8.2145266039731512e-05 -0.0047314735410293922 0 2.0517689698082087e-05 -0.0048602822905104192 0 4.5050128300836579e-05 -0.0048433668739624571 0 4.9208907226516039e-05 -0.0048681698893506707 0 4.5050128300836579e-05 -0.0048433668739624571 0 4.6564214241267864e-05 -0.0048570353081186287 0 4.3119758921721634e-05 -0.0048807525336191857 0 4.5050128300836579e-05 -0.0048433668739624571 0 4.3119758921721634e-05 -0.0048807525336191857 0 4.9208907226516039e-05 -0.0048681698893506707 0 4.5050128300836579e-05 -0.0048433668739624571 0 4.1771159682450582e-05 -0.0048264304455375873 0 4.6564214241267864e-05 -0.0048570353081186287 0 0.00010931165044375307 -0.0046499420246121533 0 0.00014666260249303735 -0.0045421747265306511 0 0.00019285333075127738 -0.0046109009668868694 0 8.2145266039731512e-05 -0.0047314735410293922 0 7.5730739806423311e-05 -0.0047753963645095383 0 0.00010931165044375307 -0.0046499420246121533 0 4.3050396729799304e-05 -0.0046142873405459481 0 6.0387114519424965e-05 -0.0045446315568067903 0 -2.3367009438143486e-06 -0.0047593425331383631 0 0.00010931165044375307 -0.0046499420246121533 0 4.3050396729799304e-05 -0.0046142873405459481 0 2.6745749568176766e-05 -0.0045575155034884782 0 4.3050396729799304e-05 -0.0046142873405459481 0 6.0387114519424965e-05 -0.0045446315568067903 0 0.00010931165044375307 -0.0046499420246121533 0 6.0387114519424965e-05 -0.0045446315568067903 0 0.00014666260249303735 -0.0045421747265306511 0 8.1203608003211473e-05 -0.0045219264452877501 0 7.5730739806423311e-05 -0.0047753963645095383 0 2.9921733983431407e-05 -0.0045479090189797311 0 6.7689901619431928e-05 -0.0045468560940245236 0 5.4331292755665405e-05 -0.0045894896845301847 0 6.7689901619431928e-05 -0.0045468560940245236 0 5.4331292755665405e-05 -0.0045894896845301847 0 9.8097855390024633e-05 -0.0045748847557784272 0 0.00010289293654282047 -0.0045330228138240631 0 6.7689901619431928e-05 -0.0045468560940245236 0 9.8097855390024633e-05 -0.0045748847557784272 0 7.5730739806423311e-05 -0.0047753963645095383 0 5.9605124738850335e-05 -0.0047887919060172349 0 3.3998279814671618e-05 -0.0050064366046550391 0 2.0406421914681612e-05 -0.0050029728329841891 0 2.2642934032112238e-05 -0.0050115612375626027 0 4.1771159682450582e-05 -0.0048264304455375873 0 5.1719329211629878e-05 -0.0048427074939880388 0 4.6564214241267864e-05 -0.0048570353081186287 0 5.1719329211629878e-05 -0.0048427074939880388 0 4.6564214241267864e-05 -0.0048570353081186287 0 5.099730161274523e-05 -0.0048812064706531474 0 4.6564214241267864e-05 -0.0048570353081186287 0 4.3119758921721634e-05 -0.0048807525336191857 0 5.099730161274523e-05 -0.0048812064706531474 0 4.3119758921721634e-05 -0.0048807525336191857 0 5.099730161274523e-05 -0.0048812064706531474 0 3.6381279245113906e-05 -0.004916230619321533 0 3.3998279814671618e-05 -0.0050064366046550391 0 2.7136585542656139e-05 -0.0049957119907733357 0 2.0406421914681612e-05 -0.0050029728329841891 0 7.5730739806423311e-05 -0.0047753963645095383 0 3.6943541250069817e-05 -0.0049685733681173044 0 2.7136585542656139e-05 -0.0049957119907733357 0 2.0406421914681612e-05 -0.0050029728329841891 0 1.3204096891461242e-05 -0.0049946986039108012 0 2.0406421914681612e-05 -0.0050029728329841891 0 1.3204096891461242e-05 -0.0049946986039108012 0 4.1810996290070362e-06 -0.0050003485672945828 0 3.6943541250069817e-05 -0.0049685733681173044 0 2.117020693777236e-05 -0.0049454930597774257 0 2.7136585542656139e-05 -0.0049957119907733357 0 1.3204096891461242e-05 -0.0049946986039108012 0 2.2160187930441901e-05 -0.0049639427253735354 0 1.3204096891461242e-05 -0.0049946986039108012 0 -2.4413991397864651e-09 -0.004999985946834937 0 4.1810996290070362e-06 -0.0050003485672945828 0 1.3204096891461242e-05 -0.0049946986039108012 0 -2.4413991397864651e-09 -0.004999985946834937 0 2.2160187930441901e-05 -0.0049639427253735354 0 -2.4413991397864651e-09 -0.004999985946834937 0 4.1810996290070362e-06 -0.0050003485672945828 0 1.0604406056101271e-08 -0.0050000076381931042 0 -9.128726021182067e-06 -0.0050543502878718704 0 6.3783903321477416e-05 -0.0048803495062875284 0 4.1810996290070362e-06 -0.0050003485672945828 0 1.0604406056101271e-08 -0.0050000076381931042 0 5.3772538422959921e-07 -0.0050001527863444695 0 4.1810996290070362e-06 -0.0050003485672945828 0 1.4023926630567351e-05 -0.0050074181296356438 0 1.0685174925595375e-05 -0.0050161056109185006 0 2.0406421914681612e-05 -0.0050029728329841891 0 1.4023926630567351e-05 -0.0050074181296356438 0 2.2642934032112238e-05 -0.0050115612375626027 0 2.0406421914681612e-05 -0.0050029728329841891 0 4.1810996290070362e-06 -0.0050003485672945828 0 1.4023926630567351e-05 -0.0050074181296356438 0 1.4023926630567351e-05 -0.0050074181296356438 0 2.2642934032112238e-05 -0.0050115612375626027 0 1.0685174925595375e-05 -0.0050161056109185006 0 5.9605124738850335e-05 -0.0047887919060172349 0 6.3783903321477416e-05 -0.0048803495062875284 0 0.00010289293654282047 -0.0045330228138240631 0 9.8097855390024633e-05 -0.0045748847557784272 0 0.00014153360515295967 -0.0045619611402052422 0 1.0604406056101271e-08 -0.0050000076381931042 0 5.3772538422959921e-07 -0.0050001527863444695 0 -4.321931030518014e-09 -0.0049999967502875079 0 1.4424545573764795e-07 -0.0049994884356612951 0 6.6690480062960178e-07 -0.0049988531376636324 0 5.4872039859820666e-10 -0.0049999969800898535 0 6.3783903321477416e-05 -0.0048803495062875284 0 -4.4807411243618747e-08 -0.0049999676547548416 0 1.0789359161490082e-05 -0.0049713537394432527 0 8.7117293250802786e-09 -0.0049999511151885868 0 9.0804898346461786e-09 -0.0049999557433352488 0 1.0789359161490082e-05 -0.0049713537394432527 0 1.6812066469312294e-05 -0.004946510216031378 0 1.539046052774781e-05 -0.004955099815670337 0 1.6812066469312294e-05 -0.004946510216031378 0 1.6802531375799772e-05 -0.0049498456976232175 0 2.0196121138633668e-05 -0.004932085309087445 0 1.0789359161490082e-05 -0.0049713537394432527 0 1.6812066469312294e-05 -0.004946510216031378 0 1.6802531375799772e-05 -0.0049498456976232175 0 1.5088238564339795e-05 -0.0049617713959226734 0 2.6194630541539307e-05 -0.0049395419446625777 0 2.2821622303477277e-05 -0.0049270184814278091 0 1.0789359161490082e-05 -0.0049713537394432527 0 1.6802531375799772e-05 -0.0049498456976232175 0 1.5088238564339795e-05 -0.0049617713959226734 0 1.6802531375799772e-05 -0.0049498456976232175 0 1.5088238564339795e-05 -0.0049617713959226734 0 2.2821622303477277e-05 -0.0049270184814278091 0 1.0789359161490082e-05 -0.0049713537394432527 0 1.5088238564339795e-05 -0.0049617713959226734 0 8.7117293250802786e-09 -0.0049999511151885868 0 1.5088238564339795e-05 -0.0049617713959226734 0 8.7117293250802786e-09 -0.0049999511151885868 0 1.8123140104874787e-08 -0.0049999355639905561 0 1.5088238564339795e-05 -0.0049617713959226734 0 1.8123140104874787e-08 -0.0049999355639905561 0 2.2160187930441901e-05 -0.0049639427253735354 0 -2.4413991397864651e-09 -0.004999985946834937 0 1.8123140104874787e-08 -0.0049999355639905561 0 2.2160187930441901e-05 -0.0049639427253735354 0 2.2160187930441901e-05 -0.0049639427253735354 0 2.6194630541539307e-05 -0.0049395419446625777 0 3.6381279245113906e-05 -0.004916230619321533 0 1.5088238564339795e-05 -0.0049617713959226734 0 2.2160187930441901e-05 -0.0049639427253735354 0 2.6194630541539307e-05 -0.0049395419446625777 0 2.6194630541539307e-05 -0.0049395419446625777 0 3.2849214697535348e-05 -0.0049111941587478914 0 2.2821622303477277e-05 -0.0049270184814278091 0 2.6194630541539307e-05 -0.0049395419446625777 0 3.2849214697535348e-05 -0.0049111941587478914 0 3.6381279245113906e-05 -0.004916230619321533 0 5.099730161274523e-05 -0.0048812064706531474 0 2.2160187930441901e-05 -0.0049639427253735354 0 3.6381279245113906e-05 -0.004916230619321533 0 4.3119758921721634e-05 -0.0048807525336191857 0 3.6381279245113906e-05 -0.004916230619321533 0 4.2519295065784805e-05 -0.0048888780925135872 0 3.2849214697535348e-05 -0.0049111941587478914 0 3.6381279245113906e-05 -0.004916230619321533 0 4.2519295065784805e-05 -0.0048888780925135872 0 4.2519295065784805e-05 -0.0048888780925135872 0 4.014705453116346e-05 -0.004889951336651488 0 5.3462146697146547e-05 -0.004865548005383121 0 3.2849214697535348e-05 -0.0049111941587478914 0 4.2519295065784805e-05 -0.0048888780925135872 0 4.014705453116346e-05 -0.004889951336651488 0 4.014705453116346e-05 -0.004889951336651488 0 3.4887612150308382e-05 -0.004891231921106784 0 5.3462146697146547e-05 -0.004865548005383121 0 3.4887612150308382e-05 -0.004891231921106784 0 4.6102627595011692e-05 -0.0048663603521020933 0 3.6259987705820804e-05 -0.0048806064386519629 0 3.4887612150308382e-05 -0.004891231921106784 0 4.6102627595011692e-05 -0.0048663603521020933 0 5.3462146697146547e-05 -0.004865548005383121 0 3.2849214697535348e-05 -0.0049111941587478914 0 4.014705453116346e-05 -0.004889951336651488 0 3.4887612150308382e-05 -0.004891231921106784 0 3.2849214697535348e-05 -0.0049111941587478914 0 3.4887612150308382e-05 -0.004891231921106784 0 2.2821622303477277e-05 -0.0049270184814278091 0 3.4887612150308382e-05 -0.004891231921106784 0 2.2821622303477277e-05 -0.0049270184814278091 0 2.6956102474377187e-05 -0.0049057823944870594 0 1.6802531375799772e-05 -0.0049498456976232175 0 2.2821622303477277e-05 -0.0049270184814278091 0 2.0196121138633668e-05 -0.004932085309087445 0 1.6812066469312294e-05 -0.004946510216031378 0 2.6956102474377187e-05 -0.0049057823944870594 0 3.9602793368969057e-05 -0.0048580809543006167 0 1.6812066469312294e-05 -0.004946510216031378 0 2.1063451086147566e-05 -0.0049509680273178164 0 1.539046052774781e-05 -0.004955099815670337 0 2.1839738689728887e-05 -0.0049401890305564846 0 3.5870382637599035e-05 -0.0049040163587813577 0 1.6812066469312294e-05 -0.004946510216031378 0 2.6956102474377187e-05 -0.0049057823944870594 0 2.0196121138633668e-05 -0.004932085309087445 0 2.2821622303477277e-05 -0.0049270184814278091 0 2.6956102474377187e-05 -0.0049057823944870594 0 2.0196121138633668e-05 -0.004932085309087445 0 1.6812066469312294e-05 -0.004946510216031378 0 2.1063451086147566e-05 -0.0049509680273178164 0 2.3664500273045042e-05 -0.0049537251946051861 0 2.1063451086147566e-05 -0.0049509680273178164 0 2.3664500273045042e-05 -0.0049537251946051861 0 1.9414215095613471e-05 -0.0049460245702877539 0 3.9602793368969057e-05 -0.0048580809543006167 0 4.6102627595011692e-05 -0.0048663603521020933 0 3.6259987705820804e-05 -0.0048806064386519629 0 2.6956102474377187e-05 -0.0049057823944870594 0 3.9602793368969057e-05 -0.0048580809543006167 0 3.6259987705820804e-05 -0.0048806064386519629 0 3.4887612150308382e-05 -0.004891231921106784 0 2.6956102474377187e-05 -0.0049057823944870594 0 3.6259987705820804e-05 -0.0048806064386519629 0 3.5870382637599035e-05 -0.0049040163587813577 0 0.00011857975630454655 -0.0048352163445371773 0 2.3664500273045042e-05 -0.0049537251946051861 0 0.00014998698153857574 -0.0048741112909085095 0 9.3805530672254865e-05 -0.0048636252145362966 0 3.9602793368969057e-05 -0.0048580809543006167 0 6.422102457545294e-05 -0.0048416265371841538 0 9.5691984163148467e-05 -0.0047943247722343537 0 3.9602793368969057e-05 -0.0048580809543006167 0 4.6102627595011692e-05 -0.0048663603521020933 0 6.422102457545294e-05 -0.0048416265371841538 0 6.422102457545294e-05 -0.0048416265371841538 0 9.5691984163148467e-05 -0.0047943247722343537 0 8.1870871736979152e-05 -0.004828382155078176 0 9.5691984163148467e-05 -0.0047943247722343537 0 8.1870871736979152e-05 -0.004828382155078176 0 0.00012517480641391053 -0.0047872085874806824 0 8.1870871736979152e-05 -0.004828382155078176 0 5.3462146697146547e-05 -0.004865548005383121 0 7.4475407082023588e-05 -0.0048499294652201196 0 8.1870871736979152e-05 -0.004828382155078176 0 7.4475407082023588e-05 -0.0048499294652201196 0 0.00012517480641391053 -0.0047872085874806824 0 6.422102457545294e-05 -0.0048416265371841538 0 8.1870871736979152e-05 -0.004828382155078176 0 5.3462146697146547e-05 -0.004865548005383121 0 4.6102627595011692e-05 -0.0048663603521020933 0 6.422102457545294e-05 -0.0048416265371841538 0 5.3462146697146547e-05 -0.004865548005383121 0 4.2519295065784805e-05 -0.0048888780925135872 0 5.3462146697146547e-05 -0.004865548005383121 0 7.4475407082023588e-05 -0.0048499294652201196 0 4.2519295065784805e-05 -0.0048888780925135872 0 4.9208907226516039e-05 -0.0048681698893506707 0 7.4475407082023588e-05 -0.0048499294652201196 0 4.3119758921721634e-05 -0.0048807525336191857 0 4.2519295065784805e-05 -0.0048888780925135872 0 4.9208907226516039e-05 -0.0048681698893506707 0 2.0517689698082087e-05 -0.0048602822905104192 0 4.9208907226516039e-05 -0.0048681698893506707 0 7.4475407082023588e-05 -0.0048499294652201196 0 6.7989099604250834e-05 -0.0048390897533915475 0 7.3126247026792296e-05 -0.0048509118175637861 0 7.4475407082023588e-05 -0.0048499294652201196 0 0.00013152912890195697 -0.0047911227461262624 0 0.00012517480641391053 -0.0047872085874806824 0 7.4475407082023588e-05 -0.0048499294652201196 0 0.00013152912890195697 -0.0047911227461262624 0 0.00013021088126708314 -0.0048308113198473586 0 0.00012330994483032972 -0.0048478955009304513 0 7.4475407082023588e-05 -0.0048499294652201196 0 0.00013021088126708314 -0.0048308113198473586 0 0.00014307638607094332 -0.0048453714677860445 0 0.00012330994483032972 -0.0048478955009304513 0 0.00013021088126708314 -0.0048308113198473586 0 0.00014307638607094332 -0.0048453714677860445 0 0.00013021088126708314 -0.0048308113198473586 0 0.0001675615317233462 -0.0048407755625683429 0 0.00013021088126708314 -0.0048308113198473586 0 0.00014244448173775817 -0.0048016686391435127 0 0.0001675615317233462 -0.0048407755625683429 0 0.00014244448173775817 -0.0048016686391435127 0 0.00015205333180223375 -0.0047571345900072936 0 0.0001675615317233462 -0.0048407755625683429 0 0.00015205333180223375 -0.0047571345900072936 0 0.0001675615317233462 -0.0048407755625683429 0 0.00018404055368903441 -0.0046825900425681273 0 0.00013152912890195697 -0.0047911227461262624 0 0.00013021088126708314 -0.0048308113198473586 0 0.00014244448173775817 -0.0048016686391435127 0 0.00013152912890195697 -0.0047911227461262624 0 0.00014244448173775817 -0.0048016686391435127 0 0.00015205333180223375 -0.0047571345900072936 0 0.00013152912890195697 -0.0047911227461262624 0 0.00015205333180223375 -0.0047571345900072936 0 0.00015878055181759883 -0.004742944177100806 0 0.00015205333180223375 -0.0047571345900072936 0 0.00015878055181759883 -0.004742944177100806 0 0.00018404055368903441 -0.0046825900425681273 0 0.00015878055181759883 -0.004742944177100806 0 0.00018404055368903441 -0.0046825900425681273 0 0.00011387875945613517 -0.0047607205098160856 0 0.00013152912890195697 -0.0047911227461262624 0 0.00015878055181759883 -0.004742944177100806 0 0.00012517480641391053 -0.0047872085874806824 0 0.00011857975630454655 -0.0048352163445371773 0 0.00015264516065090173 -0.004792082497103967 0 0.00015878055181759883 -0.004742944177100806 0 0.00012517480641391053 -0.0047872085874806824 0 0.00015762685141187111 -0.0047839845062174757 0 9.5691984163148467e-05 -0.0047943247722343537 0 0.00012517480641391053 -0.0047872085874806824 0 0.00015762685141187111 -0.0047839845062174757 0 0.00014998698153857574 -0.0048741112909085095 0 0.00015762685141187111 -0.0047839845062174757 0 0.00016195238064851844 -0.0048276386450295848 0 0.00015762685141187111 -0.0047839845062174757 0 0.00012938704458981447 -0.0048119304045615621 0 0.00011387875945613517 -0.0047607205098160856 0 0.00015878055181759883 -0.004742944177100806 0 0.00015762685141187111 -0.0047839845062174757 0 0.00011387875945613517 -0.0047607205098160856 0 0.00015762685141187111 -0.0047839845062174757 0 0.00016333203821600203 -0.00483400385971161 0 0.00012938704458981447 -0.0048119304045615621 0 0.00013865246198146189 -0.0048579521315976724 0 8.6701058383143394e-05 -0.0048833165706630363 0 0.00016333203821600203 -0.00483400385971161 0 0.00012938704458981447 -0.0048119304045615621 0 9.0954442602237247e-05 -0.0048683400811715691 0 0.00010382753706880534 -0.0048872619387487571 0 9.767593970426582e-05 -0.0048916785609713943 0 0.00012259223629061171 -0.0048853057285204978 0 0.00013865246198146189 -0.0048579521315976724 0 0.00010393582299719183 -0.0049055999982279995 0 9.7081739498683589e-05 -0.0049484325239128601 0 0.00010393582299719183 -0.0049055999982279995 0 0.00016333203821600203 -0.00483400385971161 0 0.00016195238064851844 -0.0048276386450295848 0 0.00015519911454521065 -0.004829513593208914 0 0.00015762685141187111 -0.0047839845062174757 0 0.00016333203821600203 -0.00483400385971161 0 0.00016195238064851844 -0.0048276386450295848 0 0.00010390648433240859 -0.0049861245802710948 0 7.1448199271372607e-05 -0.0049562421920242329 0 3.8860024349225724e-05 -0.0049921929586208402 0 7.1448199271372607e-05 -0.0049562421920242329 0 3.3506276224318342e-05 -0.0049759154249909687 0 3.8860024349225724e-05 -0.0049921929586208402 0 0.00010382753706880534 -0.0048872619387487571 0 9.767593970426582e-05 -0.0048916785609713943 0 8.429159194668882e-05 -0.0048889977352958901 0 0.00010390648433240859 -0.0049861245802710948 0 7.1448199271372607e-05 -0.0049562421920242329 0 0.00012944954846283874 -0.0049686004689842248 0 9.8520973477808237e-05 -0.004968921667262277 0 0.00012671927306003687 -0.0049688162277148219 0 0.00013147945373745982 -0.004968937256359959 0 0.00012739426840880388 -0.0049698852497270934 0 0.00012647151218025593 -0.0049795560041407836 0 0.00013147945373745982 -0.004968937256359959 0 0.00012647151218025593 -0.0049795560041407836 0 0.00012944954846283874 -0.0049686004689842248 0 0.00013147945373745982 -0.004968937256359959 0 0.00013672897368635889 -0.0049626646504450922 0 0.00013765940240658244 -0.004960589579132744 0 0.00013147945373745982 -0.004968937256359959 0 0.00013392554769455021 -0.0049617747250252217 0 0.00013765940240658244 -0.004960589579132744 0 0.00013392554769455021 -0.0049617747250252217 0 0.00012739426840880388 -0.0049698852497270934 0 0.00012916286512598926 -0.0049524579036844063 0 0.00013147945373745982 -0.004968937256359959 0 0.00013392554769455021 -0.0049617747250252217 0 0.00012739426840880388 -0.0049698852497270934 0 0.00013392554769455021 -0.0049617747250252217 0 0.00013765940240658244 -0.004960589579132744 0 0.00014079886042030852 -0.0049534461325558346 0 0.0001138185762795682 -0.0049818726146232326 0 0.00013327475057641315 -0.0049778100933814615 0 0.00014460837890543869 -0.0049823527068627504 0 0.00012739426840880388 -0.0049698852497270934 0 0.0001138185762795682 -0.0049818726146232326 0 0.00012916286512598926 -0.0049524579036844063 0 0.00011640463953048507 -0.0049803403838218118 0 0.00013732837058518833 -0.0049673657597852083 0 0.00012739426840880388 -0.0049698852497270934 0 0.00011971545758623987 -0.0049809120067213679 0 0.0001138185762795682 -0.0049818726146232326 0 0.00012739426840880388 -0.0049698852497270934 0 0.00011971545758623987 -0.0049809120067213679 0 0.00012647151218025593 -0.0049795560041407836 0 0.00011971545758623987 -0.0049809120067213679 0 0.00012647151218025593 -0.0049795560041407836 0 0.00010686208271493105 -0.0049960630947150147 0 9.8520973477808237e-05 -0.004968921667262277 0 6.6244161293795768e-05 -0.0049784838830681391 0 0.00010686208271493105 -0.0049960630947150147 0 0.0001138185762795682 -0.0049818726146232326 0 9.2346694017847098e-05 -0.0049860563134412192 0 0.00011971545758623987 -0.0049809120067213679 0 0.00010686208271493105 -0.0049960630947150147 0 0.0001138185762795682 -0.0049818726146232326 0 0.0001138185762795682 -0.0049818726146232326 0 0.00010358127623934956 -0.0049725751890324198 0 0.00013327475057641315 -0.0049778100933814615 0 0.0001138185762795682 -0.0049818726146232326 0 9.2346694017847098e-05 -0.0049860563134412192 0 0.00010358127623934956 -0.0049725751890324198 0 9.2346694017847098e-05 -0.0049860563134412192 0 6.8050403383513645e-05 -0.0049656911941392953 0 0.00010358127623934956 -0.0049725751890324198 0 0.00010686208271493105 -0.0049960630947150147 0 9.2346694017847098e-05 -0.0049860563134412192 0 6.7545110860044104e-05 -0.0050025988871632626 0 2.5268037926986502e-05 -0.0049608369813395822 0 1.6578010511587951e-05 -0.0049746685256150201 0 1.5150536311763949e-05 -0.0049789452925762898 0 6.6244161293795768e-05 -0.0049784838830681391 0 4.19003219953874e-05 -0.0049901096648657392 0 1.6578010511587951e-05 -0.0049746685256150201 0 1.6314467675914309e-05 -0.004975532543135425 0 1.6482783621274995e-05 -0.0049754637779425796 0 1.6578010511587951e-05 -0.0049746685256150201 0 1.6314467675914309e-05 -0.004975532543135425 0 2.1651202798277804e-05 -0.0049736196949331721 0 1.6314467675914309e-05 -0.004975532543135425 0 1.6272690309612633e-05 -0.0049698943931959375 0 1.6482783621274995e-05 -0.0049754637779425796 0 1.6314467675914309e-05 -0.004975532543135425 0 2.1651202798277804e-05 -0.0049736196949331721 0 2.2111423011421808e-05 -0.0049790834041616664 0 2.5268037926986502e-05 -0.0049608369813395822 0 1.6578010511587951e-05 -0.0049746685256150201 0 2.1651202798277804e-05 -0.0049736196949331721 0 7.1448199271372607e-05 -0.0049562421920242329 0 2.5268037926986502e-05 -0.0049608369813395822 0 3.3506276224318342e-05 -0.0049759154249909687 0 2.5268037926986502e-05 -0.0049608369813395822 0 2.1651202798277804e-05 -0.0049736196949331721 0 3.3506276224318342e-05 -0.0049759154249909687 0 2.1651202798277804e-05 -0.0049736196949331721 0 3.3506276224318342e-05 -0.0049759154249909687 0 2.2111423011421808e-05 -0.0049790834041616664 0 3.3506276224318342e-05 -0.0049759154249909687 0 2.2111423011421808e-05 -0.0049790834041616664 0 3.3611556043818934e-05 -0.0049905264278452882 0 2.2111423011421808e-05 -0.0049790834041616664 0 3.3611556043818934e-05 -0.0049905264278452882 0 1.4560885986672805e-05 -0.0049771048769945729 0 9.3979294623254114e-05 -0.0049092546426814853 0 5.8682282292391236e-05 -0.0049220391444208412 0 3.3506276224318342e-05 -0.0049759154249909687 0 3.3611556043818934e-05 -0.0049905264278452882 0 3.8860024349225724e-05 -0.0049921929586208402 0 9.3979294623254114e-05 -0.0049092546426814853 0 0.00010393582299719183 -0.0049055999982279995 0 0.00014998698153857574 -0.0048741112909085095 0 0.00014797947674373356 -0.0048331695098028718 0 0.00015519911454521065 -0.004829513593208914 0 0.00014998698153857574 -0.0048741112909085095 0 0.00016195238064851844 -0.0048276386450295848 0 0.00015519911454521065 -0.004829513593208914 0 0.00014998698153857574 -0.0048741112909085095 0 0.00014797947674373356 -0.0048331695098028718 0 9.3805530672254865e-05 -0.0048636252145362966 0 5.8682282292391236e-05 -0.0049220391444208412 0 2.9084663008560134e-05 -0.0049380584481692217 0 2.3664500273045042e-05 -0.0049537251946051861 0 9.3805530672254865e-05 -0.0048636252145362966 0 1.9414215095613471e-05 -0.0049460245702877539 0 1.4560885986672805e-05 -0.0049771048769945729 0 1.6272690309612633e-05 -0.0049698943931959375 0 1.9414215095613471e-05 -0.0049460245702877539 0 1.6314467675914309e-05 -0.004975532543135425 0 1.4560885986672805e-05 -0.0049771048769945729 0 1.6272690309612633e-05 -0.0049698943931959375 0 1.6314467675914309e-05 -0.004975532543135425 0 2.2111423011421808e-05 -0.0049790834041616664 0 1.4560885986672805e-05 -0.0049771048769945729 0 2.0908476339760822e-05 -0.0049667715987564229 0 1.9912545078796622e-05 -0.0049788231884178207 0 1.8360703194088059e-05 -0.004974881128703694 0 2.0908476339760822e-05 -0.0049667715987564229 0 1.6272690309612633e-05 -0.0049698943931959375 0 1.8360703194088059e-05 -0.004974881128703694 0 2.0908476339760822e-05 -0.0049667715987564229 0 1.6272690309612633e-05 -0.0049698943931959375 0 1.9414215095613471e-05 -0.0049460245702877539 0 2.1063451086147566e-05 -0.0049509680273178164 0 2.0908476339760822e-05 -0.0049667715987564229 0 2.068969492206277e-05 -0.0049750186576222287 0 2.1063451086147566e-05 -0.0049509680273178164 0 2.0908476339760822e-05 -0.0049667715987564229 0 1.9414215095613471e-05 -0.0049460245702877539 0 2.1063451086147566e-05 -0.0049509680273178164 0 2.068969492206277e-05 -0.0049750186576222287 0 1.8699553657642158e-05 -0.0049875275111814794 0 1.8325874038795507e-05 -0.0049538971675491877 0 1.7134326115354148e-05 -0.0049718191970309026 0 2.068969492206277e-05 -0.0049750186576222287 0 1.9912545078796622e-05 -0.0049788231884178207 0 1.9339006275507951e-05 -0.0049838309001490931 0 2.068969492206277e-05 -0.0049750186576222287 0 1.9339006275507951e-05 -0.0049838309001490931 0 1.8699553657642158e-05 -0.0049875275111814794 0 2.0908476339760822e-05 -0.0049667715987564229 0 2.068969492206277e-05 -0.0049750186576222287 0 1.9912545078796622e-05 -0.0049788231884178207 0 1.9912545078796622e-05 -0.0049788231884178207 0 1.9339006275507951e-05 -0.0049838309001490931 0 1.9319128245933241e-05 -0.0049859310022796581 0 1.9912545078796622e-05 -0.0049788231884178207 0 1.9319128245933241e-05 -0.0049859310022796581 0 1.7126855602350412e-05 -0.0049791814728334608 0 1.9912545078796622e-05 -0.0049788231884178207 0 1.7126855602350412e-05 -0.0049791814728334608 0 1.8360703194088059e-05 -0.004974881128703694 0 1.7126855602350412e-05 -0.0049791814728334608 0 1.8360703194088059e-05 -0.004974881128703694 0 1.6482783621274995e-05 -0.0049754637779425796 0 1.6272690309612633e-05 -0.0049698943931959375 0 1.8360703194088059e-05 -0.004974881128703694 0 1.6482783621274995e-05 -0.0049754637779425796 0 1.6578010511587951e-05 -0.0049746685256150201 0 1.7126855602350412e-05 -0.0049791814728334608 0 1.6482783621274995e-05 -0.0049754637779425796 0 1.6578010511587951e-05 -0.0049746685256150201 0 1.7126855602350412e-05 -0.0049791814728334608 0 1.5150536311763949e-05 -0.0049789452925762898 0 1.9319128245933241e-05 -0.0049859310022796581 0 1.7126855602350412e-05 -0.0049791814728334608 0 1.5150536311763949e-05 -0.0049789452925762898 0 6.7545110860044104e-05 -0.0050025988871632626 0 3.3124220786479109e-05 -0.0049777645172467177 0 6.8050403383513645e-05 -0.0049656911941392953 0 9.2346694017847098e-05 -0.0049860563134412192 0 6.7545110860044104e-05 -0.0050025988871632626 0 6.8050403383513645e-05 -0.0049656911941392953 0 6.7545110860044104e-05 -0.0050025988871632626 0 3.3124220786479109e-05 -0.0049777645172467177 0 2.1987573624531614e-05 -0.0049950724743118959 0 1.9319128245933241e-05 -0.0049859310022796581 0 1.5150536311763949e-05 -0.0049789452925762898 0 2.1987573624531614e-05 -0.0049950724743118959 0 4.19003219953874e-05 -0.0049901096648657392 0 2.4132414758704607e-05 -0.0049940687371481558 0 2.1987573624531614e-05 -0.0049950724743118959 0 1.032604242864998e-05 -0.0049954296400660072 0 1.3315589135562243e-05 -0.0049915678196753672 0 1.9319128245933241e-05 -0.0049859310022796581 0 2.1987573624531614e-05 -0.0049950724743118959 0 1.3315589135562243e-05 -0.0049915678196753672 0 3.3124220786479109e-05 -0.0049777645172467177 0 2.1987573624531614e-05 -0.0049950724743118959 0 6.3059353313279292e-06 -0.0049900951033446271 0 2.1987573624531614e-05 -0.0049950724743118959 0 1.032604242864998e-05 -0.0049954296400660072 0 6.3059353313279292e-06 -0.0049900951033446271 0 6.3059353313279292e-06 -0.0049900951033446271 0 6.3052959596182073e-09 -0.0049999876057595745 0 8.7658962891887086e-09 -0.0049999884096766263 0 1.032604242864998e-05 -0.0049954296400660072 0 6.3059353313279292e-06 -0.0049900951033446271 0 6.3052959596182073e-09 -0.0049999876057595745 0 1.032604242864998e-05 -0.0049954296400660072 0 6.3052959596182073e-09 -0.0049999876057595745 0 1.3315589135562243e-05 -0.0049915678196753672 0 6.3052959596182073e-09 -0.0049999876057595745 0 1.3315589135562243e-05 -0.0049915678196753672 0 1.47169144588402e-08 -0.0049999968244118414 0 1.9339006275507951e-05 -0.0049838309001490931 0 1.3315589135562243e-05 -0.0049915678196753672 0 1.8699553657642158e-05 -0.0049875275111814794 0 1.9339006275507951e-05 -0.0049838309001490931 0 1.9319128245933241e-05 -0.0049859310022796581 0 1.3315589135562243e-05 -0.0049915678196753672 0 1.3315589135562243e-05 -0.0049915678196753672 0 1.8699553657642158e-05 -0.0049875275111814794 0 1.47169144588402e-08 -0.0049999968244118414 0 1.7134326115354148e-05 -0.0049718191970309026 0 1.1656517241183221e-08 -0.0049999901754341405 0 1.0789359161490082e-05 -0.0049713537394432527 0 1.539046052774781e-05 -0.004955099815670337 0 9.0804898346461786e-09 -0.0049999557433352488 0 -0.00056835753971682399 -0.0043924402727373814 0 -0.00054688194659771258 -0.0044271774699543871 0 -0.00055159274659781336 -0.0044142171466228352 0 -0.00056835753971682399 -0.0043924402727373814 0 -0.00055159274659781336 -0.0044142171466228352 0 -0.00057116536505689584 -0.004402408640386218 0 -0.00054688194659771258 -0.0044271774699543871 0 -0.00040981491027864591 -0.0043952815024247451 0 -0.00036876977682199314 -0.0047021445104846824 0 -0.00053435921814169252 -0.0044437898838313684 0 -0.00047862191065028569 -0.004548914776322974 0 -0.00054688194659771258 -0.0044271774699543871 0 -0.00055159274659781336 -0.0044142171466228352 0 -0.00054961627990666843 -0.0044130501189095219 0 -0.00055159274659781336 -0.0044142171466228352 0 -0.00054961627990666843 -0.0044130501189095219 0 -0.00055254796538088604 -0.0044142918611584231 0 -0.00055159274659781336 -0.0044142171466228352 0 -0.00055782904124394796 -0.0044125189937373023 0 -0.00057116536505689584 -0.004402408640386218 0 -0.00055159274659781336 -0.0044142171466228352 0 -0.00055782904124394796 -0.0044125189937373023 0 -0.00055254796538088604 -0.0044142918611584231 0 -0.00055782904124394796 -0.0044125189937373023 0 -0.00057116536505689584 -0.004402408640386218 0 -0.00056427279617045877 -0.0044119877557878169 0 -0.00057116536505689584 -0.004402408640386218 0 -0.00058970765337512047 -0.0043928745846977335 0 -0.00057132866003628915 -0.0044089789524425259 0 -0.00027348611987294862 -0.0037481173164877844 0 -0.00026245826671059472 -0.0038858698882328906 0 1.4169733822572412e-05 -0.0031641658848685019 0 5.1264524586043234e-05 -0.0031026568457804657 0 5.4692634042804219e-05 -0.0031708495852441156 0 -0.00027348611987294862 -0.0037481173164877844 0 -0.00022372549202845683 -0.0035881174098347417 0 1.7205823970773419e-05 -0.0030769207440769519 0 5.1264524586043234e-05 -0.0031026568457804657 0 5.1817059836079297e-05 -0.003037102347326113 0 -0.00058970765337512047 -0.0043928745846977335 0 -0.00058635606002097735 -0.004379030585336059 0 -0.00060308338383579976 -0.0043607423336971332 0 -0.00056835753971682399 -0.0043924402727373814 0 -0.00057116536505689584 -0.004402408640386218 0 -0.00058635606002097735 -0.004379030585336059 0 -0.00057116536505689584 -0.004402408640386218 0 -0.00058970765337512047 -0.0043928745846977335 0 -0.00058635606002097735 -0.004379030585336059 0 -0.00056835753971682399 -0.0043924402727373814 0 -0.00058635606002097735 -0.004379030585336059 0 -0.00058666938686447085 -0.0043435514558640177 0 -0.00022372549202845683 -0.0035881174098347417 0 -0.00029483225998520152 -0.0038047209661870697 0 -0.00058635606002097735 -0.004379030585336059 0 -0.00060308338383579976 -0.0043607423336971332 0 -0.00058666938686447085 -0.0043435514558640177 0 9.4055211596066399e-05 -0.0030050319766323341 0 8.4062411825574425e-05 -0.0030652300405455603 0 -1.1683835277272211e-05 -0.0032558443294979072 0 -0.00020435979650282137 -0.0033430278351652526 0 -0.00022372549202845683 -0.0035881174098347417 0 4.7901737507181892e-05 -0.0030297388198892564 0 7.671883645245509e-05 -0.0030347157159940417 0 7.0375572329624505e-05 -0.0030453880092692009 0 7.671883645245509e-05 -0.0030347157159940417 0 9.4055211596066399e-05 -0.0030050319766323341 0 8.4062411825574425e-05 -0.0030652300405455603 0 7.671883645245509e-05 -0.0030347157159940417 0 6.0711441566691403e-05 -0.0030056846966717032 0 8.4062411825574425e-05 -0.0030652300405455603 0 4.8176324217220936e-05 -0.0030113954224031433 0 7.671883645245509e-05 -0.0030347157159940417 0 6.0711441566691403e-05 -0.0030056846966717032 0 6.0711441566691403e-05 -0.0030056846966717032 0 8.4062411825574425e-05 -0.0030652300405455603 0 8.1596104450785053e-05 -0.0030071854100899224 0 8.4062411825574425e-05 -0.0030652300405455603 0 8.1596104450785053e-05 -0.0030071854100899224 0 0.00012256189596787049 -0.0030248766291244293 0 8.1596104450785053e-05 -0.0030071854100899224 0 8.5828658836630128e-05 -0.0029657744015727642 0 0.00012256189596787049 -0.0030248766291244293 0 0.00011722696733818782 -0.0029201758044380363 0 8.5828658836630128e-05 -0.0029657744015727642 0 0.00012256189596787049 -0.0030248766291244293 0 4.7425489667475473e-05 -0.0029572492610141642 0 6.0711441566691403e-05 -0.0030056846966717032 0 8.1596104450785053e-05 -0.0030071854100899224 0 4.7425489667475473e-05 -0.0029572492610141642 0 8.1596104450785053e-05 -0.0030071854100899224 0 8.5828658836630128e-05 -0.0029657744015727642 0 0.00016431850337583978 -0.0029970256161221407 0 0.00012256189596787049 -0.0030248766291244293 0 0.00017006924264272846 -0.0030066326535027688 0 7.1719802273409811e-05 -0.0030974519550123233 0 5.6892134452094501e-05 -0.0032011078089745197 0 8.4062411825574425e-05 -0.0030652300405455603 0 0.00012256189596787049 -0.0030248766291244293 0 0.00017006924264272846 -0.0030066326535027688 0 8.4062411825574425e-05 -0.0030652300405455603 0 -1.1683835277272211e-05 -0.0032558443294979072 0 -4.2802899244002003e-05 -0.0034196969765967976 0 -4.5674884579042573e-05 -0.0034275902712041398 0 5.6892134452094501e-05 -0.0032011078089745197 0 -1.1683835277272211e-05 -0.0032558443294979072 0 -4.2802899244002003e-05 -0.0034196969765967976 0 -0.00016824386173506793 -0.0035245212444330815 0 -0.00029483225998520152 -0.0038047209661870697 0 -0.0003318326232436816 -0.0038887646066107203 0 -0.00058666938686447085 -0.0043435514558640177 0 -0.00055532064674356017 -0.0043512919367926783 0 -0.00052785763315225183 -0.0042668692709341574 0 -0.00020778539325615436 -0.0036982760947466544 0 -4.2802899244002003e-05 -0.0034196969765967976 0 -0.00016824386173506793 -0.0035245212444330815 0 -0.00056835753971682399 -0.0043924402727373814 0 -0.00058666938686447085 -0.0043435514558640177 0 -0.00055532064674356017 -0.0043512919367926783 0 -0.00056835753971682399 -0.0043924402727373814 0 -0.00054688194659771258 -0.0044271774699543871 0 -0.00055532064674356017 -0.0043512919367926783 0 -0.00054688194659771258 -0.0044271774699543871 0 -0.00050000409763139512 -0.0043390521198649647 0 -0.00040981491027864591 -0.0043952815024247451 0 -0.00054688194659771258 -0.0044271774699543871 0 -0.00055532064674356017 -0.0043512919367926783 0 -0.00050000409763139512 -0.0043390521198649647 0 -0.00055532064674356017 -0.0043512919367926783 0 -0.00050000409763139512 -0.0043390521198649647 0 -0.00052785763315225183 -0.0042668692709341574 0 -0.00050000409763139512 -0.0043390521198649647 0 -0.00042737872004592334 -0.0042836345079374253 0 -0.00040981491027864591 -0.0043952815024247451 0 -0.0003318326232436816 -0.0038887646066107203 0 -0.00028144245452852302 -0.0039434683562719081 0 -0.00052785763315225183 -0.0042668692709341574 0 -0.00042737872004592334 -0.0042836345079374253 0 -0.00035891780801708964 -0.0041345543117501321 0 -0.00020778539325615436 -0.0036982760947466544 0 -0.00016824386173506793 -0.0035245212444330815 0 -0.00025179246326733376 -0.0037658308997277428 0 -0.00050000409763139512 -0.0043390521198649647 0 -0.00052785763315225183 -0.0042668692709341574 0 -0.00042737872004592334 -0.0042836345079374253 0 -0.00042737872004592334 -0.0042836345079374253 0 -0.00030983625261494244 -0.0042783801753595368 0 -0.00035891780801708964 -0.0041345543117501321 0 -0.00030983625261494244 -0.0042783801753595368 0 -0.00015340107877121986 -0.0041892505704907625 0 -0.00012808563287601009 -0.0044091015985031875 0 -0.00030983625261494244 -0.0042783801753595368 0 -0.00035891780801708964 -0.0041345543117501321 0 -0.00015340107877121986 -0.0041892505704907625 0 -6.7596501359206248e-05 -0.0039371420880789766 0 -0.00035891780801708964 -0.0041345543117501321 0 -0.00015340107877121986 -0.0041892505704907625 0 -0.00030983625261494244 -0.0042783801753595368 0 -0.00012808563287601009 -0.0044091015985031875 0 -0.00027717750406053662 -0.0044790072352591448 0 -0.00030983625261494244 -0.0042783801753595368 0 -0.00040981491027864591 -0.0043952815024247451 0 -0.00027717750406053662 -0.0044790072352591448 0 -0.00042737872004592334 -0.0042836345079374253 0 -0.00030983625261494244 -0.0042783801753595368 0 -0.00040981491027864591 -0.0043952815024247451 0 0.0002610220650200735 -0.0041303807320553672 0 0.00024390189792544822 -0.0044463791787510221 0 0.00027571733186185389 -0.004062402015174332 0 0.00013392038932431751 -0.0042792684463631627 0 0.00022841215555658459 -0.0044744855091200927 0 0.00029964786004166045 -0.004277860208977277 0 0.00026604786855540283 -0.0041836838032807272 0 0.00022841215555658459 -0.0044744855091200927 0 0.00027571733186185389 -0.004062402015174332 0 0.00013392038932431751 -0.0042792684463631627 0 0.00011231715198314046 -0.0040780670223642939 0 -0.00015340107877121986 -0.0041892505704907625 0 -0.00012808563287601009 -0.0044091015985031875 0 -3.3057277665499146e-06 -0.0042503280441426499 0 0.00013392038932431751 -0.0042792684463631627 0 0.00011231715198314046 -0.0040780670223642939 0 -3.3057277665499146e-06 -0.0042503280441426499 0 0.00011231715198314046 -0.0040780670223642939 0 -1.1006683820694957e-05 -0.0040901357181314466 0 -3.3057277665499146e-06 -0.0042503280441426499 0 -0.00015340107877121986 -0.0041892505704907625 0 -1.1006683820694957e-05 -0.0040901357181314466 0 -3.3057277665499146e-06 -0.0042503280441426499 0 -6.7596501359206248e-05 -0.0039371420880789766 0 -0.00015340107877121986 -0.0041892505704907625 0 -1.1006683820694957e-05 -0.0040901357181314466 0 -0.00012808563287601009 -0.0044091015985031875 0 7.72860579535493e-05 -0.0044958164564656211 0 -2.2428246242721302e-05 -0.0046086476830472624 0 0.00013392038932431751 -0.0042792684463631627 0 -3.3057277665499146e-06 -0.0042503280441426499 0 7.72860579535493e-05 -0.0044958164564656211 0 -0.00012808563287601009 -0.0044091015985031875 0 -3.3057277665499146e-06 -0.0042503280441426499 0 7.72860579535493e-05 -0.0044958164564656211 0 0.00029964786004166045 -0.004277860208977277 0 0.00022841215555658459 -0.0044744855091200927 0 0.00018404055368903441 -0.0046825900425681273 0 0.00022412945631444326 -0.0045620479771336462 0 0.00019404167437699714 -0.0046685632983758463 0 0.00013392038932431751 -0.0042792684463631627 0 7.72860579535493e-05 -0.0044958164564656211 0 0.00022841215555658459 -0.0044744855091200927 0 7.72860579535493e-05 -0.0044958164564656211 0 0.00022841215555658459 -0.0044744855091200927 0 0.00018404055368903441 -0.0046825900425681273 0 7.72860579535493e-05 -0.0044958164564656211 0 9.2736612982447002e-05 -0.0046887516622622673 0 0.00018404055368903441 -0.0046825900425681273 0 9.2736612982447002e-05 -0.0046887516622622673 0 0.00018404055368903441 -0.0046825900425681273 0 0.00011387875945613517 -0.0047607205098160856 0 7.72860579535493e-05 -0.0044958164564656211 0 9.2736612982447002e-05 -0.0046887516622622673 0 -2.2428246242721302e-05 -0.0046086476830472624 0 -2.2428246242721302e-05 -0.0046086476830472624 0 -1.1902847053905642e-05 -0.0047871073822308412 0 -0.00017188793925035194 -0.0046145826139643298 0 9.2736612982447002e-05 -0.0046887516622622673 0 -2.2428246242721302e-05 -0.0046086476830472624 0 -1.1902847053905642e-05 -0.0047871073822308412 0 -1.1902847053905642e-05 -0.0047871073822308412 0 0.00011387875945613517 -0.0047607205098160856 0 3.5218318683810204e-05 -0.004837569417489561 0 9.2736612982447002e-05 -0.0046887516622622673 0 -1.1902847053905642e-05 -0.0047871073822308412 0 0.00011387875945613517 -0.0047607205098160856 0 -0.00040981491027864591 -0.0043952815024247451 0 -0.00027717750406053662 -0.0044790072352591448 0 -0.00036876977682199314 -0.0047021445104846824 0 -0.00027717750406053662 -0.0044790072352591448 0 -0.00017188793925035194 -0.0046145826139643298 0 -0.00036876977682199314 -0.0047021445104846824 0 -0.00012808563287601009 -0.0044091015985031875 0 -0.00027717750406053662 -0.0044790072352591448 0 -0.00017188793925035194 -0.0046145826139643298 0 -0.00012808563287601009 -0.0044091015985031875 0 -2.2428246242721302e-05 -0.0046086476830472624 0 -0.00017188793925035194 -0.0046145826139643298 0 -0.00017188793925035194 -0.0046145826139643298 0 -0.00017583826596780908 -0.0047576936551771603 0 -0.00036876977682199314 -0.0047021445104846824 0 -1.1902847053905642e-05 -0.0047871073822308412 0 -0.00017188793925035194 -0.0046145826139643298 0 -0.00017583826596780908 -0.0047576936551771603 0 -0.00017583826596780908 -0.0047576936551771603 0 -0.00036876977682199314 -0.0047021445104846824 0 -0.00014904511576310634 -0.004934852745902771 0 -0.00054961627990666843 -0.0044130501189095219 0 -0.0005460468930414997 -0.0044180015587837566 0 -0.00055254796538088604 -0.0044142918611584231 0 -0.00054961627990666843 -0.0044130501189095219 0 -0.0005460468930414997 -0.0044180015587837566 0 -0.00053487406472386414 -0.0044201618639996077 0 -0.00047862191065028569 -0.004548914776322974 0 -0.00022546442805687966 -0.0046834638589477468 0 -1.1902847053905642e-05 -0.0047871073822308412 0 -0.00017583826596780908 -0.0047576936551771603 0 -0.00014904511576310634 -0.004934852745902771 0 -0.0005460468930414997 -0.0044180015587837566 0 -0.00053487406472386414 -0.0044201618639996077 0 -0.0005405762453957601 -0.0044243681261030435 0 -3.6075238213430938e-05 -0.0048197270682593394 0 -0.00022546442805687966 -0.0046834638589477468 0 -0.00022546442805687966 -0.0046834638589477468 0 3.2703353598732985e-06 -0.0048139503620799138 0 -2.6767913785435475e-05 -0.0047774972546026986 0 1.2593185091814125e-05 -0.0047729527625463807 0 -1.5117453372788892e-05 -0.0048002731326136482 0 -0.00022546442805687966 -0.0046834638589477468 0 -0.00027442609449099644 -0.0045697704993624801 0 -0.00016180321028316832 -0.0046405588304703257 0 -0.00022895274319759031 -0.0047134802182938959 0 -0.00010370666166515959 -0.0046978811695570057 0 0.00010381870415711856 -0.0048994748382458946 0 6.6044360748832695e-05 -0.0048798600082545253 0 -0.00027442609449099644 -0.0045697704993624801 0 3.2703353598732985e-06 -0.0048139503620799138 0 -0.00027442609449099644 -0.0045697704993624801 0 -0.00043858273342359391 -0.0044377402046543741 0 -0.0005460468930414997 -0.0044180015587837566 0 -0.0005405762453957601 -0.0044243681261030435 0 -0.00055215793495625234 -0.0044206082716995113 0 -0.00027442609449099644 -0.0045697704993624801 0 1.4425481807758907e-05 -0.0047776548307828107 0 -0.00027527219672504203 -0.004428403056452198 0 -0.00027200201994207515 -0.0044233500603261481 0 -0.00027126931776310579 -0.0044242761793166436 0 0.00012938704458981447 -0.0048119304045615621 0 0.00011387875945613517 -0.0047607205098160856 0 3.5218318683810204e-05 -0.004837569417489561 0 0.00012938704458981447 -0.0048119304045615621 0 3.5218318683810204e-05 -0.004837569417489561 0 9.0954442602237247e-05 -0.0048683400811715691 0 -6.6107553505011907e-05 -0.0048498158493641384 0 3.5218318683810204e-05 -0.004837569417489561 0 -1.8950653136602724e-05 -0.0048934085541341172 0 -1.1902847053905642e-05 -0.0047871073822308412 0 -6.6107553505011907e-05 -0.0048498158493641384 0 3.5218318683810204e-05 -0.004837569417489561 0 3.5218318683810204e-05 -0.004837569417489561 0 -1.8950653136602724e-05 -0.0048934085541341172 0 9.0954442602237247e-05 -0.0048683400811715691 0 1.2593185091814125e-05 -0.0047729527625463807 0 2.9066934026706909e-05 -0.0047892880430046797 0 -1.5117453372788892e-05 -0.0048002731326136482 0 3.2703353598732985e-06 -0.0048139503620799138 0 8.6701058383143394e-05 -0.0048833165706630363 0 6.401282967170697e-05 -0.0048906927022831078 0 7.1428888535998136e-05 -0.0048981413857225571 0 8.429159194668882e-05 -0.0048889977352958901 0 3.2703353598732985e-06 -0.0048139503620799138 0 0.00010381870415711856 -0.0048994748382458946 0 0.00010381870415711856 -0.0048994748382458946 0 0.00015208244300825792 -0.0049562833086500436 0 9.7081739498683589e-05 -0.0049484325239128601 0 0.00010381870415711856 -0.0048994748382458946 0 9.767593970426582e-05 -0.0048916785609713943 0 7.1428888535998136e-05 -0.0048981413857225571 0 8.429159194668882e-05 -0.0048889977352958901 0 0.00010390648433240859 -0.0049861245802710948 0 0.00015930571748282534 -0.0049707347312914138 0 0.00012944954846283874 -0.0049686004689842248 0 0.00015930571748282534 -0.0049707347312914138 0 0.00012944954846283874 -0.0049686004689842248 0 0.00014586579023630414 -0.0049611255733091261 0 0.00013672897368635889 -0.0049626646504450922 0 0.00014162787932030173 -0.004957966575667952 0 0.00013765940240658244 -0.004960589579132744 0 0.00013147945373745982 -0.004968937256359959 0 0.00012944954846283874 -0.0049686004689842248 0 0.00013672897368635889 -0.0049626646504450922 0 0.00012944954846283874 -0.0049686004689842248 0 0.00013672897368635889 -0.0049626646504450922 0 0.00014586579023630414 -0.0049611255733091261 0 0.00013672897368635889 -0.0049626646504450922 0 0.00014586579023630414 -0.0049611255733091261 0 0.00014402320442976377 -0.0049585720467961222 0 0.00013672897368635889 -0.0049626646504450922 0 0.00014402320442976377 -0.0049585720467961222 0 0.00014162787932030173 -0.004957966575667952 0 0.00014402320442976377 -0.0049585720467961222 0 0.00014528494614866251 -0.0049550313027089147 0 0.00014162787932030173 -0.004957966575667952 0 0.00014632994346539682 -0.0049585797279821523 0 0.00014732035021002021 -0.0049536870760610394 0 0.00014807233605903036 -0.0049492540584416744 0 0.00014402320442976377 -0.0049585720467961222 0 0.00014732035021002021 -0.0049536870760610394 0 0.00014528494614866251 -0.0049550313027089147 0 0.00014632994346539682 -0.0049585797279821523 0 0.00014586579023630414 -0.0049611255733091261 0 0.00014732035021002021 -0.0049536870760610394 0 0.00014586579023630414 -0.0049611255733091261 0 0.00014402320442976377 -0.0049585720467961222 0 0.00014732035021002021 -0.0049536870760610394 0 0.00014880997769469939 -0.0049491294331008434 0 0.00014528494614866251 -0.0049550313027089147 0 0.00014422670562493539 -0.0049541931489397555 0 0.00014880997769469939 -0.0049491294331008434 0 0.00014422670562493539 -0.0049541931489397555 0 0.00014768620639684239 -0.0049493903893764648 0 0.00014732035021002021 -0.0049536870760610394 0 0.00014880997769469939 -0.0049491294331008434 0 0.00014528494614866251 -0.0049550313027089147 0 0.00014528494614866251 -0.0049550313027089147 0 0.00014162787932030173 -0.004957966575667952 0 0.00014422670562493539 -0.0049541931489397555 0 0.00014422670562493539 -0.0049541931489397555 0 0.00013765940240658244 -0.004960589579132744 0 0.00014079886042030852 -0.0049534461325558346 0 0.00014162787932030173 -0.004957966575667952 0 0.00014422670562493539 -0.0049541931489397555 0 0.00013765940240658244 -0.004960589579132744 0 0.00014807233605903036 -0.0049492540584416744 0 0.0001484965643402911 -0.004944636465750038 0 0.00014627739750667907 -0.0049387269898924346 0 6.6044360748832695e-05 -0.0048798600082545253 0 1.4425481807758907e-05 -0.0047776548307828107 0 -2.6767913785435475e-05 -0.0047774972546026986 0 -1.5117453372788892e-05 -0.0048002731326136482 0 -5.6493797338066051e-05 -0.0048109902932482879 0 0.00014732035021002021 -0.0049536870760610394 0 0.00014807233605903036 -0.0049492540584416744 0 0.0001484965643402911 -0.004944636465750038 0 0.00014880997769469939 -0.0049491294331008434 0 0.0001484965643402911 -0.004944636465750038 0 0.00014935343931588629 -0.004942783932870988 0 0.00014732035021002021 -0.0049536870760610394 0 0.00014880997769469939 -0.0049491294331008434 0 0.0001484965643402911 -0.004944636465750038 0 0.0001484965643402911 -0.004944636465750038 0 0.00014592272682526633 -0.0049395139496469899 0 0.00014935343931588629 -0.004942783932870988 0 0.0001484965643402911 -0.004944636465750038 0 0.00014592272682526633 -0.0049395139496469899 0 0.00014627739750667907 -0.0049387269898924346 0 0.00014592272682526633 -0.0049395139496469899 0 0.00012942198278409418 -0.0049306869314308137 0 0.00012172907201313834 -0.0049410736155242807 0 0.00016366324484284872 -0.0049632319576496612 0 1.4425481807758907e-05 -0.0047776548307828107 0 0.00014592272682526633 -0.0049395139496469899 0 0.00012942198278409418 -0.0049306869314308137 0 0.00014627739750667907 -0.0049387269898924346 0 0.00012942198278409418 -0.0049306869314308137 0 0.00010256397924938761 -0.0049027567160559423 0 0.00012172907201313834 -0.0049410736155242807 0 -7.2657366768991443e-06 -0.0036036329684340255 0 -5.840892898598448e-05 -0.0036835110946616509 0 4.5760397549959419e-05 -0.0037845286080694083 0 -0.00010218522328026346 -0.0041418091501673046 0 0.00011136221301644 -0.0045778589459119588 0 0.00012942198278409418 -0.0049306869314308137 0 0.00010256397924938761 -0.0049027567160559423 0 0.0001345930279085082 -0.0048931924155344196 0 -0.00026797912114780495 -0.0044183317324851578 0 -0.00026943571703600078 -0.0044207985492071833 0 -0.00026888321856275576 -0.0044197828786714339 0 -0.00026943571703600078 -0.0044207985492071833 0 -0.00026974097062114919 -0.0044208534123215057 0 -0.00027126931776310579 -0.0044242761793166436 0 -0.00010218522328026346 -0.0041418091501673046 0 -9.3301661109468188e-05 -0.0046488550986664495 0 -0.00026797912114780495 -0.0044183317324851578 0 -0.00026943571703600078 -0.0044207985492071833 0 -0.00026974097062114919 -0.0044208534123215057 0 0.00012942198278409418 -0.0049306869314308137 0 0.0001345930279085082 -0.0048931924155344196 0 0.00016657500323546048 -0.0048820543680464469 0 -0.00026974097062114919 -0.0044208534123215057 0 -0.00027200201994207515 -0.0044233500603261481 0 -0.00027126931776310579 -0.0044242761793166436 0 -9.3301661109468188e-05 -0.0046488550986664495 0 1.4425481807758907e-05 -0.0047776548307828107 0 -0.00043858273342359391 -0.0044377402046543741 0 -0.00042608728808234104 -0.0041477711473429015 0 -0.00055215793495625234 -0.0044206082716995113 0 -0.00055861412057380488 -0.0044145864895366827 0 -0.00056155486734898259 -0.0044140997833889955 0 -0.00026943571703600078 -0.0044207985492071833 0 -0.00027126931776310579 -0.0044242761793166436 0 -0.00026888321856275576 -0.0044197828786714339 0 -0.00055782904124394796 -0.0044125189937373023 0 -0.00055861412057380488 -0.0044145864895366827 0 -0.00055254796538088604 -0.0044142918611584231 0 -0.00055782904124394796 -0.0044125189937373023 0 -0.00055861412057380488 -0.0044145864895366827 0 -0.00056427279617045877 -0.0044119877557878169 0 -0.0005460468930414997 -0.0044180015587837566 0 -0.00055215793495625234 -0.0044206082716995113 0 -0.00055254796538088604 -0.0044142918611584231 0 -0.00055215793495625234 -0.0044206082716995113 0 -0.00055861412057380488 -0.0044145864895366827 0 -0.00055254796538088604 -0.0044142918611584231 0 1.4169733822572412e-05 -0.0031641658848685019 0 5.4692634042804219e-05 -0.0031708495852441156 0 3.3085983232669191e-05 -0.003198627597207588 0 -0.00057132866003628915 -0.0044089789524425259 0 -0.00056427279617045877 -0.0044119877557878169 0 -0.00056248770526425387 -0.0044122619061457225 0 -0.00057116536505689584 -0.004402408640386218 0 -0.00057132866003628915 -0.0044089789524425259 0 -0.00056427279617045877 -0.0044119877557878169 0 -0.00057132866003628915 -0.0044089789524425259 0 -0.00056248770526425387 -0.0044122619061457225 0 -0.00056139791802692015 -0.00440676316080216 0 -0.00055861412057380488 -0.0044145864895366827 0 -0.00056427279617045877 -0.0044119877557878169 0 -0.00056248770526425387 -0.0044122619061457225 0 -0.00055861412057380488 -0.0044145864895366827 0 -0.00056248770526425387 -0.0044122619061457225 0 -0.00056155486734898259 -0.0044140997833889955 0 -0.00043037299242153503 -0.0042731338407678288 0 -0.00042608728808234104 -0.0041477711473429015 0 -0.00056248770526425387 -0.0044122619061457225 0 -0.00056248883888271035 -0.0044101120165736425 0 -0.00056139791802692015 -0.00440676316080216 0 -0.00042608728808234104 -0.0041477711473429015 0 -0.00012017607845500719 -0.0033220965690121652 0 -0.00012017607845500719 -0.0033220965690121652 0 5.1752654527899621e-05 -0.0025141728360493719 0 5.4692634042804219e-05 -0.0031708495852441156 0 6.1374987228788084e-05 -0.0032277403666786096 0 3.3085983232669191e-05 -0.003198627597207588 0 -0.00026245826671059472 -0.0038858698882328906 0 -0.00012017607845500719 -0.0033220965690121652 0 6.1374987228788084e-05 -0.0032277403666786096 0 5.0080906349723837e-05 -0.0032283191317904335 0 3.3085983232669191e-05 -0.003198627597207588 0 -1.1121225342842089e-05 -0.0016556687723816525 0 0.00029157820809041834 -0.0016178034524760619 0 0.00018968840072748272 -0.001688697698978944 0 0.00012673836849735046 -0.0017502502495470201 0 0.00018968840072748272 -0.001688697698978944 0 0.00027068473477196233 -0.0017473610901486637 0 0.00018968840072748272 -0.001688697698978944 0 0.00028214293067533431 -0.0016760165982587004 0 0.00027068473477196233 -0.0017473610901486637 0 0.00029157820809041834 -0.0016178034524760619 0 0.00018968840072748272 -0.001688697698978944 0 0.00028214293067533431 -0.0016760165982587004 0 0.00029157820809041834 -0.0016178034524760619 0 0.00038529272680172896 -0.0016485947387705857 0 0.00028214293067533431 -0.0016760165982587004 0 0.00011979053595631618 -0.002714921846632109 0 -6.3980107822266043e-05 -0.0027390721042927211 0 0.00014248991981093465 -0.0028484988209102591 0 5.1752654527899621e-05 -0.0025141728360493719 0 -6.7532939663933703e-05 -0.0028332648443147343 0 -0.00012017607845500719 -0.0033220965690121652 0 -6.7532939663933703e-05 -0.0028332648443147343 0 0.00038529272680172896 -0.0016485947387705857 0 0.00028214293067533431 -0.0016760165982587004 0 0.00027068473477196233 -0.0017473610901486637 0 0.00027068473477196233 -0.0017473610901486637 0 0.00037845727352583703 -0.0018482192581149315 0 0.00022146100269937314 -0.001856285390949652 0 0.00038529272680172896 -0.0016485947387705857 0 0.00027068473477196233 -0.0017473610901486637 0 0.00037845727352583703 -0.0018482192581149315 0 0.00012673836849735046 -0.0017502502495470201 0 0.00027068473477196233 -0.0017473610901486637 0 0.00022146100269937314 -0.001856285390949652 0 0.00012673836849735046 -0.0017502502495470201 0 0.0001404677402702392 -0.0019294138916118077 0 0.00022146100269937314 -0.001856285390949652 0 -6.7532939663933703e-05 -0.0028332648443147343 0 0.0001571735070758528 -0.0027516504206739696 0 -8.4431679407004734e-06 -0.0036033178556800572 0 -5.8606287591073996e-05 -0.0034380882340536659 0 -0.00013032173629871021 -0.0035021975983040715 0 -0.00016802606248755695 -0.0034807273382875246 0 -0.00011002251087452909 -0.003578589249569825 0 -0.00013763647466656683 -0.0036512363027253617 0 0.00038529272680172896 -0.0016485947387705857 0 0.00037845727352583703 -0.0018482192581149315 0 0.00045402581369991088 -0.0020337078623316948 0 -0.00010218522328026346 -0.0041418091501673046 0 -0.00042608728808234104 -0.0041477711473429015 0 -5.8606287591073996e-05 -0.0034380882340536659 0 -0.00017324820553232039 -0.0034507431276394182 0 -0.00013032173629871021 -0.0035021975983040715 0 -0.00016802606248755695 -0.0034807273382875246 0 -0.00013032173629871021 -0.0035021975983040715 0 -0.00011002251087452909 -0.003578589249569825 0 -0.00017324820553232039 -0.0034507431276394182 0 -0.00016779070581678224 -0.0034821542114422017 0 -0.00013032173629871021 -0.0035021975983040715 0 -6.7532939663933703e-05 -0.0028332648443147343 0 -3.545170131044488e-06 -0.0030056641330876641 0 -8.4431679407004734e-06 -0.0036033178556800572 0 -0.00013032173629871021 -0.0035021975983040715 0 -0.00011002251087452909 -0.003578589249569825 0 -0.00013763647466656683 -0.0036512363027253617 0 -5.840892898598448e-05 -0.0036835110946616509 0 -0.00010732042104769304 -0.003823071281084662 0 -7.2657366768991443e-06 -0.0036036329684340255 0 -4.7590775289108788e-05 -0.0036137595388785332 0 -5.840892898598448e-05 -0.0036835110946616509 0 -8.4431679407004734e-06 -0.0036033178556800572 0 -0.00011002251087452909 -0.003578589249569825 0 -4.7590775289108788e-05 -0.0036137595388785332 0 -0.00010218522328026346 -0.0041418091501673046 0 -1.6945063314592099e-05 -0.0040217666193120066 0 -0.00011002251087452909 -0.003578589249569825 0 -4.7590775289108788e-05 -0.0036137595388785332 0 -8.8442708859017035e-05 -0.0036317138205229902 0 -4.7590775289108788e-05 -0.0036137595388785332 0 -8.8442708859017035e-05 -0.0036317138205229902 0 -5.840892898598448e-05 -0.0036835110946616509 0 -0.00011002251087452909 -0.003578589249569825 0 -8.8442708859017035e-05 -0.0036317138205229902 0 -0.00013763647466656683 -0.0036512363027253617 0 -8.8442708859017035e-05 -0.0036317138205229902 0 -0.00013763647466656683 -0.0036512363027253617 0 -5.840892898598448e-05 -0.0036835110946616509 0 0.00045402581369991088 -0.0020337078623316948 0 0.00014856593968779437 -0.0021446658129718752 0 0.00047237334642360763 -0.0025206944590803909 0 0.0001404677402702392 -0.0019294138916118077 0 0.00022146100269937314 -0.001856285390949652 0 0.00022820882345792084 -0.0020280176974627525 0 -1.8424755000018158e-06 -0.0017821064734561997 0 4.3315165291447035e-05 -0.002003697316535782 0 0.00037845727352583703 -0.0018482192581149315 0 0.00022146100269937314 -0.001856285390949652 0 0.00022820882345792084 -0.0020280176974627525 0 0.00034803568267217493 -0.0018670742914402485 0 4.3315165291447035e-05 -0.002003697316535782 0 0.00037845727352583703 -0.0018482192581149315 0 0.00045402581369991088 -0.0020337078623316948 0 0.00014856593968779437 -0.0021446658129718752 0 4.206640483976026e-05 -0.0023166087059622873 0 4.1877080548259054e-05 -0.0023149607007168201 0 3.2730475129181021e-05 -0.0023165019602437056 0 4.0934162331992369e-05 -0.0023051873123722546 0 4.1877080548259054e-05 -0.0023149607007168201 0 3.2730475129181021e-05 -0.0023165019602437056 0 4.3315165291447035e-05 -0.002003697316535782 0 8.2954678905263176e-05 -0.0029447787939638546 0 4.0934162331992369e-05 -0.0023051873123722546 0 4.1877080548259054e-05 -0.0023149607007168201 0 4.840757519629157e-05 -0.0023174295580245803 0 -0.00021567453092997198 -0.0022507385474967848 0 0.00033842895316733694 -0.0028735941710965498 0 0.00024096363173079562 -0.002900874798216021 0 4.3315165291447035e-05 -0.002003697316535782 0 0.00011178288852559139 -0.0031870791168073778 0 -3.0259243529835156e-05 -0.002604359586349636 0 8.2954678905263176e-05 -0.0029447787939638546 0 -0.00012639727401576338 -0.0030197276913974044 0 -5.643535786756174e-05 -0.0030013666924613332 0 -6.9770982168389361e-05 -0.0030768068798762284 0 4.2171333754004705e-05 -0.0023181687159899095 0 4.1877080548259054e-05 -0.0023149607007168201 0 4.840757519629157e-05 -0.0023174295580245803 0 -3.0259243529835156e-05 -0.002604359586349636 0 -3.4777477309820638e-05 -0.0025074585804482842 0 4.7475136742073036e-05 -0.0034667016403598641 0 0.00011136221301644 -0.0045778589459119588 0 -6.2149542352860407e-05 -0.0046806308342747975 0 9.7595936693677839e-05 -0.0046375955593193048 0 4.9911650373470665e-05 -0.0047375848123290768 0 -5.840892898598448e-05 -0.0036835110946616509 0 -0.00010732042104769304 -0.003823071281084662 0 4.5760397549959419e-05 -0.0037845286080694083 0 0.0001571735070758528 -0.0027516504206739696 0 4.7475136742073036e-05 -0.0034667016403598641 0 0.00045402581369991088 -0.0020337078623316948 0 0.00047237334642360763 -0.0025206944590803909 0 0.00053204282452974335 -0.002504518493960212 0 8.2954678905263176e-05 -0.0029447787939638546 0 6.6745547179081435e-05 -0.003403940232294064 0 5.7848403597939309e-05 -0.0032501857336704712 0 0.00018188538586709388 -0.0033125545419426718 0 0.00020356547850192933 -0.0034386366318833964 0 0.00011144499677521487 -0.003235248635461028 0 5.7848403597939309e-05 -0.0032501857336704712 0 0.00018188538586709388 -0.0033125545419426718 0 0.00011178288852559139 -0.0031870791168073778 0 8.2954678905263176e-05 -0.0029447787939638546 0 0.00011178288852559139 -0.0031870791168073778 0 0.00012888008777069403 -0.0037775309206169905 0 3.6983448649994321e-05 -0.0033675739322273144 0 0.0001624620069254187 -0.0035059939404164142 0 0.0001342909419512853 -0.0033401889067701906 0 0.00012888008777069403 -0.0037775309206169905 0 4.7475136742073036e-05 -0.0034667016403598641 0 0.00011178288852559139 -0.0031870791168073778 0 4.7475136742073036e-05 -0.0034667016403598641 0 -5.5293894359559597e-05 -0.0047203265263503751 0 -6.2149542352860407e-05 -0.0046806308342747975 0 4.9911650373470665e-05 -0.0047375848123290768 0 6.6745547179081435e-05 -0.003403940232294064 0 6.1430751919254887e-05 -0.0036365380969585162 0 -8.3621112607362133e-05 -0.0038473427723271494 0 -7.6646199146129354e-05 -0.0038934499124417517 0 6.2602710996844185e-05 -0.0040170380149902301 0 -6.3815484454302293e-06 -0.0030836641830110437 0 -9.4515575818207584e-06 -0.0030678556161387403 0 0.00010273104325254383 -0.0032048242676636172 0 -8.7425391768824325e-06 -0.0030662606910573731 0 -3.640012799156997e-05 -0.0030906639089035228 0 -6.9770982168389361e-05 -0.0030768068798762284 0 -5.643535786756174e-05 -0.0030013666924613332 0 -8.7425391768824325e-06 -0.0030662606910573731 0 -6.9770982168389361e-05 -0.0030768068798762284 0 -6.3815484454302293e-06 -0.0030836641830110437 0 -8.7425391768824325e-06 -0.0030662606910573731 0 -3.640012799156997e-05 -0.0030906639089035228 0 5.5456048055856819e-05 -0.0033430018032351285 0 6.6745547179081435e-05 -0.003403940232294064 0 0.00012888008777069403 -0.0037775309206169905 0 6.6745547179081435e-05 -0.003403940232294064 0 -6.3815484454302293e-06 -0.0030836641830110437 0 -4.6142771764843967e-05 -0.0031268224834151048 0 -1.8117567283378288e-05 -0.0031782993945904665 0 -3.640012799156997e-05 -0.0030906639089035228 0 -4.6142771764843967e-05 -0.0031268224834151048 0 -6.9770982168389361e-05 -0.0030768068798762284 0 -6.3815484454302293e-06 -0.0030836641830110437 0 -3.640012799156997e-05 -0.0030906639089035228 0 -4.6142771764843967e-05 -0.0031268224834151048 0 -0.00012639727401576338 -0.0030197276913974044 0 -6.9770982168389361e-05 -0.0030768068798762284 0 -9.1969963577021152e-05 -0.0031991216059330096 0 3.3478114259269249e-05 -0.0023441717464008902 0 2.8037453750817203e-05 -0.0023119003795944578 0 5.4308203000879699e-05 -0.0023081885275112852 0 -4.6142771764843967e-05 -0.0031268224834151048 0 -6.9770982168389361e-05 -0.0030768068798762284 0 -9.1969963577021152e-05 -0.0031991216059330096 0 -3.0259243529835156e-05 -0.002604359586349636 0 -3.1218207345814392e-05 -0.0027703165685723187 0 -1.8117567283378288e-05 -0.0031782993945904665 0 -1.3291807386752253e-05 -0.0032606687036083873 0 0.00010273104325254383 -0.0032048242676636172 0 -4.6142771764843967e-05 -0.0031268224834151048 0 -9.1969963577021152e-05 -0.0031991216059330096 0 -1.8117567283378288e-05 -0.0031782993945904665 0 -6.3815484454302293e-06 -0.0030836641830110437 0 -1.8117567283378288e-05 -0.0031782993945904665 0 0.00010273104325254383 -0.0032048242676636172 0 -9.1969963577021152e-05 -0.0031991216059330096 0 -1.8117567283378288e-05 -0.0031782993945904665 0 -1.3291807386752253e-05 -0.0032606687036083873 0 -1.3291807386752253e-05 -0.0032606687036083873 0 1.0907047121919293e-05 -0.0033418600570396515 0 -4.2522843539323872e-05 -0.0033541553274586263 0 -1.3291807386752253e-05 -0.0032606687036083873 0 1.0907047121919293e-05 -0.0033418600570396515 0 0.00010273104325254383 -0.0032048242676636172 0 -9.1969963577021152e-05 -0.0031991216059330096 0 -1.3291807386752253e-05 -0.0032606687036083873 0 -4.2522843539323872e-05 -0.0033541553274586263 0 -3.1218207345814392e-05 -0.0027703165685723187 0 -9.568925369042117e-06 -0.0028136970827736022 0 2.8037453750817203e-05 -0.0023119003795944578 0 2.2672553209421881e-05 -0.0022808755046060691 0 5.7607114479005938e-05 -0.0022772939642037087 0 0.00015410495030850714 -0.0042069290389090642 0 0.00019928102894612985 -0.0041781545197268804 0 4.2491742304105177e-05 -0.0040542787394268033 0 0.00020690777152857707 -0.0037986738028917338 0 6.1430751919254887e-05 -0.0036365380969585162 0 1.0907047121919293e-05 -0.0033418600570396515 0 0.00025272536584379875 -0.0033768782979075882 0 0.00012135114927450461 -0.0034606350559944479 0 1.0907047121919293e-05 -0.0033418600570396515 0 0.00025272536584379875 -0.0033768782979075882 0 0.00010273104325254383 -0.0032048242676636172 0 0.00019928102894612985 -0.0041781545197268804 0 4.2491742304105177e-05 -0.0040542787394268033 0 6.2602710996844185e-05 -0.0040170380149902301 0 0.00014994397810188788 -0.0049584121597134115 0 0.00013457316416370626 -0.0049253768959612743 0 0.00014917756067770295 -0.0049417366966044577 0 0.00014994397810188788 -0.0049584121597134115 0 0.00011520489675669625 -0.0049097021157621223 0 0.00013457316416370626 -0.0049253768959612743 0 0.00013457316416370626 -0.0049253768959612743 0 0.00014305202403711964 -0.004935466802043007 0 0.00014917756067770295 -0.0049417366966044577 0 0.00017208312110471923 -0.0045544956270793784 0 7.7238495592593149e-05 -0.0045438066392349107 0 0.00013457316416370626 -0.0049253768959612743 0 0.00014305202403711964 -0.004935466802043007 0 0.00014497264017259134 -0.004935371449003698 0 0.00014305202403711964 -0.004935466802043007 0 0.00014497264017259134 -0.004935371449003698 0 0.00014509351150143173 -0.0049373202216888862 0 0.00014305202403711964 -0.004935466802043007 0 0.00014509351150143173 -0.0049373202216888862 0 0.00014673011198413608 -0.0049396296315667998 0 -7.6646199146129354e-05 -0.0038934499124417517 0 4.2491742304105177e-05 -0.0040542787394268033 0 6.2602710996844185e-05 -0.0040170380149902301 0 0.00011520489675669625 -0.0049097021157621223 0 0.00013875563539133314 -0.0048011358254918856 0 4.9911650373470665e-05 -0.0047375848123290768 0 -5.5293894359559597e-05 -0.0047203265263503751 0 0.00011520489675669625 -0.0049097021157621223 0 4.9911650373470665e-05 -0.0047375848123290768 0 0.00012888008777069403 -0.0037775309206169905 0 7.7238495592593149e-05 -0.0045438066392349107 0 0.00013637858843381143 -0.0049039849872678188 0 0.00014804277328436035 -0.0049013282121382618 0 0.00011520489675669625 -0.0049097021157621223 0 0.00013457316416370626 -0.0049253768959612743 0 0.00013875563539133314 -0.0048011358254918856 0 0.00014804277328436035 -0.0049013282121382618 0 0.00011136221301644 -0.0045778589459119588 0 0.00014497264017259134 -0.004935371449003698 0 0.00014528370813690432 -0.0049354791191450241 0 0.00014509351150143173 -0.0049373202216888862 0 0.00013875563539133314 -0.0048011358254918856 0 9.7595936693677839e-05 -0.0046375955593193048 0 4.9911650373470665e-05 -0.0047375848123290768 0 0.00013523015637953036 -0.0050219515488727686 0 0.00011136221301644 -0.0045778589459119588 0 0.00014592272682526633 -0.0049395139496469899 0 0.00014528370813690432 -0.0049354791191450241 0 0.00014509351150143173 -0.0049373202216888862 0 0.00014592272682526633 -0.0049395139496469899 0 0.00014509351150143173 -0.0049373202216888862 0 0.00014673011198413608 -0.0049396296315667998 0 0.00014673011198413608 -0.0049396296315667998 0 0.00014935343931588629 -0.004942783932870988 0 0.0001491433786567791 -0.0049408122887975876 0 0.00014592272682526633 -0.0049395139496469899 0 0.00014673011198413608 -0.0049396296315667998 0 0.00014935343931588629 -0.004942783932870988 0 0.00014880997769469939 -0.0049491294331008434 0 0.00014935343931588629 -0.004942783932870988 0 0.00015358949595184327 -0.0049451571038158183 0 0.00014935343931588629 -0.004942783932870988 0 0.00015358949595184327 -0.0049451571038158183 0 0.0001491433786567791 -0.0049408122887975876 0 0.00015358949595184327 -0.0049451571038158183 0 0.0001491433786567791 -0.0049408122887975876 0 0.00015450549821891118 -0.0049474346459632852 0 0.00014305202403711964 -0.004935466802043007 0 0.0001491433786567791 -0.0049408122887975876 0 0.00014917756067770295 -0.0049417366966044577 0 0.00014305202403711964 -0.004935466802043007 0 0.00014673011198413608 -0.0049396296315667998 0 0.0001491433786567791 -0.0049408122887975876 0 0.00014079886042030852 -0.0049534461325558346 0 0.00014768620639684239 -0.0049493903893764648 0 0.0001490801451255663 -0.0049447823884813452 0 0.00014422670562493539 -0.0049541931489397555 0 0.00014079886042030852 -0.0049534461325558346 0 0.00014768620639684239 -0.0049493903893764648 0 0.00014880997769469939 -0.0049491294331008434 0 0.00015358949595184327 -0.0049451571038158183 0 0.00014768620639684239 -0.0049493903893764648 0 0.00015358949595184327 -0.0049451571038158183 0 0.00014768620639684239 -0.0049493903893764648 0 0.0001490801451255663 -0.0049447823884813452 0 0.00015358949595184327 -0.0049451571038158183 0 0.0001490801451255663 -0.0049447823884813452 0 0.00016358914895507273 -0.004957232130065126 0 0.0001613029269051556 -0.004978744999845121 0 0.00016358914895507273 -0.004957232130065126 0 0.00016752649753309804 -0.0049719624476710694 0 0.00015431458944171951 -0.0049619543962949979 0 0.00016187148171249035 -0.0049584620475797581 0 0.00016358914895507273 -0.004957232130065126 0 0.00016752649753309804 -0.0049719624476710694 0 0.00017353348527550264 -0.0049645796607569008 0 0.0001491433786567791 -0.0049408122887975876 0 0.00014917756067770295 -0.0049417366966044577 0 0.00015450549821891118 -0.0049474346459632852 0 0.00014917756067770295 -0.0049417366966044577 0 0.00015450549821891118 -0.0049474346459632852 0 0.00015764742656199728 -0.0049563981535511968 0 0.00015358949595184327 -0.0049451571038158183 0 0.00016358914895507273 -0.004957232130065126 0 0.00015450549821891118 -0.0049474346459632852 0 0.00016358914895507273 -0.004957232130065126 0 0.00015450549821891118 -0.0049474346459632852 0 0.00015764742656199728 -0.0049563981535511968 0 0.00016358914895507273 -0.004957232130065126 0 0.00015764742656199728 -0.0049563981535511968 0 0.00017353348527550264 -0.0049645796607569008 0 0.00014994397810188788 -0.0049584121597134115 0 0.00015764742656199728 -0.0049563981535511968 0 0.00015917461257297652 -0.0049651034358421326 0 0.00014994397810188788 -0.0049584121597134115 0 0.00014917756067770295 -0.0049417366966044577 0 0.00015764742656199728 -0.0049563981535511968 0 0.00017208312110471923 -0.0045544956270793784 0 0.00025233985474780175 -0.0046441238420847387 0 0.00019928102894612985 -0.0041781545197268804 0 0.00028675515419225762 -0.0043521592824727583 0 0.00026421313606318509 -0.0043561831906746848 0 0.00019928102894612985 -0.0041781545197268804 0 0.00028675515419225762 -0.0043521592824727583 0 0.00033430887202628848 -0.0043342145397310171 0 0.00015764742656199728 -0.0049563981535511968 0 0.00015917461257297652 -0.0049651034358421326 0 0.00017353348527550264 -0.0049645796607569008 0 0.00028675515419225762 -0.0043521592824727583 0 0.00036270163948856615 -0.0044821273099587547 0 0.00041130555421058925 -0.0044738403251787665 0 0.00033430887202628848 -0.0043342145397310171 0 0.0004787107321992823 -0.0045053719780839257 0 0.00043620740996494983 -0.0045121644564494589 0 0.00025233985474780175 -0.0046441238420847387 0 0.00028083477332224016 -0.0047967618978797186 0 0.00015917461257297652 -0.0049651034358421326 0 0.00017353348527550264 -0.0049645796607569008 0 0.00017165175230424395 -0.0049753713186583949 0 0.00028675515419225762 -0.0043521592824727583 0 0.00033430887202628848 -0.0043342145397310171 0 0.00043620740996494983 -0.0045121644564494589 0 0.00031068370620256921 -0.0043123297101418257 0 0.00032733811033979881 -0.0046624254820912935 0 0.00028675515419225762 -0.0043521592824727583 0 0.00026421313606318509 -0.0043561831906746848 0 0.00036270163948856615 -0.0044821273099587547 0 0.00034204164593410992 -0.0039357980837418927 0 0.00037673561323561962 -0.0043747583535132268 0 0.00041901970411193479 -0.0035866575527762827 0 0.00057973791509782541 -0.0038020627165441228 0 0.00033271422701203245 -0.0038414860493488469 0 0.00017353348527550264 -0.0049645796607569008 0 0.00019847779795182733 -0.0049664363971559048 0 0.00017663735781724962 -0.0049726446580883842 0 0.00016752649753309804 -0.0049719624476710694 0 0.00017353348527550264 -0.0049645796607569008 0 0.00017663735781724962 -0.0049726446580883842 0 0.00017353348527550264 -0.0049645796607569008 0 0.00019847779795182733 -0.0049664363971559048 0 0.00017165175230424395 -0.0049753713186583949 0 0.00017328303906810272 -0.005014299603910889 0 0.00028083477332224016 -0.0047967618978797186 0 0.00019847779795182733 -0.0049664363971559048 0 0.00023193425477670851 -0.0049240974311244327 0 0.00025792849660827424 -0.0049245738656333096 0 0.00025496111496242402 -0.0048844501836322451 0 0.00032733811033979881 -0.0046624254820912935 0 0.00019847779795182733 -0.0049664363971559048 0 0.00025792849660827424 -0.0049245738656333096 0 0.0002879157730676647 -0.0049567960404993854 0 0.00024686604775971268 -0.0047925480565920147 0 0.0002655740162910819 -0.0048036040150022585 0 0.00024007834197792939 -0.0047525348176362262 0 0.00025792849660827424 -0.0049245738656333096 0 0.00025258352798405417 -0.0049135845931967369 0 0.00028019093250298091 -0.0049359230451127469 0 0.00025792849660827424 -0.0049245738656333096 0 0.00027276430440692062 -0.0049375020492413097 0 0.00028019093250298091 -0.0049359230451127469 0 0.00028990173140331786 -0.0049444168508183855 0 0.00028083477332224016 -0.0047967618978797186 0 0.00024704112345532526 -0.0048102940077903184 0 0.00025482419431436002 -0.004809982695032404 0 0.00025376641975285741 -0.004820952154076916 0 0.00024686604775971268 -0.0047925480565920147 0 0.00024704112345532526 -0.0048102940077903184 0 0.00025482419431436002 -0.004809982695032404 0 0.00025482419431436002 -0.004809982695032404 0 0.0002655740162910819 -0.0048036040150022585 0 0.00025817268154954589 -0.0048283980841980134 0 0.00024686604775971268 -0.0047925480565920147 0 0.00025482419431436002 -0.004809982695032404 0 0.0002655740162910819 -0.0048036040150022585 0 0.00025496111496242402 -0.0048844501836322451 0 0.00024064313049764927 -0.0048460984537976983 0 0.00025258352798405417 -0.0049135845931967369 0 0.00023553557284825444 -0.0049044359085723566 0 0.00024430010899893474 -0.0048592631997598727 0 0.00023193425477670851 -0.0049240974311244327 0 0.00025792849660827424 -0.0049245738656333096 0 0.00025258352798405417 -0.0049135845931967369 0 0.00023193425477670851 -0.0049240974311244327 0 0.00025258352798405417 -0.0049135845931967369 0 0.00023553557284825444 -0.0049044359085723566 0 0.00037673561323561962 -0.0043747583535132268 0 0.00028114467983372305 -0.004328639182107792 0 0.00022737982339458075 -0.0047538878323772089 0 0.00020460729154835023 -0.0047675203936483083 0 0.00019543315102399188 -0.0047486576185835194 0 0.00024686604775971268 -0.0047925480565920147 0 0.00024007834197792939 -0.0047525348176362262 0 0.00023697862111213088 -0.0047737284404149385 0 0.00022737982339458075 -0.0047538878323772089 0 0.00023697862111213088 -0.0047737284404149385 0 0.00020460729154835023 -0.0047675203936483083 0 0.00022480596866711653 -0.0047542955378410577 0 0.00024007834197792939 -0.0047525348176362262 0 0.00023697862111213088 -0.0047737284404149385 0 0.00028083477332224016 -0.0047967618978797186 0 0.00032733811033979881 -0.0046624254820912935 0 0.00037673561323561962 -0.0043747583535132268 0 0.00032733811033979881 -0.0046624254820912935 0 0.00037673561323561962 -0.0043747583535132268 0 0.00034504300043588479 -0.0047217203362859032 0 0.00024686604775971268 -0.0047925480565920147 0 0.00022474181807155389 -0.0047987335258843225 0 0.00021359894153612685 -0.0047850211824323292 0 0.00024686604775971268 -0.0047925480565920147 0 0.00022474181807155389 -0.0047987335258843225 0 0.00023478761963712232 -0.0048066439759850907 0 0.00024506488041329237 -0.0047650631275513982 0 0.00021163670526076913 -0.0048667046645064493 0 0.00024686604775971268 -0.0047925480565920147 0 0.00023697862111213088 -0.0047737284404149385 0 0.00020460729154835023 -0.0047675203936483083 0 0.00024686604775971268 -0.0047925480565920147 0 0.00024704112345532526 -0.0048102940077903184 0 0.00023478761963712232 -0.0048066439759850907 0 0.00022474181807155389 -0.0047987335258843225 0 0.00021235322544426778 -0.004795515707360711 0 0.00021772795089590948 -0.0048040269388661717 0 0.00022474181807155389 -0.0047987335258843225 0 0.00021359894153612685 -0.0047850211824323292 0 0.00021235322544426778 -0.004795515707360711 0 0.00021359894153612685 -0.0047850211824323292 0 0.00021235322544426778 -0.004795515707360711 0 0.00020193862281791516 -0.004791638777404396 0 0.00021163670526076913 -0.0048667046645064493 0 0.00017160420952668721 -0.0041401303765268233 0 0.00020193862281791516 -0.004791638777404396 0 0.00018107299140697318 -0.0047742222158692971 0 0.00019633515429026203 -0.0047958206003139896 0 0.00021235322544426778 -0.004795515707360711 0 0.00020193862281791516 -0.004791638777404396 0 0.00020846452303675836 -0.0048024741012141596 0 0.00021359894153612685 -0.0047850211824323292 0 0.00020193862281791516 -0.004791638777404396 0 0.00018107299140697318 -0.0047742222158692971 0 0.00028114467983372305 -0.004328639182107792 0 2.5978184644535289e-05 -0.0038315169067580741 0 0.00033271422701203245 -0.0038414860493488469 0 8.4850744067469397e-05 -0.0038831911597425168 0 0.00018590194354434683 -0.0037271593582188624 0 0.00020460729154835023 -0.0047675203936483083 0 0.00019543315102399188 -0.0047486576185835194 0 0.00016757440471849031 -0.0047497968113793176 0 -5.8156313645979973e-06 -0.0033970594612179965 0 -7.7858367604453356e-06 -0.0033931142552598059 0 -4.1392994294122372e-06 -0.0033889222752293189 0 0.00019543315102399188 -0.0047486576185835194 0 0.00016616424020268527 -0.0047412041118051933 0 0.00016757440471849031 -0.0047497968113793176 0 2.5978184644535289e-05 -0.0038315169067580741 0 0.00017160420952668721 -0.0041401303765268233 0 0.00017160420952668721 -0.0041401303765268233 0 0.00044969301806405387 -0.0039845369166584006 0 0.00032583346392878572 -0.0033885857808323679 0 0.00023979361508478782 -0.0033840269570640721 0 0.00027139598677303602 -0.0035450230154991809 0 0.00017160420952668721 -0.0041401303765268233 0 0.00013765303789287108 -0.0027792362126791274 0 6.5275013200023513e-05 -0.003449372343304862 0 6.3252837751646317e-05 -0.0034374061065825579 0 8.7483578233533201e-05 -0.00343355264825426 0 0.00030286396617396283 -0.0018775440456437317 0 8.4078316549221301e-05 -0.00204153740037621 0 0.00020595128168312884 -0.0022046272662638142 0 9.8142555664181344e-05 -0.0024967999217228587 0 5.5760514936811563e-05 -0.0024880702996766622 0 9.6621846414150759e-05 -0.0024888584184251583 0 0.00013765303789287108 -0.0027792362126791274 0 0.0003725079682212561 -0.002959784216208699 0 0.00013765303789287108 -0.0027792362126791274 0 8.3265405320716033e-05 -0.0028545619519387954 0 2.8164209066298961e-05 -0.0020874269745734609 0 8.3265405320716033e-05 -0.0028545619519387954 0 0.00030286396617396283 -0.0018775440456437317 0 8.4078316549221301e-05 -0.00204153740037621 0 -2.2696764153506084e-05 -0.0018681611221293578 0 0.00013765303789287108 -0.0027792362126791274 0 2.8164209066298961e-05 -0.0020874269745734609 0 -4.2279221796341824e-05 -0.0020441025864629805 0 -2.2696764153506084e-05 -0.0018681611221293578 0 -0.00010630877003715156 -0.001957833767705574 0 -4.2279221796341824e-05 -0.0020441025864629805 0 8.4078316549221301e-05 -0.00204153740037621 0 -2.2696764153506084e-05 -0.0018681611221293578 0 3.8063901500713921e-05 -0.0022110953937343166 0 3.0620996543060435e-05 -0.0022319371028878695 0 1.2513922453445384e-05 -0.0022220846884197371 0 3.8063901500713921e-05 -0.0022110953937343166 0 3.0620996543060435e-05 -0.0022319371028878695 0 4.8564463298146224e-05 -0.0022288351255963898 0 8.3265405320716033e-05 -0.0028545619519387954 0 -7.8370303974716861e-06 -0.0028088354874911134 0 -7.5520538703924319e-06 -0.0033946138085005528 0 -7.7858367604453356e-06 -0.0033931142552598059 0 -1.3155623129899842e-05 -0.0033899493323468217 0 3.0620996543060435e-05 -0.0022319371028878695 0 1.2513922453445384e-05 -0.0022220846884197371 0 1.7570341784190616e-05 -0.0022504522863399132 0 2.5978184644535289e-05 -0.0038315169067580741 0 8.3265405320716033e-05 -0.0028545619519387954 0 6.5275013200023513e-05 -0.003449372343304862 0 8.7483578233533201e-05 -0.00343355264825426 0 8.8932746975629376e-05 -0.003441302805215945 0 -5.8156313645979973e-06 -0.0033970594612179965 0 -7.5520538703924319e-06 -0.0033946138085005528 0 -7.7858367604453356e-06 -0.0033931142552598059 0 -7.7858367604453356e-06 -0.0033931142552598059 0 -1.3155623129899842e-05 -0.0033899493323468217 0 -4.1392994294122372e-06 -0.0033889222752293189 0 -1.3155623129899842e-05 -0.0033899493323468217 0 -1.3516173080095035e-05 -0.0033719272317346777 0 -4.1392994294122372e-06 -0.0033889222752293189 0 3.0620996543060435e-05 -0.0022319371028878695 0 3.9600579852370309e-05 -0.002252310203644772 0 4.8564463298146224e-05 -0.0022288351255963898 0 3.0620996543060435e-05 -0.0022319371028878695 0 1.7570341784190616e-05 -0.0022504522863399132 0 3.9600579852370309e-05 -0.002252310203644772 0 2.2672553209421881e-05 -0.0022808755046060691 0 3.9600579852370309e-05 -0.002252310203644772 0 5.7607114479005938e-05 -0.0022772939642037087 0 2.2672553209421881e-05 -0.0022808755046060691 0 1.7570341784190616e-05 -0.0022504522863399132 0 3.9600579852370309e-05 -0.002252310203644772 0 -9.568925369042117e-06 -0.0028136970827736022 0 -7.8370303974716861e-06 -0.0028088354874911134 0 -4.2522843539323872e-05 -0.0033541553274586263 0 -1.3155623129899842e-05 -0.0033899493323468217 0 -1.3516173080095035e-05 -0.0033719272317346777 0 1.0186324510838003e-05 -0.0033696931007850808 0 1.7168692348970702e-05 -0.0034553739761060778 0 1.0907047121919293e-05 -0.0033418600570396515 0 -1.3516173080095035e-05 -0.0033719272317346777 0 -4.1392994294122372e-06 -0.0033889222752293189 0 1.0907047121919293e-05 -0.0033418600570396515 0 -4.2522843539323872e-05 -0.0033541553274586263 0 -1.3516173080095035e-05 -0.0033719272317346777 0 1.0907047121919293e-05 -0.0033418600570396515 0 0.00012135114927450461 -0.0034606350559944479 0 3.9930129808226646e-05 -0.0036129748320826356 0 0.00012135114927450461 -0.0034606350559944479 0 0.00020422935401150051 -0.003551257500735094 0 3.9930129808226646e-05 -0.0036129748320826356 0 0.00025272536584379875 -0.0033768782979075882 0 0.00041901970411193479 -0.0035866575527762827 0 0.00020422935401150051 -0.003551257500735094 0 0.00015410495030850714 -0.0042069290389090642 0 0.00019928102894612985 -0.0041781545197268804 0 0.00026421313606318509 -0.0043561831906746848 0 0.00020690777152857707 -0.0037986738028917338 0 0.00034204164593410992 -0.0039357980837418927 0 0.00025272536584379875 -0.0033768782979075882 0 0.00012135114927450461 -0.0034606350559944479 0 0.00020422935401150051 -0.003551257500735094 0 0.00041901970411193479 -0.0035866575527762827 0 0.00020422935401150051 -0.003551257500735094 0 0.00018590194354434683 -0.0037271593582188624 0 0.00041901970411193479 -0.0035866575527762827 0 0.00033271422701203245 -0.0038414860493488469 0 0.00018590194354434683 -0.0037271593582188624 0 8.4850744067469397e-05 -0.0038831911597425168 0 0.00018590194354434683 -0.0037271593582188624 0 3.9930129808226646e-05 -0.0036129748320826356 0 0.00020422935401150051 -0.003551257500735094 0 0.00018590194354434683 -0.0037271593582188624 0 3.9930129808226646e-05 -0.0036129748320826356 0 2.5978184644535289e-05 -0.0038315169067580741 0 1.7168692348970702e-05 -0.0034553739761060778 0 1.1510215200729425e-05 -0.0050030609428345571 0 7.6672376354866469e-09 -0.0050000088293661194 0 1.238700217098297e-08 -0.0050000066604549993 0 1.1510215200729425e-05 -0.0050030609428345571 0 1.7212391309885015e-05 -0.0050013097302996218 0 1.238700217098297e-08 -0.0050000066604549993 0 1.1510215200729425e-05 -0.0050030609428345571 0 2.4451352192563565e-05 -0.0050052124056791034 0 1.7212391309885015e-05 -0.0050013097302996218 0 1.1510215200729425e-05 -0.0050030609428345571 0 1.1399962606047036e-05 -0.00500359316953516 0 2.4451352192563565e-05 -0.0050052124056791034 0 1.1510215200729425e-05 -0.0050030609428345571 0 1.1399962606047036e-05 -0.00500359316953516 0 7.6672376354866469e-09 -0.0050000088293661194 0 7.6672376354866469e-09 -0.0050000088293661194 0 6.3575899058052361e-06 -0.0050009079219853984 0 8.7658962891887086e-09 -0.0049999884096766263 0 1.1399962606047036e-05 -0.00500359316953516 0 7.6672376354866469e-09 -0.0050000088293661194 0 6.3575899058052361e-06 -0.0050009079219853984 0 6.3059353313279292e-06 -0.0049900951033446271 0 6.3575899058052361e-06 -0.0050009079219853984 0 8.7658962891887086e-09 -0.0049999884096766263 0 3.3124220786479109e-05 -0.0049777645172467177 0 6.3059353313279292e-06 -0.0049900951033446271 0 2.1235041707343677e-05 -0.0049506262479457868 0 6.3059353313279292e-06 -0.0049900951033446271 0 6.3575899058052361e-06 -0.0050009079219853984 0 7.8424145825870347e-06 -0.0050022254294359069 0 7.4664874253802365e-06 -0.0049879947831501176 0 1.5290852260182888e-05 -0.0049769528093619409 0 1.1399962606047036e-05 -0.00500359316953516 0 6.3575899058052361e-06 -0.0050009079219853984 0 7.8424145825870347e-06 -0.0050022254294359069 0 1.1399962606047036e-05 -0.00500359316953516 0 7.8424145825870347e-06 -0.0050022254294359069 0 1.9634594567121088e-05 -0.0050047131397810115 0 1.5290852260182888e-05 -0.0049769528093619409 0 2.9169556930276674e-05 -0.00495766019251826 0 2.1235041707343677e-05 -0.0049506262479457868 0 6.2267604345761211e-05 -0.0049373450504562469 0 3.9731816411910674e-05 -0.0049203411841582164 0 2.1235041707343677e-05 -0.0049506262479457868 0 6.8050403383513645e-05 -0.0049656911941392953 0 6.2267604345761211e-05 -0.0049373450504562469 0 3.3124220786479109e-05 -0.0049777645172467177 0 2.1235041707343677e-05 -0.0049506262479457868 0 6.8050403383513645e-05 -0.0049656911941392953 0 6.0216789252020416e-05 -0.0049167967570739792 0 5.7093316078000182e-05 -0.0048923366282054787 0 8.1700468957914257e-05 -0.0049173835721753765 0 6.2267604345761211e-05 -0.0049373450504562469 0 6.0216789252020416e-05 -0.0049167967570739792 0 8.1700468957914257e-05 -0.0049173835721753765 0 6.0216789252020416e-05 -0.0049167967570739792 0 3.9731816411910674e-05 -0.0049203411841582164 0 5.7093316078000182e-05 -0.0048923366282054787 0 6.9039744169008954e-05 -0.004983534125738179 0 0.00010397369196870922 -0.0049517810352462501 0 6.2267604345761211e-05 -0.0049373450504562469 0 6.0216789252020416e-05 -0.0049167967570739792 0 3.9731816411910674e-05 -0.0049203411841582164 0 2.9169556930276674e-05 -0.00495766019251826 0 6.9039744169008954e-05 -0.004983534125738179 0 1.1399962606047036e-05 -0.00500359316953516 0 1.9634594567121088e-05 -0.0050047131397810115 0 2.4451352192563565e-05 -0.0050052124056791034 0 2.4451352192563565e-05 -0.0050052124056791034 0 2.8232513053974318e-05 -0.0050048803848132054 0 3.8751476282238118e-05 -0.0050051431299825422 0 1.9634594567121088e-05 -0.0050047131397810115 0 2.4451352192563565e-05 -0.0050052124056791034 0 2.8232513053974318e-05 -0.0050048803848132054 0 6.9039744169008954e-05 -0.004983534125738179 0 4.3494741835367434e-05 -0.0050122448501263234 0 6.9039744169008954e-05 -0.004983534125738179 0 9.5377796510536108e-05 -0.0050063528569581541 0 0.00011024778372214911 -0.0049997846166289868 0 0.00012692898616689665 -0.0049955257371135401 0 0.00010434909063026188 -0.0050018445986624504 0 0.00011024778372214911 -0.0049997846166289868 0 0.00012692898616689665 -0.0049955257371135401 0 0.00012824791608143801 -0.0049971601351143716 0 0.00012692898616689665 -0.0049955257371135401 0 0.00014114717024849561 -0.0049908552530717092 0 0.0001533976773288804 -0.00498385392155422 0 0.00014114717024849561 -0.0049908552530717092 0 0.00012824791608143801 -0.0049971601351143716 0 0.00014041028689319422 -0.0049892856020138272 0 0.00012692898616689665 -0.0049955257371135401 0 0.00014114717024849561 -0.0049908552530717092 0 0.00012824791608143801 -0.0049971601351143716 0 6.2267604345761211e-05 -0.0049373450504562469 0 8.1700468957914257e-05 -0.0049173835721753765 0 0.00010708072348308904 -0.0049431494624417134 0 0.00010397369196870922 -0.0049517810352462501 0 0.00012306739866765304 -0.0049673096056484182 0 6.8050403383513645e-05 -0.0049656911941392953 0 6.2267604345761211e-05 -0.0049373450504562469 0 0.00010708072348308904 -0.0049431494624417134 0 6.8050403383513645e-05 -0.0049656911941392953 0 0.00010358127623934956 -0.0049725751890324198 0 0.00010708072348308904 -0.0049431494624417134 0 0.00010358127623934956 -0.0049725751890324198 0 0.00010708072348308904 -0.0049431494624417134 0 0.00013327475057641315 -0.0049778100933814615 0 0.00012306739866765304 -0.0049673096056484182 0 0.00013241873754137669 -0.004976279109062876 0 0.00014041028689319422 -0.0049892856020138272 0 0.00014357819424663063 -0.004984026883534204 0 0.00013327475057641315 -0.0049778100933814615 0 0.00014114717024849561 -0.0049908552530717092 0 0.00014041028689319422 -0.0049892856020138272 0 0.00014357819424663063 -0.004984026883534204 0 0.00014357819424663063 -0.004984026883534204 0 0.00013327475057641315 -0.0049778100933814615 0 0.00014460837890543869 -0.0049823527068627504 0 0.00013392554769455021 -0.0049617747250252217 0 0.00014079886042030852 -0.0049534461325558346 0 0.00012916286512598926 -0.0049524579036844063 0 0.00014079886042030852 -0.0049534461325558346 0 0.0001490801451255663 -0.0049447823884813452 0 0.00012916286512598926 -0.0049524579036844063 0 0.0001613029269051556 -0.004978744999845121 0 0.00014357819424663063 -0.004984026883534204 0 0.00014460837890543869 -0.0049823527068627504 0 0.0001613029269051556 -0.004978744999845121 0 0.00014357819424663063 -0.004984026883534204 0 0.00015187357056005346 -0.0049822784659987697 0 0.00015431458944171951 -0.0049619543962949979 0 0.00013732837058518833 -0.0049673657597852083 0 0.0001613029269051556 -0.004978744999845121 0 0.00016752649753309804 -0.0049719624476710694 0 0.00015187357056005346 -0.0049822784659987697 0 0.00014114717024849561 -0.0049908552530717092 0 0.00014357819424663063 -0.004984026883534204 0 0.00015187357056005346 -0.0049822784659987697 0 0.00014114717024849561 -0.0049908552530717092 0 0.00015187357056005346 -0.0049822784659987697 0 0.0001533976773288804 -0.00498385392155422 0 0.00016752649753309804 -0.0049719624476710694 0 0.00015187357056005346 -0.0049822784659987697 0 0.0001533976773288804 -0.00498385392155422 0 0.00016752649753309804 -0.0049719624476710694 0 0.0001533976773288804 -0.00498385392155422 0 0.00017663735781724962 -0.0049726446580883842 0 0.0001533976773288804 -0.00498385392155422 0 0.00017663735781724962 -0.0049726446580883842 0 0.00016540579418840702 -0.0049711554961375829 0 0.00019847779795182733 -0.0049664363971559048 0 0.00016540579418840702 -0.0049711554961375829 0 0.00017611940518882241 -0.0049462139584691631 0 0.00016540579418840702 -0.0049711554961375829 0 0.00017611940518882241 -0.0049462139584691631 0 0.0001411106478643865 -0.0049638197691219948 0 0.00019847779795182733 -0.0049664363971559048 0 0.00017663735781724962 -0.0049726446580883842 0 0.00016540579418840702 -0.0049711554961375829 0 0.00019847779795182733 -0.0049664363971559048 0 0.0002109480153516597 -0.004917821184483996 0 0.00017611940518882241 -0.0049462139584691631 0 0.00019847779795182733 -0.0049664363971559048 0 0.00023193425477670851 -0.0049240974311244327 0 0.0002109480153516597 -0.004917821184483996 0 0.00023553557284825444 -0.0049044359085723566 0 0.0002109480153516597 -0.004917821184483996 0 0.00024430010899893474 -0.0048592631997598727 0 0.00023193425477670851 -0.0049240974311244327 0 0.00023553557284825444 -0.0049044359085723566 0 0.0002109480153516597 -0.004917821184483996 0 0.0002109480153516597 -0.004917821184483996 0 0.00018078089456452121 -0.0049171505120424973 0 0.00017611940518882241 -0.0049462139584691631 0 0.0002109480153516597 -0.004917821184483996 0 0.00018078089456452121 -0.0049171505120424973 0 0.0002107014225246897 -0.0048704780258077935 0 0.00017611940518882241 -0.0049462139584691631 0 0.0001411106478643865 -0.0049638197691219948 0 0.00014550418829104519 -0.0049383774665430714 0 0.00018078089456452121 -0.0049171505120424973 0 0.00017611940518882241 -0.0049462139584691631 0 0.00014550418829104519 -0.0049383774665430714 0 0.00018078089456452121 -0.0049171505120424973 0 0.00014550418829104519 -0.0049383774665430714 0 0.00015502311181032576 -0.0049061561736596041 0 0.00014550418829104519 -0.0049383774665430714 0 0.00010672177450823185 -0.0049592845519667228 0 0.00010491181160786792 -0.0049311766092209035 0 0.00014550418829104519 -0.0049383774665430714 0 0.00010491181160786792 -0.0049311766092209035 0 0.00015502311181032576 -0.0049061561736596041 0 0.0001411106478643865 -0.0049638197691219948 0 0.00010672177450823185 -0.0049592845519667228 0 0.00010604141216145614 -0.0049800300739197435 0 0.0001411106478643865 -0.0049638197691219948 0 0.00014550418829104519 -0.0049383774665430714 0 0.00010672177450823185 -0.0049592845519667228 0 0.0001411106478643865 -0.0049638197691219948 0 0.00010604141216145614 -0.0049800300739197435 0 0.00013435687528840146 -0.0049845533755086685 0 0.00016540579418840702 -0.0049711554961375829 0 0.0001411106478643865 -0.0049638197691219948 0 0.00013435687528840146 -0.0049845533755086685 0 0.00012692898616689665 -0.0049955257371135401 0 0.0001533976773288804 -0.00498385392155422 0 0.00013435687528840146 -0.0049845533755086685 0 0.0001533976773288804 -0.00498385392155422 0 0.00016540579418840702 -0.0049711554961375829 0 0.00013435687528840146 -0.0049845533755086685 0 0.00012692898616689665 -0.0049955257371135401 0 0.00013435687528840146 -0.0049845533755086685 0 0.00010434909063026188 -0.0050018445986624504 0 0.00010604141216145614 -0.0049800300739197435 0 0.00013435687528840146 -0.0049845533755086685 0 0.00010434909063026188 -0.0050018445986624504 0 0.00010604141216145614 -0.0049800300739197435 0 0.00010434909063026188 -0.0050018445986624504 0 6.7975811505162424e-05 -0.004987689852804492 0 8.0512626928610375e-05 -0.0050445034865801743 0 0.00010434909063026188 -0.0050018445986624504 0 3.8751476282238118e-05 -0.0050051431299825422 0 0.00010434909063026188 -0.0050018445986624504 0 3.8751476282238118e-05 -0.0050051431299825422 0 6.7975811505162424e-05 -0.004987689852804492 0 3.8751476282238118e-05 -0.0050051431299825422 0 6.7975811505162424e-05 -0.004987689852804492 0 3.1361874024027971e-05 -0.0049904157138660867 0 6.7975811505162424e-05 -0.004987689852804492 0 6.9133876046687751e-05 -0.0049748535469383648 0 3.1361874024027971e-05 -0.0049904157138660867 0 0.00010604141216145614 -0.0049800300739197435 0 6.7975811505162424e-05 -0.004987689852804492 0 6.9133876046687751e-05 -0.0049748535469383648 0 0.00010672177450823185 -0.0049592845519667228 0 0.00010604141216145614 -0.0049800300739197435 0 6.9133876046687751e-05 -0.0049748535469383648 0 0.00010672177450823185 -0.0049592845519667228 0 6.9186689687062856e-05 -0.0049590557406900765 0 6.9133876046687751e-05 -0.0049748535469383648 0 0.00010672177450823185 -0.0049592845519667228 0 6.9186689687062856e-05 -0.0049590557406900765 0 0.00010491181160786792 -0.0049311766092209035 0 6.9186689687062856e-05 -0.0049590557406900765 0 3.3953629810697266e-05 -0.0049772992152514938 0 3.6512458365045557e-05 -0.0049515174604168755 0 6.9186689687062856e-05 -0.0049590557406900765 0 6.9133876046687751e-05 -0.0049748535469383648 0 3.3953629810697266e-05 -0.0049772992152514938 0 6.9133876046687751e-05 -0.0049748535469383648 0 3.3953629810697266e-05 -0.0049772992152514938 0 3.1361874024027971e-05 -0.0049904157138660867 0 3.3953629810697266e-05 -0.0049772992152514938 0 1.4784843366616747e-08 -0.0049999701053475235 0 3.6512458365045557e-05 -0.0049515174604168755 0 3.3953629810697266e-05 -0.0049772992152514938 0 9.1207487306232656e-09 -0.0049999890060491662 0 3.1361874024027971e-05 -0.0049904157138660867 0 3.3953629810697266e-05 -0.0049772992152514938 0 1.4784843366616747e-08 -0.0049999701053475235 0 9.1207487306232656e-09 -0.0049999890060491662 0 9.1207487306232656e-09 -0.0049999890060491662 0 3.1361874024027971e-05 -0.0049904157138660867 0 1.7212391309885015e-05 -0.0050013097302996218 0 2.4451352192563565e-05 -0.0050052124056791034 0 3.8751476282238118e-05 -0.0050051431299825422 0 1.7212391309885015e-05 -0.0050013097302996218 0 3.8751476282238118e-05 -0.0050051431299825422 0 3.1361874024027971e-05 -0.0049904157138660867 0 1.7212391309885015e-05 -0.0050013097302996218 0 9.1207487306232656e-09 -0.0049999890060491662 0 1.7212391309885015e-05 -0.0050013097302996218 0 1.238700217098297e-08 -0.0050000066604549993 0 -4.493645581247856e-09 -0.0049998743908848623 0 2.3086669099756174e-05 -0.004870547920400382 0 6.4538334317848215e-06 -0.004938299866730605 0 -4.493645581247856e-09 -0.0049998743908848623 0 2.3086669099756174e-05 -0.004870547920400382 0 1.6605119004266834e-05 -0.0049385730158185885 0 -4.493645581247856e-09 -0.0049998743908848623 0 1.6605119004266834e-05 -0.0049385730158185885 0 2.291135544256142e-09 -0.0049999334085712738 0 1.6605119004266834e-05 -0.0049385730158185885 0 2.291135544256142e-09 -0.0049999334085712738 0 3.6512458365045557e-05 -0.0049515174604168755 0 1.4784843366616747e-08 -0.0049999701053475235 0 2.291135544256142e-09 -0.0049999334085712738 0 3.6512458365045557e-05 -0.0049515174604168755 0 1.6605119004266834e-05 -0.0049385730158185885 0 3.6512458365045557e-05 -0.0049515174604168755 0 6.2316927782724769e-05 -0.0048779888727762191 0 3.6512458365045557e-05 -0.0049515174604168755 0 0.00010722737497469246 -0.0048922184486849835 0 6.2316927782724769e-05 -0.0048779888727762191 0 6.9186689687062856e-05 -0.0049590557406900765 0 3.6512458365045557e-05 -0.0049515174604168755 0 0.00010491181160786792 -0.0049311766092209035 0 3.6512458365045557e-05 -0.0049515174604168755 0 0.00010491181160786792 -0.0049311766092209035 0 0.00010722737497469246 -0.0048922184486849835 0 0.00010722737497469246 -0.0048922184486849835 0 6.2316927782724769e-05 -0.0048779888727762191 0 0.00015931112147032179 -0.0048148071593679216 0 6.2316927782724769e-05 -0.0048779888727762191 0 9.9011271228063884e-05 -0.0047722033718894091 0 0.00015931112147032179 -0.0048148071593679216 0 2.3086669099756174e-05 -0.004870547920400382 0 1.6605119004266834e-05 -0.0049385730158185885 0 6.2316927782724769e-05 -0.0048779888727762191 0 2.3086669099756174e-05 -0.004870547920400382 0 9.9011271228063884e-05 -0.0047722033718894091 0 7.1524837250578954e-05 -0.0047555611138451435 0 2.3086669099756174e-05 -0.004870547920400382 0 6.2316927782724769e-05 -0.0048779888727762191 0 9.9011271228063884e-05 -0.0047722033718894091 0 9.9011271228063884e-05 -0.0047722033718894091 0 0.00017026981092971527 -0.0047348752913671391 0 0.00015931112147032179 -0.0048148071593679216 0 9.9011271228063884e-05 -0.0047722033718894091 0 0.00017026981092971527 -0.0047348752913671391 0 0.00023116747669694695 -0.0045627715789923673 0 0.00017026981092971527 -0.0047348752913671391 0 0.00021966899755859385 -0.0047458532873873756 0 0.00015931112147032179 -0.0048148071593679216 0 0.00017026981092971527 -0.0047348752913671391 0 0.00021966899755859385 -0.0047458532873873756 0 0.00023116747669694695 -0.0045627715789923673 0 0.00021966899755859385 -0.0047458532873873756 0 0.00023178772996919615 -0.0048013249420650553 0 0.00025942139200502113 -0.0047558440309321626 0 0.00021966899755859385 -0.0047458532873873756 0 0.00025942139200502113 -0.0047558440309321626 0 0.00023116747669694695 -0.0045627715789923673 0 0.00023178772996919615 -0.0048013249420650553 0 0.00015931112147032179 -0.0048148071593679216 0 0.0001934507355733279 -0.0048548988670569773 0 0.00021966899755859385 -0.0047458532873873756 0 0.00023178772996919615 -0.0048013249420650553 0 0.00015931112147032179 -0.0048148071593679216 0 0.00010722737497469246 -0.0048922184486849835 0 0.00015931112147032179 -0.0048148071593679216 0 0.0001934507355733279 -0.0048548988670569773 0 0.00010722737497469246 -0.0048922184486849835 0 0.00015502311181032576 -0.0049061561736596041 0 0.0001934507355733279 -0.0048548988670569773 0 0.00010491181160786792 -0.0049311766092209035 0 0.00010722737497469246 -0.0048922184486849835 0 0.00015502311181032576 -0.0049061561736596041 0 0.00015502311181032576 -0.0049061561736596041 0 0.0001934507355733279 -0.0048548988670569773 0 0.0002107014225246897 -0.0048704780258077935 0 0.00018078089456452121 -0.0049171505120424973 0 0.00015502311181032576 -0.0049061561736596041 0 0.0002107014225246897 -0.0048704780258077935 0 0.0001934507355733279 -0.0048548988670569773 0 0.0002107014225246897 -0.0048704780258077935 0 0.00024142118986123483 -0.0048282868923057798 0 0.00023178772996919615 -0.0048013249420650553 0 0.0001934507355733279 -0.0048548988670569773 0 0.00024142118986123483 -0.0048282868923057798 0 0.0002107014225246897 -0.0048704780258077935 0 0.00024430010899893474 -0.0048592631997598727 0 0.00024142118986123483 -0.0048282868923057798 0 0.0002109480153516597 -0.004917821184483996 0 0.0002107014225246897 -0.0048704780258077935 0 0.00024430010899893474 -0.0048592631997598727 0 0.00024430010899893474 -0.0048592631997598727 0 0.00024142118986123483 -0.0048282868923057798 0 0.00026456072639353078 -0.0048308164951708149 0 0.00024142118986123483 -0.0048282868923057798 0 0.00026288950780905022 -0.0047979544452790542 0 0.00026456072639353078 -0.0048308164951708149 0 0.00023178772996919615 -0.0048013249420650553 0 0.00024142118986123483 -0.0048282868923057798 0 0.00026288950780905022 -0.0047979544452790542 0 0.00023178772996919615 -0.0048013249420650553 0 0.00026288950780905022 -0.0047979544452790542 0 0.00025942139200502113 -0.0047558440309321626 0 0.00028567735201094429 -0.0043804629775445704 0 0.00027129933318687606 -0.0044771629144114049 0 0.00032515048177061452 -0.0039675072837432298 0 0.00032187684252652372 -0.0042109928241974614 0 0.00031342740089480332 -0.0040746387898385047 0 0.00031342740089480332 -0.0040746387898385047 0 0.00031020567820017671 -0.0042947054381929292 0 0.00030675655034589612 -0.0040217155050524213 0 0.00032187684252652372 -0.0042109928241974614 0 0.00031342740089480332 -0.0040746387898385047 0 0.00031020567820017671 -0.0042947054381929292 0 0.00024974471356443696 -0.0040955227972107617 0 0.00031566081110601622 -0.0040482588471133212 0 0.00031020567820017671 -0.0042947054381929292 0 0.00030264773449968841 -0.0042996420112620028 0 0.00030675655034589612 -0.0040217155050524213 0 0.00029155387123806222 -0.0038777069926229316 0 0.00020788019199132865 -0.003921415583528408 0 0.00030675655034589612 -0.0040217155050524213 0 0.00024758137443834478 -0.0038528950592722198 0 0.00029155387123806222 -0.0038777069926229316 0 0.00020788019199132865 -0.003921415583528408 0 0.00031020567820017671 -0.0042947054381929292 0 0.00030264773449968841 -0.0042996420112620028 0 0.00028576246180876777 -0.0043603572349936136 0 0.00031020567820017671 -0.0042947054381929292 0 0.00028576246180876777 -0.0043603572349936136 0 0.00025496896523623789 -0.0044292368392708122 0 0.00028576246180876777 -0.0043603572349936136 0 0.00025716917491726954 -0.0044019144869739462 0 0.00025496896523623789 -0.0044292368392708122 0 0.00026611846816157095 -0.0043722452268262707 0 0.00028576246180876777 -0.0043603572349936136 0 0.00025716917491726954 -0.0044019144869739462 0 0.00025270519136128884 -0.0041758706954412471 0 0.00024974471356443696 -0.0040955227972107617 0 0.00026611846816157095 -0.0043722452268262707 0 0.00030264773449968841 -0.0042996420112620028 0 0.00028576246180876777 -0.0043603572349936136 0 0.00026611846816157095 -0.0043722452268262707 0 0.00025716917491726954 -0.0044019144869739462 0 0.0002225407847022809 -0.0044177394957201285 0 0.00025270519136128884 -0.0041758706954412471 0 0.00022349706243378741 -0.0044214348123331479 0 0.00025716917491726954 -0.0044019144869739462 0 0.0002235690236609725 -0.0044550682992225595 0 0.0002225407847022809 -0.0044177394957201285 0 0.0002235690236609725 -0.0044550682992225595 0 0.00025496896523623789 -0.0044292368392708122 0 0.0001865618165390476 -0.0045255797281183643 0 0.00025496896523623789 -0.0044292368392708122 0 0.00020387171292231005 -0.0045181355865741568 0 0.0001865618165390476 -0.0045255797281183643 0 0.00025716917491726954 -0.0044019144869739462 0 0.0002235690236609725 -0.0044550682992225595 0 0.00025496896523623789 -0.0044292368392708122 0 0.00020387171292231005 -0.0045181355865741568 0 0.00023892949127845588 -0.004471750147953619 0 0.00017027906781742283 -0.0045882319031323752 0 0.00025496896523623789 -0.0044292368392708122 0 0.00020387171292231005 -0.0045181355865741568 0 0.00023892949127845588 -0.004471750147953619 0 0.00031020567820017671 -0.0042947054381929292 0 0.00025496896523623789 -0.0044292368392708122 0 0.00023892949127845588 -0.004471750147953619 0 0.00031020567820017671 -0.0042947054381929292 0 0.00023892949127845588 -0.004471750147953619 0 0.00023116747669694695 -0.0045627715789923673 0 0.00032187684252652372 -0.0042109928241974614 0 0.00031020567820017671 -0.0042947054381929292 0 0.00023116747669694695 -0.0045627715789923673 0 0.00027129933318687606 -0.0044771629144114049 0 0.00021549107149755866 -0.0045370393554133954 0 9.9011271228063884e-05 -0.0047722033718894091 0 0.00023116747669694695 -0.0045627715789923673 0 0.00017027906781742283 -0.0045882319031323752 0 0.00023892949127845588 -0.004471750147953619 0 0.00023116747669694695 -0.0045627715789923673 0 0.00017027906781742283 -0.0045882319031323752 0 9.9011271228063884e-05 -0.0047722033718894091 0 0.00017027906781742283 -0.0045882319031323752 0 7.1524837250578954e-05 -0.0047555611138451435 0 0.00017027906781742283 -0.0045882319031323752 0 7.1524837250578954e-05 -0.0047555611138451435 0 4.9449393501835798e-05 -0.0047592751378089451 0 2.3086669099756174e-05 -0.004870547920400382 0 7.1524837250578954e-05 -0.0047555611138451435 0 4.9449393501835798e-05 -0.0047592751378089451 0 0.00012108525734858867 -0.004688460384914492 0 8.764042452580868e-05 -0.0047148133887827421 0 0.00013590485255542202 -0.0046213956109853278 0 0.00012108525734858867 -0.004688460384914492 0 0.0001617053899285261 -0.004588535990338022 0 0.00013590485255542202 -0.0046213956109853278 0 0.00017027906781742283 -0.0045882319031323752 0 0.00012108525734858867 -0.004688460384914492 0 0.0001617053899285261 -0.004588535990338022 0 0.00016518264401878228 -0.0046259141775427852 0 9.002131066789508e-05 -0.0047214638410906333 0 0.00020387171292231005 -0.0045181355865741568 0 0.00017027906781742283 -0.0045882319031323752 0 0.0001617053899285261 -0.004588535990338022 0 0.00020387171292231005 -0.0045181355865741568 0 0.0001617053899285261 -0.004588535990338022 0 0.0001865618165390476 -0.0045255797281183643 0 0.0001865618165390476 -0.0045255797281183643 0 0.00014624419281858918 -0.0045542943335704113 0 0.00013590485255542202 -0.0046213956109853278 0 0.0001617053899285261 -0.004588535990338022 0 0.0001865618165390476 -0.0045255797281183643 0 0.00013590485255542202 -0.0046213956109853278 0 0.0001865618165390476 -0.0045255797281183643 0 0.00017566521848199075 -0.0044904084082428297 0 0.00014624419281858918 -0.0045542943335704113 0 0.0002235690236609725 -0.0044550682992225595 0 0.0001865618165390476 -0.0045255797281183643 0 0.00017566521848199075 -0.0044904084082428297 0 0.0002235690236609725 -0.0044550682992225595 0 0.00017566521848199075 -0.0044904084082428297 0 0.0002225407847022809 -0.0044177394957201285 0 0.00017566521848199075 -0.0044904084082428297 0 0.00015413260880345805 -0.0045094159385633348 0 0.00014624419281858918 -0.0045542943335704113 0 0.0001658953635920024 -0.0044585608618958744 0 0.00017566521848199075 -0.0044904084082428297 0 0.00015413260880345805 -0.0045094159385633348 0 0.0001001852050406223 -0.0046334630104533474 0 0.00014077202818409376 -0.0044330607279271456 0 0.00013273459396934226 -0.0043679125323198608 0 0.00017566521848199075 -0.0044904084082428297 0 0.0002225407847022809 -0.0044177394957201285 0 1.7247642188858561e-05 -0.0049853266272399891 0 -1.0093821185900551e-05 -0.0049986410102504288 0 -5.3110427915127797e-06 -0.0049921101779801299 0 0.0001658953635920024 -0.0044585608618958744 0 0.00012798805218420135 -0.0045404614174887076 0 5.6998191015827002e-05 -0.0045931524306498436 0 0.0001001852050406223 -0.0046334630104533474 0 2.9495799741265695e-05 -0.0048163151111517933 0 0.0001658953635920024 -0.0044585608618958744 0 0.00015413260880345805 -0.0045094159385633348 0 0.00012798805218420135 -0.0045404614174887076 0 0.00012798805218420135 -0.0045404614174887076 0 0.00010597976427500474 -0.0046261559292581139 0 0.00014624419281858918 -0.0045542943335704113 0 0.00015413260880345805 -0.0045094159385633348 0 0.00012798805218420135 -0.0045404614174887076 0 0.00014624419281858918 -0.0045542943335704113 0 0.00012798805218420135 -0.0045404614174887076 0 0.00010597976427500474 -0.0046261559292581139 0 5.6998191015827002e-05 -0.0045931524306498436 0 0.00010597976427500474 -0.0046261559292581139 0 0.00014624419281858918 -0.0045542943335704113 0 0.00013590485255542202 -0.0046213956109853278 0 8.764042452580868e-05 -0.0047148133887827421 0 0.00010597976427500474 -0.0046261559292581139 0 0.00013590485255542202 -0.0046213956109853278 0 8.764042452580868e-05 -0.0047148133887827421 0 0.00010597976427500474 -0.0046261559292581139 0 3.9527312387439629e-05 -0.00479255747256002 0 3.9527312387439629e-05 -0.00479255747256002 0 5.6998191015827002e-05 -0.0045931524306498436 0 -5.4213997221617892e-06 -0.0049638761899746401 0 0.00010597976427500474 -0.0046261559292581139 0 3.9527312387439629e-05 -0.00479255747256002 0 5.6998191015827002e-05 -0.0045931524306498436 0 -1.0093821185900551e-05 -0.0049986410102504288 0 -6.9333301191649714e-06 -0.0049954821468882896 0 -6.1278321812294932e-06 -0.004994344494838379 0 -1.0093821185900551e-05 -0.0049986410102504288 0 -6.9333301191649714e-06 -0.0049954821468882896 0 -5.3110427915127797e-06 -0.0049921101779801299 0 -5.1897395662267799e-09 -0.005000009429696005 0 -3.4591004858655576e-06 -0.0049977311189939675 0 5.30384587330334e-09 -0.0049999491929611688 0 -6.9333301191649714e-06 -0.0049954821468882896 0 -3.4591004858655576e-06 -0.0049977311189939675 0 -6.1278321812294932e-06 -0.004994344494838379 0 -3.4591004858655576e-06 -0.0049977311189939675 0 -6.1278321812294932e-06 -0.004994344494838379 0 5.30384587330334e-09 -0.0049999491929611688 0 2.9495799741265695e-05 -0.0048163151111517933 0 4.9654520350423134e-06 -0.0049260610886399936 0 5.30384587330334e-09 -0.0049999491929611688 0 -5.4213997221617892e-06 -0.0049638761899746401 0 -1.9916262862324862e-08 -0.0049996377811797324 0 -6.1278321812294932e-06 -0.004994344494838379 0 5.30384587330334e-09 -0.0049999491929611688 0 -5.4213997221617892e-06 -0.0049638761899746401 0 -1.0093821185900551e-05 -0.0049986410102504288 0 -6.1278321812294932e-06 -0.004994344494838379 0 -5.4213997221617892e-06 -0.0049638761899746401 0 -5.4213997221617892e-06 -0.0049638761899746401 0 -1.9916262862324862e-08 -0.0049996377811797324 0 4.1578757041517609e-05 -0.0048251461578983339 0 7.2484308877935817e-09 -0.0049998482262929664 0 1.1999424462105175e-05 -0.0048875641136231253 0 6.4538334317848215e-06 -0.004938299866730605 0 3.9527312387439629e-05 -0.00479255747256002 0 -5.4213997221617892e-06 -0.0049638761899746401 0 4.1578757041517609e-05 -0.0048251461578983339 0 -2.5505123678799213e-09 -0.0049999280951517735 0 2.3884621868636352e-05 -0.0048571006750980162 0 9.002131066789508e-05 -0.0047214638410906333 0 2.3884621868636352e-05 -0.0048571006750980162 0 0.00012108525734858867 -0.004688460384914492 0 8.764042452580868e-05 -0.0047148133887827421 0 4.1578757041517609e-05 -0.0048251461578983339 0 8.764042452580868e-05 -0.0047148133887827421 0 3.9527312387439629e-05 -0.00479255747256002 0 4.1578757041517609e-05 -0.0048251461578983339 0 2.3086669099756174e-05 -0.004870547920400382 0 4.9449393501835798e-05 -0.0047592751378089451 0 1.1999424462105175e-05 -0.0048875641136231253 0 2.3086669099756174e-05 -0.004870547920400382 0 1.1999424462105175e-05 -0.0048875641136231253 0 6.4538334317848215e-06 -0.004938299866730605 0 -4.493645581247856e-09 -0.0049998743908848623 0 7.2484308877935817e-09 -0.0049998482262929664 0 6.4538334317848215e-06 -0.004938299866730605 0 0.00052505723831348646 -0.0032189805458019386 0 0.00045989648634743032 -0.0033172912404942178 0 0.00053927115418330471 -0.0036957291184406813 0 0.00038765460831387944 -0.0036120618199472318 0 0.00044330886012137951 -0.0033501152689527488 0 0.00053927115418330471 -0.0036957291184406813 0 0.00038765460831387944 -0.0036120618199472318 0 0.00043700433194469098 -0.0037613183378677304 0 0.00039687290028149713 -0.0036359319150106573 0 0.00041633392561940975 -0.003714614505050136 0 0.00036668584147711596 -0.0036978772042221115 0 0.00033980685495802767 -0.0036717466435617447 0 0.00038765460831387944 -0.0036120618199472318 0 0.00033980685495802767 -0.0036717466435617447 0 0.00038765460831387944 -0.0036120618199472318 0 0.00034480993035464858 -0.0035726141873286955 0 0.00036668584147711596 -0.0036978772042221115 0 0.00038765460831387944 -0.0036120618199472318 0 0.00041253894544292723 -0.0037248830231606939 0 0.00036668584147711596 -0.0036978772042221115 0 0.00033980685495802767 -0.0036717466435617447 0 0.0003442782940260586 -0.0037239304194280698 0 0.00038765460831387944 -0.0036120618199472318 0 0.00034480993035464858 -0.0035726141873286955 0 0.00044330886012137951 -0.0033501152689527488 0 0.00034480993035464858 -0.0035726141873286955 0 0.00044330886012137951 -0.0033501152689527488 0 0.00038133707731961212 -0.0034758051625734905 0 0.00050895071083390279 -0.0026935986272753438 0 0.00044330886012137951 -0.0033501152689527488 0 0.0003514708071419989 -0.0030200490860474061 0 0.00044330886012137951 -0.0033501152689527488 0 0.00026545346356322651 -0.003125075421847165 0 0.0003514708071419989 -0.0030200490860474061 0 0.00026545346356322651 -0.003125075421847165 0 0.0003514708071419989 -0.0030200490860474061 0 0.00024500788202844691 -0.0028461984710122742 0 0.00026545346356322651 -0.003125075421847165 0 4.9878877613378859e-05 -0.0029164339472040031 0 0.00010659175460462734 -0.0025369867325525778 0 0.00025576259567530187 -0.0030660230953031766 0 5.40026271904788e-06 -0.0026650095622957081 0 0.00026545346356322651 -0.003125075421847165 0 -7.3470678546038408e-05 -0.0027851345057419842 0 0.00024500788202844691 -0.0028461984710122742 0 -7.3470678546038408e-05 -0.0027851345057419842 0 0.00024500788202844691 -0.0028461984710122742 0 0.00017877777664907676 -0.0025938985378904482 0 0.00050895071083390279 -0.0026935986272753438 0 0.0003514708071419989 -0.0030200490860474061 0 0.00024500788202844691 -0.0028461984710122742 0 0.00024500788202844691 -0.0028461984710122742 0 0.00032311677507259451 -0.0025431672282522607 0 0.00017877777664907676 -0.0025938985378904482 0 0.00050895071083390279 -0.0026935986272753438 0 0.00024500788202844691 -0.0028461984710122742 0 0.00032311677507259451 -0.0025431672282522607 0 0.00032311677507259451 -0.0025431672282522607 0 0.00025003782858663604 -0.0023917675991705469 0 0.00042081478755788023 -0.0022214310930259874 0 0.00050895071083390279 -0.0026935986272753438 0 0.00032311677507259451 -0.0025431672282522607 0 0.00042081478755788023 -0.0022214310930259874 0 0.00032311677507259451 -0.0025431672282522607 0 0.00017877777664907676 -0.0025938985378904482 0 0.00025003782858663604 -0.0023917675991705469 0 0.00017877777664907676 -0.0025938985378904482 0 0.00025003782858663604 -0.0023917675991705469 0 8.2085892745178805e-05 -0.0024001943635281174 0 0.00025003782858663604 -0.0023917675991705469 0 8.2085892745178805e-05 -0.0024001943635281174 0 0.00020595128168312884 -0.0022046272662638142 0 -7.3470678546038408e-05 -0.0027851345057419842 0 0.00017877777664907676 -0.0025938985378904482 0 8.2085892745178805e-05 -0.0024001943635281174 0 -7.3470678546038408e-05 -0.0027851345057419842 0 8.2085892745178805e-05 -0.0024001943635281174 0 -0.00011263077400780418 -0.0023804717869063225 0 8.2085892745178805e-05 -0.0024001943635281174 0 8.2656009498119972e-06 -0.0022113384763640664 0 -0.00011263077400780418 -0.0023804717869063225 0 8.2656009498119972e-06 -0.0022113384763640664 0 -0.00015159605674898427 -0.0022174645580438721 0 -0.00011263077400780418 -0.0023804717869063225 0 8.2656009498119972e-06 -0.0022113384763640664 0 -8.8886666342635274e-05 -0.0021401841837649814 0 -0.00015159605674898427 -0.0022174645580438721 0 8.2085892745178805e-05 -0.0024001943635281174 0 8.2656009498119972e-06 -0.0022113384763640664 0 0.00020595128168312884 -0.0022046272662638142 0 8.4078316549221301e-05 -0.00204153740037621 0 8.2656009498119972e-06 -0.0022113384763640664 0 0.00020595128168312884 -0.0022046272662638142 0 -4.2279221796341824e-05 -0.0020441025864629805 0 8.4078316549221301e-05 -0.00204153740037621 0 8.2656009498119972e-06 -0.0022113384763640664 0 -4.2279221796341824e-05 -0.0020441025864629805 0 8.2656009498119972e-06 -0.0022113384763640664 0 -8.8886666342635274e-05 -0.0021401841837649814 0 0.00030286396617396283 -0.0018775440456437317 0 0.00037281133157071855 -0.0022259747192510965 0 0.00020595128168312884 -0.0022046272662638142 0 0.0003725079682212561 -0.002959784216208699 0 0.00021894080825985785 -0.0024322504988512489 0 0.00025003782858663604 -0.0023917675991705469 0 0.00042081478755788023 -0.0022214310930259874 0 0.00020595128168312884 -0.0022046272662638142 0 0.00018107299140697318 -0.0047742222158692971 0 0.00019257037626858501 -0.0048030457466278547 0 0.00019633515429026203 -0.0047958206003139896 0 0.00032583346392878572 -0.0033885857808323679 0 0.00027139598677303602 -0.0035450230154991809 0 0.00035762831634060104 -0.003556781058057039 0 0.00018107299140697318 -0.0047742222158692971 0 0.00018686086533567701 -0.0048027681193827864 0 0.00019257037626858501 -0.0048030457466278547 0 0.0003725079682212561 -0.002959784216208699 0 0.00044969301806405387 -0.0039845369166584006 0 0.00052505723831348646 -0.0032189805458019386 0 0.0003725079682212561 -0.002959784216208699 0 0.00056497401962051245 -0.0038918532388914255 0 0.00046189048322819293 -0.0038830939462355832 0 0.00043700433194469098 -0.0037613183378677304 0 0.00053927115418330471 -0.0036957291184406813 0 0.00056497401962051245 -0.0038918532388914255 0 0.00043700433194469098 -0.0037613183378677304 0 0.00041894231183394555 -0.0037936814290278338 0 0.00041253894544292723 -0.0037248830231606939 0 0.0003784019263604231 -0.0037463874726205398 0 0.00044969301806405387 -0.0039845369166584006 0 0.00041633392561940975 -0.003714614505050136 0 0.00036668584147711596 -0.0036978772042221115 0 0.0003442782940260586 -0.0037239304194280698 0 0.0003784019263604231 -0.0037463874726205398 0 0.00036668584147711596 -0.0036978772042221115 0 0.00041253894544292723 -0.0037248830231606939 0 0.0003784019263604231 -0.0037463874726205398 0 0.0003442782940260586 -0.0037239304194280698 0 0.0003784019263604231 -0.0037463874726205398 0 0.00036952425228167128 -0.0037851452940828164 0 0.0003442782940260586 -0.0037239304194280698 0 0.00036952425228167128 -0.0037851452940828164 0 0.00033048091758521112 -0.0037379833376944283 0 0.00019783611997189422 -0.0048082253510646203 0 0.00019257037626858501 -0.0048030457466278547 0 0.00019633515429026203 -0.0047958206003139896 0 0.00041894231183394555 -0.0037936814290278338 0 0.0003784019263604231 -0.0037463874726205398 0 0.00036952425228167128 -0.0037851452940828164 0 0.00018686086533567701 -0.0048027681193827864 0 0.00019811222517902383 -0.0048051968501217311 0 0.00019257037626858501 -0.0048030457466278547 0 0.00044969301806405387 -0.0039845369166584006 0 0.00025460744075755064 -0.0045237360890491149 0 0.00025460744075755064 -0.0045237360890491149 0 0.0002622467502225566 -0.004611166600548668 0 0.00020193862281791516 -0.004791638777404396 0 0.00019633515429026203 -0.0047958206003139896 0 0.00020846452303675836 -0.0048024741012141596 0 0.00019783611997189422 -0.0048082253510646203 0 0.00019633515429026203 -0.0047958206003139896 0 0.00020846452303675836 -0.0048024741012141596 0 0.00019783611997189422 -0.0048082253510646203 0 0.00021937807757883095 -0.0048104420507151828 0 0.00023295429845121904 -0.0048247909012187687 0 0.00019783611997189422 -0.0048082253510646203 0 0.00020846452303675836 -0.0048024741012141596 0 0.00021937807757883095 -0.0048104420507151828 0 0.00025460744075755064 -0.0045237360890491149 0 0.00025106713848386804 -0.0048607815538031403 0 0.00020846452303675836 -0.0048024741012141596 0 0.00021937807757883095 -0.0048104420507151828 0 0.00021772795089590948 -0.0048040269388661717 0 0.00021235322544426778 -0.004795515707360711 0 0.00020846452303675836 -0.0048024741012141596 0 0.00021772795089590948 -0.0048040269388661717 0 0.00021937807757883095 -0.0048104420507151828 0 0.00022650940142646177 -0.0048081541713367974 0 0.00023272037651637977 -0.004815090491797477 0 0.00021937807757883095 -0.0048104420507151828 0 0.00021772795089590948 -0.0048040269388661717 0 0.00022650940142646177 -0.0048081541713367974 0 0.00022474181807155389 -0.0047987335258843225 0 0.00021772795089590948 -0.0048040269388661717 0 0.00022650940142646177 -0.0048081541713367974 0 0.00022474181807155389 -0.0047987335258843225 0 0.00022650940142646177 -0.0048081541713367974 0 0.00023478761963712232 -0.0048066439759850907 0 0.00022650940142646177 -0.0048081541713367974 0 0.00023478761963712232 -0.0048066439759850907 0 0.00023272037651637977 -0.004815090491797477 0 0.00024704112345532526 -0.0048102940077903184 0 0.00023478761963712232 -0.0048066439759850907 0 0.00024484480159244355 -0.0048191160326506886 0 0.00023478761963712232 -0.0048066439759850907 0 0.00023272037651637977 -0.004815090491797477 0 0.00024484480159244355 -0.0048191160326506886 0 0.00023272037651637977 -0.004815090491797477 0 0.00023295429845121904 -0.0048247909012187687 0 0.00024484480159244355 -0.0048191160326506886 0 0.00021937807757883095 -0.0048104420507151828 0 0.00023272037651637977 -0.004815090491797477 0 0.00023295429845121904 -0.0048247909012187687 0 0.00029193911314269097 -0.0042487363567170677 0 0.0002856343517501358 -0.0043141340308204372 0 0.00027587971149011734 -0.0048135455477759052 0 0.00027469064841111176 -0.0048124652843236672 0 0.00027203984379192448 -0.0048139097700991779 0 0.00036952425228167128 -0.0037851452940828164 0 0.00030013020027383724 -0.0037401544996888878 0 0.00033048091758521112 -0.0037379833376944283 0 0.00026543289847761524 -0.0047991601450517209 0 0.00027587971149011734 -0.0048135455477759052 0 0.00027469064841111176 -0.0048124652843236672 0 0.00025460744075755064 -0.0045237360890491149 0 0.00029193911314269097 -0.0042487363567170677 0 0.00030013020027383724 -0.0037401544996888878 0 0.00033048091758521112 -0.0037379833376944283 0 0.00031264243860504862 -0.00371962266853673 0 0.0003442782940260586 -0.0037239304194280698 0 0.00033048091758521112 -0.0037379833376944283 0 0.00031264243860504862 -0.00371962266853673 0 0.0002655740162910819 -0.0048036040150022585 0 0.00024430010899893474 -0.0048592631997598727 0 0.00025817268154954589 -0.0048283980841980134 0 0.00024430010899893474 -0.0048592631997598727 0 0.00025817268154954589 -0.0048283980841980134 0 0.00026456072639353078 -0.0048308164951708149 0 0.00025817268154954589 -0.0048283980841980134 0 0.00025376641975285741 -0.004820952154076916 0 0.00026456072639353078 -0.0048308164951708149 0 0.00023295429845121904 -0.0048247909012187687 0 0.00024484480159244355 -0.0048191160326506886 0 0.00026456072639353078 -0.0048308164951708149 0 0.00025376641975285741 -0.004820952154076916 0 0.00024484480159244355 -0.0048191160326506886 0 0.00026456072639353078 -0.0048308164951708149 0 0.00025482419431436002 -0.004809982695032404 0 0.00025817268154954589 -0.0048283980841980134 0 0.00025376641975285741 -0.004820952154076916 0 0.00024704112345532526 -0.0048102940077903184 0 0.00025376641975285741 -0.004820952154076916 0 0.00024484480159244355 -0.0048191160326506886 0 0.00027587971149011734 -0.0048135455477759052 0 0.00026456072639353078 -0.0048308164951708149 0 0.00027203984379192448 -0.0048139097700991779 0 0.00025106713848386804 -0.0048607815538031403 0 0.00026414628782307678 -0.0048172985472725287 0 0.00026288950780905022 -0.0047979544452790542 0 0.00026456072639353078 -0.0048308164951708149 0 0.00027203984379192448 -0.0048139097700991779 0 0.00028567735201094429 -0.0043804629775445704 0 0.0002856343517501358 -0.0043141340308204372 0 0.00030991263990643179 -0.0038054831043670091 0 0.00031331639401396507 -0.0038915418287555348 0 0.00030944929184537008 -0.0037860524987833244 0 0.00032515048177061452 -0.0039675072837432298 0 0.00031342740089480332 -0.0040746387898385047 0 0.00031331639401396507 -0.0038915418287555348 0 0.00032515048177061452 -0.0039675072837432298 0 0.00030991263990643179 -0.0038054831043670091 0 0.00031331639401396507 -0.0038915418287555348 0 0.00031264243860504862 -0.00371962266853673 0 0.00030339528428603799 -0.0037491998535628861 0 0.00031219645285131926 -0.0036994252814186021 0 0.00033980685495802767 -0.0036717466435617447 0 0.00031264243860504862 -0.00371962266853673 0 0.00031219645285131926 -0.0036994252814186021 0 0.00033980685495802767 -0.0036717466435617447 0 0.0003442782940260586 -0.0037239304194280698 0 0.00031264243860504862 -0.00371962266853673 0 0.00030013020027383724 -0.0037401544996888878 0 0.00031264243860504862 -0.00371962266853673 0 0.00030339528428603799 -0.0037491998535628861 0 0.00030991263990643179 -0.0038054831043670091 0 0.00030339528428603799 -0.0037491998535628861 0 0.00030944929184537008 -0.0037860524987833244 0 0.00030013020027383724 -0.0037401544996888878 0 0.00030991263990643179 -0.0038054831043670091 0 0.00030339528428603799 -0.0037491998535628861 0 0.00031331639401396507 -0.0038915418287555348 0 0.00030944929184537008 -0.0037860524987833244 0 0.00033096523244160634 -0.0037382924646208286 0 0.00030944929184537008 -0.0037860524987833244 0 0.00031219645285131926 -0.0036994252814186021 0 0.00033096523244160634 -0.0037382924646208286 0 0.00030339528428603799 -0.0037491998535628861 0 0.00030944929184537008 -0.0037860524987833244 0 0.00031219645285131926 -0.0036994252814186021 0 0.00033980685495802767 -0.0036717466435617447 0 0.00034480993035464858 -0.0035726141873286955 0 0.00031219645285131926 -0.0036994252814186021 0 0.00034480993035464858 -0.0035726141873286955 0 0.00031219645285131926 -0.0036994252814186021 0 0.00033096523244160634 -0.0037382924646208286 0 0.00034480993035464858 -0.0035726141873286955 0 0.00033096523244160634 -0.0037382924646208286 0 0.00035642989111893582 -0.0035977508553956682 0 0.00033096523244160634 -0.0037382924646208286 0 0.00035137169682049004 -0.0036976836001270841 0 0.00035642989111893582 -0.0035977508553956682 0 0.00033096523244160634 -0.0037382924646208286 0 0.00035719311639378627 -0.0037862132744665182 0 0.00035137169682049004 -0.0036976836001270841 0 0.00033096523244160634 -0.0037382924646208286 0 0.00035719311639378627 -0.0037862132744665182 0 0.00033141815076153443 -0.0039049180095404395 0 0.00035137169682049004 -0.0036976836001270841 0 0.00034953036275431733 -0.0036884419036742298 0 0.00035642989111893582 -0.0035977508553956682 0 0.00035719311639378627 -0.0037862132744665182 0 0.00035137169682049004 -0.0036976836001270841 0 0.00034953036275431733 -0.0036884419036742298 0 0.00031342740089480332 -0.0040746387898385047 0 0.00031331639401396507 -0.0038915418287555348 0 0.00033141815076153443 -0.0039049180095404395 0 0.00031331639401396507 -0.0038915418287555348 0 0.00033096523244160634 -0.0037382924646208286 0 0.00033141815076153443 -0.0039049180095404395 0 0.00035719311639378627 -0.0037862132744665182 0 0.00033141815076153443 -0.0039049180095404395 0 0.00036054114810591743 -0.0038694138681429372 0 0.00031342740089480332 -0.0040746387898385047 0 0.00033141815076153443 -0.0039049180095404395 0 0.00030675655034589612 -0.0040217155050524213 0 0.00030675655034589612 -0.0040217155050524213 0 0.00036054114810591743 -0.0038694138681429372 0 0.00034438154117562086 -0.0038830586060075159 0 0.00033141815076153443 -0.0039049180095404395 0 0.00030675655034589612 -0.0040217155050524213 0 0.00036054114810591743 -0.0038694138681429372 0 0.00036054114810591743 -0.0038694138681429372 0 0.00037076382868982285 -0.0038449013234141873 0 0.00034438154117562086 -0.0038830586060075159 0 0.00036054114810591743 -0.0038694138681429372 0 0.00037076382868982285 -0.0038449013234141873 0 0.00036875305531651741 -0.0037917234450794614 0 0.00034219755398740551 -0.0038460982230690667 0 0.00037076382868982285 -0.0038449013234141873 0 0.00034438154117562086 -0.0038830586060075159 0 0.00029155387123806222 -0.0038777069926229316 0 0.00030675655034589612 -0.0040217155050524213 0 0.00034438154117562086 -0.0038830586060075159 0 0.00034219755398740551 -0.0038460982230690667 0 0.00029155387123806222 -0.0038777069926229316 0 0.00034438154117562086 -0.0038830586060075159 0 0.00035719311639378627 -0.0037862132744665182 0 0.00034953036275431733 -0.0036884419036742298 0 0.00036875305531651741 -0.0037917234450794614 0 0.00034953036275431733 -0.0036884419036742298 0 0.00036875305531651741 -0.0037917234450794614 0 0.00032321875306268139 -0.0037200966231517854 0 0.00035719311639378627 -0.0037862132744665182 0 0.00036054114810591743 -0.0038694138681429372 0 0.00036875305531651741 -0.0037917234450794614 0 0.00037683114445057259 -0.003838089809959156 0 0.00037076382868982285 -0.0038449013234141873 0 0.00036875305531651741 -0.0037917234450794614 0 0.00034190783097400658 -0.0038135870336653255 0 0.00036875305531651741 -0.0037917234450794614 0 0.00032321875306268139 -0.0037200966231517854 0 0.00028713095303115646 -0.0037978862187629655 0 0.00032321875306268139 -0.0037200966231517854 0 0.00026424564084259533 -0.0037180214921982207 0 0.00032321875306268139 -0.0037200966231517854 0 0.00026424564084259533 -0.0037180214921982207 0 0.00027500027626130714 -0.0036338650820290294 0 0.00020302759597136234 -0.0037155371306180837 0 0.00026424564084259533 -0.0037180214921982207 0 0.0002193033264565956 -0.0036388262999119199 0 0.00026424564084259533 -0.0037180214921982207 0 0.0002193033264565956 -0.0036388262999119199 0 0.00027500027626130714 -0.0036338650820290294 0 0.0002193033264565956 -0.0036388262999119199 0 0.00027500027626130714 -0.0036338650820290294 0 0.00020867979122431645 -0.0035359070497481123 0 0.00027500027626130714 -0.0036338650820290294 0 0.00028631137280742683 -0.0035459517595510595 0 0.00032263426217121646 -0.0036114200685875234 0 0.00027500027626130714 -0.0036338650820290294 0 0.00028631137280742683 -0.0035459517595510595 0 0.00020867979122431645 -0.0035359070497481123 0 0.00028631137280742683 -0.0035459517595510595 0 0.00027345826765848324 -0.0034533028689350564 0 0.00020867979122431645 -0.0035359070497481123 0 0.00032321875306268139 -0.0037200966231517854 0 0.00027500027626130714 -0.0036338650820290294 0 0.00032263426217121646 -0.0036114200685875234 0 0.00034953036275431733 -0.0036884419036742298 0 0.00032321875306268139 -0.0037200966231517854 0 0.00032263426217121646 -0.0036114200685875234 0 0.00032263426217121646 -0.0036114200685875234 0 0.00035642989111893582 -0.0035977508553956682 0 0.00033252001067266083 -0.0035046529346472476 0 0.00034953036275431733 -0.0036884419036742298 0 0.00032263426217121646 -0.0036114200685875234 0 0.00035642989111893582 -0.0035977508553956682 0 0.00028631137280742683 -0.0035459517595510595 0 0.00032263426217121646 -0.0036114200685875234 0 0.00033252001067266083 -0.0035046529346472476 0 0.00028631137280742683 -0.0035459517595510595 0 0.00027345826765848324 -0.0034533028689350564 0 0.00033252001067266083 -0.0035046529346472476 0 0.00027345826765848324 -0.0034533028689350564 0 0.00033252001067266083 -0.0035046529346472476 0 0.00030849759985923815 -0.0033595022056533679 0 0.00044330886012137951 -0.0033501152689527488 0 0.00038133707731961212 -0.0034758051625734905 0 0.00030849759985923815 -0.0033595022056533679 0 0.00033252001067266083 -0.0035046529346472476 0 0.00038133707731961212 -0.0034758051625734905 0 0.00030849759985923815 -0.0033595022056533679 0 0.00034480993035464858 -0.0035726141873286955 0 0.00035642989111893582 -0.0035977508553956682 0 0.00038133707731961212 -0.0034758051625734905 0 0.00035642989111893582 -0.0035977508553956682 0 0.00033252001067266083 -0.0035046529346472476 0 0.00038133707731961212 -0.0034758051625734905 0 0.00026545346356322651 -0.003125075421847165 0 4.9878877613378859e-05 -0.0029164339472040031 0 0.00015174469922186583 -0.0032181723945667144 0 0.00015174469922186583 -0.0032181723945667144 0 2.2891050344229479e-05 -0.0032970680468060571 0 -7.6921032187020658e-05 -0.0030788698023476073 0 4.9878877613378859e-05 -0.0029164339472040031 0 0.00015174469922186583 -0.0032181723945667144 0 -7.6921032187020658e-05 -0.0030788698023476073 0 0.00026545346356322651 -0.003125075421847165 0 0.00015174469922186583 -0.0032181723945667144 0 0.00030849759985923815 -0.0033595022056533679 0 0.00044330886012137951 -0.0033501152689527488 0 0.00026545346356322651 -0.003125075421847165 0 0.00030849759985923815 -0.0033595022056533679 0 0.00015174469922186583 -0.0032181723945667144 0 0.00030849759985923815 -0.0033595022056533679 0 0.00018222150082549134 -0.0033956756031227621 0 0.00027345826765848324 -0.0034533028689350564 0 0.00030849759985923815 -0.0033595022056533679 0 0.00018222150082549134 -0.0033956756031227621 0 0.00027345826765848324 -0.0034533028689350564 0 0.00018222150082549134 -0.0033956756031227621 0 0.00020867979122431645 -0.0035359070497481123 0 0.00015174469922186583 -0.0032181723945667144 0 0.00018222150082549134 -0.0033956756031227621 0 2.2891050344229479e-05 -0.0032970680468060571 0 0.00018222150082549134 -0.0033956756031227621 0 2.2891050344229479e-05 -0.0032970680468060571 0 7.8740003313405982e-05 -0.0034626117213619311 0 2.2891050344229479e-05 -0.0032970680468060571 0 7.8740003313405982e-05 -0.0034626117213619311 0 -8.9959679821234324e-05 -0.0033716066074861695 0 7.8740003313405982e-05 -0.0034626117213619311 0 -1.6421213600009954e-05 -0.003514909499833475 0 -8.9959679821234324e-05 -0.0033716066074861695 0 0.00018222150082549134 -0.0033956756031227621 0 7.8740003313405982e-05 -0.0034626117213619311 0 0.00020867979122431645 -0.0035359070497481123 0 7.8740003313405982e-05 -0.0034626117213619311 0 0.00020867979122431645 -0.0035359070497481123 0 0.00010691223356505011 -0.003625874818541654 0 0.00020302759597136234 -0.0037155371306180837 0 0.0002193033264565956 -0.0036388262999119199 0 0.00010691223356505011 -0.003625874818541654 0 0.0002193033264565956 -0.0036388262999119199 0 0.00020867979122431645 -0.0035359070497481123 0 0.00010691223356505011 -0.003625874818541654 0 7.8740003313405982e-05 -0.0034626117213619311 0 0.00010691223356505011 -0.003625874818541654 0 -1.6421213600009954e-05 -0.003514909499833475 0 0.00010691223356505011 -0.003625874818541654 0 -1.6421213600009954e-05 -0.003514909499833475 0 -5.1216968606008252e-05 -0.0036110878500931103 0 -1.6421213600009954e-05 -0.003514909499833475 0 -5.1216968606008252e-05 -0.0036110878500931103 0 -0.00017357600348355185 -0.003469947255318546 0 -0.00017715201296398544 -0.0035985304551514894 0 -5.1216968606008252e-05 -0.0036110878500931103 0 -0.00017357600348355185 -0.003469947255318546 0 -0.00017715201296398544 -0.0035985304551514894 0 -0.00017357600348355185 -0.003469947255318546 0 -0.00032586933295531149 -0.0034865587789123811 0 -0.00017357600348355185 -0.003469947255318546 0 -0.000293277277314848 -0.0032763734764726963 0 -0.00032586933295531149 -0.0034865587789123811 0 -0.000293277277314848 -0.0032763734764726963 0 -8.9959679821234324e-05 -0.0033716066074861695 0 -0.00019517494566397131 -0.0031869965445213504 0 -0.00017357600348355185 -0.003469947255318546 0 -0.000293277277314848 -0.0032763734764726963 0 -8.9959679821234324e-05 -0.0033716066074861695 0 -1.6421213600009954e-05 -0.003514909499833475 0 -0.00017357600348355185 -0.003469947255318546 0 -8.9959679821234324e-05 -0.0033716066074861695 0 -0.00050199385344720847 -0.003583847751738979 0 -0.00053960701776091578 -0.0033672275348763793 0 -0.00032586933295531149 -0.0034865587789123811 0 -0.000293277277314848 -0.0032763734764726963 0 -0.00032586933295531149 -0.0034865587789123811 0 -0.00041655286023814639 -0.0032700003462253621 0 -0.00053960701776091578 -0.0033672275348763793 0 -0.00032586933295531149 -0.0034865587789123811 0 -0.00041655286023814639 -0.0032700003462253621 0 -0.000293277277314848 -0.0032763734764726963 0 -0.00041655286023814639 -0.0032700003462253621 0 -0.00049316650608899023 -0.0030472177577855458 0 -0.00041655286023814639 -0.0032700003462253621 0 -0.00053876020486441775 -0.0030609960803283627 0 -0.00049316650608899023 -0.0030472177577855458 0 -0.00053960701776091578 -0.0033672275348763793 0 -0.00041655286023814639 -0.0032700003462253621 0 -0.00053876020486441775 -0.0030609960803283627 0 -0.00053876020486441775 -0.0030609960803283627 0 -0.00055671873538302508 -0.002946205508183389 0 -0.00049316650608899023 -0.0030472177577855458 0 -0.00049316650608899023 -0.0030472177577855458 0 -0.00048737133297708065 -0.0029858015893645573 0 -0.00056206604843324467 -0.0029859067662158594 0 -0.00055671873538302508 -0.002946205508183389 0 -0.00049316650608899023 -0.0030472177577855458 0 -0.00056206604843324467 -0.0029859067662158594 0 -0.000293277277314848 -0.0032763734764726963 0 -0.00049316650608899023 -0.0030472177577855458 0 -0.00037311616092068731 -0.0030897380755328932 0 -0.00049316650608899023 -0.0030472177577855458 0 -0.00037311616092068731 -0.0030897380755328932 0 -0.00048737133297708065 -0.0029858015893645573 0 -0.00048737133297708065 -0.0029858015893645573 0 -0.00035723086892525417 -0.0029713739142553514 0 -0.00056522301215268934 -0.0027868348108279384 0 -0.00037311616092068731 -0.0030897380755328932 0 -0.00048737133297708065 -0.0029858015893645573 0 -0.00035723086892525417 -0.0029713739142553514 0 -0.00048737133297708065 -0.0029858015893645573 0 -0.00056206604843324467 -0.0029859067662158594 0 -0.00056522301215268934 -0.0027868348108279384 0 -0.00040960408588529545 -0.0024042453209574934 0 -0.0004429895309703125 -0.0022904283468596427 0 2.2891050344229479e-05 -0.0032970680468060571 0 -8.9959679821234324e-05 -0.0033716066074861695 0 -0.00019517494566397131 -0.0031869965445213504 0 2.2891050344229479e-05 -0.0032970680468060571 0 -0.00019517494566397131 -0.0031869965445213504 0 -7.6921032187020658e-05 -0.0030788698023476073 0 -0.000293277277314848 -0.0032763734764726963 0 -0.00037311616092068731 -0.0030897380755328932 0 -0.00019517494566397131 -0.0031869965445213504 0 -0.00037311616092068731 -0.0030897380755328932 0 -0.00019517494566397131 -0.0031869965445213504 0 -0.00035723086892525417 -0.0029713739142553514 0 -0.00019517494566397131 -0.0031869965445213504 0 -0.00035723086892525417 -0.0029713739142553514 0 -7.6921032187020658e-05 -0.0030788698023476073 0 -0.00035723086892525417 -0.0029713739142553514 0 -7.6921032187020658e-05 -0.0030788698023476073 0 -0.00026573375279801092 -0.0027947304380220028 0 4.9878877613378859e-05 -0.0029164339472040031 0 -0.00014838841630967828 -0.0025186550151780674 0 -0.00026573375279801092 -0.0027947304380220028 0 4.9878877613378859e-05 -0.0029164339472040031 0 -7.6921032187020658e-05 -0.0030788698023476073 0 -0.00026573375279801092 -0.0027947304380220028 0 4.9878877613378859e-05 -0.0029164339472040031 0 0.00010659175460462734 -0.0025369867325525778 0 -0.00014838841630967828 -0.0025186550151780674 0 0.00010659175460462734 -0.0025369867325525778 0 -0.00014838841630967828 -0.0025186550151780674 0 -0.00028500385300278969 -0.0020323345749872802 0 5.40026271904788e-06 -0.0026650095622957081 0 -0.0003030153576215474 -0.0022225518081013047 0 -0.00014838841630967828 -0.0025186550151780674 0 -0.00036819684611068282 -0.0021980260119785571 0 -0.00026573375279801092 -0.0027947304380220028 0 -0.00014838841630967828 -0.0025186550151780674 0 -0.00036819684611068282 -0.0021980260119785571 0 -0.00028500385300278969 -0.0020323345749872802 0 -0.00036819684611068282 -0.0021980260119785571 0 -0.00026573375279801092 -0.0027947304380220028 0 -0.00056522301215268934 -0.0027868348108279384 0 -0.00035723086892525417 -0.0029713739142553514 0 -0.00026573375279801092 -0.0027947304380220028 0 -0.00056522301215268934 -0.0027868348108279384 0 -0.00021050451612976813 -0.0017820685358889408 0 -0.00036997778106811406 -0.0018157105820458045 0 -0.00030558375198897674 -0.0017839325700122549 0 -0.00036997778106811406 -0.0018157105820458045 0 -0.00030558375198897674 -0.0017839325700122549 0 -0.000332294870521657 -0.0018404219323692665 0 -0.00030558375198897674 -0.0017839325700122549 0 -0.000332294870521657 -0.0018404219323692665 0 -0.00032392769770329705 -0.0017844412933898917 0 -0.000332294870521657 -0.0018404219323692665 0 -0.00037138268335230499 -0.0019612583503448534 0 -0.00032392769770329705 -0.0017844412933898917 0 -0.00037138268335230499 -0.0019612583503448534 0 -0.00035134615744861826 -0.0018835760188130426 0 -0.00031637277130520312 -0.0017694313631675925 0 -0.00036917102696097079 -0.0019183421240609548 0 -0.00031876426221570545 -0.0017881986292255596 0 -0.00036997778106811406 -0.0018157105820458045 0 -0.000332294870521657 -0.0018404219323692665 0 -0.00037138268335230499 -0.0019612583503448534 0 -0.00036819684611068282 -0.0021980260119785571 0 -0.00036997778106811406 -0.0018157105820458045 0 -0.00037138268335230499 -0.0019612583503448534 0 -0.00036819684611068282 -0.0021980260119785571 0 -0.00037138268335230499 -0.0019612583503448534 0 -0.00038767181889633721 -0.0020225274982243603 0 -0.00035913547358885136 -0.0021839425040222509 0 -0.0004429895309703125 -0.0022904283468596427 0 -0.00037138268335230499 -0.0019612583503448534 0 -0.00038767181889633721 -0.0020225274982243603 0 -0.00038882132130561403 -0.0019678081093966334 0 -0.00038767181889633721 -0.0020225274982243603 0 -0.00038882132130561403 -0.0019678081093966334 0 -0.00041759830968649534 -0.0020067213144531527 0 -0.00037138268335230499 -0.0019612583503448534 0 -0.00038882132130561403 -0.0019678081093966334 0 -0.00035134615744861826 -0.0018835760188130426 0 -0.00038882132130561403 -0.0019678081093966334 0 -0.00035134615744861826 -0.0018835760188130426 0 -0.00038365335490839404 -0.0019626450953797872 0 -0.00035134615744861826 -0.0018835760188130426 0 -0.00038365335490839404 -0.0019626450953797872 0 -0.00032393018841508339 -0.0018895401640992037 0 -0.00038365335490839404 -0.0019626450953797872 0 -0.00032393018841508339 -0.0018895401640992037 0 -0.00035106678312642138 -0.0019702886088505123 0 -0.00038365335490839404 -0.0019626450953797872 0 -0.00041759830968649534 -0.0020067213144531527 0 -0.00041843119980994147 -0.0020003898856005798 0 -0.00038882132130561403 -0.0019678081093966334 0 -0.00038365335490839404 -0.0019626450953797872 0 -0.00041759830968649534 -0.0020067213144531527 0 -0.00041759830968649534 -0.0020067213144531527 0 -0.00035304415627238387 -0.0020731641612861673 0 -0.00041843119980994147 -0.0020003898856005798 0 -0.00041759830968649534 -0.0020067213144531527 0 -0.00033327972151170413 -0.0021890501550638364 0 -0.00035304415627238387 -0.0020731641612861673 0 -0.00033327972151170413 -0.0021890501550638364 0 -0.00035304415627238387 -0.0020731641612861673 0 -0.00025527779988011591 -0.0021325352837417919 0 -0.00035304415627238387 -0.0020731641612861673 0 -0.00025527779988011591 -0.0021325352837417919 0 -0.00026824828487442175 -0.0020387391068963697 0 -0.00035304415627238387 -0.0020731641612861673 0 -0.00031789933456679637 -0.0020170057015232268 0 -0.00026824828487442175 -0.0020387391068963697 0 -0.00025527779988011591 -0.0021325352837417919 0 -0.00026824828487442175 -0.0020387391068963697 0 -0.00020563432931558208 -0.002032275024869302 0 -0.00025527779988011591 -0.0021325352837417919 0 -0.00017736385106098329 -0.0021157432692026075 0 -0.00020563432931558208 -0.002032275024869302 0 -0.00017736385106098329 -0.0021157432692026075 0 -8.8886666342635274e-05 -0.0021401841837649814 0 -0.00013310722925461292 -0.0020427678314897447 0 -4.2279221796341824e-05 -0.0020441025864629805 0 -8.8886666342635274e-05 -0.0021401841837649814 0 -0.00013310722925461292 -0.0020427678314897447 0 -0.00017736385106098329 -0.0021157432692026075 0 -0.00020563432931558208 -0.002032275024869302 0 -0.00013310722925461292 -0.0020427678314897447 0 -0.00017736385106098329 -0.0021157432692026075 0 -8.8886666342635274e-05 -0.0021401841837649814 0 -0.00015159605674898427 -0.0022174645580438721 0 -0.00025527779988011591 -0.0021325352837417919 0 -0.00017736385106098329 -0.0021157432692026075 0 -0.00015159605674898427 -0.0022174645580438721 0 -0.00033327972151170413 -0.0021890501550638364 0 -0.00025527779988011591 -0.0021325352837417919 0 -0.00024079998891148529 -0.0022628396487576847 0 -0.00025527779988011591 -0.0021325352837417919 0 -0.00015159605674898427 -0.0022174645580438721 0 -0.00024079998891148529 -0.0022628396487576847 0 -7.3470678546038408e-05 -0.0027851345057419842 0 -0.00011263077400780418 -0.0023804717869063225 0 -0.00034320250821357005 -0.002391799556208587 0 -0.00024079998891148529 -0.0022628396487576847 0 -0.00011263077400780418 -0.0023804717869063225 0 -0.00034320250821357005 -0.002391799556208587 0 -0.00015159605674898427 -0.0022174645580438721 0 -0.00024079998891148529 -0.0022628396487576847 0 -0.00011263077400780418 -0.0023804717869063225 0 -0.00040776253715134266 -0.0020369062696935468 0 -0.0003030153576215474 -0.0022225518081013047 0 -0.00038767181889633721 -0.0020225274982243603 0 -0.00041759830968649534 -0.0020067213144531527 0 -0.00028500385300278969 -0.0020323345749872802 0 -0.00041759830968649534 -0.0020067213144531527 0 -0.00033327972151170413 -0.0021890501550638364 0 -0.00034320250821357005 -0.002391799556208587 0 -0.00036819684611068282 -0.0021980260119785571 0 -0.00038767181889633721 -0.0020225274982243603 0 -0.00028500385300278969 -0.0020323345749872802 0 -0.00033327972151170413 -0.0021890501550638364 0 -0.00024079998891148529 -0.0022628396487576847 0 -0.00034320250821357005 -0.002391799556208587 0 -0.00013150150038316214 -0.0016569357051113209 0 -2.3161706361281235e-05 -0.0015058544032889971 0 -5.2789705722744219e-05 -0.0015091049431119189 0 -0.00013150150038316214 -0.0016569357051113209 0 -2.3161706361281235e-05 -0.0015058544032889971 0 -5.5358240304612723e-05 -0.00165783229630458 0 0.00020791370285607298 -0.0013020523972491177 0 5.605653063389861e-05 -0.0013802601698728108 0 0.00016032622514519548 -0.0012551827148962426 0 -2.3161706361281235e-05 -0.0015058544032889971 0 -5.5358240304612723e-05 -0.00165783229630458 0 5.605653063389861e-05 -0.0013802601698728108 0 6.0521491098579228e-05 -0.0014773220228648635 0 4.5329519195544385e-05 -0.0014024853119494827 0 -0.00013150150038316214 -0.0016569357051113209 0 -5.5358240304612723e-05 -0.00165783229630458 0 -0.00019714930635148444 -0.0017698522042377939 0 6.0521491098579228e-05 -0.0014773220228648635 0 -9.8080108712076833e-06 -0.0015620909213409351 0 0.00020791370285607298 -0.0013020523972491177 0 0.0002003663256354934 -0.0012714295454027691 0 0.00021390558687537465 -0.0012751368343626719 0 0.00020791370285607298 -0.0013020523972491177 0 0.00021390558687537465 -0.0012751368343626719 0 0.00020346482711965604 -0.0012641688251926043 0 -5.5358240304612723e-05 -0.00165783229630458 0 -0.00020420995520307127 -0.0018517980715680557 0 -0.00019714930635148444 -0.0017698522042377939 0 -0.00020420995520307127 -0.0018517980715680557 0 -0.00019714930635148444 -0.0017698522042377939 0 -0.00026926228685771226 -0.0018537261207657088 0 -0.00020420995520307127 -0.0018517980715680557 0 -0.00026926228685771226 -0.0018537261207657088 0 -0.00035106678312642138 -0.0019702886088505123 0 -9.8080108712076833e-06 -0.0015620909213409351 0 -0.00013518069718782021 -0.0016336970895735096 0 -0.00026926228685771226 -0.0018537261207657088 0 -0.00032393018841508339 -0.0018895401640992037 0 -0.00035106678312642138 -0.0019702886088505123 0 -0.00019714930635148444 -0.0017698522042377939 0 -0.00026926228685771226 -0.0018537261207657088 0 -0.00025808453772763797 -0.0017802759451578183 0 -0.00026926228685771226 -0.0018537261207657088 0 -0.00032393018841508339 -0.0018895401640992037 0 -0.00025808453772763797 -0.0017802759451578183 0 -0.00035134615744861826 -0.0018835760188130426 0 -0.00032393018841508339 -0.0018895401640992037 0 -0.00025808453772763797 -0.0017802759451578183 0 -0.00035134615744861826 -0.0018835760188130426 0 -0.00025808453772763797 -0.0017802759451578183 0 -0.00031637277130520312 -0.0017694313631675925 0 -0.00013150150038316214 -0.0016569357051113209 0 -0.00019714930635148444 -0.0017698522042377939 0 -0.00025808453772763797 -0.0017802759451578183 0 -0.00013150150038316214 -0.0016569357051113209 0 -0.00025808453772763797 -0.0017802759451578183 0 -0.00018370162412860054 -0.0016156413888632813 0 -0.00036751902764619796 -0.0017140754707376344 0 -0.00032392769770329705 -0.0017844412933898917 0 -0.00038339873235422893 -0.0017230706345668602 0 -0.00025808453772763797 -0.0017802759451578183 0 -0.00018370162412860054 -0.0016156413888632813 0 -0.00031637277130520312 -0.0017694313631675925 0 -0.00026914852449389285 -0.0016667979583207366 0 -0.00031876426221570545 -0.0017881986292255596 0 -0.00030558375198897674 -0.0017839325700122549 0 -0.00032392769770329705 -0.0017844412933898917 0 -0.00038339873235422893 -0.0017230706345668602 0 -0.00036751902764619796 -0.0017140754707376344 0 -0.00038339873235422893 -0.0017230706345668602 0 -0.00037660188057660448 -0.0016661552507450763 0 -0.00037660188057660448 -0.0016661552507450763 0 -0.0002848574503169142 -0.0015739411166623843 0 -0.00027519214281836125 -0.0016368847628080985 0 -0.00026914852449389285 -0.0016667979583207366 0 -0.00016660941921345851 -0.0015672240730953825 0 -0.00036751902764619796 -0.0017140754707376344 0 -0.00037660188057660448 -0.0016661552507450763 0 -0.00027519214281836125 -0.0016368847628080985 0 -0.00013150150038316214 -0.0016569357051113209 0 -0.00018370162412860054 -0.0016156413888632813 0 -5.2789705722744219e-05 -0.0015091049431119189 0 -0.00016660941921345851 -0.0015672240730953825 0 -8.4045028597835199e-05 -0.0014788341218790128 0 -2.3161706361281235e-05 -0.0015058544032889971 0 -5.2789705722744219e-05 -0.0015091049431119189 0 -7.1374814728210364e-05 -0.0014507799948000539 0 -0.00027519214281836125 -0.0016368847628080985 0 -0.00017808049584299321 -0.0014486225668477303 0 -7.1374814728210364e-05 -0.0014507799948000539 0 -0.0002848574503169142 -0.0015739411166623843 0 -0.00027519214281836125 -0.0016368847628080985 0 -0.00017808049584299321 -0.0014486225668477303 0 -0.00017808049584299321 -0.0014486225668477303 0 -0.0003034387035918134 -0.0015608703040772282 0 -0.00018579764893721136 -0.0013367310735572433 0 -0.0002848574503169142 -0.0015739411166623843 0 -0.00017808049584299321 -0.0014486225668477303 0 -0.0003034387035918134 -0.0015608703040772282 0 -0.00037660188057660448 -0.0016661552507450763 0 -0.0002848574503169142 -0.0015739411166623843 0 -0.0003034387035918134 -0.0015608703040772282 0 -0.0003034387035918134 -0.0015608703040772282 0 -0.00038581866282500122 -0.0016311081428489311 0 -0.0004334168346063647 -0.0017293424039290307 0 -0.00037660188057660448 -0.0016661552507450763 0 -0.0003034387035918134 -0.0015608703040772282 0 -0.0004334168346063647 -0.0017293424039290307 0 -0.0003034387035918134 -0.0015608703040772282 0 -0.00038581866282500122 -0.0016311081428489311 0 -0.00026390690792918068 -0.0014497696135507543 0 -0.00038581866282500122 -0.0016311081428489311 0 -0.00026390690792918068 -0.0014497696135507543 0 -0.00038878859839145747 -0.0013917384478491183 0 -0.00026390690792918068 -0.0014497696135507543 0 -0.00020424494288761403 -0.0013704046443379643 0 -0.00018579764893721136 -0.0013367310735572433 0 -0.0003034387035918134 -0.0015608703040772282 0 -0.00026390690792918068 -0.0014497696135507543 0 -0.00018579764893721136 -0.0013367310735572433 0 -0.00021050451612976813 -0.0017820685358889408 0 -0.00038339873235422893 -0.0017230706345668602 0 -0.00055766686220666756 -0.0019025262094266825 0 -0.00021050451612976813 -0.0017820685358889408 0 -0.00030558375198897674 -0.0017839325700122549 0 -0.00038339873235422893 -0.0017230706345668602 0 -0.00038339873235422893 -0.0017230706345668602 0 -0.0004334168346063647 -0.0017293424039290307 0 -0.00055766686220666756 -0.0019025262094266825 0 -0.00038339873235422893 -0.0017230706345668602 0 -0.00037660188057660448 -0.0016661552507450763 0 -0.0004334168346063647 -0.0017293424039290307 0 -0.00038581866282500122 -0.0016311081428489311 0 -0.0004334168346063647 -0.0017293424039290307 0 -0.00055766686220666756 -0.0019025262094266825 0 -0.00052966672344924737 -0.0018795954914157058 0 -0.00078317619447024363 -0.002180666002592709 0 -0.00055766686220666756 -0.0019025262094266825 0 -0.00060658504629949146 -0.0027302681407193798 0 -0.0010808142149918995 -0.002908451130096672 0 -0.00038581866282500122 -0.0016311081428489311 0 -0.00055766686220666756 -0.0019025262094266825 0 -0.00038878859839145747 -0.0013917384478491183 0 -0.00021050451612976813 -0.0017820685358889408 0 -0.00055766686220666756 -0.0019025262094266825 0 -0.00060658504629949146 -0.0027302681407193798 0 -0.00055671873538302508 -0.002946205508183389 0 -0.00056206604843324467 -0.0029859067662158594 0 -0.00060658504629949146 -0.0027302681407193798 0 -0.00040960408588529545 -0.0024042453209574934 0 -0.00061823054289392285 -0.0027255250080199579 0 -0.00053876020486441775 -0.0030609960803283627 0 -0.00055671873538302508 -0.002946205508183389 0 -0.00060658504629949146 -0.0027302681407193798 0 -0.00053876020486441775 -0.0030609960803283627 0 -0.00060658504629949146 -0.0027302681407193798 0 -0.00076341565308824888 -0.0030688390297820092 0 -0.00076341565308824888 -0.0030688390297820092 0 -0.0010808142149918995 -0.002908451130096672 0 -0.0010235224558057109 -0.0031884622305055157 0 -0.00060658504629949146 -0.0027302681407193798 0 -0.00076341565308824888 -0.0030688390297820092 0 -0.0010808142149918995 -0.002908451130096672 0 -0.00086649787693179544 -0.0032854253570784799 0 -0.00076341565308824888 -0.0030688390297820092 0 -0.0010235224558057109 -0.0031884622305055157 0 -0.0010684809178677784 -0.0033988582956402378 0 -0.00086649787693179544 -0.0032854253570784799 0 -0.0010235224558057109 -0.0031884622305055157 0 -0.00086649787693179544 -0.0032854253570784799 0 -0.00076341565308824888 -0.0030688390297820092 0 -0.00064603361623884832 -0.0032255465803765885 0 -0.00053960701776091578 -0.0033672275348763793 0 -0.00053876020486441775 -0.0030609960803283627 0 -0.00077514895559920895 -0.0034052801393043104 0 -0.00067801715856067376 -0.0036156589021694337 0 -0.00053960701776091578 -0.0033672275348763793 0 -0.00077514895559920895 -0.0034052801393043104 0 -0.00052540431955794688 -0.0030409223782852518 0 -0.00077828981634573996 -0.0034141438604410137 0 -0.00053876020486441775 -0.0030609960803283627 0 -0.00076341565308824888 -0.0030688390297820092 0 -0.00064603361623884832 -0.0032255465803765885 0 -0.00025865851319701661 -0.0013669305884211906 0 -0.00020424494288761403 -0.0013704046443379643 0 -0.00020281627442245774 -0.0013518255756351457 0 -0.00026390690792918068 -0.0014497696135507543 0 -0.00025865851319701661 -0.0013669305884211906 0 -0.00020424494288761403 -0.0013704046443379643 0 -0.00025865851319701661 -0.0013669305884211906 0 -0.00038878859839145747 -0.0013917384478491183 0 -0.00026411364582332674 -0.0012871980240632699 0 -0.00026390690792918068 -0.0014497696135507543 0 -0.00025865851319701661 -0.0013669305884211906 0 -0.00038878859839145747 -0.0013917384478491183 0 -0.0010684809178677784 -0.0033988582956402378 0 -0.0010235224558057109 -0.0031884622305055157 0 -0.0012759746111000929 -0.0032588446467754933 0 -0.00078317619447024363 -0.002180666002592709 0 -0.00044739172770291057 -0.0021369232583730679 0 -0.0010808142149918995 -0.002908451130096672 0 -0.0010235224558057109 -0.0031884622305055157 0 -0.0012759746111000929 -0.0032588446467754933 0 -0.00020462666911389259 -0.0013710207676355887 0 -0.00018494506165158214 -0.0013711050371883111 0 -0.00020281627442245774 -0.0013518255756351457 0 -0.00025865851319701661 -0.0013669305884211906 0 -0.00026411364582332674 -0.0012871980240632699 0 -0.00020281627442245774 -0.0013518255756351457 0 -0.00044739172770291057 -0.0021369232583730679 0 -0.00026899351920667926 -0.0012856698150241403 0 -0.00020462666911389259 -0.0013710207676355887 0 -0.00020281627442245774 -0.0013518255756351457 0 -0.00021378527041768973 -0.001362960625397333 0 -0.00020281627442245774 -0.0013518255756351457 0 -0.00021314394030429827 -0.0013553848447287178 0 -0.00021378527041768973 -0.001362960625397333 0 -0.00020424494288761403 -0.0013704046443379643 0 -0.00021314394030429827 -0.0013553848447287178 0 -0.00018579764893721136 -0.0013367310735572433 0 -0.00020424494288761403 -0.0013704046443379643 0 -0.00020281627442245774 -0.0013518255756351457 0 -0.00021314394030429827 -0.0013553848447287178 0 -0.00017828595902861057 -0.0013043464672122355 0 -0.00018332955205575723 -0.00083506937869933136 0 -0.00021314394030429827 -0.0013553848447287178 0 -0.00022265970698591317 -0.0013623483482955315 0 -0.00022959131327910173 -0.0013587042376016851 0 -0.00021314394030429827 -0.0013553848447287178 0 -0.00021378527041768973 -0.001362960625397333 0 -0.00022265970698591317 -0.0013623483482955315 0 -0.00022265970698591317 -0.0013623483482955315 0 -0.00022841121513574199 -0.0013621872479268348 0 -0.00022959131327910173 -0.0013587042376016851 0 -0.00016591774559296838 -0.00082602802739775488 0 -0.00018332955205575723 -0.00083506937869933136 0 -7.4805639208293961e-05 -0.0001975446119420397 0 -0.00012173636406434603 -0.00025652210322228859 0 -0.00010614859608980482 -0.00027909815500289992 0 -0.00018332955205575723 -0.00083506937869933136 0 -0.00019914407246857997 -0.00088505447309127495 0 -0.00043212754316648329 -0.00051554288038681327 0 -0.00018774026603256283 -0.00051993329636714457 0 -0.00031961753076071182 -0.0006970776382335392 0 -0.0001980615405077192 -0.00030757448646253802 0 -0.00043212754316648329 -0.00051554288038681327 0 -0.00018774026603256283 -0.00051993329636714457 0 -0.00018774026603256283 -0.00051993329636714457 0 -0.00012135408035281699 -0.00071429787712358668 0 -0.00031961753076071182 -0.0006970776382335392 0 -0.00019914407246857997 -0.00088505447309127495 0 -0.00012574766121965382 -0.00096341995966141107 0 -0.00012135408035281699 -0.00071429787712358668 0 -0.00031961753076071182 -0.0006970776382335392 0 -0.00011160604613872503 -0.00096126078535914677 0 -0.00010796554744017558 -0.0011344595802684364 0 -8.2824679458765718e-05 -0.0011052767858162774 0 -6.8601001162095691e-05 -0.00108913471331182 0 -0.00010796554744017558 -0.0011344595802684364 0 -8.2355231517589761e-05 -0.0010851334317907957 0 -8.2824679458765718e-05 -0.0011052767858162774 0 -8.2355231517589761e-05 -0.0010851334317907957 0 -8.2099471344100389e-05 -0.0010976359288464605 0 -8.2824679458765718e-05 -0.0011052767858162774 0 -8.2099471344100389e-05 -0.0010976359288464605 0 -8.2824679458765718e-05 -0.0011052767858162774 0 -6.8601001162095691e-05 -0.00108913471331182 0 -6.8601001162095691e-05 -0.00108913471331182 0 -6.3888622663197921e-05 -0.0010714238015775597 0 -7.3816763646498398e-05 -0.0011915506576919853 0 -0.00010796554744017558 -0.0011344595802684364 0 -6.8601001162095691e-05 -0.00108913471331182 0 -7.3816763646498398e-05 -0.0011915506576919853 0 -6.8601001162095691e-05 -0.00108913471331182 0 -0.00011160604613872503 -0.00096126078535914677 0 -6.3888622663197921e-05 -0.0010714238015775597 0 -0.00011160604613872503 -0.00096126078535914677 0 -6.3888622663197921e-05 -0.0010714238015775597 0 -1.7669021010777804e-05 -0.0009531773297738155 0 -8.2099471344100389e-05 -0.0010976359288464605 0 -6.8601001162095691e-05 -0.00108913471331182 0 -0.00011160604613872503 -0.00096126078535914677 0 -6.3888622663197921e-05 -0.0010714238015775597 0 -1.7669021010777804e-05 -0.0009531773297738155 0 -3.6910764123570973e-06 -0.0010664079030560593 0 -6.3888622663197921e-05 -0.0010714238015775597 0 -3.6910764123570973e-06 -0.0010664079030560593 0 -3.1063933463748027e-05 -0.0011906286771852805 0 -6.3888622663197921e-05 -0.0010714238015775597 0 -7.3816763646498398e-05 -0.0011915506576919853 0 -3.1063933463748027e-05 -0.0011906286771852805 0 -7.3816763646498398e-05 -0.0011915506576919853 0 -0.00012472819898442654 -0.0013151180219550438 0 -6.8588855436335104e-05 -0.0013191441656532047 0 -0.00017808049584299321 -0.0014486225668477303 0 -0.00012472819898442654 -0.0013151180219550438 0 -0.00018579764893721136 -0.0013367310735572433 0 -0.00017808049584299321 -0.0014486225668477303 0 -0.00012472819898442654 -0.0013151180219550438 0 -6.8588855436335104e-05 -0.0013191441656532047 0 -0.00010796554744017558 -0.0011344595802684364 0 -0.00012472819898442654 -0.0013151180219550438 0 -0.00018579764893721136 -0.0013367310735572433 0 -0.00017828595902861057 -0.0013043464672122355 0 -0.00017209568423460838 -0.0013018039142971528 0 -0.00010796554744017558 -0.0011344595802684364 0 -7.3816763646498398e-05 -0.0011915506576919853 0 -0.00012472819898442654 -0.0013151180219550438 0 0.00034337840774419087 -0.00046465595228692235 0 0.00023047634799227773 -0.00062813640134456723 0 0.00024588146280889536 -0.00037442773381343952 0 0.0001436522249816798 -0.00026112919983779765 0 0.00024588146280889536 -0.00037442773381343952 0 0.00012117766025124306 -0.00051365353577689061 0 0.00023047634799227773 -0.00062813640134456723 0 0.00024588146280889536 -0.00037442773381343952 0 0.00012117766025124306 -0.00051365353577689061 0 0.00023047634799227773 -0.00062813640134456723 0 0.00012117766025124306 -0.00051365353577689061 0 8.0007428562249688e-05 -0.00077784107712430524 0 0.00012117766025124306 -0.00051365353577689061 0 -1.5452936399293467e-05 -0.00061650959956147436 0 8.0007428562249688e-05 -0.00077784107712430524 0 -9.0389856679500584e-06 -0.00037051366298340547 0 0.00012117766025124306 -0.00051365353577689061 0 -1.5452936399293467e-05 -0.00061650959956147436 0 -9.0389856679500584e-06 -0.00037051366298340547 0 -0.00018774026603256283 -0.00051993329636714457 0 -1.5452936399293467e-05 -0.00061650959956147436 0 -0.00018774026603256283 -0.00051993329636714457 0 -0.00012135408035281699 -0.00071429787712358668 0 -1.5452936399293467e-05 -0.00061650959956147436 0 -1.5452936399293467e-05 -0.00061650959956147436 0 -3.1119719937734853e-05 -0.00081403507488670064 0 8.0007428562249688e-05 -0.00077784107712430524 0 -0.00012135408035281699 -0.00071429787712358668 0 -0.00011160604613872503 -0.00096126078535914677 0 -3.1119719937734853e-05 -0.00081403507488670064 0 -0.00012135408035281699 -0.00071429787712358668 0 -1.5452936399293467e-05 -0.00061650959956147436 0 -3.1119719937734853e-05 -0.00081403507488670064 0 -3.1119719937734853e-05 -0.00081403507488670064 0 -1.7669021010777804e-05 -0.0009531773297738155 0 8.0007428562249688e-05 -0.00077784107712430524 0 -0.00011160604613872503 -0.00096126078535914677 0 -3.1119719937734853e-05 -0.00081403507488670064 0 -1.7669021010777804e-05 -0.0009531773297738155 0 -1.7669021010777804e-05 -0.0009531773297738155 0 -3.6910764123570973e-06 -0.0010664079030560593 0 7.5391241022616725e-05 -0.00098177347015386486 0 -1.7669021010777804e-05 -0.0009531773297738155 0 7.5391241022616725e-05 -0.00098177347015386486 0 8.0007428562249688e-05 -0.00077784107712430524 0 7.5391241022616725e-05 -0.00098177347015386486 0 8.0007428562249688e-05 -0.00077784107712430524 0 0.00016193869533652244 -0.00083919529643732449 0 0.00023047634799227773 -0.00062813640134456723 0 8.0007428562249688e-05 -0.00077784107712430524 0 0.00016193869533652244 -0.00083919529643732449 0 0.00023047634799227773 -0.00062813640134456723 0 0.00016193869533652244 -0.00083919529643732449 0 0.0002704365535558177 -0.00076891199663412142 0 0.00016193869533652244 -0.00083919529643732449 0 0.0002704365535558177 -0.00076891199663412142 0 0.00019129389523691407 -0.00093086663351157634 0 7.5391241022616725e-05 -0.00098177347015386486 0 0.00016193869533652244 -0.00083919529643732449 0 0.00019129389523691407 -0.00093086663351157634 0 0.0002704365535558177 -0.00076891199663412142 0 0.00029239856719883806 -0.00085872032000021978 0 0.00019129389523691407 -0.00093086663351157634 0 0.0003837500405387357 -0.00061099971057846508 0 0.00023047634799227773 -0.00062813640134456723 0 0.0002704365535558177 -0.00076891199663412142 0 0.0003431961466710639 -0.00091767012686617077 0 0.00022561654752668755 -0.00098727000962470311 0 0.00029239856719883806 -0.00085872032000021978 0 0.00022561654752668755 -0.00098727000962470311 0 0.00029239856719883806 -0.00085872032000021978 0 0.00019129389523691407 -0.00093086663351157634 0 0.00022561654752668755 -0.00098727000962470311 0 0.00019129389523691407 -0.00093086663351157634 0 0.00011731510781201512 -0.001052955129701037 0 0.00022561654752668755 -0.00098727000962470311 0 0.00011731510781201512 -0.001052955129701037 0 0.00014281407540171973 -0.00109647483226734 0 7.5391241022616725e-05 -0.00098177347015386486 0 0.00019129389523691407 -0.00093086663351157634 0 0.00011731510781201512 -0.001052955129701037 0 7.5391241022616725e-05 -0.00098177347015386486 0 0.00011731510781201512 -0.001052955129701037 0 3.8972653143357099e-05 -0.0011116453823463743 0 -3.6910764123570973e-06 -0.0010664079030560593 0 7.5391241022616725e-05 -0.00098177347015386486 0 3.8972653143357099e-05 -0.0011116453823463743 0 0.00011731510781201512 -0.001052955129701037 0 3.8972653143357099e-05 -0.0011116453823463743 0 8.6964051639254805e-05 -0.0011424160101950976 0 3.8972653143357099e-05 -0.0011116453823463743 0 8.6964051639254805e-05 -0.0011424160101950976 0 2.6067813274552218e-05 -0.0012048001466890255 0 8.6964051639254805e-05 -0.0011424160101950976 0 7.6407958389931302e-05 -0.0011882574530624093 0 2.6067813274552218e-05 -0.0012048001466890255 0 8.6964051639254805e-05 -0.0011424160101950976 0 7.6407958389931302e-05 -0.0011882574530624093 0 0.00011232241373376505 -0.0011596793178655 0 8.6964051639254805e-05 -0.0011424160101950976 0 0.00014281407540171973 -0.00109647483226734 0 0.00011232241373376505 -0.0011596793178655 0 0.00014281407540171973 -0.00109647483226734 0 0.00014900779550504705 -0.0011257495731519093 0 0.00011232241373376505 -0.0011596793178655 0 0.00011731510781201512 -0.001052955129701037 0 8.6964051639254805e-05 -0.0011424160101950976 0 0.00014281407540171973 -0.00109647483226734 0 0.00022561654752668755 -0.00098727000962470311 0 0.00014281407540171973 -0.00109647483226734 0 0.00018598499155197609 -0.0010846346393379683 0 0.00014281407540171973 -0.00109647483226734 0 0.00018598499155197609 -0.0010846346393379683 0 0.00014900779550504705 -0.0011257495731519093 0 0.00026793835343838751 -0.0010386294934297865 0 0.00018598499155197609 -0.0010846346393379683 0 0.00017142403786295113 -0.001126302427108965 0 0.00026793835343838751 -0.0010386294934297865 0 0.00022561654752668755 -0.00098727000962470311 0 0.00018598499155197609 -0.0010846346393379683 0 -1.7788907453248358e-05 -0.0013215694585729703 0 -7.1374814728210364e-05 -0.0014507799948000539 0 -6.8588855436335104e-05 -0.0013191441656532047 0 -0.00017808049584299321 -0.0014486225668477303 0 -7.1374814728210364e-05 -0.0014507799948000539 0 -6.8588855436335104e-05 -0.0013191441656532047 0 -1.7788907453248358e-05 -0.0013215694585729703 0 -6.8588855436335104e-05 -0.0013191441656532047 0 -3.1063933463748027e-05 -0.0011906286771852805 0 -7.3816763646498398e-05 -0.0011915506576919853 0 -6.8588855436335104e-05 -0.0013191441656532047 0 -3.1063933463748027e-05 -0.0011906286771852805 0 -3.6910764123570973e-06 -0.0010664079030560593 0 3.8972653143357099e-05 -0.0011116453823463743 0 -3.1063933463748027e-05 -0.0011906286771852805 0 3.8972653143357099e-05 -0.0011116453823463743 0 -3.1063933463748027e-05 -0.0011906286771852805 0 2.6067813274552218e-05 -0.0012048001466890255 0 -1.7788907453248358e-05 -0.0013215694585729703 0 -3.1063933463748027e-05 -0.0011906286771852805 0 2.6067813274552218e-05 -0.0012048001466890255 0 -1.7788907453248358e-05 -0.0013215694585729703 0 4.2341971341735222e-05 -0.0012458579020784987 0 3.7591551889786732e-05 -0.0013029877924980804 0 -1.7788907453248358e-05 -0.0013215694585729703 0 2.6067813274552218e-05 -0.0012048001466890255 0 4.2341971341735222e-05 -0.0012458579020784987 0 7.6407958389931302e-05 -0.0011882574530624093 0 2.6067813274552218e-05 -0.0012048001466890255 0 4.2341971341735222e-05 -0.0012458579020784987 0 7.6407958389931302e-05 -0.0011882574530624093 0 4.2341971341735222e-05 -0.0012458579020784987 0 0.0001128338431493843 -0.0011806785479934155 0 4.2341971341735222e-05 -0.0012458579020784987 0 3.7591551889786732e-05 -0.0013029877924980804 0 7.4513236835163266e-05 -0.0012484442175562018 0 4.2341971341735222e-05 -0.0012458579020784987 0 7.4513236835163266e-05 -0.0012484442175562018 0 0.0001128338431493843 -0.0011806785479934155 0 3.7591551889786732e-05 -0.0013029877924980804 0 5.605653063389861e-05 -0.0013802601698728108 0 7.4513236835163266e-05 -0.0012484442175562018 0 -1.7788907453248358e-05 -0.0013215694585729703 0 3.7591551889786732e-05 -0.0013029877924980804 0 5.605653063389861e-05 -0.0013802601698728108 0 -2.3161706361281235e-05 -0.0015058544032889971 0 -7.1374814728210364e-05 -0.0014507799948000539 0 5.605653063389861e-05 -0.0013802601698728108 0 -1.7788907453248358e-05 -0.0013215694585729703 0 -7.1374814728210364e-05 -0.0014507799948000539 0 5.605653063389861e-05 -0.0013802601698728108 0 0.00012860407774816979 -0.0012077756485660324 0 0.00016032622514519548 -0.0012551827148962426 0 0.00017132955718452756 -0.0011948326237345794 0 5.605653063389861e-05 -0.0013802601698728108 0 0.00012860407774816979 -0.0012077756485660324 0 0.00016032622514519548 -0.0012551827148962426 0 0.00012860407774816979 -0.0012077756485660324 0 0.000172973762386567 -0.001152214721564295 0 0.00017132955718452756 -0.0011948326237345794 0 0.00012860407774816979 -0.0012077756485660324 0 0.00015659773074645195 -0.0011540873465277956 0 0.000172973762386567 -0.001152214721564295 0 5.605653063389861e-05 -0.0013802601698728108 0 0.00012860407774816979 -0.0012077756485660324 0 7.4513236835163266e-05 -0.0012484442175562018 0 0.00012860407774816979 -0.0012077756485660324 0 7.4513236835163266e-05 -0.0012484442175562018 0 0.00015659773074645195 -0.0011540873465277956 0 7.4513236835163266e-05 -0.0012484442175562018 0 0.0001128338431493843 -0.0011806785479934155 0 0.00015659773074645195 -0.0011540873465277956 0 0.0001128338431493843 -0.0011806785479934155 0 0.00019313422840177617 -0.0010996574008068729 0 0.00015914355197904279 -0.0011076997807349168 0 0.0001128338431493843 -0.0011806785479934155 0 0.00015659773074645195 -0.0011540873465277956 0 0.00019313422840177617 -0.0010996574008068729 0 0.00015659773074645195 -0.0011540873465277956 0 0.00019313422840177617 -0.0010996574008068729 0 0.00023993221092761532 -0.0010886464612806055 0 0.00019313422840177617 -0.0010996574008068729 0 0.00020952272910228223 -0.0010237171268956441 0 0.00015914355197904279 -0.0011076997807349168 0 0.00019313422840177617 -0.0010996574008068729 0 0.00020952272910228223 -0.0010237171268956441 0 0.00025456765967144364 -0.00098813626027291317 0 0.00019313422840177617 -0.0010996574008068729 0 0.00023993221092761532 -0.0010886464612806055 0 0.00025456765967144364 -0.00098813626027291317 0 0.00023993221092761532 -0.0010886464612806055 0 0.0001878645500048097 -0.0011448385924923861 0 0.00020887769678334836 -0.0011512077385683426 0 0.00023993221092761532 -0.0010886464612806055 0 0.0001878645500048097 -0.0011448385924923861 0 0.000172973762386567 -0.001152214721564295 0 0.0001878645500048097 -0.0011448385924923861 0 0.000172973762386567 -0.001152214721564295 0 0.00018226392337902954 -0.0011689186084451976 0 0.000172973762386567 -0.001152214721564295 0 0.00017132955718452756 -0.0011948326237345794 0 0.00018226392337902954 -0.0011689186084451976 0 0.00015659773074645195 -0.0011540873465277956 0 0.00023993221092761532 -0.0010886464612806055 0 0.000172973762386567 -0.001152214721564295 0 0.00014213845965990195 -0.0010839313912891721 0 0.00017142403786295113 -0.001126302427108965 0 0.00014865295961702092 -0.0010927947994898886 0 0.00018598499155197609 -0.0010846346393379683 0 0.00017142403786295113 -0.001126302427108965 0 0.00014900779550504705 -0.0011257495731519093 0 0.00017142403786295113 -0.001126302427108965 0 0.00014900779550504705 -0.0011257495731519093 0 0.00014865295961702092 -0.0010927947994898886 0 0.00014900779550504705 -0.0011257495731519093 0 0.00014865295961702092 -0.0010927947994898886 0 0.0001430113514116685 -0.0011186751173382146 0 0.00014865295961702092 -0.0010927947994898886 0 0.0001430113514116685 -0.0011186751173382146 0 0.00015803663246806115 -0.0010712704072628222 0 0.0001430113514116685 -0.0011186751173382146 0 0.00015914355197904279 -0.0011076997807349168 0 0.00015803663246806115 -0.0010712704072628222 0 0.00014900779550504705 -0.0011257495731519093 0 0.0001430113514116685 -0.0011186751173382146 0 0.00011232241373376505 -0.0011596793178655 0 0.0001128338431493843 -0.0011806785479934155 0 0.00011232241373376505 -0.0011596793178655 0 0.00015914355197904279 -0.0011076997807349168 0 7.6407958389931302e-05 -0.0011882574530624093 0 0.0001128338431493843 -0.0011806785479934155 0 0.00011232241373376505 -0.0011596793178655 0 0.0001430113514116685 -0.0011186751173382146 0 0.00011232241373376505 -0.0011596793178655 0 0.00015914355197904279 -0.0011076997807349168 0 0.00020952272910228223 -0.0010237171268956441 0 0.00015914355197904279 -0.0011076997807349168 0 0.00018447066942208355 -0.00099719710261868657 0 0.00020952272910228223 -0.0010237171268956441 0 0.00018447066942208355 -0.00099719710261868657 0 0.00024309527999995625 -0.00088691631740219433 0 0.00018447066942208355 -0.00099719710261868657 0 0.00015539117086562271 -0.00098516414885313789 0 0.00019175746920910134 -0.00087821068591360113 0 0.00018447066942208355 -0.00099719710261868657 0 0.00015803663246806115 -0.0010712704072628222 0 0.00015539117086562271 -0.00098516414885313789 0 0.00015914355197904279 -0.0011076997807349168 0 0.00018447066942208355 -0.00099719710261868657 0 0.00015803663246806115 -0.0010712704072628222 0 0.00014865295961702092 -0.0010927947994898886 0 0.00015539117086562271 -0.00098516414885313789 0 0.00012781325732024351 -0.0010176467527733702 0 0.00014865295961702092 -0.0010927947994898886 0 0.00015803663246806115 -0.0010712704072628222 0 0.00015539117086562271 -0.00098516414885313789 0 0.00015539117086562271 -0.00098516414885313789 0 0.00012513745795530179 -0.00092352654543522968 0 0.00012781325732024351 -0.0010176467527733702 0 0.00012513745795530179 -0.00092352654543522968 0 8.5675605575832869e-05 -0.00093511643231199387 0 0.00012781325732024351 -0.0010176467527733702 0 9.1961822485335423e-05 -0.0010112262037194376 0 8.5675605575832869e-05 -0.00093511643231199387 0 0.00012781325732024351 -0.0010176467527733702 0 9.1961822485335423e-05 -0.0010112262037194376 0 0.00014213845965990195 -0.0010839313912891721 0 0.00012781325732024351 -0.0010176467527733702 0 0.00014213845965990195 -0.0010839313912891721 0 0.00014865295961702092 -0.0010927947994898886 0 0.00012781325732024351 -0.0010176467527733702 0 0.00010597227462936425 -0.00075262762616070669 0 0.00017434411907171573 -0.00071906242577448893 0 9.4211532529229138e-05 -0.00059400520319016076 0 3.3990614626548182e-05 -0.00071463266000738879 0 0.00010597227462936425 -0.00075262762616070669 0 9.4211532529229138e-05 -0.00059400520319016076 0 5.4336186123144704e-05 -0.00082923035426534257 0 0.00010597227462936425 -0.00075262762616070669 0 0.00010203693120884906 -0.0008493413293638399 0 0.00012513745795530179 -0.00092352654543522968 0 8.5675605575832869e-05 -0.00093511643231199387 0 0.00010203693120884906 -0.0008493413293638399 0 5.4336186123144704e-05 -0.00082923035426534257 0 8.5675605575832869e-05 -0.00093511643231199387 0 0.00010203693120884906 -0.0008493413293638399 0 0.00012513745795530179 -0.00092352654543522968 0 0.00010203693120884906 -0.0008493413293638399 0 0.0001492130910474275 -0.00083376086984579599 0 0.00010597227462936425 -0.00075262762616070669 0 0.00010203693120884906 -0.0008493413293638399 0 0.0001492130910474275 -0.00083376086984579599 0 0.00015539117086562271 -0.00098516414885313789 0 0.00012513745795530179 -0.00092352654543522968 0 0.0001492130910474275 -0.00083376086984579599 0 0.00015539117086562271 -0.00098516414885313789 0 0.0001492130910474275 -0.00083376086984579599 0 0.00019175746920910134 -0.00087821068591360113 0 0.00010597227462936425 -0.00075262762616070669 0 0.0001492130910474275 -0.00083376086984579599 0 0.00017434411907171573 -0.00071906242577448893 0 0.0001492130910474275 -0.00083376086984579599 0 0.00017434411907171573 -0.00071906242577448893 0 0.00019175746920910134 -0.00087821068591360113 0 0.00017434411907171573 -0.00071906242577448893 0 0.00022286460716620346 -0.00078046872178459659 0 0.00019175746920910134 -0.00087821068591360113 0 0.00022286460716620346 -0.00078046872178459659 0 0.00019175746920910134 -0.00087821068591360113 0 0.00024309527999995625 -0.00088691631740219433 0 0.00018447066942208355 -0.00099719710261868657 0 0.00019175746920910134 -0.00087821068591360113 0 0.00024309527999995625 -0.00088691631740219433 0 0.00022286460716620346 -0.00078046872178459659 0 0.00024309527999995625 -0.00088691631740219433 0 0.00028018899914046216 -0.00071344315249228163 0 0.00028018899914046216 -0.00071344315249228163 0 0.00021907905679776065 -0.00061588176442713854 0 0.00032953101684348932 -0.00055754008470820641 0 0.00022286460716620346 -0.00078046872178459659 0 0.00028018899914046216 -0.00071344315249228163 0 0.00021907905679776065 -0.00061588176442713854 0 0.00025532391836978854 -0.00049668965996032979 0 0.00021907905679776065 -0.00061588176442713854 0 0.00032953101684348932 -0.00055754008470820641 0 0.00025532391836978854 -0.00049668965996032979 0 0.00019104675228022246 -0.00047859634486001286 0 0.00021907905679776065 -0.00061588176442713854 0 0.00017434411907171573 -0.00071906242577448893 0 0.00022286460716620346 -0.00078046872178459659 0 0.00021907905679776065 -0.00061588176442713854 0 0.00017434411907171573 -0.00071906242577448893 0 0.00015041507275272557 -0.00053899422856879561 0 9.4211532529229138e-05 -0.00059400520319016076 0 0.00017434411907171573 -0.00071906242577448893 0 0.00021907905679776065 -0.00061588176442713854 0 0.00015041507275272557 -0.00053899422856879561 0 0.00019104675228022246 -0.00047859634486001286 0 0.00021907905679776065 -0.00061588176442713854 0 0.00015041507275272557 -0.00053899422856879561 0 0.00019104675228022246 -0.00047859634486001286 0 0.00013104691094105052 -0.00041089610655957546 0 0.00015041507275272557 -0.00053899422856879561 0 0.00013104691094105052 -0.00041089610655957546 0 0.00015041507275272557 -0.00053899422856879561 0 8.5905492327275287e-05 -0.00043428173609410284 0 0.00015041507275272557 -0.00053899422856879561 0 8.5905492327275287e-05 -0.00043428173609410284 0 9.4211532529229138e-05 -0.00059400520319016076 0 0.00021146825339019652 -0.001179140447950072 0 0.00020887769678334836 -0.0011512077385683426 0 0.00024446307941969114 -0.0011659609463970668 0 0.00021146825339019652 -0.001179140447950072 0 0.00019221955684741452 -0.0011867203397360824 0 0.00019067812607889072 -0.0011660142876343811 0 0.00021146825339019652 -0.001179140447950072 0 0.00020887769678334836 -0.0011512077385683426 0 0.00019067812607889072 -0.0011660142876343811 0 0.0001878645500048097 -0.0011448385924923861 0 0.00020887769678334836 -0.0011512077385683426 0 0.00019067812607889072 -0.0011660142876343811 0 0.00023993221092761532 -0.0010886464612806055 0 0.00020887769678334836 -0.0011512077385683426 0 0.00024446307941969114 -0.0011659609463970668 0 0.00023993221092761532 -0.0010886464612806055 0 0.00025456765967144364 -0.00098813626027291317 0 0.00034589400305292089 -0.00087508294473942353 0 0.00025292041840113298 -0.0010819432074969145 0 0.00028234370462254456 -0.0010025339694140645 0 0.00020952272910228223 -0.0010237171268956441 0 0.00024309527999995625 -0.00088691631740219433 0 0.00025456765967144364 -0.00098813626027291317 0 0.00024309527999995625 -0.00088691631740219433 0 0.00025456765967144364 -0.00098813626027291317 0 0.00034589400305292089 -0.00087508294473942353 0 0.00024309527999995625 -0.00088691631740219433 0 0.00028018899914046216 -0.00071344315249228163 0 0.00034589400305292089 -0.00087508294473942353 0 0.00021146825339019652 -0.001179140447950072 0 0.00024446307941969114 -0.0011659609463970668 0 0.00024565318868730051 -0.0011973679158521547 0 0.00028234370462254456 -0.0010025339694140645 0 0.00034191954195552298 -0.0010271372041681689 0 0.00032613035778447321 -0.00063090589792972284 0 0.00034191954195552298 -0.0010271372041681689 0 0.00028018899914046216 -0.00071344315249228163 0 0.00034589400305292089 -0.00087508294473942353 0 0.00035522493757729039 -0.00073010025101861943 0 0.00028018899914046216 -0.00071344315249228163 0 0.00045820890841250596 -0.00065076953677007776 0 0.00032953101684348932 -0.00055754008470820641 0 0.00040328479618539117 -0.00047099554812456308 0 0.00045820890841250596 -0.00065076953677007776 0 0.00032953101684348932 -0.00055754008470820641 0 0.00027079870686663829 -0.0015688325554666376 0 0.00029860732432652375 -0.0015638922867482752 0 0.00029615424679649445 -0.0015226208229945342 0 0.00035568966460561058 -0.0010312528281898289 0 0.00034191954195552298 -0.0010271372041681689 0 0.00027079870686663829 -0.0015688325554666376 0 0.00029615424679649445 -0.0015226208229945342 0 0.00025855609221664443 -0.0015377862907148096 0 0.00034191954195552298 -0.0010271372041681689 0 0.00020986523544486304 -0.0014086620648110601 0 0.00021146825339019652 -0.001179140447950072 0 0.00024565318868730051 -0.0011973679158521547 0 0.00020860564533793928 -0.0012029018649620392 0 0.00021146825339019652 -0.001179140447950072 0 0.00020860564533793928 -0.0012029018649620392 0 0.00019221955684741452 -0.0011867203397360824 0 0.00020860564533793928 -0.0012029018649620392 0 0.00018844202988911482 -0.0012043200000456081 0 0.00019221955684741452 -0.0011867203397360824 0 0.00020986523544486304 -0.0014086620648110601 0 0.0002233784835712412 -0.0014592034024957193 0 0.00020966868750833164 -0.0015688808419366247 0 0.0002233784835712412 -0.0014592034024957193 0 0.0002233784835712412 -0.0014592034024957193 0 0.00021253649813739371 -0.0012986668355084118 0 0.00019395721859228525 -0.0015519639050375858 0 0.00029799817785563343 -0.0015265169575907553 0 0.00024129474304496204 -0.001442546726901768 0 0.00018844202988911482 -0.0012043200000456081 0 0.00019221955684741452 -0.0011867203397360824 0 0.00018455821729675037 -0.0011883073720033595 0 0.00019221955684741452 -0.0011867203397360824 0 0.00018772014389305684 -0.0011809593776695127 0 0.00019067812607889072 -0.0011660142876343811 0 0.00019221955684741452 -0.0011867203397360824 0 0.00018772014389305684 -0.0011809593776695127 0 0.00018455821729675037 -0.0011883073720033595 0 0.00018772014389305684 -0.0011809593776695127 0 0.00019028825332046488 -0.001174581657672149 0 0.00019408711218347856 -0.0011895176762414879 0 0.00018772014389305684 -0.0011809593776695127 0 0.00019067812607889072 -0.0011660142876343811 0 0.00019028825332046488 -0.001174581657672149 0 0.00018912227800308207 -0.001191668402058707 0 0.00015476700782261738 -0.0012162345648643043 0 0.00019408711218347856 -0.0011895176762414879 0 0.00019353402564603283 -0.0012733000205456184 0 0.00015390742405743541 -0.0012144141090794094 0 0.0002023156405162904 -0.0013535258999476851 0 0.00014110309255029643 -0.0013600142432294031 0 0.00015476700782261738 -0.0012162345648643043 0 0.00018772014389305684 -0.0011809593776695127 0 0.00018912227800308207 -0.001191668402058707 0 0.00019408711218347856 -0.0011895176762414879 0 0.00018772014389305684 -0.0011809593776695127 0 0.00018912227800308207 -0.001191668402058707 0 0.00018455821729675037 -0.0011883073720033595 0 0.00019353402564603283 -0.0012733000205456184 0 0.00021253649813739371 -0.0012986668355084118 0 0.0002023156405162904 -0.0013535258999476851 0 0.00016844753434136774 -0.0014514417116563698 0 0.00024129474304496204 -0.001442546726901768 0 0.00016844753434136774 -0.0014514417116563698 0 9.9728692302190731e-05 -0.0014460880643807604 0 0.00014110309255029643 -0.0013600142432294031 0 0.0002023156405162904 -0.0013535258999476851 0 0.00016844753434136774 -0.0014514417116563698 0 0.00014110309255029643 -0.0013600142432294031 0 0.00019395721859228525 -0.0015519639050375858 0 0.00016844753434136774 -0.0014514417116563698 0 0.00024129474304496204 -0.001442546726901768 0 0.00019395721859228525 -0.0015519639050375858 0 0.00016844753434136774 -0.0014514417116563698 0 0.00011805077025808222 -0.001516472715821958 0 6.6852105893393083e-05 -0.0015528266365476017 0 0.00011805077025808222 -0.001516472715821958 0 5.4521898379217293e-05 -0.0014828638124217918 0 6.6852105893393083e-05 -0.0015528266365476017 0 3.0739792196195156e-05 -0.0015228836404725821 0 5.4521898379217293e-05 -0.0014828638124217918 0 2.5473021587384595e-05 -0.0015510919838077359 0 6.6852105893393083e-05 -0.0015528266365476017 0 3.0739792196195156e-05 -0.0015228836404725821 0 3.0739792196195156e-05 -0.0015228836404725821 0 5.4521898379217293e-05 -0.0014828638124217918 0 8.786926435372143e-06 -0.0015005940414679448 0 5.4521898379217293e-05 -0.0014828638124217918 0 3.4613227251295332e-05 -0.0014268692172460047 0 9.9728692302190731e-05 -0.0014460880643807604 0 5.4521898379217293e-05 -0.0014828638124217918 0 8.786926435372143e-06 -0.0015005940414679448 0 3.7520352723113954e-06 -0.001460369356006151 0 5.4521898379217293e-05 -0.0014828638124217918 0 3.4613227251295332e-05 -0.0014268692172460047 0 3.7520352723113954e-06 -0.001460369356006151 0 0.00016844753434136774 -0.0014514417116563698 0 0.00011805077025808222 -0.001516472715821958 0 9.9728692302190731e-05 -0.0014460880643807604 0 0.00011805077025808222 -0.001516472715821958 0 5.4521898379217293e-05 -0.0014828638124217918 0 9.9728692302190731e-05 -0.0014460880643807604 0 4.3315165291447035e-05 -0.002003697316535782 0 1.649586128410393e-05 -0.0019508920077909594 0 -0.00011602616239076406 -0.0015687855044916466 0 -6.0470215721983952e-05 -0.0015384131838931114 0 -5.6184201906267472e-05 -0.0014794989104702921 0 -6.0470215721983952e-05 -0.0015384131838931114 0 -4.0048712204878291e-05 -0.0015006506225541548 0 -5.6184201906267472e-05 -0.0014794989104702921 0 -6.0470215721983952e-05 -0.0015384131838931114 0 -4.0048712204878291e-05 -0.0015006506225541548 0 -3.6366318773261094e-05 -0.0015234871153867581 0 -6.0470215721983952e-05 -0.0015384131838931114 0 -3.6366318773261094e-05 -0.0015234871153867581 0 -2.5200223034921575e-05 -0.0015408471591587538 0 -4.0048712204878291e-05 -0.0015006506225541548 0 -1.926255030428913e-05 -0.001490459390030435 0 -2.0014456916605122e-05 -0.0015142706295161439 0 -4.0048712204878291e-05 -0.0015006506225541548 0 -2.0014456916605122e-05 -0.0015142706295161439 0 -3.6366318773261094e-05 -0.0015234871153867581 0 -2.0014456916605122e-05 -0.0015142706295161439 0 -3.6366318773261094e-05 -0.0015234871153867581 0 -2.5200223034921575e-05 -0.0015408471591587538 0 -2.0190639093380506e-06 -0.0015593041311756117 0 -2.5200223034921575e-05 -0.0015408471591587538 0 2.9154729400975367e-06 -0.0015316762426245052 0 -2.0014456916605122e-05 -0.0015142706295161439 0 -2.5200223034921575e-05 -0.0015408471591587538 0 2.9154729400975367e-06 -0.0015316762426245052 0 3.0739792196195156e-05 -0.0015228836404725821 0 2.9154729400975367e-06 -0.0015316762426245052 0 8.786926435372143e-06 -0.0015005940414679448 0 2.5473021587384595e-05 -0.0015510919838077359 0 3.0739792196195156e-05 -0.0015228836404725821 0 2.9154729400975367e-06 -0.0015316762426245052 0 -1.926255030428913e-05 -0.001490459390030435 0 -2.0014456916605122e-05 -0.0015142706295161439 0 8.786926435372143e-06 -0.0015005940414679448 0 -2.0014456916605122e-05 -0.0015142706295161439 0 2.9154729400975367e-06 -0.0015316762426245052 0 8.786926435372143e-06 -0.0015005940414679448 0 3.7520352723113954e-06 -0.001460369356006151 0 -4.6858963988662614e-05 -0.0014763134690476425 0 -7.5161897252851274e-06 -0.0013854099310894453 0 -5.7634699365569774e-05 -0.0014806342545714583 0 -4.6858963988662614e-05 -0.0014763134690476425 0 -7.5161897252851274e-06 -0.0013854099310894453 0 1.649586128410393e-05 -0.0019508920077909594 0 3.9237305470504554e-05 -0.0018308494388239924 0 -1.926255030428913e-05 -0.001490459390030435 0 8.786926435372143e-06 -0.0015005940414679448 0 3.7520352723113954e-06 -0.001460369356006151 0 -1.926255030428913e-05 -0.001490459390030435 0 3.7520352723113954e-06 -0.001460369356006151 0 -4.6858963988662614e-05 -0.0014763134690476425 0 -4.0048712204878291e-05 -0.0015006506225541548 0 -1.926255030428913e-05 -0.001490459390030435 0 -4.6858963988662614e-05 -0.0014763134690476425 0 3.3478114259269249e-05 -0.0023441717464008902 0 5.9776706562778485e-05 -0.0023338793020329087 0 5.4308203000879699e-05 -0.0023081885275112852 0 -3.0259243529835156e-05 -0.002604359586349636 0 1.649586128410393e-05 -0.0019508920077909594 0 -4.0048712204878291e-05 -0.0015006506225541548 0 -5.6184201906267472e-05 -0.0014794989104702921 0 -4.6858963988662614e-05 -0.0014763134690476425 0 1.649586128410393e-05 -0.0019508920077909594 0 2.3880188714023105e-05 -0.0019042298811501523 0 8.1544937670337159e-05 -0.0022994990855465304 0 5.7607114479005938e-05 -0.0022772939642037087 0 0.0001022636373102928 -0.0022655124026246982 0 5.9776706562778485e-05 -0.0023338793020329087 0 5.4308203000879699e-05 -0.0023081885275112852 0 8.1544937670337159e-05 -0.0022994990855465304 0 2.8037453750817203e-05 -0.0023119003795944578 0 5.4308203000879699e-05 -0.0023081885275112852 0 5.7607114479005938e-05 -0.0022772939642037087 0 5.4308203000879699e-05 -0.0023081885275112852 0 8.1544937670337159e-05 -0.0022994990855465304 0 5.7607114479005938e-05 -0.0022772939642037087 0 3.4613227251295332e-05 -0.0014268692172460047 0 3.7520352723113954e-06 -0.001460369356006151 0 -7.5161897252851274e-06 -0.0013854099310894453 0 0.00014110309255029643 -0.0013600142432294031 0 6.8246718770153934e-05 -0.0013935121478597663 0 7.6988499169094326e-05 -0.0013440145020155974 0 9.9728692302190731e-05 -0.0014460880643807604 0 0.00014110309255029643 -0.0013600142432294031 0 6.8246718770153934e-05 -0.0013935121478597663 0 3.4613227251295332e-05 -0.0014268692172460047 0 9.9728692302190731e-05 -0.0014460880643807604 0 6.8246718770153934e-05 -0.0013935121478597663 0 3.4613227251295332e-05 -0.0014268692172460047 0 -7.5161897252851274e-06 -0.0013854099310894453 0 6.8246718770153934e-05 -0.0013935121478597663 0 -7.5161897252851274e-06 -0.0013854099310894453 0 6.8246718770153934e-05 -0.0013935121478597663 0 7.6988499169094326e-05 -0.0013440145020155974 0 -7.5161897252851274e-06 -0.0013854099310894453 0 4.4860104678059583e-05 -0.001303588556745969 0 4.6212681822096846e-05 -0.0012872840250242475 0 3.9237305470504554e-05 -0.0018308494388239924 0 6.3836743014678067e-05 -0.0017935548894250388 0 -7.5161897252851274e-06 -0.0013854099310894453 0 4.4860104678059583e-05 -0.001303588556745969 0 7.6988499169094326e-05 -0.0013440145020155974 0 4.4860104678059583e-05 -0.001303588556745969 0 8.3408801848540838e-05 -0.0012902788058494063 0 7.6988499169094326e-05 -0.0013440145020155974 0 8.3408801848540838e-05 -0.0012902788058494063 0 0.00011122195258252754 -0.0012905723873543446 0 7.6988499169094326e-05 -0.0013440145020155974 0 0.00014110309255029643 -0.0013600142432294031 0 0.00011122195258252754 -0.0012905723873543446 0 0.00015476700782261738 -0.0012162345648643043 0 0.00014110309255029643 -0.0013600142432294031 0 0.00011122195258252754 -0.0012905723873543446 0 7.6988499169094326e-05 -0.0013440145020155974 0 6.3836743014678067e-05 -0.0017935548894250388 0 0.00014890965246947449 -0.0016768596824169339 0 6.692990677642853e-05 -0.0012740751157683155 0 4.6212681822096846e-05 -0.0012872840250242475 0 8.2108914731865022e-05 -0.0012510447836965686 0 0.00011122195258252754 -0.0012905723873543446 0 0.00015476700782261738 -0.0012162345648643043 0 0.0001015470108868455 -0.0012130722315600597 0 9.6484170291518957e-05 -0.001235477476509164 0 0.00011987791046857628 -0.0013385730172172411 0 0.00015476700782261738 -0.0012162345648643043 0 0.0001015470108868455 -0.0012130722315600597 0 0.00015415418916529862 -0.0011619939797590996 0 8.3408801848540838e-05 -0.0012902788058494063 0 0.00011122195258252754 -0.0012905723873543446 0 0.0001015470108868455 -0.0012130722315600597 0 4.4860104678059583e-05 -0.001303588556745969 0 8.3408801848540838e-05 -0.0012902788058494063 0 0.0001015470108868455 -0.0012130722315600597 0 4.6919514793234377e-05 -0.0012976590405161508 0 9.6484170291518957e-05 -0.001235477476509164 0 0.0001022636373102928 -0.0022655124026246982 0 0.00012293800672052356 -0.0022306983220124034 0 8.4372797249605415e-05 -0.0022461217673753965 0 4.4860104678059583e-05 -0.001303588556745969 0 6.692990677642853e-05 -0.0012740751157683155 0 4.6212681822096846e-05 -0.0012872840250242475 0 0.00012293800672052356 -0.0022306983220124034 0 8.4372797249605415e-05 -0.0022461217673753965 0 9.0167666340185671e-05 -0.002218647872500085 0 0.00014890965246947449 -0.0016768596824169339 0 3.5279952148210033e-05 -0.0018433904268966453 0 9.2125042781474967e-05 -0.0014547787413939366 0 7.9322882672572522e-05 -0.0014737980341825957 0 4.9880871140037294e-05 -0.0013941823340343029 0 9.2125042781474967e-05 -0.0014547787413939366 0 7.8511124253837587e-05 -0.0014751006763125433 0 9.6873148209324308e-05 -0.0014849642902296852 0 0.00016686851316963811 -0.001589193368133607 0 0.00014890965246947449 -0.0016768596824169339 0 6.692990677642853e-05 -0.0012740751157683155 0 8.2108914731865022e-05 -0.0012510447836965686 0 8.8386427011982337e-05 -0.001254576686056903 0 0.00014890965246947449 -0.0016768596824169339 0 0.00011987791046857628 -0.0013385730172172411 0 5.7607114479005938e-05 -0.0022772939642037087 0 0.0001022636373102928 -0.0022655124026246982 0 8.4372797249605415e-05 -0.0022461217673753965 0 3.9600579852370309e-05 -0.002252310203644772 0 5.7607114479005938e-05 -0.0022772939642037087 0 6.1359255537597382e-05 -0.0022457221223459575 0 5.7607114479005938e-05 -0.0022772939642037087 0 8.4372797249605415e-05 -0.0022461217673753965 0 6.1359255537597382e-05 -0.0022457221223459575 0 8.4372797249605415e-05 -0.0022461217673753965 0 6.1359255537597382e-05 -0.0022457221223459575 0 9.0167666340185671e-05 -0.002218647872500085 0 6.1359255537597382e-05 -0.0022457221223459575 0 4.8564463298146224e-05 -0.0022288351255963898 0 9.0167666340185671e-05 -0.002218647872500085 0 3.9600579852370309e-05 -0.002252310203644772 0 6.1359255537597382e-05 -0.0022457221223459575 0 4.8564463298146224e-05 -0.0022288351255963898 0 3.8063901500713921e-05 -0.0022110953937343166 0 4.8564463298146224e-05 -0.0022288351255963898 0 5.9029404258945553e-05 -0.0022068970999444375 0 4.8564463298146224e-05 -0.0022288351255963898 0 5.9029404258945553e-05 -0.0022068970999444375 0 9.0167666340185671e-05 -0.002218647872500085 0 -5.2614290442877466e-05 -0.0017723337769835674 0 3.5279952148210033e-05 -0.0018433904268966453 0 -9.8226343870205088e-05 -0.0013668565734793353 0 -0.00012349658482123203 -0.0013677813261745123 0 -2.5322119057143368e-05 -0.0014176292205898644 0 -9.8226343870205088e-05 -0.0013668565734793353 0 -0.00014188380475504378 -0.0013600354607958482 0 -3.4569478078153204e-05 -0.001330854506217319 0 -0.00031789933456679637 -0.0020170057015232268 0 -0.00020426216333851963 -0.0019268445207232402 0 -0.00041843119980994147 -0.0020003898856005798 0 -0.00012542413411913348 -0.0017673207803776843 0 -0.00022931664242480262 -0.0016490168321682849 0 -9.8226343870205088e-05 -0.0013668565734793353 0 -2.5322119057143368e-05 -0.0014176292205898644 0 -3.4569478078153204e-05 -0.001330854506217319 0 -0.00035304415627238387 -0.0020731641612861673 0 -0.00031789933456679637 -0.0020170057015232268 0 -0.00041843119980994147 -0.0020003898856005798 0 2.8164209066298961e-05 -0.0020874269745734609 0 -5.2614290442877466e-05 -0.0017723337769835674 0 8.4805408823107385e-06 -0.0019071738733310336 0 -9.7361130798014894e-05 -0.0019032659087369404 0 -6.9571960289581619e-05 -0.0019193745820341294 0 -9.8226343870205088e-05 -0.0013668565734793353 0 -0.00012335752337024785 -0.0013687134209743952 0 -0.00014188380475504378 -0.0013600354607958482 0 -9.4489242222430559e-05 -0.0016567222963352751 0 -5.2614290442877466e-05 -0.0017723337769835674 0 -5.2614290442877466e-05 -0.0017723337769835674 0 -0.00012542413411913348 -0.0017673207803776843 0 -0.00031789933456679637 -0.0020170057015232268 0 -0.00020426216333851963 -0.0019268445207232402 0 -0.00026824828487442175 -0.0020387391068963697 0 -0.00020426216333851963 -0.0019268445207232402 0 -0.00026824828487442175 -0.0020387391068963697 0 -0.00020563432931558208 -0.002032275024869302 0 -0.00020426216333851963 -0.0019268445207232402 0 -0.00020563432931558208 -0.002032275024869302 0 -0.00016375055644489485 -0.0019893625283273902 0 -0.00020563432931558208 -0.002032275024869302 0 -0.00016375055644489485 -0.0019893625283273902 0 -0.00013310722925461292 -0.0020427678314897447 0 -4.2279221796341824e-05 -0.0020441025864629805 0 -0.00013310722925461292 -0.0020427678314897447 0 -0.00010630877003715156 -0.001957833767705574 0 -0.00016375055644489485 -0.0019893625283273902 0 -0.00013310722925461292 -0.0020427678314897447 0 -0.00010630877003715156 -0.001957833767705574 0 2.8164209066298961e-05 -0.0020874269745734609 0 -0.00012542413411913348 -0.0017673207803776843 0 -2.2696764153506084e-05 -0.0018681611221293578 0 -0.00020799783826781976 -0.0019004940807882714 0 -0.00010630877003715156 -0.001957833767705574 0 -0.00012542413411913348 -0.0017673207803776843 0 -9.7027745223983114e-05 -0.0018613328176344517 0 -0.00020426216333851963 -0.0019268445207232402 0 -0.00016375055644489485 -0.0019893625283273902 0 -0.00010630877003715156 -0.001957833767705574 0 7.9322882672572522e-05 -0.0014737980341825957 0 4.9880871140037294e-05 -0.0013941823340343029 0 -2.5322119057143368e-05 -0.0014176292205898644 0 9.2125042781474967e-05 -0.0014547787413939366 0 4.9880871140037294e-05 -0.0013941823340343029 0 0.00010847926425201415 -0.0013688909351116164 0 4.9880871140037294e-05 -0.0013941823340343029 0 -2.5322119057143368e-05 -0.0014176292205898644 0 -3.4569478078153204e-05 -0.001330854506217319 0 -0.00022931664242480262 -0.0016490168321682849 0 -0.00013518069718782021 -0.0016336970895735096 0 -0.00038365335490839404 -0.0019626450953797872 0 -0.00041843119980994147 -0.0020003898856005798 0 -0.00035106678312642138 -0.0019702886088505123 0 4.9880871140037294e-05 -0.0013941823340343029 0 -3.4569478078153204e-05 -0.001330854506217319 0 8.1641200904603703e-05 -0.0012993828099333385 0 4.9880871140037294e-05 -0.0013941823340343029 0 8.1641200904603703e-05 -0.0012993828099333385 0 0.00010847926425201415 -0.0013688909351116164 0 8.1641200904603703e-05 -0.0012993828099333385 0 0.00016133651619257508 -0.0013197068446947212 0 0.00010847926425201415 -0.0013688909351116164 0 0.0002003663256354934 -0.0012714295454027691 0 8.1641200904603703e-05 -0.0012993828099333385 0 0.00016133651619257508 -0.0013197068446947212 0 0.00016133651619257508 -0.0013197068446947212 0 0.00010847926425201415 -0.0013688909351116164 0 0.0001713056142276849 -0.0013815063963639885 0 9.2125042781474967e-05 -0.0014547787413939366 0 0.00010847926425201415 -0.0013688909351116164 0 0.0001713056142276849 -0.0013815063963639885 0 0.00011987791046857628 -0.0013385730172172411 0 0.00020020647317077058 -0.0012969495236893045 0 0.00022187817587381739 -0.0012127761153031128 0 0.00020723739078939337 -0.001194249588519853 0 0.00020431482281688828 -0.0011961415945576182 0 0.00022187817587381739 -0.0012127761153031128 0 0.00020790918065256356 -0.001224564001376159 0 0.00020431482281688828 -0.0011961415945576182 0 0.00016133651619257508 -0.0013197068446947212 0 0.0001713056142276849 -0.0013815063963639885 0 0.00021390558687537465 -0.0012751368343626719 0 0.0002003663256354934 -0.0012714295454027691 0 0.00016133651619257508 -0.0013197068446947212 0 0.00021390558687537465 -0.0012751368343626719 0 0.00020020647317077058 -0.0012969495236893045 0 0.00020908836687675376 -0.0012802957318743672 0 0.00022187817587381739 -0.0012127761153031128 0 0.00020790918065256356 -0.001224564001376159 0 0.00021390558687537465 -0.0012751368343626719 0 0.00020790918065256356 -0.001224564001376159 0 0.00020346482711965604 -0.0012641688251926043 0 0.00018877471521397746 -0.0012255766901053062 0 0.00020790918065256356 -0.001224564001376159 0 0.00021390558687537465 -0.0012751368343626719 0 0.00020346482711965604 -0.0012641688251926043 0 0.00020346482711965604 -0.0012641688251926043 0 0.00016032622514519548 -0.0012551827148962426 0 0.00018877471521397746 -0.0012255766901053062 0 0.00020791370285607298 -0.0013020523972491177 0 0.00020346482711965604 -0.0012641688251926043 0 0.00016032622514519548 -0.0012551827148962426 0 0.00016032622514519548 -0.0012551827148962426 0 0.00018877471521397746 -0.0012255766901053062 0 0.00017132955718452756 -0.0011948326237345794 0 0.00018877471521397746 -0.0012255766901053062 0 0.00017132955718452756 -0.0011948326237345794 0 0.00019334872677668989 -0.0011972893537908161 0 0.00017132955718452756 -0.0011948326237345794 0 0.00019334872677668989 -0.0011972893537908161 0 0.00018226392337902954 -0.0011689186084451976 0 0.00020790918065256356 -0.001224564001376159 0 0.00018877471521397746 -0.0012255766901053062 0 0.00019334872677668989 -0.0011972893537908161 0 0.00020790918065256356 -0.001224564001376159 0 0.00019334872677668989 -0.0011972893537908161 0 0.00020431482281688828 -0.0011961415945576182 0 0.00019334872677668989 -0.0011972893537908161 0 0.00019243440212887469 -0.0011772337641959302 0 0.00020431482281688828 -0.0011961415945576182 0 0.00019243440212887469 -0.0011772337641959302 0 0.0001981685311215698 -0.001184205996746783 0 0.00020431482281688828 -0.0011961415945576182 0 0.00019334872677668989 -0.0011972893537908161 0 0.00019243440212887469 -0.0011772337641959302 0 0.00018226392337902954 -0.0011689186084451976 0 0.00019243440212887469 -0.0011772337641959302 0 0.00018226392337902954 -0.0011689186084451976 0 0.00018746310413505932 -0.001163004337788032 0 0.0001878645500048097 -0.0011448385924923861 0 0.00018226392337902954 -0.0011689186084451976 0 0.00018746310413505932 -0.001163004337788032 0 0.00019067812607889072 -0.0011660142876343811 0 0.00018746310413505932 -0.001163004337788032 0 0.00019028825332046488 -0.001174581657672149 0 0.0001878645500048097 -0.0011448385924923861 0 0.00019067812607889072 -0.0011660142876343811 0 0.00018746310413505932 -0.001163004337788032 0 0.00019243440212887469 -0.0011772337641959302 0 0.00018746310413505932 -0.001163004337788032 0 0.00019028825332046488 -0.001174581657672149 0 0.00019243440212887469 -0.0011772337641959302 0 0.00019028825332046488 -0.001174581657672149 0 0.0001981685311215698 -0.001184205996746783 0 0.00019028825332046488 -0.001174581657672149 0 0.0001981685311215698 -0.001184205996746783 0 0.00019408711218347856 -0.0011895176762414879 0 0.0001981685311215698 -0.001184205996746783 0 0.00019408711218347856 -0.0011895176762414879 0 0.00019612624045673078 -0.0011877394525841121 0 0.00015476700782261738 -0.0012162345648643043 0 0.00015415418916529862 -0.0011619939797590996 0 0.00019612624045673078 -0.0011877394525841121 0 0.00015476700782261738 -0.0012162345648643043 0 0.00019408711218347856 -0.0011895176762414879 0 0.00019612624045673078 -0.0011877394525841121 0 9.2125042781474967e-05 -0.0014547787413939366 0 9.6873148209324308e-05 -0.0014849642902296852 0 0.0001713056142276849 -0.0013815063963639885 0 0.00021666542068492225 -0.0011925333067673832 0 0.00022187817587381739 -0.0012127761153031128 0 0.00020723739078939337 -0.001194249588519853 0 0.00021666542068492225 -0.0011925333067673832 0 0.00019612624045673078 -0.0011877394525841121 0 0.00020723739078939337 -0.001194249588519853 0 0.00011987791046857628 -0.0013385730172172411 0 0.00018954026725581254 -0.0011822627267761288 0 0.0001981685311215698 -0.001184205996746783 0 0.00020723739078939337 -0.001194249588519853 0 0.00020431482281688828 -0.0011961415945576182 0 0.0001981685311215698 -0.001184205996746783 0 0.00019612624045673078 -0.0011877394525841121 0 0.00020723739078939337 -0.001194249588519853 0 
</DataArray>
</PointData>
<CellData Scalars="region_id,cross_section_updated," Vectors="" Tensors="stress,">
<DataArray type="Float64" Name="region_id" format="ascii">
5 5 5 5 5 5 5 5 5 5 5 5 5 5 5 5 5 5 6 5 5 6 5 6 6 5 5 5 6 5 5 6 5 5 5 5 5 5 6 6 5 5 6 5 5 5 5 5 5 5 5 6 5 5 5 6 5 5 6 5 5 5 5 5 5 5 5 5 5 5 5 5 5 5 5 5 5 5 5 5 5 5 5 5 5 5 6 5 5 5 6 5 5 5 6 5 6 5 5 5 5 5 5 5 6 5 5 5 5 5 5 6 5 5 5 5 5 5 5 5 5 5 5 5 5 6 5 5 5 5 5 5 6 5 6 5 5 6 5 5 6 5 5 5 6 5 5 5 5 5 5 5 5 5 5 5 5 5 5 5 5 6 5 5 5 5 5 5 5 5 6 5 5 5 6 5 5 5 5 5 5 5 5 6 5 5 5 5 6 6 5 5 6 5 5 6 5 5 5 5 5 5 5 5 5 5 5 5 5 5 5 5 5 5 5 5 5 5 5 5 5 5 5 5 5 5 5 5 5 5 5 5 5 5 5 6 5 5 6 5 5 5 5 5 5 5 5 5 5 5 5 5 5 5 5 5 5 5 5 5 5 5 5 5 5 6 5 5 5 6 5 5 6 5 5 6 5 5 5 5 5 6 5 6 5 6 6 5 5 5 5 6 6 6 5 5 5 5 5 6 5 5 6 5 6 5 5 5 5 5 5 5 6 5 5 5 5 5 5 6 5 5 5 5 5 5 5 5 5 5 5 5 5 5 5 5 5 5 5 6 6 6 5 6 6 5 5 5 6 6 5 5 5 6 6 5 6 5 6 5 5 5 5 5 5 5 5 6 5 5 5 5 5 5 5 5 5 5 5 5 6 5 5 5 5 5 5 5 5 5 5 5 5 5 5 5 5 5 5 5 5 5 5 5 5 5 6 5 5 5 5 6 5 5 5 5 6 5 5 5 5 5 5 5 5 5 5 5 5 5 5 5 5 5 5 6 5 5 5 5 5 5 5 5 5 5 5 5 5 6 5 5 5 5 5 5 5 5 5 5 5 5 5 5 5 5 5 5 5 5 5 5 5 5 5 5 5 5 5 5 5 5 5 5 5 5 5 5 5 5 5 5 5 5 5 5 5 5 5 5 5 5 6 5 5 5 5 5 5 5 5 5 6 5 5 5 5 6 5 5 5 5 5 5 5 5 5 5 5 5 5 5 5 5 6 5 5 5 5 5 5 5 5 6 5 5 5 5 5 5 5 5 5 5 5 5 5 5 5 5 5 5 5 5 5 5 5 5 5 5 5 5 5 5 6 5 5 6 5 5 5 6 5 5 5 5 5 5 5 5 5 5 5 6 5 5 5 5 5 5 5 5 5 5 5 5 5 5 5 5 5 5 5 5 5 5 5 5 6 6 5 6 6 5 5 5 5 5 5 5 5 5 6 5 5 5 6 5 6 5 5 6 5 5 5 5 5 6 5 5 6 5 5 5 5 5 5 5 5 5 5 5 5 6 6 5 5 5 5 6 5 5 5 5 5 5 5 6 5 5 6 5 6 5 5 5 6 6 5 5 6 6 5 5 6 5 5 6 5 5 6 5 6 5 5 5 5 5 5 6 5 5 5 5 5 5 5 5 5 5 5 5 6 5 5 5 5 6 5 5 6 5 5 5 5 5 5 5 5 5 5 5 5 5 5 5 5 5 5 5 5 5 5 5 5 5 5 5 5 5 5 5 5 5 5 5 5 5 5 5 5 5 5 5 5 5 5 5 5 5 5 5 5 5 5 5 5 5 5 5 5 5 5 5 5 5 5 6 5 5 5 5 6 5 5 5 5 5 5 5 5 5 5 5 5 5 5 5 5 5 5 5 5 5 5 5 5 5 5 5 5 5 5 5 6 5 5 5 5 5 5 6 5 5 5 5 5 5 5 5 5 5 5 5 5 5 5 5 5 5 5 5 5 5 6 5 5 5 5 6 5 5 5 6 5 5 5 5 5 5 5 5 5 5 5 5 5 6 5 5 6 6 5 5 5 5 5 5 6 6 6 5 5 5 5 5 5 5 5 5 5 5 5 5 5 5 5 5 5 6 5 5 5 5 5 6 5 5 6 5 5 5 6 5 5 5 6 5 5 5 5 5 6 5 5 5 5 6 5 5 5 5 5 5 5 5 6 5 5 5 5 5 5 5 5 5 6 5 5 5 6 5 5 5 5 5 5 5 5 5 5 5 5 5 5 5 5 5 5 5 5 5 5 5 5 5 5 5 6 5 5 6 5 5 5 6 5 6 5 5 6 5 6 5 5 5 5 5 6 5 5 6 6 6 5 5 6 5 5 5 6 6 5 5 6 5 5 5 5 5 5 6 5 5 5 5 5 5 5 5 5 6 5 5 5 5 5 5 5 5 5 5 5 5 5 5 5 5 5 5 5 5 5 5 5 5 5 5 5 5 5 5 5 5 5 5 5 5 5 6 6 5 5 5 5 5 5 5 5 5 5 5 5 5 5 5 5 5 5 5 5 5 5 5 5 5 5 5 5 5 5 5 5 5 5 5 5 5 5 5 5 5 6 5 5 5 5 6 5 5 5 5 5 5 5 5 5 5 5 5 5 5 5 5 5 5 5 5 5 5 5 5 5 5 6 5 5 5 5 5 5 5 5 5 5 5 5 5 5 6 5 5 5 5 5 6 5 5 5 5 6 5 5 5 6 5 5 6 5 6 5 6 5 5 6 5 5 5 5 5 5 5 6 5 5 5 5 5 5 5 5 5 5 5 5 5 5 5 5 5 5 5 5 5 5 5 5 5 5 5 5 5 5 5 5 5 6 5 5 5 6 5 5 5 6 5 5 5 5 5 5 5 5 5 6 5 5 5 6 5 5 5 5 6 5 6 5 5 5 5 5 5 5 5 5 5 5 5 5 5 5 5 5 5 5 5 5 5 5 5 5 5 5 5 5 5 5 5 5 5 5 5 6 5 5 6 5 6 5 6 5 5 6 6 5 5 5 6 5 6 5 5 5 5 5 5 5 6 5 5 6 5 5 6 5 5 5 5 6 6 5 5 5 6 6 5 6 5 5 5 5 5 5 6 5 6 6 5 6 5 5 5 5 5 6 5 5 5 5 5 5 5 6 6 5 6 5 5 6 5 6 5 5 5 5 5 5 5 5 6 5 5 6 5 6 5 5 5 5 5 5 5 5 5 5 6 5 5 5 6 6 5 5 6 5 5 5 5 5 5 6 5 5 5 5 5 5 5 5 6 6 5 5 5 5 5 5 5 5 5 5 5 5 5 5 6 5 5 5 5 5 5 6 5 6 5 6 5 6 5 5 5 5 5 5 5 5 5 6 6 5 5 5 5 5 5 5 5 5 5 5 5 5 5 5 5 6 5 5 6 5 5 5 5 5 5 5 5 5 5 6 5 5 5 5 5 5 5 6 5 6 6 5 5 6 5 5 5 5 5 5 5 5 6 5 5 5 6 5 5 5 6 5 5 5 5 5 5 5 5 5 5 5 5 5 5 5 5 5 5 5 5 5 6 5 5 5 5 5 5 5 5 5 5 5 5 5 5 5 5 5 5 5 5 5 5 5 5 5 6 5 5 5 5 5 5 5 5 5 5 5 5 5 5 5 6 5 5 5 5 5 5 5 5 5 5 5 5 6 6 5 5 6 6 5 5 5 5 6 6 5 5 5 5 5 5 6 6 5 5 5 5 6 5 5 6 5 5 5 5 6 5 5 5 5 6 5 5 5 6 5 6 5 6 6 5 5 5 6 6 6 6 5 5 6 5 6 5 5 6 5 5 5 6 6 5 6 5 5 5 5 5 5 5 5 5 5 5 5 5 5 5 5 5 5 6 5 5 5 5 5 6 5 5 5 5 6 5 5 5 5 5 5 5 6 6 5 5 6 5 5 5 5 5 5 5 5 5 5 5 5 5 5 5 5 5 5 5 5 5 5 5 5 5 5 5 5 5 5 5 5 5 5 5 5 6 5 5 5 6 5 5 5 5 5 5 5 5 5 5 5 5 5 5 5 5 5 5 6 5 5 6 5 5 5 5 5 6 5 6 5 5 5 5 5 5 5 5 5 5 5 6 6 5 5 6 5 6 5 5 5 5 6 5 6 5 6 5 5 6 6 5 5 6 5 5 5 5 5 5 5 6 5 5 5 6 5 5 5 5 6 6 5 5 5 5 5 5 6 5 5 5 5 6 5 5 5 5 5 5 5 5 5 5 5 5 5 5 5 5 6 5 5 5 5 6 5 5 5 5 6 5 6 5 5 5 5 5 6 5 5 5 5 5 5 5 6 5 5 5 6 6 5 5 5 6 5 6 5 5 5 5 6 5 5 5 5 6 5 5 5 5 5 6 5 5 6 5 6 5 6 5 5 5 5 6 5 5 5 5 5 5 5 5 5 5 5 6 5 5 5 5 5 5 5 6 5 5 5 5 5 5 5 5 5 5 6 5 5 5 5 5 5 5 6 5 5 6 5 5 5 5 5 5 5 5 5 5 5 5 5 5 5 5 5 5 5 5 5 5 6 5 6 5 5 6 5 5 5 5 5 6 5 5 5 6 5 6 5 5 5 5 5 5 5 5 5 5 5 6 5 5 5 5 5 5 5 5 5 5 5 5 5 5 5 6 5 5 5 5 5 5 5 5 5 6 5 5 6 5 5 6 5 5 5 5 5 5 5 5 5 5 6 5 5 5 5 6 5 6 6 6 5 5 6 5 6 5 5 5 5 6 5 5 6 5 5 5 5 5 5 5 5 5 5 5 5 5 5 5 5 5 5 6 5 6 6 5 5 5 5 5 6 6 5 5 5 5 5 5 5 5 5 5 5 5 5 5 5 5 5 5 6 6 5 5 5 5 5 5 5 5 5 5 5 5 5 6 5 5 5 5 5 6 5 5 5 5 5 5 5 5 5 5 5 5 5 5 5 5 5 5 5 5 5 5 5 5 5 5 5 6 5 5 5 6 5 5 5 6 6 5 6 5 5 6 5 5 6 5 5 5 5 5 6 5 5 5 5 5 5 5 5 5 6 5 5 5 5 5 6 5 5 5 5 5 5 5 5 5 5 5 5 5 6 5 5 5 5 5 5 5 5 5 5 5 5 5 5 5 5 6 5 5 5 5 5 6 5 5 5 5 6 5 5 6 5 5 5 5 6 5 6 5 5 5 5 5 5 6 5 5 5 5 5 5 5 5 5 5 5 5 5 5 5 5 5 5 5 5 5 5 5 5 5 5 5 5 5 6 5 5 5 5 5 5 5 5 5 5 5 5 6 5 5 5 5 6 5 5 6 5 6 5 5 5 5 5 5 5 5 5 5 5 5 5 6 6 5 5 6 5 5 5 5 5 5 5 5 5 5 5 6 5 5 6 5 5 5 5 5 5 5 5 5 5 6 5 5 5 6 5 5 5 5 5 5 5 5 5 5 5 5 5 5 5 5 5 5 5 6 5 5 5 5 5 5 5 5 5 5 5 5 6 5 5 5 5 5 5 5 5 5 5 5 5 5 5 5 6 6 5 5 6 5 5 6 5 5 6 5 6 5 5 6 5 5 5 6 6 5 5 6 5 6 6 6 5 5 5 6 5 6 5 5 5 5 6 5 5 5 5 5 5 5 6 5 6 5 5 6 5 5 5 5 5 6 5 5 6 6 5 6 5 6 5 5 6 5 5 5 6 5 5 5 5 6 5 5 5 5 5 6 5 5 6 5 5 5 5 5 6 5 5 5 5 5 5 5 5 5 5 5 6 5 5 5 5 5 5 5 5 6 5 5 5 5 5 5 5 6 5 5 5 6 5 5 5 5 5 6 5 5 5 5 5 5 5 5 5 5 6 5 6 5 5 5 5 5 5 5 5 5 5 5 5 5 5 5 5 5 5 5 6 5 6 5 5 5 6 5 5 5 5 5 5 6 5 5 5 5 5 6 5 5 6 5 5 5 6 5 5 5 6 5 5 5 5 5 5 5 5 5 5 5 5 5 5 5 5 5 5 5 5 5 6 5 5 5 5 5 5 5 6 5 6 6 5 5 5 5 5 6 5 6 6 6 5 5 5 5 6 5 5 5 5 5 6 5 5 5 5 5 5 5 6 5 5 5 5 5 5 5 5 5 5 5 5 5 5 5 5 5 5 5 5 5 5 6 5 5 5 5 5 5 6 5 5 5 5 6 5 5 6 5 5 5 6 5 6 6 6 5 5 5 6 5 6 6 5 5 6 5 6 5 5 5 5 6 6 6 6 5 5 5 6 5 5 5 5 5 5 6 5 5 6 5 5 5 5 5 5 5 5 5 5 6 5 5 5 5 5 6 5 5 5 6 5 5 6 6 5 5 6 5 5 5 5 5 5 5 5 5 5 5 5 5 5 5 5 5 6 5 5 6 5 5 6 5 5 5 5 5 5 5 6 5 5 6 5 5 5 6 5 6 5 5 5 6 5 6 5 5 5 5 5 5 5 5 5 5 6 5 5 5 5 5 5 5 5 5 5 5 5 5 6 5 6 5 5 5 6 5 5 5 5 5 6 5 6 5 5 5 5 5 5 6 5 5 5 5 5 5 6 5 5 5 6 5 5 5 5 5 5 5 5 5 5 5 6 5 5 6 5 5 5 5 5 5 5 5 5 5 5 5 5 6 5 5 5 5 6 5 5 6 5 5 6 5 5 5 5 5 5 5 5 5 5 5 5 5 5 5 5 5 5 5 5 5 5 5 5 5 6 5 6 5 5 6 5 5 5 5 6 5 5 5 5 5 5 5 5 5 6 5 5 6 5 5 5 5 5 5 6 5 6 5 5 5 5 5 6 5 5 5 5 5 5 5 5 5 6 5 5 5 5 5 5 5 5 5 5 6 5 5 5 6 5 5 5 5 5 5 6 6 6 5 5 5 5 5 6 5 5 5 5 5 5 5 5 5 5 5 5 5 5 6 5 5 5 5 5 5 6 5 5 5 6 5 6 5 5 5 5 6 5 5 5 5 5 5 5 5 5 5 5 5 5 5 5 5 5 5 5 5 5 5 6 5 5 6 5 5 5 5 5 6 5 5 5 5 5 5 5 5 5 5 5 5 5 5 5 5 5 5 5 5 5 5 5 5 5 5 6 5 5 5 5 5 6 5 6 5 5 5 5 5 6 5 5 5 5 5 5 5 5 5 6 5 5 5 5 5 5 5 5 5 5 5 5 5 5 5 5 5 6 5 5 5 5 5 5 6 5 5 5 6 5 5 5 5 5 5 5 5 5 5 5 5 5 5 5 5 5 5 6 5 5 6 5 5 5 5 5 6 5 5 5 5 5 5 5 5 5 5 6 6 5 5 5 5 6 5 5 6 5 5 5 5 5 5 5 5 5 5 5 5 5 5 5 5 5 5 5 5 5 5 5 5 6 5 5 5 5 5 5 5 5 6 5 5 5 5 5 5 6 5 5 5 5 5 5 5 5 5 6 5 5 5 5 5 5 5 5 5 6 5 5 5 6 6 5 5 5 5 5 5 6 5 5 6 5 5 5 5 5 5 6 5 5 5 5 6 5 6 5 5 5 5 6 6 5 5 5 5 5 6 5 5 5 6 5 5 5 5 5 5 5 5 5 5 6 5 5 5 5 5 5 5 5 5 6 6 5 5 5 5 5 5 5 5 5 5 5 5 5 5 6 5 6 5 5 5 6 5 5 5 5 5 6 5 5 5 5 5 5 5 5 6 6 5 5 5 5 6 5 5 5 5 6 5 5 5 5 5 5 6 5 5 5 5 5 5 5 5 5 6 5 5 5 5 5 6 5 6 5 5 5 6 5 6 5 6 5 6 6 5 5 5 5 5 5 5 5 6 5 6 5 5 5 5 6 6 6 5 5 5 5 6 5 5 5 6 6 5 5 5 5 5 5 5 6 6 5 5 5 5 5 5 6 5 5 5 5 5 5 5 5 5 5 5 6 6 5 5 5 5 6 6 5 6 5 5 5 5 5 5 5 5 5 6 6 5 5 5 5 5 5 5 5 5 5 5 5 5 5 5 5 5 5 6 6 5 6 5 5 5 5 5 5 5 5 5 5 5 5 5 5 5 5 5 5 5 5 5 5 5 5 6 6 5 5 5 5 5 5 5 5 5 5 5 5 5 5 5 5 5 5 5 5 5 5 5 5 5 5 5 5 5 5 5 6 5 5 6 5 5 5 5 5 6 5 5 6 5 5 5 5 5 5 5 5 5 5 5 5 5 6 5 5 5 5 5 5 5 5 6 5 5 5 5 5 6 6 6 5 5 5 5 6 5 5 5 5 5 5 5 5 5 5 5 5 5 6 6 5 5 5 5 5 5 5 6 5 5 6 5 5 5 5 5 5 5 5 5 5 5 5 5 5 5 5 5 5 5 5 5 6 5 6 5 5 5 5 5 5 5 6 5 5 5 5 5 5 5 5 5 5 5 6 5 5 5 5 5 5 6 5 5 5 5 6 5 5 6 5 5 5 5 6 5 5 5 5 5 5 5 5 5 5 5 5 5 5 5 6 5 5 5 5 5 5 5 6 5 5 5 5 5 5 5 5 5 5 5 5 5 6 5 5 6 5 5 5 6 5 5 5 5 5 5 6 5 5 5 5 5 5 5 5 5 5 5 5 5 5 5 5 5 5 5 5 6 5 5 5 5 5 6 5 5 5 5 5 6 5 5 5 5 6 5 5 6 6 5 5 5 5 5 5 6 5 5 5 5 5 5 5 5 5 5 6 5 5 6 5 5 5 5 5 5 5 6 5 5 5 5 5 5 5 5 5 5 5 5 5 6 5 5 5 5 6 5 5 5 6 6 5 5 5 5 5 5 6 5 5 5 6 5 5 5 5 5 5 6 5 5 5 6 5 5 5 5 5 5 5 5 5 5 5 5 5 5 5 5 5 5 5 5 6 5 5 5 5 5 5 5 5 5 5 5 5 5 5 5 5 5 5 5 5 5 5 5 5 5 5 5 5 5 5 5 5 5 5 6 5 5 6 5 5 6 5 5 6 5 5 5 5 5 6 5 5 5 5 5 5 5 5 5 5 5 5 5 5 5 5 5 5 5 5 5 5 5 6 5 5 5 5 5 5 5 6 5 5 5 6 5 5 6 5 5 6 5 5 6 5 5 6 5 5 5 6 5 5 6 6 5 5 6 5 5 6 5 5 5 5 5 5 5 5 5 5 5 5 5 5 5 5 6 5 6 5 5 5 5 6 5 5 5 6 5 5 5 5 5 5 5 5 5 5 5 5 5 5 5 6 6 5 5 5 5 5 5 6 5 5 6 5 5 6 5 5 5 5 5 5 5 5 5 5 5 5 5 5 5 5 5 5 5 5 5 5 5 5 5 5 5 6 5 5 6 6 5 5 5 5 5 5 5 6 5 5 5 6 5 5 5 5 5 5 5 5 5 5 5 5 5 5 6 5 5 6 5 5 5 5 6 5 5 5 5 5 5 5 6 5 5 5 5 5 5 5 5 5 5 5 5 5 5 5 6 5 5 5 5 6 5 5 6 6 5 5 6 5 5 6 5 5 6 5 6 6 5 5 5 5 5 5 6 5 6 5 5 6 5 5 6 5 5 5 6 5 6 5 5 5 5 6 5 5 5 5 5 5 5 5 6 5 5 6 5 5 5 5 5 6 5 5 5 5 6 6 5 5 6 5 5 5 5 5 5 5 5 6 5 5 5 5 6 5 5 5 5 5 5 5 5 5 5 6 5 5 5 5 5 5 5 5 5 5 6 5 5 5 5 6 5 5 5 5 5 5 6 5 5 5 5 5 6 5 5 5 5 5 5 5 5 5 5 5 5 5 5 5 6 5 5 5 5 5 6 5 5 5 5 6 5 6 5 5 5 5 6 6 5 6 6 5 6 6 5 5 5 5 5 6 5 6 5 5 5 5 5 5 5 5 5 5 5 5 6 5 5 5 5 6 5 6 5 5 5 5 5 5 5 5 5 5 5 5 5 5 6 5 5 5 6 5 5 5 5 5 5 5 5 5 5 5 5 5 5 5 5 5 5 5 5 5 5 5 5 5 5 5 5 5 5 5 5 5 5 5 5 5 5 5 5 5 5 5 5 5 6 5 5 5 5 5 5 6 5 5 5 5 6 6 6 6 5 5 5 5 5 6 5 5 5 5 5 5 5 5 6 6 5 5 5 5 6 5 5 5 5 5 5 5 5 5 5 5 5 5 5 5 5 5 5 5 5 5 5 5 5 5 5 5 6 5 5 6 5 5 5 5 5 6 5 5 5 5 6 6 5 5 5 5 5 6 5 5 5 5 5 5 5 5 5 5 5 5 5 5 5 5 5 5 5 5 5 5 5 5 6 5 5 5 6 6 5 5 6 5 5 5 5 6 5 5 5 5 5 5 5 5 5 5 5 5 5 5 5 5 5 5 5 5 5 5 5 5 5 6 5 6 6 5 6 5 5 5 5 5 6 5 5 5 5 5 5 5 5 6 5 5 5 5 5 5 5 5 5 5 5 5 5 5 5 5 5 5 5 5 5 5 5 5 5 5 5 5 5 5 5 5 5 5 5 5 5 6 5 5 5 5 5 6 5 5 5 5 5 5 5 5 5 5 6 5 5 5 5 5 5 5 5 5 6 5 5 5 5 5 5 5 5 5 6 5 5 5 5 5 5 6 5 5 5 5 5 5 5 5 5 5 5 5 5 5 5 5 5 5 5 6 5 5 5 5 5 5 5 5 5 5 5 5 5 5 5 5 6 5 5 5 5 5 5 5 5 5 5 5 5 5 5 5 5 5 5 5 5 5 5 6 5 5 6 5 5 5 5 6 5 5 5 5 5 5 5 5 6 5 5 5 6 6 6 5 5 6 5 5 5 5 5 6 5 5 5 5 5 5 5 5 5 5 5 5 5 5 5 5 5 5 5 5 5 5 5 5 5 5 5 5 5 5 5 5 5 5 5 5 5 5 5 5 5 5 5 6 5 6 5 5 5 5 5 5 5 5 5 6 5 5 5 5 6 5 5 6 5 5 6 6 5 6 6 5 5 5 5 5 5 5 6 5 5 5 5 6 5 5 5 5 5 5 5 5 5 5 5 5 6 5 5 5 5 5 5 5 5 5 5 5 5 5 5 5 5 5 5 6 5 5 6 6 5 5 5 5 5 6 5 5 5 5 5 5 6 5 5 5 5 5 5 5 5 5 5 6 5 5 5 5 5 5 5 6 5 5 5 5 6 5 5 5 5 5 5 5 6 5 5 5 5 5 5 5 5 5 5 5 5 5 5 5 5 5 5 5 5 5 6 5 5 5 5 5 6 5 5 5 6 5 6 5 5 5 5 5 5 5 5 5 5 5 6 5 5 5 5 5 6 5 5 5 5 5 5 5 5 5 5 5 5 5 5 6 5 5 5 5 6 5 6 5 6 5 6 6 5 6 5 5 6 5 5 6 5 5 5 5 5 5 5 5 5 5 5 5 6 5 5 5 5 6 5 6 5 5 5 6 5 5 6 5 5 6 5 6 5 5 5 5 5 5 5 5 5 5 5 5 6 6 5 6 5 5 6 6 5 5 5 5 5 5 6 5 5 6 5 5 5 6 5 5 5 5 5 6 5 6 6 5 5 5 6 5 5 5 6 5 5 5 5 6 5 5 5 5 5 5 5 5 5 5 5 5 5 5 5 5 5 5 5 5 6 5 5 5 5 5 5 5 6 6 5 5 5 5 5 6 5 6 5 5 5 5 5 5 5 5 5 5 5 5 5 5 5 5 5 5 5 5 5 5 5 5 5 5 5 5 5 5 5 5 5 5 5 5 5 5 5 5 5 5 5 5 5 5 5 5 5 5 5 5 5 5 5 5 5 5 5 5 5 5 5 5 5 5 5 5 5 5 5 5 5 5 5 5 5 5 5 5 5 5 5 5 5 5 5 5 5 5 5 5 5 6 5 5 5 5 5 5 5 5 5 6 6 5 5 5 5 5 6 5 5 6 5 5 6 6 5 6 5 5 5 5 5 5 5 5 5 5 5 5 5 5 5 5 5 5 5 6 5 5 5 5 5 5 5 6 6 5 5 5 5 5 6 5 5 6 5 6 5 5 5 5 5 5 5 5 5 5 5 5 5 5 5 5 5 5 5 5 5 5 5 5 5 6 5 5 5 5 5 5 5 5 5 5 5 5 5 5 5 5 5 5 5 5 5 5 5 5 5 5 5 5 5 5 5 5 5 5 5 5 5 5 5 5 5 5 5 5 5 5 5 5 5 5 5 5 5 5 5 5 5 5 5 5 5 5 5 5 6 5 5 5 5 5 6 5 5 5 6 5 5 5 5 5 5 5 5 5 5 6 5 5 5 5 5 5 5 5 5 5 5 5 6 5 5 5 5 6 5 5 5 5 5 5 5 5 5 5 6 5 5 5 5 5 6 5 5 5 5 5 5 5 5 5 5 6 5 5 5 5 5 5 5 5 5 5 6 5 5 5 6 5 5 5 5 5 5 5 5 5 5 5 5 5 6 5 5 5 5 5 5 5 5 5 5 5 5 5 5 5 5 5 5 5 5 5 5 5 5 5 5 5 5 5 5 5 5 5 5 5 5 5 6 5 5 5 5 5 5 5 5 6 5 5 5 6 5 5 5 5 5 5 5 5 6 5 5 6 5 5 5 5 5 5 5 6 5 5 6 6 5 5 5 5 5 5 6 5 5 5 5 5 5 5 5 5 5 5 5 5 5 5 5 6 5 5 5 6 5 5 5 5 5 5 5 5 5 5 5 5 5 5 5 5 5 5 6 5 5 5 5 5 5 5 6 6 5 5 5 5 6 5 5 6 5 5 5 5 5 5 5 5 5 6 5 5 6 6 5 5 5 6 5 5 6 5 5 5 5 5 5 6 5 5 6 5 5 5 5 5 5 6 5 5 6 6 5 5 5 5 5 6 5 5 5 5 5 5 5 5 5 5 5 6 5 5 5 5 6 5 5 5 6 5 6 5 5 5 5 5 5 6 5 5 5 5 5 6 5 5 5 5 6 5 5 5 5 5 5 5 5 6 5 5 6 5 6 5 6 5 5 5 6 5 6 5 6 5 5 5 5 5 5 5 5 5 5 5 5 5 5 5 6 5 5 5 6 5 5 6 5 5 5 6 5 5 5 5 6 5 5 5 5 6 6 5 5 6 5 5 6 5 5 5 5 5 5 5 5 5 5 5 5 5 5 5 5 5 5 5 5 5 5 5 5 5 5 5 5 5 5 5 5 5 5 5 5 5 5 5 5 5 5 5 5 5 5 5 5 6 5 6 5 5 5 5 5 5 6 5 5 5 5 5 5 5 5 5 6 5 5 6 5 6 5 5 5 5 5 5 5 5 5 6 5 5 6 5 5 6 5 5 5 5 5 5 6 5 5 5 5 5 5 5 5 5 5 5 5 5 5 5 5 5 5 5 5 5 6 5 5 5 5 5 5 5 5 5 6 5 5 5 5 5 5 5 5 5 5 5 5 6 6 5 6 6 5 5 5 5 6 5 5 5 5 5 5 5 6 5 5 6 5 5 5 5 5 6 5 5 5 5 6 5 5 5 5 5 6 5 5 5 5 6 5 5 5 5 5 5 5 5 5 5 5 5 6 5 5 5 5 5 5 5 5 6 5 5 6 6 5 5 6 5 6 6 5 5 5 6 5 6 5 5 5 6 6 5 5 5 6 5 5 5 5 5 5 5 6 5 5 5 5 5 5 5 5 5 5 5 6 5 5 6 5 5 6 5 5 6 5 6 5 5 6 5 5 5 5 5 5 5 5 5 5 5 6 5 5 5 5 5 5 5 5 5 5 5 5 5 5 5 5 5 6 5 5 6 5 5 5 5 6 5 5 5 5 5 5 5 5 5 5 5 5 5 5 5 5 5 5 5 5 5 5 5 5 5 5 5 5 5 5 5 5 5 6 5 5 5 5 5 5 5 5 5 5 6 5 5 6 5 5 5 5 5 5 5 5 5 5 6 5 5 5 5 5 5 5 6 5 5 5 5 5 5 5 5 6 5 6 5 5 5 5 5 5 5 5 5 6 5 5 5 5 5 5 5 5 5 5 5 5 5 6 5 5 5 5 6 5 5 5 5 5 5 5 5 5 5 5 5 5 5 5 5 5 5 5 5 5 6 5 5 5 6 5 5 5 6 5 5 5 5 5 6 5 5 5 5 5 5 5 5 5 5 5 5 5 6 5 5 5 5 5 5 5 5 5 5 5 5 5 5 5 5 5 6 5 5 5 5 5 5 5 5 5 5 5 5 5 6 5 5 5 5 6 5 5 5 5 5 5 6 5 5 5 5 5 5 5 5 6 5 5 5 5 5 5 5 6 5 5 5 6 5 5 5 5 5 5 5 6 5 5 5 5 5 5 5 5 5 5 5 6 5 5 5 5 5 5 5 5 5 6 5 5 6 5 5 5 5 5 6 6 5 6 5 5 5 6 6 5 5 5 6 5 6 5 5 5 5 6 5 5 5 5 5 6 5 5 5 5 6 5 5 6 6 6 5 5 5 5 6 5 6 5 5 5 6 5 5 5 5 5 5 5 5 5 5 5 5 5 5 5 5 6 5 6 5 5 5 5 5 5 5 5 5 6 5 5 6 6 5 5 6 5 5 5 5 6 5 5 5 5 5 5 5 5 5 5 5 6 5 5 5 5 5 5 5 5 5 5 5 5 5 5 5 5 5 5 5 6 5 5 5 5 5 5 5 5 5 5 5 5 5 5 5 5 5 5 5 5 5 5 5 5 5 5 6 5 6 5 5 5 5 5 5 6 5 6 5 5 5 5 5 5 5 5 5 5 5 5 5 5 5 5 5 5 5 5 5 5 6 5 5 5 5 5 5 6 5 6 5 5 5 5 5 5 6 5 6 6 5 5 5 5 5 6 5 5 5 5 5 5 5 6 5 6 5 5 5 6 5 5 5 5 5 5 5 5 5 5 5 5 5 5 5 5 5 5 5 5 5 5 5 5 5 5 6 5 6 5 5 5 6 5 5 5 5 6 5 5 5 5 5 5 5 5 5 5 5 5 5 5 5 5 5 5 5 5 5 5 5 5 5 5 5 5 6 6 5 5 5 5 6 6 5 5 5 6 6 5 5 5 5 5 5 6 5 5 5 5 6 5 5 5 6 5 5 6 5 5 5 6 5 5 6 6 5 6 5 5 5 5 5 5 6 5 5 5 6 5 5 5 5 5 6 5 5 5 5 5 5 5 5 5 5 5 5 5 5 5 5 5 5 5 5 5 5 5 5 5 5 5 5 5 5 5 5 5 5 5 5 5 5 5 5 5 5 5 5 5 5 5 5 5 5 5 5 6 5 5 5 5 5 5 5 5 5 5 5 5 5 5 5 5 5 5 5 5 5 5 5 5 5 5 5 5 5 5 5 5 5 5 5 5 5 5 5 6 5 6 5 6 6 5 6 5 5 5 6 5 5 6 5 5 6 6 5 5 5 6 5 5 5 5 5 5 5 5 5 5 5 5 5 5 5 5 5 5 5 5 5 5 5 5 6 5 5 5 5 5 5 5 6 5 5 5 5 6 5 5 6 5 5 5 5 5 6 5 5 5 5 6 5 5 5 5 5 6 5 5 5 5 5 5 5 5 6 5 5 5 5 5 5 5 5 5 5 5 5 5 5 5 5 5 5 5 5 5 5 5 5 5 5 5 5 5 5 5 5 5 5 5 5 5 5 5 5 5 5 5 5 5 5 5 5 5 5 5 6 5 5 5 5 5 5 5 5 5 5 6 5 5 5 5 6 5 6 5 5 5 5 5 5 6 5 5 5 5 5 5 5 5 6 5 5 6 5 5 5 5 5 6 5 5 5 5 5 5 5 5 5 6 5 5 6 5 5 5 5 5 5 5 5 5 5 6 5 5 5 5 5 5 5 6 5 5 5 5 5 5 5 5 5 5 5 5 5 5 5 5 5 5 5 5 5 5 5 5 5 5 5 5 5 5 5 5 5 5 5 5 5 5 6 6 5 5 5 5 5 5 6 5 5 5 5 5 5 5 5 5 5 5 5 5 5 5 5 5 5 5 5 5 5 5 5 5 5 5 5 5 5 5 5 6 5 5 5 6 5 5 6 5 5 5 5 5 5 5 5 5 5 5 5 5 5 6 6 5 6 5 6 5 5 5 5 5 6 5 5 5 5 5 5 5 5 5 5 5 5 5 5 6 5 5 6 6 5 6 5 5 5 5 5 5 5 5 5 5 5 5 5 5 5 5 5 5 5 6 5 6 5 5 5 5 6 5 5 5 5 5 5 5 5 5 5 5 5 5 5 5 5 6 6 5 6 5 5 5 6 5 5 6 5 5 5 6 5 6 5 5 5 5 5 5 5 5 6 5 5 6 5 5 5 6 5 5 6 5 5 6 5 6 5 6 5 6 5 5 5 5 6 5 5 6 6 5 5 6 5 6 5 5 5 6 6 5 6 5 5 5 6 5 5 5 6 5 6 5 5 6 5 6 5 5 6 5 5 5 6 5 5 5 5 5 6 6 5 6 5 5 5 5 5 5 5 5 5 5 5 5 5 5 6 5 6 5 5 5 6 5 5 5 5 5 5 5 5 5 5 5 5 5 5 5 5 5 5 5 5 5 5 5 5 5 5 5 5 5 5 5 5 5 5 5 5 5 5 5 5 5 5 6 5 5 5 5 6 5 5 5 6 5 6 5 5 5 6 5 5 5 5 5 5 5 5 6 5 5 5 5 5 6 5 5 5 5 5 5 5 5 5 5 5 5 5 5 5 5 5 5 5 5 5 6 5 5 5 6 5 5 5 5 5 5 5 5 5 5 5 5 5 5 5 5 5 5 5 5 5 5 5 5 5 5 5 5 5 5 5 6 5 5 5 5 6 5 5 5 5 6 5 5 5 5 5 5 5 5 5 5 5 5 6 5 5 5 5 5 5 5 5 5 5 5 5 6 5 5 6 5 5 6 5 6 5 5 6 5 5 6 5 5 5 5 6 5 5 5 5 5 5 5 5 6 5 5 5 6 5 5 5 5 5 6 5 5 6 5 5 5 5 5 5 5 5 5 5 5 5 5 5 5 5 5 5 5 5 5 5 5 5 5 5 5 5 6 5 5 5 5 6 5 5 5 6 6 5 5 6 5 5 5 5 5 5 6 5 5 5 5 5 5 5 5 5 5 5 5 6 5 5 5 6 5 5 5 5 5 5 5 5 5 5 5 5 5 5 5 5 5 5 5 5 5 5 5 5 5 5 5 5 5 5 5 5 5 5 5 5 5 5 6 5 5 5 5 5 5 5 5 5 5 5 5 5 5 5 6 5 5 5 5 5 5 5 5 5 5 5 5 5 5 5 5 5 5 5 5 5 5 5 5 6 5 5 5 6 5 5 5 5 6 5 5 5 5 5 5 6 5 5 5 5 5 5 5 5 5 5 5 5 6 5 6 5 5 5 5 5 5 5 5 5 5 5 5 5 5 5 5 5 5 5 5 5 5 5 5 5 5 5 5 5 5 5 5 5 5 5 5 5 5 5 5 5 5 5 5 5 5 5 5 5 5 5 5 5 5 5 5 5 5 5 5 5 5 5 5 5 5 5 5 5 5 5 5 5 5 5 5 5 5 5 5 5 5 5 5 5 5 5 5 5 5 5 5 5 5 6 5 5 6 5 6 5 5 5 5 5 5 5 5 5 6 5 6 5 5 5 5 5 5 5 5 5 5 5 5 5 5 5 6 5 5 5 5 5 6 6 6 5 5 5 6 5 5 5 5 5 5 5 5 5 5 5 5 5 5 5 5 5 5 5 5 5 5 6 5 5 6 5 5 5 5 5 5 6 5 5 5 5 5 5 5 5 5 5 5 5 5 5 5 5 5 5 5 5 5 5 5 5 5 5 5 5 5 5 5 5 5 5 5 5 5 5 5 5 5 5 5 5 5 5 5 5 5 5 5 5 5 6 5 5 5 6 5 5 5 6 5 5 5 5 6 5 5 5 5 5 6 5 5 5 5 5 5 5 5 5 5 5 5 5 5 5 5 5 5 5 5 5 5 5 6 5 5 5 6 5 5 5 5 5 5 5 5 5 5 6 5 5 5 6 5 5 5 5 5 5 5 5 5 5 5 5 5 5 5 5 5 5 5 5 5 5 5 5 5 5 6 5 5 5 5 6 5 5 5 5 5 5 6 5 5 5 5 5 5 5 5 5 5 5 6 5 6 6 5 5 5 5 5 6 5 5 5 5 5 5 5 5 5 5 5 5 5 6 5 5 5 5 6 5 5 5 5 5 5 5 5 5 5 5 5 6 5 5 5 5 5 5 5 6 5 6 5 5 5 5 5 5 5 5 5 5 5 6 5 6 5 5 5 5 5 5 5 6 5 5 6 5 6 5 5 5 6 5 5 6 5 5 5 5 5 5 5 5 5 5 6 5 5 5 5 5 5 5 5 5 5 6 5 5 6 5 5 5 6 5 5 5 5 5 5 5 5 5 5 5 5 5 5 5 6 6 5 5 5 6 5 5 5 6 5 5 5 5 5 6 5 5 6 5 5 5 5 5 5 5 5 5 5 5 6 5 5 6 5 5 5 5 5 5 5 5 5 5 5 6 5 5 5 5 5 5 5 5 5 5 5 5 5 5 5 5 6 5 6 5 5 6 5 5 5 6 5 5 5 5 6 5 5 5 5 5 5 6 5 5 5 5 5 5 6 5 5 5 5 5 5 5 5 5 5 5 5 5 5 5 6 5 5 5 5 5 5 6 5 5 5 5 5 5 5 5 5 5 5 5 5 5 5 5 5 5 5 5 5 5 5 5 5 5 5 5 5 5 5 5 5 5 6 5 5 5 5 5 5 5 5 5 5 5 6 5 5 5 5 5 5 5 5 5 5 6 5 6 5 6 5 6 6 6 5 6 5 6 5 5 5 6 5 5 5 5 6 5 5 5 6 5 5 6 6 6 5 6 5 5 5 6 5 5 5 5 5 5 5 5 5 5 5 5 5 5 5 5 5 5 5 5 5 5 5 5 5 6 5 5 5 5 5 5 5 5 5 5 5 5 5 5 5 5 5 5 5 5 5 5 6 5 5 5 5 5 5 5 5 5 5 5 5 5 5 5 5 5 5 5 5 5 5 5 5 5 5 5 5 5 5 5 5 5 5 5 5 5 5 5 5 5 5 6 5 5 6 5 5 5 6 5 5 5 6 5 5 5 5 5 6 6 5 5 5 5 6 5 5 5 6 6 5 5 5 5 5 5 5 5 5 5 5 6 6 5 5 5 5 5 5 6 6 5 5 5 6 5 5 5 5 6 5 5 5 5 5 6 6 5 5 6 5 5 6 5 5 6 5 5 5 6 5 5 6 6 5 5 5 5 6 5 5 5 5 5 5 5 6 5 5 5 5 6 5 5 6 5 5 5 5 5 5 5 5 5 5 5 5 6 5 5 5 5 5 5 5 5 5 5 5 5 5 5 5 5 5 5 5 5 5 5 5 5 5 5 5 5 6 5 5 5 6 5 5 5 5 5 5 5 5 5 5 5 5 5 5 5 5 5 5 5 5 5 5 5 5 5 5 5 5 5 5 5 5 5 5 5 5 6 5 5 6 6 5 5 5 5 6 5 5 5 6 5 5 5 5 6 5 5 5 5 6 5 5 5 6 5 5 5 5 6 5 5 6 6 5 5 5 5 6 5 5 5 6 5 5 5 5 5 5 5 5 5 5 5 5 5 6 5 6 6 5 5 5 5 5 5 5 6 6 5 5 5 5 5 5 5 5 5 5 5 5 5 5 5 5 5 6 5 5 6 5 5 5 5 6 5 5 5 6 5 6 5 5 5 6 5 5 5 5 5 5 5 5 5 5 5 5 6 5 5 5 5 6 5 5 5 5 6 5 5 5 5 5 5 5 5 6 5 5 5 5 6 5 5 5 6 5 5 5 5 5 5 5 6 5 6 5 5 5 5 6 5 5 6 5 5 5 5 5 6 5 5 5 5 5 5 5 5 5 5 5 6 5 5 5 5 6 5 5 5 6 5 5 5 5 5 5 6 5 5 5 5 5 5 5 5 5 5 5 5 5 5 5 5 5 6 5 5 5 5 5 5 5 5 5 5 5 5 5 5 5 5 5 5 5 6 5 5 5 5 5 5 5 5 6 5 5 5 6 5 5 5 5 5 6 5 5 5 5 6 5 5 5 6 5 5 5 5 5 5 6 5 5 6 5 5 5 5 6 5 5 5 5 5 6 5 5 5 6 5 5 5 5 5 5 5 5 5 5 5 5 5 5 5 5 5 5 5 5 5 5 5 5 5 5 5 5 5 6 5 5 5 5 5 5 5 6 5 5 5 5 5 5 5 5 5 5 5 5 5 6 5 5 5 5 5 5 5 5 5 5 5 5 5 5 6 5 5 5 5 5 5 6 5 5 6 6 5 5 5 5 5 5 6 5 5 5 5 5 5 5 5 5 6 5 5 5 6 5 5 5 5 5 5 5 6 5 5 5 5 5 5 5 5 5 5 6 5 6 5 5 5 6 5 5 5 5 5 5 5 5 5 5 6 5 5 5 5 5 5 5 5 5 5 5 5 5 5 5 6 5 5 5 5 5 5 5 5 5 5 5 6 5 5 5 5 6 5 5 5 5 5 5 6 5 6 5 5 5 5 5 6 5 5 6 5 5 5 5 5 5 5 5 5 5 5 6 5 5 6 5 6 5 5 5 5 5 5 5 5 6 5 5 5 5 5 5 5 5 5 5 6 5 5 5 5 5 5 5 5 5 5 5 5 6 5 5 5 5 5 5 5 5 5 5 5 5 5 5 5 5 5 5 6 5 5 6 6 5 6 5 6 6 6 5 6 5 5 5 5 5 5 5 6 5 6 6 6 5 5 5 5 5 5 5 5 5 5 5 5 5 5 5 5 5 5 5 5 6 5 5 5 5 5 5 5 6 5 5 5 6 5 5 5 6 5 5 5 6 6 5 5 5 5 5 5 5 5 5 5 5 5 6 5 6 6 5 6 5 5 5 5 5 5 5 6 6 5 5 5 5 5 6 5 5 5 6 5 5 5 6 5 5 5 5 6 5 5 5 5 5 5 6 5 6 5 5 5 6 5 5 6 6 5 5 6 6 5 5 6 5 6 5 5 6 6 5 6 6 5 6 5 5 5 5 5 6 6 5 5 5 5 5 5 6 5 5 5 5 5 5 5 6 5 5 6 5 5 5 5 5 5 6 5 5 5 5 5 5 6 6 5 6 5 5 6 5 5 5 5 5 5 5 5 5 5 5 5 5 5 5 6 5 5 5 5 5 5 5 5 6 5 5 5 5 5 6 5 5 6 5 6 5 5 5 5 6 5 6 5 5 5 5 6 5 5 5 5 6 5 5 5 6 5 5 5 5 6 6 6 5 5 6 5 5 5 5 5 6 5 5 5 6 5 5 5 5 6 6 5 6 5 5 5 6 6 6 5 6 5 5 5 5 6 5 5 6 5 5 5 5 5 5 5 5 6 5 6 5 5 5 5 5 5 6 5 5 5 5 5 6 5 5 5 5 5 5 5 5 5 5 6 5 5 6 5 5 5 5 5 5 6 5 6 5 5 5 6 6 5 5 5 5 5 5 6 5 5 5 6 5 5 5 5 5 5 5 6 5 5 5 5 5 5 5 5 5 5 5 5 5 5 5 5 5 5 5 5 5 5 5 5 5 5 5 5 5 5 5 5 5 5 5 5 5 5 5 5 5 5 5 5 5 5 5 5 5 5 5 5 5 5 5 5 5 5 5 5 5 5 5 5 5 5 5 5 5 5 5 5 5 5 5 5 5 5 5 5 5 5 6 5 5 5 6 5 5 5 5 5 5 5 6 5 5 6 5 5 5 5 5 5 5 5 5 6 5 5 5 5 5 5 5 5 6 5 5 5 5 5 5 5 5 5 6 5 5 5 6 5 5 5 5 5 5 5 5 5 5 5 5 5 5 6 5 5 5 5 5 5 6 6 5 5 5 5 5 6 5 5 6 5 5 5 5 5 5 5 5 5 5 6 5 5 5 5 5 5 5 5 5 5 5 5 5 5 5 5 5 5 5 5 6 5 5 5 5 6 6 5 5 5 6 5 5 5 5 5 5 5 6 6 5 5 5 5 6 5 5 5 5 5 5 5 5 5 5 5 6 5 5 5 6 5 5 5 5 5 5 5 5 5 5 6 5 6 5 5 5 5 5 5 5 5 5 5 5 5 5 5 5 5 5 5 5 5 5 5 5 5 5 5 5 5 5 5 5 5 5 5 5 5 5 5 5 5 5 5 5 5 5 5 5 5 5 5 5 5 5 5 5 5 5 5 5 5 5 5 5 5 5 5 5 5 5 5 5 5 5 5 5 5 5 5 5 5 5 5 5 5 5 5 5 5 5 5 5 5 5 5 6 5 5 5 5 5 5 5 5 5 5 6 5 5 5 5 5 5 5 5 5 6 5 5 5 6 5 5 5 5 5 5 5 5 5 5 5 5 5 5 5 5 5 5 5 5 5 5 5 5 5 6 5 5 5 5 5 5 5 5 6 5 6 5 5 5 5 5 6 5 5 5 5 5 5 5 5 5 6 5 5 5 6 5 5 6 5 5 5 5 5 5 5 5 5 5 5 5 5 5 5 5 5 6 5 5 5 5 6 5 5 5 5 5 5 5 5 5 6 5 5 5 5 5 5 6 5 5 5 6 5 5 5 5 6 5 5 5 6 5 6 5 5 5 6 5 5 5 5 5 5 5 5 5 5 5 5 5 5 5 5 5 6 5 5 5 5 5 5 5 5 5 5 5 5 5 5 5 5 5 5 5 5 5 5 5 5 5 5 5 5 5 5 5 5 5 5 5 5 5 5 5 5 5 5 5 5 5 5 5 5 5 5 5 5 5 5 5 5 5 5 5 5 5 5 5 5 5 5 5 5 5 5 5 5 5 5 5 5 5 5 5 5 5 5 5 5 5 5 5 5 5 5 5 5 5 5 5 5 5 5 5 5 5 5 5 5 5 5 5 5 5 5 5 5 5 5 5 5 5 5 5 5 5 5 5 5 5 5 5 5 5 5 6 5 5 5 5 6 6 5 5 5 5 6 5 6 5 5 5 6 6 6 5 5 5 5 5 5 5 6 5 5 5 6 5 5 5 5 5 5 5 5 5 5 5 5 5 5 6 5 5 5 5 5 5 5 5 5 5 5 5 5 5 5 6 5 5 5 5 6 5 6 5 5 5 5 5 5 5 5 5 5 5 6 5 5 5 5 5 6 5 5 6 5 5 5 6 5 5 5 6 5 5 6 5 6 5 5 5 5 5 5 5 5 6 5 5 5 6 5 5 6 5 5 6 6 5 5 5 5 5 5 6 5 6 5 5 5 5 6 5 5 5 5 5 5 5 6 5 5 5 5 6 5 5 5 5 5 5 5 5 5 5 5 5 5 5 5 5 5 5 5 5 5 5 5 5 5 5 6 5 5 
</DataArray>
<DataArray type="Float64" Name="stress" NumberOfComponents="9" format="ascii">
-63.924390703433723 -78.024617153071176 0 -78.024617153071176 499.47443879308139 0 0 0 0 -0.066677721589781636 -37.118822649189042 0 -37.118822649189042 319.58047544470719 0 0 0 0 18.670673727560683 -54.78594661894806 0 -54.78594661894806 160.49114299460052 0 0 0 0 13.475970624040045 -39.661688194831299 0 -39.661688194831299 224.6676806074247 0 0 0 0 26.101883781079007 -60.84144460781863 0 -60.84144460781863 139.9062900107856 0 0 0 0 18.638743641198026 -80.717581054636867 0 -80.717581054636867 130.33676124151862 0 0 0 0 36.138995259318008 -68.614231309488787 0 -68.614231309488787 95.627249732016935 0 0 0 0 26.858307413840119 -51.169677796031465 0 -51.169677796031465 130.94171891965561 0 0 0 0 19.127391080523054 -91.556966354590259 0 -91.556966354590259 174.13984795986471 0 0 0 0 43.64014522126601 -83.299442196462223 0 -83.299442196462223 130.90350843776287 0 0 0 0 24.252245664387246 -46.629594280635501 0 -46.629594280635501 110.29037338007674 0 0 0 0 34.422146157934087 -115.05019372831794 0 -115.05019372831794 183.25708533592751 0 0 0 0 27.130490661938666 -104.44207668878516 0 -104.44207668878516 189.49861868348125 0 0 0 0 -16.970183066785669 -108.10166409687372 0 -108.10166409687372 352.20392886492573 0 0 0 0 -39.558278989329253 -128.16399912103861 0 -128.16399912103861 351.00151949912379 0 0 0 0 26.395600792718476 -106.98434501743668 0 -106.98434501743668 206.60383113020907 0 0 0 0 -20.006798492347095 -195.24890172029654 0 -195.24890172029654 499.40030308288306 0 0 0 0 137.4898609434868 -287.45704912589008 0 -287.45704912589008 351.44126479096303 0 0 0 0 0.15471550821775792 -0.017867254819925904 0 -0.017867254819925904 0.14423508729392509 0 0 0 0 214.51270241697364 -277.82780009248586 0 -277.82780009248586 186.99344241590734 0 0 0 0 -0.32826074170344749 65.465897702969414 0 65.465897702969414 499.43038830445585 0 0 0 0 0.2929653811949593 -2.6111463363049161 0 -2.6111463363049161 2.218892543209769 0 0 0 0 -58.88515532329378 -46.964699126676351 0 -46.964699126676351 491.51031435754322 0 0 0 0 1.4704042762146452 -1.4151239472446608 0 -1.4151239472446608 0.92139871395142947 0 0 0 0 -0.59786310819599409 -0.47888853617937599 0 -0.47888853617937599 0.89394269730919973 0 0 0 0 248.75937438749091 -20.928265510938274 0 -20.928265510938274 2.8694094115453481 0 0 0 0 31.381210008754891 16.15777744620209 0 16.15777744620209 10.315495225406266 0 0 0 0 30.494689330374285 90.998959906091841 0 90.998959906091841 7.9888452262193823 0 0 0 0 -0.033515242603418871 -1.2785336746943621 0 -1.2785336746943621 0.71971234146177565 0 0 0 0 22.47776966687104 -104.57054384301864 0 -104.57054384301864 78.070227945664101 0 0 0 0 0.69681278839453853 -4.5496083936222931 0 -4.5496083936222931 0.8774722985367589 0 0 0 0 1.6459462855329652 -2.4141025857844021 0 -2.4141025857844021 2.0275124337222188 0 0 0 0 -31.188545934722868 -57.202571239199415 0 -57.202571239199415 68.026401869168694 0 0 0 0 -6.2158917938215552 -9.7749148949355913 0 -9.7749148949355913 78.39780977933151 0 0 0 0 20.18432064386775 49.081587634691459 0 49.081587634691459 43.883484384648 0 0 0 0 11.150290006946477 4.9992150428297464 0 4.9992150428297464 9.4142211459256941 0 0 0 0 16.994301946535359 -1.1383001817921468 0 -1.1383001817921468 -2.1168139587025507 0 0 0 0 -15.131212169966034 37.727961173990025 0 37.727961173990025 1.6419099735212512 0 0 0 0 0.25541656742323315 0.41099206447573522 0 0.41099206447573522 0.667005481251568 0 0 0 0 -0.87981117606057024 -0.51185454906898897 0 -0.51185454906898897 -0.19184477545658041 0 0 0 0 7.0174946775402987 -42.513257974980661 0 -42.513257974980661 73.235771085611304 0 0 0 0 -21.052572632853526 -8.213806477043363 0 -8.213806477043363 31.496727522787296 0 0 0 0 -0.33650515355623423 -0.21678571265371005 0 -0.21678571265371005 0.028291804830072209 0 0 0 0 -23.873349482810681 16.421632483561552 0 16.421632483561552 101.0190444295813 0 0 0 0 4.2984786408762261 -56.025224624014299 0 -56.025224624014299 122.20703227024387 0 0 0 0 26.061585863146725 -78.139107149618297 0 -78.139107149618297 119.27832933505488 0 0 0 0 51.194480196039422 -135.46913701361518 0 -135.46913701361518 180.85619432042404 0 0 0 0 18.022024671056386 -35.685058555083742 0 -35.685058555083742 78.893359682038408 0 0 0 0 103.43385883444992 -73.08236648805655 0 -73.08236648805655 68.830002084498119 0 0 0 0 17.093493672751379 13.997145451969118 0 13.997145451969118 -0.11210240335822164 0 0 0 0 7.0578354226471447 18.315302534398143 0 18.315302534398143 -13.683773223601747 0 0 0 0 0.8356008861134403 1.3153777712933987 0 1.3153777712933987 1.8199229911798902 0 0 0 0 -15.223069633993873 2.2939484197222555 0 2.2939484197222555 24.344684963273721 0 0 0 0 78.149296720532931 -87.099070650788235 0 -87.099070650788235 83.366732390788457 0 0 0 0 27.10929264239509 -21.236156547629434 0 -21.236156547629434 54.81338524350349 0 0 0 0 1.2806369267743964 2.0563821618589628 0 2.0563821618589628 2.7679591785141326 0 0 0 0 62.516768682860743 -41.21517105996827 0 -41.21517105996827 30.517849952058896 0 0 0 0 38.531296012553497 -6.1559611458014842 0 -6.1559611458014842 21.422781151193703 0 0 0 0 -1.5211669554926326 -0.5890351905829192 0 -0.5890351905829192 0.63985142406911422 0 0 0 0 1.0042729509353876 -45.746917485344056 0 -45.746917485344056 82.562313435209944 0 0 0 0 -9.667511851874508 -32.970055838081862 0 -32.970055838081862 75.045483724403311 0 0 0 0 13.704503716027659 -53.758265452739579 0 -53.758265452739579 79.705274523432308 0 0 0 0 8.6429028125783134 -64.069881505252852 0 -64.069881505252852 101.92791201399268 0 0 0 0 15.388060886192079 -35.929786667555163 0 -35.929786667555163 87.67616201609053 0 0 0 0 41.525480263222107 -43.228641137477098 0 -43.228641137477098 72.259759337849118 0 0 0 0 -6.6540776206080636 6.6075781174877193 0 6.6075781174877193 221.80495560925738 0 0 0 0 19.174648168918452 -79.882799095032169 0 -79.882799095032169 186.52899243330467 0 0 0 0 12.063019305774333 -51.460048525877028 0 -51.460048525877028 103.77809228880324 0 0 0 0 3.4244295157564579 -34.605753127647404 0 -34.605753127647404 165.49058494477049 0 0 0 0 58.468484252630148 -2.8481635822499811 0 -2.8481635822499811 113.2361730213961 0 0 0 0 93.493138913911139 -68.374033173882708 0 -68.374033173882708 90.543494333334252 0 0 0 0 -3.0855619654524844 -42.926169819314055 0 -42.926169819314055 107.09508224122874 0 0 0 0 5.6012499474633159 -45.840023352350727 0 -45.840023352350727 84.561461011297069 0 0 0 0 20.275238981437724 -52.100767528929282 0 -52.100767528929282 86.471713332111904 0 0 0 0 -0.96839977239537234 -43.121446151529199 0 -43.121446151529199 88.976952980352507 0 0 0 0 -6.9058820296133945 -51.487732102097652 0 -51.487732102097652 98.041139589964587 0 0 0 0 -0.69140636794270449 -51.931081962296957 0 -51.931081962296957 96.923988625594575 0 0 0 0 -0.89410909447212816 -50.187678667518412 0 -50.187678667518412 86.654962689832246 0 0 0 0 -8.0704625045081002 -53.750611686715274 0 -53.750611686715274 124.48070747966631 0 0 0 0 -5.8982671442353194 14.207301728785751 0 14.207301728785751 109.34426149133469 0 0 0 0 -12.213442216997578 -37.264931760368199 0 -37.264931760368199 84.148404052537444 0 0 0 0 -11.502132610259721 -37.534149662673371 0 -37.534149662673371 83.559788961185404 0 0 0 0 16.709342111015076 -17.045453365404683 0 -17.045453365404683 24.355316480276088 0 0 0 0 1.3438652628371415 -38.725293746715579 0 -38.725293746715579 73.16311931682867 0 0 0 0 -18.453054630102599 -19.702315628674114 0 -19.702315628674114 68.831662106949807 0 0 0 0 -5.5199477365443954 -9.7016135160511112 0 -9.7016135160511112 23.523021393708405 0 0 0 0 0.33053078813486902 -0.47494123067602789 0 -0.47494123067602789 0.1555180227109787 0 0 0 0 -17.076998831529124 5.0620723089887179 0 5.0620723089887179 4.834137556155838 0 0 0 0 2.9222747392584125 -8.2442894537671236 0 -8.2442894537671236 37.350441020367725 0 0 0 0 6.3190153531353417 -6.7788124010676256 0 -6.7788124010676256 37.738675646509364 0 0 0 0 1.8187518885487703 -1.5475627320237635 0 -1.5475627320237635 1.1267435365740681 0 0 0 0 -13.055684930153461 -10.516729260206375 0 -10.516729260206375 0.84819954596332536 0 0 0 0 -7.3207968177257499 -1.010033117331659 0 -1.010033117331659 7.879796308632649 0 0 0 0 -6.4634765233981852 2.5470888282561646 0 2.5470888282561646 2.9548201451889327 0 0 0 0 -0.29753796514943676 -1.1265819460261586 0 -1.1265819460261586 2.6374603037225057 0 0 0 0 -0.85015267443151288 0.72196520735883496 0 0.72196520735883496 4.6646977560685627 0 0 0 0 0.22697467181176023 -0.2140134373770195 0 -0.2140134373770195 0.33618015185783534 0 0 0 0 6.6649345477534894 -10.080718648851871 0 -10.080718648851871 -4.4949986185993112 0 0 0 0 -8.5958952466672258 -51.548140348134439 0 -51.548140348134439 91.550119599396567 0 0 0 0 62.314067331315925 -75.28051884992874 0 -75.28051884992874 60.003297660459793 0 0 0 0 34.462046321502783 -29.04087673531194 0 -29.04087673531194 18.959085198193861 0 0 0 0 13.448217520346958 -93.659411027504575 0 -93.659411027504575 136.88200997449712 0 0 0 0 44.688319877669642 -26.043552927809287 0 -26.043552927809287 -23.226301628043075 0 0 0 0 -12.81605268702333 3.9444246946313797 0 3.9444246946313797 21.407111336416165 0 0 0 0 0.86091652064824054 -0.44845726773679573 0 -0.44845726773679573 0.34166461666415415 0 0 0 0 8.7953271555944355 1.3843318895287666 0 1.3843318895287666 13.107743562159158 0 0 0 0 -4.017870441670766 10.050168381454569 0 10.050168381454569 13.664337813188695 0 0 0 0 0.43676103374536979 7.2779614383871376 0 7.2779614383871376 0.39909159359012847 0 0 0 0 -7.1546697019296062 5.7512142514715379 0 5.7512142514715379 8.057021164411708 0 0 0 0 4.5534245452670348 12.201992934498776 0 12.201992934498776 5.493620792771253 0 0 0 0 -19.967094127272503 -38.335340110337711 0 -38.335340110337711 11.083201347559225 0 0 0 0 0.0099249788622388646 0.19507187204631293 0 0.19507187204631293 -0.35891021558143166 0 0 0 0 13.132806257933055 -14.664981020720916 0 -14.664981020720916 33.966004810268714 0 0 0 0 6.3523835045668875 0.93238686028780648 0 0.93238686028780648 27.527497862802193 0 0 0 0 -15.486580602486526 -31.164434297088519 0 -31.164434297088519 -2.9045928041668958 0 0 0 0 17.087143426376343 -29.890732375678454 0 -29.890732375678454 45.202258319453904 0 0 0 0 -15.229501199442154 -24.434898024524045 0 -24.434898024524045 59.13706564149652 0 0 0 0 28.142786203879879 -60.334577196389546 0 -60.334577196389546 93.855596228235299 0 0 0 0 2.4840699573323946 -74.290272698005765 0 -74.290272698005765 87.338980743315915 0 0 0 0 31.779241343495066 -88.496092246067747 0 -88.496092246067747 121.5771989986838 0 0 0 0 32.033569605914529 -55.431974309826273 0 -55.431974309826273 65.059521982069782 0 0 0 0 39.133525313982886 -38.702812705612359 0 -38.702812705612359 103.63359046028199 0 0 0 0 31.290435873894928 -115.64845946871083 0 -115.64845946871083 218.89632504724432 0 0 0 0 59.14353716946156 -63.574359527037359 0 -63.574359527037359 110.77177016800124 0 0 0 0 -24.177530648823627 6.2317690273439439 0 6.2317690273439439 55.00879904910289 0 0 0 0 -0.05351171289798988 0.16006388852525433 0 0.16006388852525433 0.68136275732442186 0 0 0 0 0.046481733996391508 -12.559942600867089 0 -12.559942600867089 34.137272304727503 0 0 0 0 3.9377350593424936 -40.815522223326298 0 -40.815522223326298 113.10935092351428 0 0 0 0 -2.4523879852954078 -13.272113955803434 0 -13.272113955803434 53.049647382085823 0 0 0 0 6.3428824733354467 -43.405242046368585 0 -43.405242046368585 118.65813809613974 0 0 0 0 26.035099052621142 -72.546424511290752 0 -72.546424511290752 120.02404609484984 0 0 0 0 26.092704680685806 -37.361873840839507 0 -37.361873840839507 76.960611311111279 0 0 0 0 0.094771067789812022 -0.07602302763758928 0 -0.07602302763758928 0.0091612004528549562 0 0 0 0 11.47902647631564 -57.288333053096721 0 -57.288333053096721 101.95921543239274 0 0 0 0 -0.10489028780533927 0.011342878176950677 0 0.011342878176950677 1.1355834819845683 0 0 0 0 28.30879497582621 -23.98751058625362 0 -23.98751058625362 45.795105355040505 0 0 0 0 -1.7877877533802078 5.5188953709439375 0 5.5188953709439375 8.1535993047509692 0 0 0 0 -0.071416924964929962 1.2937508334653387 0 1.2937508334653387 2.5030128811902301 0 0 0 0 -1.4459342674277647 -11.820908174087094 0 -11.820908174087094 91.089195797219872 0 0 0 0 4.7452477401315001 -45.622020805156126 0 -45.622020805156126 84.604228427915587 0 0 0 0 -0.07842729587731323 0.71628241824723915 0 0.71628241824723915 1.6532412140885597 0 0 0 0 7.2789800732127983 8.9996842437908526 0 8.9996842437908526 0.8305531087298732 0 0 0 0 -7.9041086504880766 -10.665592088689664 0 -10.665592088689664 16.727826435610041 0 0 0 0 67.018536088804979 139.75994369374177 0 139.75994369374177 121.18979105897051 0 0 0 0 0.2443295657177863 0.8982521198541793 0 0.8982521198541793 1.870235835185575 0 0 0 0 79.193081165496466 -85.646908628596975 0 -85.646908628596975 96.383058391822487 0 0 0 0 110.97383303258502 46.544518898491333 0 46.544518898491333 9.6686699200957662 0 0 0 0 2.308877767312854 -8.8749642931206836 0 -8.8749642931206836 303.41532710684578 0 0 0 0 -69.633269695971364 20.855986804001986 0 20.855986804001986 343.19012569111874 0 0 0 0 40.579161336550527 23.646419040081355 0 23.646419040081355 324.05938819497078 0 0 0 0 -21.554067119391263 65.095156171357303 0 65.095156171357303 499.89155901764479 0 0 0 0 -92.118309181294364 -32.278548373022204 0 -32.278548373022204 370.21192749168358 0 0 0 0 -21.11708019523487 124.58461294905646 0 124.58461294905646 357.77562909860353 0 0 0 0 61.134799448585667 97.606571418519877 0 97.606571418519877 329.57604077924952 0 0 0 0 -20.634794720386985 167.80785216213349 0 167.80785216213349 500.09673188162014 0 0 0 0 56.731411946338554 152.50800513617446 0 152.50800513617446 207.86257468680196 0 0 0 0 -14.135137943611539 53.051057103671383 0 53.051057103671383 214.16857848197014 0 0 0 0 20.610624842072742 29.678756837938806 0 29.678756837938806 71.361747428945819 0 0 0 0 -15.17439191735518 96.077167941061816 0 96.077167941061816 342.29168922721419 0 0 0 0 27.368923116532013 79.96904636301997 0 79.96904636301997 242.77250532367725 0 0 0 0 10.113158442330501 -48.960401526900569 0 -48.960401526900569 49.283758614744329 0 0 0 0 -0.35218194820677079 0.2804016039389392 0 0.2804016039389392 0.78712659828968867 0 0 0 0 28.584061582491934 -2.2545943113227622 0 -2.2545943113227622 1.6466263647398591 0 0 0 0 13.862046998214556 -17.636214814400773 0 -17.636214814400773 5.6419395315670045 0 0 0 0 24.547868834056061 -14.12773225221099 0 -14.12773225221099 5.2476491805027763 0 0 0 0 20.123653529562336 -54.337238036410668 0 -54.337238036410668 30.148926457033667 0 0 0 0 -83.6648696157431 48.531086769539797 0 48.531086769539797 39.939815507799722 0 0 0 0 102.85833379602008 -92.971130820109011 0 -92.971130820109011 97.896450111580634 0 0 0 0 88.49520852236617 -8.1565534666597159 0 -8.1565534666597159 26.038768521561906 0 0 0 0 61.325616969440659 1.1661166907379084 0 1.1661166907379084 -8.8485563904168885 0 0 0 0 1.3378777138542834 -4.370986133646042 0 -4.370986133646042 12.240521566438758 0 0 0 0 -191.35208703508852 -105.27857415548442 0 -105.27857415548442 161.27238908369327 0 0 0 0 162.76324281307541 328.55563795752073 0 328.55563795752073 499.08646724964001 0 0 0 0 299.45677158366658 -180.07144437468196 0 -180.07144437468196 -61.694465715732804 0 0 0 0 1.1702896985461428 -1.7106523703194068 0 -1.7106523703194068 4.8588557101144261 0 0 0 0 64.506679071028927 -484.00300764709436 0 -484.00300764709436 495.26857950554768 0 0 0 0 176.32883802755478 -73.1948461178863 0 -73.1948461178863 -112.47870772035822 0 0 0 0 197.15937742766582 -115.82268931200269 0 -115.82268931200269 -95.399813696965793 0 0 0 0 154.45945415916563 -44.416610620641677 0 -44.416610620641677 -37.083877955419666 0 0 0 0 -57.969906097931585 -25.529273623709742 0 -25.529273623709742 -15.872535447251721 0 0 0 0 138.27241292761818 -195.835796246271 0 -195.835796246271 102.37391203150401 0 0 0 0 -265.36925802240597 -66.925567923027302 0 -66.925567923027302 113.40166181805625 0 0 0 0 -39.24219534145368 3.6025102523990427 0 3.6025102523990427 29.381699654319164 0 0 0 0 -2.0583302181273311 0.31469479637163644 0 0.31469479637163644 0.99779043980163529 0 0 0 0 -152.37775147252444 85.45270007668887 0 85.45270007668887 -24.077461515062168 0 0 0 0 -2.3528237661210349 11.36716220783228 0 11.36716220783228 296.52274307488187 0 0 0 0 -9.136441163010824 -145.52496283294931 0 -145.52496283294931 499.92363887816771 0 0 0 0 -27.562043573708479 -20.962011705410987 0 -20.962011705410987 0.99712682419658449 0 0 0 0 -4.5998319287504001 -0.8360394622227858 0 -0.8360394622227858 1.7464318624514608 0 0 0 0 4.0616341455783909 -2.9246373318746244 0 -2.9246373318746244 1.3388740956103184 0 0 0 0 -6.1639038660191261 10.825108645572982 0 10.825108645572982 -21.87958020734095 0 0 0 0 36.257496872034324 -50.993099367440664 0 -50.993099367440664 39.423888238225118 0 0 0 0 0.66665902432290769 -0.70747040568731734 0 -0.70747040568731734 1.0018694966055577 0 0 0 0 -13.081861099402488 67.295953537493915 0 67.295953537493915 127.69110246714627 0 0 0 0 12.302258469858884 29.282508986731045 0 29.282508986731045 -7.764306635604953 0 0 0 0 2.1593919678582147 -0.76048117508230462 0 -0.76048117508230462 0.19804823120267656 0 0 0 0 35.628164528002799 -74.767047335035386 0 -74.767047335035386 161.15565813843568 0 0 0 0 2.0254424526599237 -18.107157830120286 0 -18.107157830120286 71.608122718229424 0 0 0 0 65.954448619392338 -113.6128402483937 0 -113.6128402483937 147.40646799461001 0 0 0 0 59.469519186682248 -121.53206943626355 0 -121.53206943626355 149.25891152485929 0 0 0 0 51.950774222042696 -110.63403941629076 0 -110.63403941629076 199.06896469495041 0 0 0 0 125.13189921148572 -36.742680054356697 0 -36.742680054356697 61.778172455844469 0 0 0 0 77.151663595906655 -19.584299970177199 0 -19.584299970177199 151.14939818075072 0 0 0 0 81.824202526668955 -122.10664144857947 0 -122.10664144857947 175.2282353269793 0 0 0 0 -22.038696192023508 -34.435660439336061 0 -34.435660439336061 253.70095629308344 0 0 0 0 54.239116375546189 -53.5497961311994 0 -53.5497961311994 66.326728804486265 0 0 0 0 15.755557633987735 -45.682094385988421 0 -45.682094385988421 88.652160843485035 0 0 0 0 25.054170314359453 -50.843190701386447 0 -50.843190701386447 90.580523581906164 0 0 0 0 65.641486006283486 6.7373064346487581 0 6.7373064346487581 19.358343794561733 0 0 0 0 53.430605290075448 -11.483658078978806 0 -11.483658078978806 33.779090460830048 0 0 0 0 58.181175940617436 -30.126987423946048 0 -30.126987423946048 62.704018896902426 0 0 0 0 45.495583117923346 -17.801402946857252 0 -17.801402946857252 29.934431861962366 0 0 0 0 29.394885823927382 19.941789787757216 0 19.941789787757216 22.000283606568701 0 0 0 0 31.57273328787744 2.7003435576389165 0 2.7003435576389165 13.374242594494717 0 0 0 0 38.69794757447508 -7.6552487971680421 0 -7.6552487971680421 8.9811698724079179 0 0 0 0 28.721435853568863 -28.363648561473383 0 -28.363648561473383 42.479767204235031 0 0 0 0 15.742708402293772 -22.198860993716153 0 -22.198860993716153 43.823557992044925 0 0 0 0 10.194830436132008 -14.784214088343106 0 -14.784214088343106 1.6673530042226048 0 0 0 0 8.6101029246408665 2.9433938921765161 0 2.9433938921765161 3.0855659153894521 0 0 0 0 26.93238544802341 -8.8967406755818956 0 -8.8967406755818956 9.8082870143380205 0 0 0 0 18.116306378438026 6.3994462278287756 0 6.3994462278287756 -6.9506587543642127 0 0 0 0 7.6755594121584636 10.775707205315484 0 10.775707205315484 -3.9269700242552972 0 0 0 0 6.6386318480797968 12.188476988419097 0 12.188476988419097 -0.76395214305193804 0 0 0 0 19.367262265185559 1.5988858184573473 0 1.5988858184573473 14.105209969780844 0 0 0 0 27.956655463569575 5.6719559431503512 0 5.6719559431503512 -1.6272912185886526 0 0 0 0 8.6084340552377512 21.416003930302395 0 21.416003930302395 9.5432541431546269 0 0 0 0 -1.9876600303875875 11.593404825587641 0 11.593404825587641 2.9542523703087227 0 0 0 0 -7.1635890787550807 28.14877403024002 0 28.14877403024002 7.1249275441914506 0 0 0 0 -13.164676328352243 16.71748433960056 0 16.71748433960056 3.27221934814213 0 0 0 0 -13.323079693642828 22.982673948559011 0 22.982673948559011 3.1311370275907393 0 0 0 0 8.1182555629609965 13.260727433735156 0 13.260727433735156 -7.3393907041609054 0 0 0 0 7.42684202831947 13.380982984579532 0 13.380982984579532 -10.885735991158072 0 0 0 0 -9.3608269637924195 14.702062652799214 0 14.702062652799214 -4.1109587891951378 0 0 0 0 -11.03155466864979 10.482468805322242 0 10.482468805322242 -10.592331575531716 0 0 0 0 -25.943429477862537 15.222621358570905 0 15.222621358570905 -6.0332127829296951 0 0 0 0 0.37716301713121148 -0.91917819064419959 0 -0.91917819064419959 1.2235142569976034 0 0 0 0 11.60790934906629 -8.4925592815861819 0 -8.4925592815861819 0.099012647857307456 0 0 0 0 -45.534783943069442 23.809871280303923 0 23.809871280303923 -2.0911778591907932 0 0 0 0 0.46750202520765982 -1.0939658483809431 0 -1.0939658483809431 1.0712817384746245 0 0 0 0 -15.073996912844677 -13.941523613011668 0 -13.941523613011668 30.609145089969388 0 0 0 0 -27.029192162637628 11.047025775080328 0 11.047025775080328 -21.817855997374863 0 0 0 0 -46.382822874393696 10.940511144710399 0 10.940511144710399 -6.1254043006338179 0 0 0 0 -29.088919073480611 17.85978823354526 0 17.85978823354526 -4.5439780289379996 0 0 0 0 -26.342567398671463 21.552198059342118 0 21.552198059342118 -2.3707852397783427 0 0 0 0 -31.330488724469205 17.323733312063268 0 17.323733312063268 1.5256481228825578 0 0 0 0 -30.140147263813105 19.655681587079016 0 19.655681587079016 -4.4188593602120818 0 0 0 0 -38.841729142617737 24.164806872454392 0 24.164806872454392 -5.1026825600820302 0 0 0 0 -41.62709569043318 18.749744758599263 0 18.749744758599263 -1.3405856758690788 0 0 0 0 -32.088451172112855 21.655313579503854 0 21.655313579503854 1.9699615875026666 0 0 0 0 -39.360699277580693 16.255141023355463 0 16.255141023355463 -8.2146790005972434 0 0 0 0 -38.899079071687652 18.543036280969318 0 18.543036280969318 1.3519555768507416 0 0 0 0 -26.253852054177969 14.113989734887582 0 14.113989734887582 -0.6042513585271081 0 0 0 0 -28.205390603361593 15.756554657515153 0 15.756554657515153 3.5015524099346749 0 0 0 0 -28.478285640014846 19.331224951582271 0 19.331224951582271 5.5821361080015777 0 0 0 0 -43.901857123782065 15.254632155465515 0 15.254632155465515 10.522040060117433 0 0 0 0 -39.09695533583681 19.017344431953461 0 19.017344431953461 12.839235260446003 0 0 0 0 -35.165787479946175 14.770487756875809 0 14.770487756875809 2.7000715983895134 0 0 0 0 -41.164087563019621 13.039097856928493 0 13.039097856928493 11.04971857415012 0 0 0 0 -36.559880613157134 21.622096430869078 0 21.622096430869078 15.16488545856555 0 0 0 0 12.178033581880754 6.5741800258401781 0 6.5741800258401781 12.892455051671959 0 0 0 0 3.0725424904835563 32.833931338995171 0 32.833931338995171 14.552312428066216 0 0 0 0 20.787463801358172 1.7406722810719657 0 1.7406722810719657 48.223916475328224 0 0 0 0 29.175976756200726 29.063183628127831 0 29.063183628127831 15.010693279522457 0 0 0 0 -50.452521670453848 29.676030518015978 0 29.676030518015978 29.727590812472954 0 0 0 0 -57.355768035173696 0.40921134119571434 0 0.40921134119571434 9.5589401205270406 0 0 0 0 1.2050189100514137 -5.2103710565459487 0 -5.2103710565459487 15.503275641813616 0 0 0 0 -20.731534242658928 -37.110165167435298 0 -37.110165167435298 23.568709320423295 0 0 0 0 -31.014800069037946 -23.97165168650281 0 -23.97165168650281 8.3756136252486613 0 0 0 0 -134.44335647832372 -13.597944734999828 0 -13.597944734999828 44.318379986389118 0 0 0 0 -1.0701498408271237 -4.0533294293514111 0 -4.0533294293514111 2.3693069504102056 0 0 0 0 13.287269194010161 -11.393677700440094 0 -11.393677700440094 4.694174935919591 0 0 0 0 14.357903527770535 -2.4836648292848622 0 -2.4836648292848622 3.1178831896595511 0 0 0 0 -0.66726981647780093 -0.64354834438267705 0 -0.64354834438267705 0.46148812307774278 0 0 0 0 -11.71690198383498 -23.383744137347094 0 -23.383744137347094 -0.84259078173590751 0 0 0 0 0.69249168067709332 -0.13145109863171456 0 -0.13145109863171456 3.0444700968473626 0 0 0 0 -0.4496483184357527 -1.4665803080511237 0 -1.4665803080511237 1.3246784063623593 0 0 0 0 3.1393876042988751 -14.603701245439879 0 -14.603701245439879 3.9187149480330845 0 0 0 0 -1.006909031423902 -2.6836815572378327 0 -2.6836815572378327 5.5837159687343956 0 0 0 0 0.30682692891696206 -0.79534038065958157 0 -0.79534038065958157 5.3215060767424802 0 0 0 0 -3.5774505590435126 -0.94092953789777312 0 -0.94092953789777312 7.2919100377348514 0 0 0 0 -48.8963907151591 16.597752030139873 0 16.597752030139873 15.963380933259032 0 0 0 0 -1.0089553354041705 -1.4611086315205561 0 -1.4611086315205561 9.6998439656383084 0 0 0 0 -55.46767687489637 12.701391435102778 0 12.701391435102778 14.48262091208926 0 0 0 0 -0.89229473161318928 -0.1984025684068067 0 -0.1984025684068067 8.7131734178498412 0 0 0 0 -43.913543319182843 14.916249805193445 0 14.916249805193445 1.8229487986682216 0 0 0 0 -2.3368769953484412 0.42153802888448766 0 0.42153802888448766 9.4773824966612352 0 0 0 0 -0.92964191111222183 -1.8433486170315501 0 -1.8433486170315501 5.7190314129260749 0 0 0 0 -2.6754736009858604 -1.3485024825167784 0 -1.3485024825167784 4.9093264339026064 0 0 0 0 -0.38327526490758257 -1.8213681540437392 0 -1.8213681540437392 3.5606872857333656 0 0 0 0 -1.0719290390852052 -0.64196030751372746 0 -0.64196030751372746 7.5268840876160539 0 0 0 0 -51.001659732353119 17.379041920876261 0 17.379041920876261 4.0283842877543066 0 0 0 0 -0.57214120960468384 -1.5054042022756695 0 -1.5054042022756695 5.2694774592480513 0 0 0 0 0.5744456245085694 -2.6493743771165068 0 -2.6493743771165068 4.8327337393249863 0 0 0 0 -0.47483133936426142 -0.57010069586243972 0 -0.57010069586243972 6.9790860060617632 0 0 0 0 -2.5893656939269363 -0.43182005227754416 0 -0.43182005227754416 8.9516151680873008 0 0 0 0 -0.95042313371413201 0.83643747351260345 0 0.83643747351260345 8.3752913324751717 0 0 0 0 -3.7258274609818045 0.34772444030386396 0 0.34772444030386396 9.2858345573376937 0 0 0 0 -3.378273115349657 -0.97250218482167838 0 -0.97250218482167838 8.6415550771744165 0 0 0 0 -1.542849349843209 1.2943754865914343 0 1.2943754865914343 9.123996015119701 0 0 0 0 -0.75046450288459887 -1.2889511964184415 0 -1.2889511964184415 4.7275710445630885 0 0 0 0 -1.3268506761624508 0.88101339657714561 0 0.88101339657714561 7.1493150899914326 0 0 0 0 0.17559752166812359 -1.2164708681348202 0 -1.2164708681348202 9.6067743288490419 0 0 0 0 -0.11360542687199238 -2.0932822159153179 0 -2.0932822159153179 4.7519459241123414 0 0 0 0 -2.3121384475465447 -1.046256404970336 0 -1.046256404970336 5.726466131676716 0 0 0 0 -0.40953676525096766 -1.2435280456383433 0 -1.2435280456383433 5.8631035501020818 0 0 0 0 -2.5677047444881396 -4.5108564892880167 0 -4.5108564892880167 6.5384324764127086 0 0 0 0 -0.62826817691093595 -1.5011077746062256 0 -1.5011077746062256 6.2535665024024638 0 0 0 0 -1.1168885169202554 -1.4098352288001479 0 -1.4098352288001479 6.2697143557236359 0 0 0 0 0.57630254878466758 -4.1730534355938289 0 -4.1730534355938289 7.5951511302859558 0 0 0 0 -0.97772804906816191 -1.0794300352590653 0 -1.0794300352590653 7.8531092560233446 0 0 0 0 -0.81226184721168693 -0.68642932737111551 0 -0.68642932737111551 12.869075972512292 0 0 0 0 0.76076726051874033 -6.0086831713891797 0 -6.0086831713891797 10.61242912684429 0 0 0 0 -0.10143076652824923 -0.29545129763591582 0 -0.29545129763591582 0.59094365517230685 0 0 0 0 -2.2556482236410318 -1.5679222284948082 0 -1.5679222284948082 6.0830174864132829 0 0 0 0 -0.10396637796988273 -2.0502766358317785 0 -2.0502766358317785 6.0693789885808656 0 0 0 0 -0.53580443874361094 -4.5126252529487374 0 -4.5126252529487374 2.42060685299748 0 0 0 0 0.017017820673913775 -2.2656089880774744 0 -2.2656089880774744 1.9794554497859735 0 0 0 0 -1.0552966323986084 -0.5420689698271417 0 -0.5420689698271417 4.0153586182059371 0 0 0 0 11.515360529969374 -21.085465284211296 0 -21.085465284211296 6.0170293137441888 0 0 0 0 -1.5808195014360591 -1.0100893515858047 0 -1.0100893515858047 3.4495390346320107 0 0 0 0 -1.9850811449209118 -2.6920420701280818 0 -2.6920420701280818 2.1711131516913156 0 0 0 0 -20.344295548178621 60.866851166903416 0 60.866851166903416 70.02023309913784 0 0 0 0 14.797628831712643 -0.55318937369520427 0 -0.55318937369520427 9.9853194348070247 0 0 0 0 5.6282464569278083 5.2030351248271813 0 5.2030351248271813 8.5192902748603956 0 0 0 0 6.1004375883451694 -0.58659199418053731 0 -0.58659199418053731 10.966790592436155 0 0 0 0 3.2346563950598295 -13.470647040350286 0 -13.470647040350286 27.920751457360893 0 0 0 0 -6.3748653339094403 8.0280900755033144 0 8.0280900755033144 19.378191073715243 0 0 0 0 1.5397671621557549 -11.404491789527128 0 -11.404491789527128 27.970149781842338 0 0 0 0 1.7600965432330327 -12.601080457485295 0 -12.601080457485295 24.638161257929823 0 0 0 0 1.5306042698488938 -8.1541926553720714 0 -8.1541926553720714 33.041601716005971 0 0 0 0 2.1832093455959694 -7.0721211177356054 0 -7.0721211177356054 13.753638368110842 0 0 0 0 4.6541084317294263 -15.241605459974608 0 -15.241605459974608 29.153180822415379 0 0 0 0 6.7417519621766644 6.7868382836586534 0 6.7868382836586534 17.682633415473902 0 0 0 0 12.42056036444032 -4.9371252580885994 0 -4.9371252580885994 1.2479045817617589 0 0 0 0 4.2061136829734806 -15.332235837823646 0 -15.332235837823646 6.3452459498003009 0 0 0 0 -2.832210888415716 -0.54810747004921723 0 -0.54810747004921723 0.10753655532971607 0 0 0 0 -2.791598713042049 0.1552610274284234 0 0.1552610274284234 -1.9596007463696878 0 0 0 0 -1.0408385847589443 0.92033340324860546 0 0.92033340324860546 1.878718983356066 0 0 0 0 -1.3499569055654774 -1.6645150074546109 0 -1.6645150074546109 5.7720326130947797 0 0 0 0 -0.44478847457346316 -3.3742402972267023 0 -3.3742402972267023 3.9346783408139956 0 0 0 0 -1.1478503689385904 -1.1969948692652093 0 -1.1969948692652093 5.7109442751479591 0 0 0 0 -0.79158410896462117 -0.81247269859156646 0 -0.81247269859156646 3.2704952752563621 0 0 0 0 -1.1495671432903691 -1.368747837709634 0 -1.368747837709634 4.2189725548996648 0 0 0 0 -0.47765658934050814 -1.4105773605701488 0 -1.4105773605701488 4.4234640532347029 0 0 0 0 -0.37420757104750102 -1.2924637426981693 0 -1.2924637426981693 4.2717238108210402 0 0 0 0 4.6463112466460075 -0.70126939712463354 0 -0.70126939712463354 5.6537606297315506 0 0 0 0 3.4948397003910259 0.11002457903487084 0 0.11002457903487084 5.114075680350652 0 0 0 0 -1.0282183430581426 -1.2683494604480074 0 -1.2683494604480074 4.3002983967089676 0 0 0 0 -0.53801383126694291 -1.7062797086996522 0 -1.7062797086996522 3.5792169320827742 0 0 0 0 0.57780091693111824 0.42788710390429152 0 0.42788710390429152 1.0977392341153624 0 0 0 0 2.027847612080194 5.39331643098933 0 5.39331643098933 15.690032191514547 0 0 0 0 -0.22599138739087721 -2.514107133156358 0 -2.514107133156358 3.4654971788768307 0 0 0 0 1.53315898964388 3.4026458891303264 0 3.4026458891303264 23.410496323270308 0 0 0 0 0.36139322938980545 -0.03145476454574414 0 -0.03145476454574414 0.17569215449250208 0 0 0 0 -0.13245835648128823 -0.093775945640718561 0 -0.093775945640718561 1.1161813513674428 0 0 0 0 3.7213421321237092 0.84099608163887751 0 0.84099608163887751 3.5060311693793835 0 0 0 0 0.22503050067437913 -1.8773604788064393 0 -1.8773604788064393 1.8117719507185761 0 0 0 0 -0.05791430418184973 -1.7020473463817325 0 -1.7020473463817325 4.0249672172503779 0 0 0 0 0.31624202851339012 -0.98900367808641931 0 -0.98900367808641931 2.305036472271297 0 0 0 0 2.4291056432537061 -2.5759939231975295 0 -2.5759939231975295 3.91172061049474 0 0 0 0 5.4540998721465712 -1.4376802716424208 0 -1.4376802716424208 2.8730254150832479 0 0 0 0 1.5001546156698282 0.62224981872759599 0 0.62224981872759599 1.9618093271346879 0 0 0 0 1.9913230997298115 -0.85370137052996142 0 -0.85370137052996142 6.2778693293057586 0 0 0 0 1.8997905368285046 1.4513165379103157 0 1.4513165379103157 4.7478147950823768 0 0 0 0 0.83364978640781828 0.015311381627725495 0 0.015311381627725495 6.0657528487136005 0 0 0 0 -6.9703567981679981 1.2328170456871703 0 1.2328170456871703 8.311698493997028 0 0 0 0 -4.3972131725606545 2.9909247572711593 0 2.9909247572711593 5.4722436061965709 0 0 0 0 -0.58988741450459847 -0.92918665879300133 0 -0.92918665879300133 8.0660127692012935 0 0 0 0 -3.7315274680724997 1.573721635288166 0 1.573721635288166 7.0255624737237667 0 0 0 0 -2.7925726506507544 2.1564831892665097 0 2.1564831892665097 4.9200011843768152 0 0 0 0 -2.798150255710901 1.9766179447722152 0 1.9766179447722152 2.4688348366707942 0 0 0 0 -4.5970412728481733 -0.4290553378889399 0 -0.4290553378889399 1.9231102481735434 0 0 0 0 -13.120294808382752 -1.2303825496578611 0 -1.2303825496578611 6.2609529500277858 0 0 0 0 1.1146968669427224 0.58138800351298414 0 0.58138800351298414 3.2073487148663844 0 0 0 0 -3.7277487973177585 2.7314234573186695 0 2.7314234573186695 3.3109173832999659 0 0 0 0 4.666749473325126 3.2130450973827465 0 3.2130450973827465 1.6401614732403687 0 0 0 0 14.760462484888137 11.686921082106892 0 11.686921082106892 6.6192615764356333 0 0 0 0 -7.3631061929748114 20.879640285404548 0 20.879640285404548 20.640846525922825 0 0 0 0 -5.3366128757987781 7.0894543666054233 0 7.0894543666054233 6.1592921087085415 0 0 0 0 15.777856978646753 -0.59055100355089962 0 -0.59055100355089962 1.6621707978829932 0 0 0 0 0.24842690711072546 0.23843209691101919 0 0.23843209691101919 0.2386635109821249 0 0 0 0 3.8949261396143129 -2.9236026196103921 0 -2.9236026196103921 1.8726227918323275 0 0 0 0 3.2738603406071434 -23.738139660324123 0 -23.738139660324123 54.693081048679232 0 0 0 0 0.85825014939092625 -6.2634002257545944 0 -6.2634002257545944 8.1462024447264412 0 0 0 0 10.40225585377209 15.122529029718862 0 15.122529029718862 37.526282974038622 0 0 0 0 36.101341388279536 -11.880953188608146 0 -11.880953188608146 4.8725953693810879 0 0 0 0 -7.8585421619768567 -22.87129433388327 0 -22.87129433388327 33.720326835926926 0 0 0 0 -7.1082636832358617 0.99469059478542476 0 0.99469059478542476 6.1298344463357353 0 0 0 0 -0.86477760210402721 -0.58956996405140671 0 -0.58956996405140671 -2.0917581602352584 0 0 0 0 -1.7436318849320287 -2.8836423876346089 0 -2.8836423876346089 3.6379670231708587 0 0 0 0 -2.3583931234720694 -2.5588941478490597 0 -2.5588941478490597 4.8140310156977648 0 0 0 0 -2.0131063275216547 -3.2301820202883391 0 -3.2301820202883391 3.7446319819873679 0 0 0 0 -2.2465361651458124 -3.5364569702089739 0 -3.5364569702089739 2.9175869719838374 0 0 0 0 -2.1356066186439477 -2.9769192415476482 0 -2.9769192415476482 2.1365870997688035 0 0 0 0 -1.9542854640108089 -3.1103397191072872 0 -3.1103397191072872 2.2144049558773986 0 0 0 0 -2.0962791798472438 -2.3542720694733816 0 -2.3542720694733816 0.96466441136726644 0 0 0 0 -0.96004858870901444 -2.8711447208333993 0 -2.8711447208333993 2.4295771276338201 0 0 0 0 -1.0598959726962676 -3.1017946425199625 0 -3.1017946425199625 1.9354068822449335 0 0 0 0 -2.3608480905841134 -3.922892408005282 0 -3.922892408005282 5.2529852089155611 0 0 0 0 -2.1815386358952651 -1.9856878083883203 0 -1.9856878083883203 0.41199557165600709 0 0 0 0 -2.1879568896083583 -1.822310412011575 0 -1.822310412011575 2.1512083405351632 0 0 0 0 -5.6327036078859862 0.82382140998242903 0 0.82382140998242903 5.4857591598993167 0 0 0 0 -5.6647909701107793 -0.3012907055723133 0 -0.3012907055723133 12.022986708412645 0 0 0 0 -6.5268126996973024 -8.7014296707893664 0 -8.7014296707893664 14.325093372666743 0 0 0 0 -11.636391884385205 -0.90427447911679337 0 -0.90427447911679337 32.10380422342314 0 0 0 0 -23.157043652615243 9.1943205334591767 0 9.1943205334591767 17.998115122341915 0 0 0 0 -0.30850149325445897 -1.0306512936260595 0 -1.0306512936260595 9.9183700358315434 0 0 0 0 -2.3665245987433536 -4.0347933509567611 0 -4.0347933509567611 7.7215960778812587 0 0 0 0 2.5765911068153855 -6.0952753681176546 0 -6.0952753681176546 -0.069508927713286539 0 0 0 0 16.770183529727205 -22.500308717448206 0 -22.500308717448206 -34.694333469915364 0 0 0 0 -1.2270980088518399 20.528512703509932 0 20.528512703509932 76.03544979482831 0 0 0 0 0.033658357726739863 0.0015930038190985485 0 0.0015930038190985485 0.23147657290301282 0 0 0 0 -7.7447338116831475 4.4499932759272269 0 4.4499932759272269 35.251430597862054 0 0 0 0 -7.5892448527661145 6.8159163306754635 0 6.8159163306754635 30.672185984294629 0 0 0 0 27.705519220398855 -7.3206580497580944 0 -7.3206580497580944 -19.524755122080023 0 0 0 0 12.444728844623739 0.26687583893817646 0 0.26687583893817646 15.362908028735546 0 0 0 0 -0.11419646062334854 0.044093362037852302 0 0.044093362037852302 0.064305186562236827 0 0 0 0 -36.463227293648401 35.583595255004184 0 35.583595255004184 -3.0840589903000364 0 0 0 0 -22.069459297602862 21.506042056313163 0 21.506042056313163 -23.814307908770388 0 0 0 0 -10.593321061351674 11.107188982566186 0 11.107188982566186 3.7966544852206425 0 0 0 0 -21.195535382328444 24.745027113338438 0 24.745027113338438 -12.184265304496876 0 0 0 0 -36.507987884850536 20.555028219921951 0 20.555028219921951 18.597147254968149 0 0 0 0 -12.9734387785835 26.18601572282023 0 26.18601572282023 7.1339724575445871 0 0 0 0 5.2941433808684906 17.030302019717055 0 17.030302019717055 6.6969552667815151 0 0 0 0 -9.8328897130541861 12.921838299916089 0 12.921838299916089 5.8247262895019958 0 0 0 0 -11.087893281413699 10.460726121955304 0 10.460726121955304 22.588627982295293 0 0 0 0 -8.0387814521280916 4.0663964027448856 0 4.0663964027448856 13.875173371779965 0 0 0 0 -6.3436798318495224 5.8694296287554906 0 5.8694296287554906 5.2727658777293982 0 0 0 0 -6.3515418885442614 4.7238277055657818 0 4.7238277055657818 11.398338039007285 0 0 0 0 -4.5881157718309851 8.8582540456573042 0 8.8582540456573042 8.935427929585785 0 0 0 0 -4.5691006265299166 5.4438250980892917 0 5.4438250980892917 3.5706905571569223 0 0 0 0 -6.1647207768338603 4.2868148625530011 0 4.2868148625530011 -0.10787123705085833 0 0 0 0 -6.9907658563291477 6.8721759514123733 0 6.8721759514123733 2.9516060769165051 0 0 0 0 -7.9588294613492963 6.5002502485767764 0 6.5002502485767764 6.0576241710532486 0 0 0 0 -2.5025198374485171 6.3923151858871279 0 6.3923151858871279 5.6206548565805861 0 0 0 0 0.22362131444550037 -0.0083024056988243444 0 -0.0083024056988243444 -0.06848916429983376 0 0 0 0 -0.53930801524072081 6.0640635248237231 0 6.0640635248237231 5.1961396568913187 0 0 0 0 1.983111838107078 0.73835149107662801 0 0.73835149107662801 3.6451058920010837 0 0 0 0 -6.9374615987908044 0.24593831701531599 0 0.24593831701531599 3.9761314335828501 0 0 0 0 -6.320308534455485 -2.3697109737963094 0 -2.3697109737963094 0.43167109685055038 0 0 0 0 -3.3019582438217299 2.7497940803605161 0 2.7497940803605161 3.3034017752324871 0 0 0 0 -13.207415681149314 1.220124680770823 0 1.220124680770823 3.0783630310661465 0 0 0 0 -16.633085700646006 2.2474926474387757 0 2.2474926474387757 3.0789581684657605 0 0 0 0 -6.3223677485211276 -4.7800714825722928 0 -4.7800714825722928 -2.5403827659247327 0 0 0 0 -7.4333564567577923 15.533676143049888 0 15.533676143049888 -6.5121317386365263 0 0 0 0 -18.405443152545217 -1.3727155407268583 0 -1.3727155407268583 0.0031503286481893156 0 0 0 0 -10.818410631181678 0.77293147492309799 0 0.77293147492309799 -13.503881935452227 0 0 0 0 -26.513210940853241 9.5607971579811419 0 9.5607971579811419 -5.893766249082546 0 0 0 0 -34.44942187740844 -11.319910991638608 0 -11.319910991638608 -3.8383471648630803 0 0 0 0 -0.0023338627488700414 0.11157240275688096 0 0.11157240275688096 0.18203315457177283 0 0 0 0 -13.089096485369964 2.1827917380505824 0 2.1827917380505824 -2.9127484139353328 0 0 0 0 -13.554341348164741 3.9513457882840157 0 3.9513457882840157 0.5121781026100507 0 0 0 0 -7.0981545891761471 2.5170880520054197 0 2.5170880520054197 1.972246268890558 0 0 0 0 -6.765871923050554 3.3385291880113073 0 3.3385291880113073 -6.886739080240659 0 0 0 0 -4.3696270080164368 1.4132893019759649 0 1.4132893019759649 3.6931729166499281 0 0 0 0 -4.3476457422193562 1.3290990350562879 0 1.3290990350562879 -2.5670836294993933 0 0 0 0 -4.1918095156404434 -1.3814961756488628 0 -1.3814961756488628 0.3997870170569513 0 0 0 0 -3.5431409017564874 -2.6131480879848823 0 -2.6131480879848823 1.1253245970365242 0 0 0 0 -10.513122165893492 -2.0883267319118204 0 -2.0883267319118204 -4.4742201648186892 0 0 0 0 -7.4483639854242938 -1.0013558093378379 0 -1.0013558093378379 0.11654818273746059 0 0 0 0 -5.2457469732214577 -2.5757078162750986 0 -2.5757078162750986 -0.88655393021326745 0 0 0 0 -6.1515507797375903 -0.83550850952815381 0 -0.83550850952815381 -2.5482491291513725 0 0 0 0 -7.9407808045057209 0.69917937060745317 0 0.69917937060745317 -1.6711618722038111 0 0 0 0 -5.6444537139166187 -2.8148734805872664 0 -2.8148734805872664 2.7180025076522725 0 0 0 0 -11.274099502871877 -2.6321116539402283 0 -2.6321116539402283 0.90037698849846493 0 0 0 0 -4.683555734194158 -0.83721756474733411 0 -0.83721756474733411 1.2574411545720068 0 0 0 0 -3.0980650010683348 -2.9213291308115004 0 -2.9213291308115004 0.1730262357536958 0 0 0 0 -3.2488597026529078 -3.2559325707479729 0 -3.2559325707479729 2.1058659279806307 0 0 0 0 -2.9577489111500199 -3.8875460507788375 0 -3.8875460507788375 3.7951694277035131 0 0 0 0 -3.0185356715894436 -1.9727628200490699 0 -1.9727628200490699 2.924792772570072 0 0 0 0 -3.0429514836637281 -3.399511828993127 0 -3.399511828993127 4.2673691268555558 0 0 0 0 -9.0353414104861258 1.0971537856385112 0 1.0971537856385112 3.0598979665278421 0 0 0 0 -3.2075537135329597 0.91197090059552011 0 0.91197090059552011 -1.0424749170324503 0 0 0 0 -8.6976825182691684 2.2396176078098051 0 2.2396176078098051 2.0651689195110521 0 0 0 0 -3.1117993493353424 0.048121510968485381 0 0.048121510968485381 2.9141762269432547 0 0 0 0 -8.5101299366952361 1.0620389448035894 0 1.0620389448035894 2.2871289161193999 0 0 0 0 -10.332115063941501 2.2245880135051266 0 2.2245880135051266 1.5634720877824293 0 0 0 0 -11.228082617957398 -0.73844210420747913 0 -0.73844210420747913 2.5783428270606237 0 0 0 0 1.3964358226655804 -6.6093593893056095 0 -6.6093593893056095 4.9439011958947958 0 0 0 0 -1.5484588889528368 2.857726603266201 0 2.857726603266201 3.9084708492930531 0 0 0 0 -9.7253528685324113 1.6594237179706397 0 1.6594237179706397 5.7201189446459466 0 0 0 0 -3.3413648176127424 -4.1293302670546836 0 -4.1293302670546836 6.5679662471811753 0 0 0 0 -4.7210895627529226 -0.51438237077672966 0 -0.51438237077672966 5.3835923172373441 0 0 0 0 -2.5108829081610082 -4.1395763612912333 0 -4.1395763612912333 6.6261612499001785 0 0 0 0 -2.7525351040844726 -2.2513285411187098 0 -2.2513285411187098 6.0285737165213504 0 0 0 0 -1.5768994486561496 -4.6548474578230525 0 -4.6548474578230525 7.0229876889452498 0 0 0 0 -1.488071699967918 -3.3263250169420644 0 -3.3263250169420644 11.159404202680889 0 0 0 0 -3.0666652062627691 -4.4629993868311431 0 -4.4629993868311431 10.653804213441617 0 0 0 0 0.28330382925378217 -3.2991103603853844 0 -3.2991103603853844 10.286654360922057 0 0 0 0 -3.129440944148655 -2.0805024102592142 0 -2.0805024102592142 10.647553003411304 0 0 0 0 -2.6781903273474654 -5.0465665945093861 0 -5.0465665945093861 17.505922199725319 0 0 0 0 -2.9248354234596263 -3.3175757374974637 0 -3.3175757374974637 22.973931991014979 0 0 0 0 -0.4966003895231097 -1.840317488711662 0 -1.840317488711662 18.555290734570917 0 0 0 0 1.4098346561769404 5.1733664863986633 0 5.1733664863986633 24.260474090086063 0 0 0 0 -2.3897557177648423 7.2892135685760877 0 7.2892135685760877 34.984850458012261 0 0 0 0 -3.4288778103770028 -3.7802932348567992 0 -3.7802932348567992 28.493195963030303 0 0 0 0 -0.050149829652355038 -8.1357867107872153 0 -8.1357867107872153 35.606964505434007 0 0 0 0 -3.6252430239399018 -6.0898351114747129 0 -6.0898351114747129 22.400353050554259 0 0 0 0 -1.0593826329986769 -0.5534428841197041 0 -0.5534428841197041 24.548950170454191 0 0 0 0 -20.093559853635782 -0.83114538788686332 0 -0.83114538788686332 31.640067718046339 0 0 0 0 11.139093526846779 10.232700166232462 0 10.232700166232462 30.637133547003032 0 0 0 0 35.07568107266161 182.83481186986592 0 182.83481186986592 364.19496472059473 0 0 0 0 0.080900594933550174 -0.74799208037787324 0 -0.74799208037787324 3.2500860943111647 0 0 0 0 -252.61068934480303 28.907616160469843 0 28.907616160469843 699.82452827793713 0 0 0 0 -85.413763511366994 -115.69300725162611 0 -115.69300725162611 85.79498881661857 0 0 0 0 3.9948059488511944 -20.265864085429712 0 -20.265864085429712 -35.713821933838517 0 0 0 0 58.374079289943182 83.973105007563845 0 83.973105007563845 174.35559108937923 0 0 0 0 60.630473653346222 -4.4512990107468795 0 -4.4512990107468795 -31.549764157453865 0 0 0 0 -7.4322344092747512 56.751434251542378 0 56.751434251542378 192.17105757670288 0 0 0 0 33.123681108895994 156.42466925360986 0 156.42466925360986 132.98698794840857 0 0 0 0 -0.0076406033062070833 35.177276912358138 0 35.177276912358138 371.98433065870086 0 0 0 0 -50.045359636849099 82.155498606108267 0 82.155498606108267 414.14251429284559 0 0 0 0 -0.78184107012599779 1.7664936596883081 0 1.7664936596883081 -0.21314417137879715 0 0 0 0 -7.4511616511442753 2.2449663888401119 0 2.2449663888401119 44.951031764388972 0 0 0 0 -4.469644904857546 -1.3752547587555455 0 -1.3752547587555455 18.688738914337591 0 0 0 0 -11.110149346277296 61.094876200962972 0 61.094876200962972 369.6595315802133 0 0 0 0 -6.8483376013314228 -0.36655543869346729 0 -0.36655543869346729 19.607822288053285 0 0 0 0 -2.748877899187713 2.7381301113546321 0 2.7381301113546321 0.3484910841849862 0 0 0 0 12.238111446285814 110.69207536789236 0 110.69207536789236 284.05996975180824 0 0 0 0 47.685111118308669 22.821540010496392 0 22.821540010496392 185.92363678249785 0 0 0 0 16.571313092941637 41.40449662013998 0 41.40449662013998 176.34927730642084 0 0 0 0 42.744675630164494 40.776184250617916 0 40.776184250617916 72.612335504127259 0 0 0 0 50.242247358564327 32.203538499807109 0 32.203538499807109 114.16772854966257 0 0 0 0 31.552203402282203 19.232570354383824 0 19.232570354383824 175.97445485296885 0 0 0 0 37.443351817659845 19.993132706747929 0 19.993132706747929 180.32921539641666 0 0 0 0 41.690976342665572 63.182455165549413 0 63.182455165549413 184.94032122693898 0 0 0 0 50.416234361016734 44.510932137663076 0 44.510932137663076 102.6770037623719 0 0 0 0 32.330416190679898 38.0337126727336 0 38.0337126727336 242.56576803325515 0 0 0 0 56.111877473653976 36.957009159774316 0 36.957009159774316 242.34899270007281 0 0 0 0 58.425767668997423 57.893188671258031 0 57.893188671258031 238.94268972734608 0 0 0 0 40.770856048851272 77.598013557725608 0 77.598013557725608 245.55020904967023 0 0 0 0 28.809782243637059 66.148479126009079 0 66.148479126009079 239.57200644702971 0 0 0 0 25.391439360037111 89.66594217221791 0 89.66594217221791 368.05327730354475 0 0 0 0 -10.048916608758873 -4.2583984986158612 0 -4.2583984986158612 3.3507991761007361 0 0 0 0 0.97589362326193196 -2.1087106427955433 0 -2.1087106427955433 4.5237289720004235 0 0 0 0 -9.0580332601577993 -1.7744796178885736 0 -1.7744796178885736 7.7816890819012769 0 0 0 0 -6.646008204911368 -1.052808726188232 0 -1.052808726188232 6.2659574617173348 0 0 0 0 -8.9080974231138725 -1.6137206968087412 0 -1.6137206968087412 7.9264365681883646 0 0 0 0 -9.1204596319671509 -1.3658217096563021 0 -1.3658217096563021 11.356889099362888 0 0 0 0 -7.8991381149971858 -1.1413790278311353 0 -1.1413790278311353 8.1452658783746301 0 0 0 0 -9.010534540344679 -1.1644546334455299 0 -1.1644546334455299 10.761435177424573 0 0 0 0 -7.2416028960169569 -3.6038930694176088 0 -3.6038930694176088 12.194328076948295 0 0 0 0 -6.4569245360107175 -1.5977983578059138 0 -1.5977983578059138 15.753872100765875 0 0 0 0 -0.71715674418137121 -1.9181927805030936 0 -1.9181927805030936 9.7605156213767756 0 0 0 0 -6.6913831712847411 -0.40000246480258284 0 -0.40000246480258284 18.367130424878269 0 0 0 0 -9.2057220850655312 -1.2124423010782266 0 -1.2124423010782266 15.049897090895684 0 0 0 0 -9.0433556676980515 -1.0509496310151007 0 -1.0509496310151007 11.083495394705096 0 0 0 0 -7.7444314429678798 0.79276182950343355 0 0.79276182950343355 13.52983584366666 0 0 0 0 -9.0723042702886687 -0.81169507059712487 0 -0.81169507059712487 12.174067761843617 0 0 0 0 -8.8253164835643929 -1.087520699083143 0 -1.087520699083143 10.748548906449287 0 0 0 0 -7.1659580340315188 -1.3662817488439032 0 -1.3662817488439032 9.0930987770771026 0 0 0 0 -7.1454982740376636 -2.0751304537443502 0 -2.0751304537443502 14.223469239310361 0 0 0 0 -7.8048895708589043 -5.8750475335255032 0 -5.8750475335255032 5.0008822795934975 0 0 0 0 -6.1078836571127795 -2.8834295294036565 0 -2.8834295294036565 14.595719923599972 0 0 0 0 -5.3022535698646607 -2.832220505366422 0 -2.832220505366422 17.296629917505925 0 0 0 0 0.35174133199222979 0.95167505907920713 0 0.95167505907920713 18.701659645190375 0 0 0 0 -4.8937954024170267 -2.7261322303056659 0 -2.7261322303056659 21.306017076609351 0 0 0 0 -1.9183938942777559 -3.5368400050074342 0 -3.5368400050074342 16.555051541901776 0 0 0 0 -3.386944811128842 -4.0607442670698219 0 -4.0607442670698219 13.455838977235544 0 0 0 0 -3.8432797647371899 -3.1999452606833074 0 -3.1999452606833074 16.538221375869398 0 0 0 0 -6.1091854469430018 -2.1953995332933118 0 -2.1953995332933118 16.795442210379406 0 0 0 0 -4.5637535785616592 -2.0005721235866076 0 -2.0005721235866076 16.394035122495552 0 0 0 0 -5.1663113530839837 -3.2741999891622982 0 -3.2741999891622982 17.164469775196267 0 0 0 0 -5.1260692547996314 -3.4101300544916739 0 -3.4101300544916739 13.508784046473011 0 0 0 0 -5.5027358499394268 -4.6863665644705179 0 -4.6863665644705179 12.486024489284318 0 0 0 0 -5.1872384150255471 -3.5390059961765132 0 -3.5390059961765132 13.707831257488579 0 0 0 0 -4.6391915903813015 -3.2070307880994733 0 -3.2070307880994733 11.084963066517957 0 0 0 0 -2.732515530191904 -5.3255175267313462 0 -5.3255175267313462 13.670965430585056 0 0 0 0 -4.0949945686220417 -4.6172460971793043 0 -4.6172460971793043 13.633860181956152 0 0 0 0 -2.6966384726995329 -3.9995755227373593 0 -3.9995755227373593 10.409497877080867 0 0 0 0 -3.3579784638584442 -4.3899757865510765 0 -4.3899757865510765 10.188638972658737 0 0 0 0 -4.0685442301673902 -3.4047496264975052 0 -3.4047496264975052 10.257477491310965 0 0 0 0 -1.8749886909640736 -3.2524546968907089 0 -3.2524546968907089 6.9507929466053611 0 0 0 0 -5.3763259791149522 -1.1819723871653878 0 -1.1819723871653878 7.4656164822335995 0 0 0 0 -0.71445796812127571 -0.79506041688664242 0 -0.79506041688664242 11.056039962418417 0 0 0 0 -5.6114366243269984 -2.1422485462492205 0 -2.1422485462492205 12.274239918529929 0 0 0 0 -21.554767111828362 -7.4700727227668722 0 -7.4700727227668722 18.269365731342987 0 0 0 0 0.15604407805936837 -1.2280348783042996 0 -1.2280348783042996 2.1000551555432954 0 0 0 0 -14.092230251568253 -5.7815010128542781 0 -5.7815010128542781 15.844347630656557 0 0 0 0 -7.6185112948891174 -3.549224624171984 0 -3.549224624171984 14.48901250455674 0 0 0 0 -5.1949685935746288 -3.3085264716183929 0 -3.3085264716183929 11.27246000674495 0 0 0 0 -0.3985881714896371 -0.80252035221235118 0 -0.80252035221235118 2.0149344170738597 0 0 0 0 1.5007496969276417 3.6914348038899334 0 3.6914348038899334 3.1585046065154074 0 0 0 0 3.3235481416557491 -8.5106527137672856 0 -8.5106527137672856 -5.6428898406174994 0 0 0 0 1.1968006728077398 -13.697489793988098 0 -13.697489793988098 4.7959732176952912 0 0 0 0 13.361950428037815 12.160149994574112 0 12.160149994574112 -11.639502496316709 0 0 0 0 -4.8800718631666973 -10.973012195924753 0 -10.973012195924753 32.368600463536495 0 0 0 0 -4.9321485752782337 4.9198433038600342 0 4.9198433038600342 25.107455965851841 0 0 0 0 -3.3100190729164751 -12.220938937756728 0 -12.220938937756728 27.543556357669104 0 0 0 0 2.6700710621830979 10.38326033724843 0 10.38326033724843 10.288957383143497 0 0 0 0 -6.1737082119257138 0.35987156278679322 0 0.35987156278679322 10.070721444338233 0 0 0 0 -5.9114132942327728 -3.531740134229949 0 -3.531740134229949 7.4016925451796851 0 0 0 0 7.4754711257151598 -13.289596899824573 0 -13.289596899824573 -7.0497824031090204 0 0 0 0 0.68918163233270868 -0.41439487280273823 0 -0.41439487280273823 1.1181216715431326 0 0 0 0 8.948649175490516 -21.155832222789286 0 -21.155832222789286 9.3242361672337211 0 0 0 0 -22.838118248423001 39.137476824332225 0 39.137476824332225 372.68798275566223 0 0 0 0 23.728849469855277 38.572788034158293 0 38.572788034158293 167.2778546548434 0 0 0 0 56.454714012824411 -49.069082428744878 0 -49.069082428744878 209.84067762783616 0 0 0 0 28.65706737262235 26.316957218878088 0 26.316957218878088 251.56803458629201 0 0 0 0 51.632353564221376 3.2288286055127173 0 3.2288286055127173 119.86646238098911 0 0 0 0 -14.546543875273169 25.954072208114212 0 25.954072208114212 181.95835351036294 0 0 0 0 10.353295779583432 -53.875545853142512 0 -53.875545853142512 119.14669881301779 0 0 0 0 5.0851597032881557 -4.6372014847247556 0 -4.6372014847247556 35.194401156091772 0 0 0 0 -2.0752119535194282 -19.377859849629203 0 -19.377859849629203 92.698346307960037 0 0 0 0 -25.832637648798737 16.408360666502631 0 16.408360666502631 120.91392044376653 0 0 0 0 -27.482418179121183 3.9999880516534176 0 3.9999880516534176 152.90735753702029 0 0 0 0 -24.982085922923922 20.911826999340406 0 20.911826999340406 132.33371605319917 0 0 0 0 3.6037860979069478 49.949233477131202 0 49.949233477131202 158.38476258758055 0 0 0 0 11.252049730920533 24.445527718084122 0 24.445527718084122 79.398048531795212 0 0 0 0 -7.3375306430845058 1.5603753553514252 0 1.5603753553514252 72.306139029014048 0 0 0 0 7.2651285445126632 -10.072907615998702 0 -10.072907615998702 -4.7975834428561939 0 0 0 0 6.0436759331022358 21.32383369454692 0 21.32383369454692 22.491864680087019 0 0 0 0 -9.681412979810716 0.75723289528923488 0 0.75723289528923488 32.949229805099549 0 0 0 0 4.5775436493405834 2.314502516022003 0 2.314502516022003 31.469129886339942 0 0 0 0 14.95528023732868 2.7286479536792285 0 2.7286479536792285 -3.970983478969174 0 0 0 0 1.324490103838059 11.123600914826966 0 11.123600914826966 34.899189010911869 0 0 0 0 -7.5809695245991406 7.7392494997184258 0 7.7392494997184258 34.169244064857367 0 0 0 0 1.2549690293658387 5.2414339768438367 0 5.2414339768438367 -15.225434109989692 0 0 0 0 1.2885151776488724 -0.19314879921234152 0 -0.19314879921234152 -0.2924252731470971 0 0 0 0 0.32930171735413361 0.43130254835427095 0 0.43130254835427095 -0.38348401399983523 0 0 0 0 1.931384514679479 -1.4496739193213557 0 -1.4496739193213557 -10.658334447885863 0 0 0 0 2.0573498113401856 -0.041118821357436275 0 -0.041118821357436275 -0.032180478334146834 0 0 0 0 0.41817428264480716 0.14167792990291161 0 0.14167792990291161 -0.12414639250073378 0 0 0 0 1.1253550019954446 6.1966619699987859 0 6.1966619699987859 6.7405908062510207 0 0 0 0 2.0710124273331303 3.9906267014885088 0 3.9906267014885088 -0.18081656230106091 0 0 0 0 7.2903322730348066 3.5520278276517274 0 3.5520278276517274 -1.9247260161528175 0 0 0 0 3.63926136190139 0.36640004413857241 0 0.36640004413857241 0.59274215877121605 0 0 0 0 0.023627764121003026 -9.945708246504056 0 -9.945708246504056 30.330999409976357 0 0 0 0 3.6261438561095645 -5.0699697634481709 0 -5.0699697634481709 -4.2631635902616836 0 0 0 0 4.0849718591109934 7.1254908771015835 0 7.1254908771015835 -21.6681298968183 0 0 0 0 2.4172310183198249 8.7909135072086428 0 8.7909135072086428 -15.149827730720062 0 0 0 0 -2.1979471569743367 9.7108189967248109 0 9.7108189967248109 -3.3736204969827668 0 0 0 0 -0.93443993862690777 0.20881889239690565 0 0.20881889239690565 0.0011184613491357354 0 0 0 0 -9.4951534054460964 -6.4563854053621981 0 -6.4563854053621981 38.884078209146537 0 0 0 0 20.467280668920509 13.083588679746754 0 13.083588679746754 -7.1922655759335612 0 0 0 0 7.1339722455370946 21.57358486895555 0 21.57358486895555 30.674881450714111 0 0 0 0 -0.23447634754844482 0.28949968812193205 0 0.28949968812193205 0.10277586035921615 0 0 0 0 -0.81207880962337242 19.382002101428952 0 19.382002101428952 91.178085130692125 0 0 0 0 -0.012881526759181611 0.15339071895815692 0 0.15339071895815692 0.10453244487880919 0 0 0 0 0.19131538056803921 17.853873701114935 0 17.853873701114935 -14.849648350390453 0 0 0 0 14.34978686327462 -12.391412846660387 0 -12.391412846660387 -8.1629692951191828 0 0 0 0 0.021935209298872341 0.0046740257369233262 0 0.0046740257369233262 0.083051401267347558 0 0 0 0 -2.7125101514978525 -0.52287472946318303 0 -0.52287472946318303 2.5267426505233743 0 0 0 0 3.7158748045440779 -12.324893941753317 0 -12.324893941753317 91.767325649190752 0 0 0 0 13.343353773815274 -2.0503323091443235 0 -2.0503323091443235 -10.865853664065071 0 0 0 0 10.888975204252048 -13.522465785746135 0 -13.522465785746135 7.8330933564488987 0 0 0 0 4.8287490370679649 0.51458813081080734 0 0.51458813081080734 2.2787639275029505 0 0 0 0 0.029011551543850538 0.065124946009692763 0 0.065124946009692763 0.24298722291552366 0 0 0 0 14.067841242779142 -52.002134075439244 0 -52.002134075439244 137.32837758735604 0 0 0 0 -2.6658189800619745 7.2047200577189869 0 7.2047200577189869 130.26714015317339 0 0 0 0 -0.023889042243021213 0.02197284836601554 0 0.02197284836601554 0.22459448389029291 0 0 0 0 0.62387447628088921 -6.4943646779156552 0 -6.4943646779156552 100.11587603362932 0 0 0 0 34.024946341378858 14.94633470696408 0 14.94633470696408 20.650368535834787 0 0 0 0 9.6404867336771218 -7.0425616816810361 0 -7.0425616816810361 10.226531494019582 0 0 0 0 17.883547548778388 13.757468229063761 0 13.757468229063761 7.9433739697124111 0 0 0 0 -2.9592512104024422 3.7722904370721153 0 3.7722904370721153 3.1736053126514889 0 0 0 0 6.9111896710059568 -5.1348522607254381 0 -5.1348522607254381 23.497329748057382 0 0 0 0 -7.1279738051289314 3.5589123431254848 0 3.5589123431254848 32.908736767685696 0 0 0 0 -7.5510895860003586 0.17496454694469321 0 0.17496454694469321 6.1217312032567861 0 0 0 0 -19.048318507209842 -0.25070808129021316 0 -0.25070808129021316 16.14467964033247 0 0 0 0 -21.832831380759799 -12.46821876943909 0 -12.46821876943909 -0.33332888406948769 0 0 0 0 1.5583125405094052 -3.362590188368813 0 -3.362590188368813 3.1477383823112177 0 0 0 0 -2.9384765537899966 3.9084679598508956 0 3.9084679598508956 0.75091274554188203 0 0 0 0 -0.76075891052698585 0.61385906486536967 0 0.61385906486536967 0.18187249501449543 0 0 0 0 0.12891493775823726 -0.057313621137044635 0 -0.057313621137044635 -0.16727557614689204 0 0 0 0 -2.7781875046459845 11.726387325121323 0 11.726387325121323 -43.702060453750164 0 0 0 0 -10.390865564451019 1.6641872062737093 0 1.6641872062737093 3.3879516753299868 0 0 0 0 -11.35091439439347 -0.88765277876109394 0 -0.88765277876109394 2.0029436648910632 0 0 0 0 -0.66331284287866765 3.2148260606190888 0 3.2148260606190888 1.8397775905541494 0 0 0 0 -0.10440637029935806 0.17616357725677823 0 0.17616357725677823 0.18755203226717754 0 0 0 0 -6.2084737780803607 -0.71838389869117236 0 -0.71838389869117236 1.4657313101706677 0 0 0 0 -9.1381712342109722 3.016433749035059 0 3.016433749035059 3.1176054190873401 0 0 0 0 1.1267329241308062 10.322587421368326 0 10.322587421368326 0.9342966077838355 0 0 0 0 -11.341482439848448 6.1783785076740969 0 6.1783785076740969 11.323681928176484 0 0 0 0 -10.764373208434051 2.1446244330563786 0 2.1446244330563786 2.8023333688433922 0 0 0 0 -1.9110760755958154 -1.0456787758485007 0 -1.0456787758485007 4.3668118771061017 0 0 0 0 -0.46681087376174446 -1.1908227993435503 0 -1.1908227993435503 3.4188324261231173 0 0 0 0 -0.84117003210203156 -0.61959549684846493 0 -0.61959549684846493 3.3921719977672566 0 0 0 0 -2.9106877061490195 3.2738967132117978 0 3.2738967132117978 3.1024907593318858 0 0 0 0 -0.93234629847252393 0.40049093534639724 0 0.40049093534639724 2.1768872195279982 0 0 0 0 -0.2725082186304213 -0.60131253357083736 0 -0.60131253357083736 1.4961081483059324 0 0 0 0 -1.0755784344293033 0.087866043736539723 0 0.087866043736539723 2.1307828820049508 0 0 0 0 -0.45606711615648032 -0.010083686141980408 0 -0.010083686141980408 1.9244749439572573 0 0 0 0 -1.3308231431757349 -1.3159210263511341 0 -1.3159210263511341 3.400832037611508 0 0 0 0 -1.2519476428328176 -1.4612264318911912 0 -1.4612264318911912 0.28577328651772405 0 0 0 0 0.28648123989728447 0.75479744733002008 0 0.75479744733002008 1.1972523420399739 0 0 0 0 0.081687169387823388 0.52383783389397109 0 0.52383783389397109 0.15104371494360258 0 0 0 0 -0.37200963690930311 -0.29396447429562045 0 -0.29396447429562045 0.65905979830652583 0 0 0 0 -2.0420617643446803 1.9682921982484913 0 1.9682921982484913 -0.31954321825583065 0 0 0 0 -1.1683857243165221 0.80436730753717711 0 0.80436730753717711 1.6400002061091072 0 0 0 0 -0.6804786369977498 0.50140297965834257 0 0.50140297965834257 1.319425604502932 0 0 0 0 -0.68296013865791316 1.0961015478318714 0 1.0961015478318714 1.3862065604714422 0 0 0 0 0.27958659858971657 0.034125227533650104 0 0.034125227533650104 -2.8484022066986654 0 0 0 0 1.592504703427192 2.6942954277706122 0 2.6942954277706122 -1.8507763850575429 0 0 0 0 -0.13471091998753548 0.36737453688688326 0 0.36737453688688326 -0.24279399298055182 0 0 0 0 -5.0795324569930358 3.6853283552172797 0 3.6853283552172797 -2.1743875484480668 0 0 0 0 -4.4670787119149225 4.7334614125925327 0 4.7334614125925327 -0.43734420010878239 0 0 0 0 -2.045876266301843 0.063067355353016552 0 0.063067355353016552 0.79993746085904149 0 0 0 0 -5.1134796835862062 2.9342109745666676 0 2.9342109745666676 3.0571694880450195 0 0 0 0 -3.2709676362924256 0.30952617982438824 0 0.30952617982438824 1.6337054144241847 0 0 0 0 -0.77002215773019322 0.26869166061321348 0 0.26869166061321348 1.6593959974713144 0 0 0 0 -7.2919958781574952 9.8516566499570217 0 9.8516566499570217 -2.1514990502473665 0 0 0 0 -0.1626926912910478 1.1211002807718291 0 1.1211002807718291 3.0455520339846203 0 0 0 0 -12.01737675911798 -4.4135352075700212 0 -4.4135352075700212 1.2007570819073408 0 0 0 0 -4.3186004363519288 -11.571259115944486 0 -11.571259115944486 7.0058665891319833 0 0 0 0 46.814083208382854 23.20801738584305 0 23.20801738584305 -8.0348856359742058 0 0 0 0 30.893370652577843 61.2285207000632 0 61.2285207000632 57.775690734451928 0 0 0 0 -5.0419213363240925 -15.956870481731585 0 -15.956870481731585 26.673353018668422 0 0 0 0 9.6145907982423751 6.2804671344629242 0 6.2804671344629242 -8.8016349930012439 0 0 0 0 0.14870274576938391 0.3280426714627902 0 0.3280426714627902 1.235650770967375 0 0 0 0 -14.460552152437005 50.575983509306752 0 50.575983509306752 269.4390726005704 0 0 0 0 -5.5674535478288192 -14.545862361948139 0 -14.545862361948139 134.79601819263189 0 0 0 0 1.768889697397745 60.073157544966307 0 60.073157544966307 216.43890620712045 0 0 0 0 26.424735227903255 111.92888205265172 0 111.92888205265172 252.77600503333815 0 0 0 0 139.97607781344129 74.989171215180249 0 74.989171215180249 182.97909776261076 0 0 0 0 3.9440471159300898 35.615004051473079 0 35.615004051473079 225.89568194877393 0 0 0 0 77.595928054892397 -10.7366646256487 0 -10.7366646256487 194.10698858123396 0 0 0 0 -23.837930906533941 27.029673353717953 0 27.029673353717953 182.67592494745986 0 0 0 0 5.8541363837333265 34.820082060823552 0 34.820082060823552 147.39117128514408 0 0 0 0 11.953642981897286 78.077872363091501 0 78.077872363091501 151.36711077679502 0 0 0 0 9.1420152358487599 73.424417291337704 0 73.424417291337704 180.14715235344192 0 0 0 0 -1.1123353179834794 -6.6891430264331575 0 -6.6891430264331575 9.0626654063889873 0 0 0 0 0.078134963554762238 0.014416457893625889 0 0.014416457893625889 -0.26689076811254608 0 0 0 0 0.48922473440711656 12.072319805809457 0 12.072319805809457 8.1332092466554968 0 0 0 0 5.3789530305131734 3.2322825944384022 0 3.2322825944384022 -2.4961935590523581 0 0 0 0 3.9341685145682135 -2.9401059100237035 0 -2.9401059100237035 17.377632268313391 0 0 0 0 12.31933182518793 6.6697253716702107 0 6.6697253716702107 18.457346699916343 0 0 0 0 -0.087585115455394491 0.48366508782958917 0 0.48366508782958917 0.10624252160071279 0 0 0 0 -6.975634892609861 8.3951274661067146 0 8.3951274661067146 66.174914405868549 0 0 0 0 -11.411172561015746 14.63409446355945 0 14.63409446355945 58.176776920867269 0 0 0 0 0.23331843654707618 1.077730354199435 0 1.077730354199435 0.019541826993300759 0 0 0 0 3.7705018441191385 -4.9015785963592862 0 -4.9015785963592862 37.093377303055604 0 0 0 0 196.65318307192555 162.37928345362025 0 162.37928345362025 281.0424658288739 0 0 0 0 -65.230955580630734 45.172637299952839 0 45.172637299952839 368.01972687340185 0 0 0 0 -75.139802000517079 -66.20538787266014 0 -66.20538787266014 291.84043338048832 0 0 0 0 7.7844291348784509 -31.587408827408581 0 -31.587408827408581 142.0754524534168 0 0 0 0 3.6055616586087238 1.4071358640157996 0 1.4071358640157996 237.20198225055719 0 0 0 0 -10.023524924951801 -7.1995032339673344 0 -7.1995032339673344 219.5090898307609 0 0 0 0 22.747706598507996 18.507172743712601 0 18.507172743712601 140.05473597747186 0 0 0 0 43.62440774074328 35.591125792512685 0 35.591125792512685 219.36167627822397 0 0 0 0 24.244993084258944 -7.5214759279087957 0 -7.5214759279087957 158.94217418051267 0 0 0 0 34.199331588628922 14.44452561311482 0 14.44452561311482 55.6683081181327 0 0 0 0 22.527755739532282 -0.78700334962377383 0 -0.78700334962377383 99.8507751623074 0 0 0 0 25.114962919396817 -7.4102605472307914 0 -7.4102605472307914 113.90681109382422 0 0 0 0 28.982282475529615 6.2889688026664317 0 6.2889688026664317 66.121053764924 0 0 0 0 18.078037771636843 5.6390053218001412 0 5.6390053218001412 68.678375543418952 0 0 0 0 24.975027594411642 7.4761809122655905 0 7.4761809122655905 12.76734571085035 0 0 0 0 1.9373005083255066 -18.510511636583033 0 -18.510511636583033 90.537370981004642 0 0 0 0 6.7648577560554131 -18.433812238879796 0 -18.433812238879796 89.673481024387002 0 0 0 0 31.969558590915412 11.085570628754795 0 11.085570628754795 123.62107511966497 0 0 0 0 13.907301058512445 16.007604642469232 0 16.007604642469232 122.32829160225083 0 0 0 0 21.457571344582675 9.1807014839396288 0 9.1807014839396288 126.36628720871886 0 0 0 0 -4.0024314205152507 15.122198042608943 0 15.122198042608943 124.98701748827807 0 0 0 0 -16.890127543442446 15.03866596201442 0 15.03866596201442 160.60079234278237 0 0 0 0 4.3181629837708755 12.436921288755912 0 12.436921288755912 158.17834915014464 0 0 0 0 11.531622985219265 19.956433534937787 0 19.956433534937787 150.23737887757306 0 0 0 0 3.8593609060327658 18.994040770919582 0 18.994040770919582 185.6166117045359 0 0 0 0 65.527640426701154 22.294291624637481 0 22.294291624637481 149.12120178698387 0 0 0 0 25.608210471169826 38.98832963588211 0 38.98832963588211 172.2974739847723 0 0 0 0 37.195122971720309 70.447465347524485 0 70.447465347524485 206.86202369436796 0 0 0 0 11.012355230925394 23.589848901652658 0 23.589848901652658 175.78582759721576 0 0 0 0 16.880567960348142 44.471623090972571 0 44.471623090972571 186.59930117042677 0 0 0 0 37.010925170656641 42.364332793081644 0 42.364332793081644 145.79940258843999 0 0 0 0 18.42256801594781 13.857833216181461 0 13.857833216181461 132.45599565064367 0 0 0 0 34.536538133616823 12.460265658144635 0 12.460265658144635 94.844441113033099 0 0 0 0 23.568066142669331 29.517010051804391 0 29.517010051804391 111.81054710269746 0 0 0 0 30.614761214734671 3.4106077131546044 0 3.4106077131546044 52.178683484620706 0 0 0 0 15.467217463082406 6.2582872188049805 0 6.2582872188049805 94.886860225402344 0 0 0 0 29.381853680460786 8.4603508840336872 0 8.4603508840336872 54.767030119513947 0 0 0 0 11.789179766498222 -6.1849446841079043 0 -6.1849446841079043 43.775160125010188 0 0 0 0 23.114240611840188 5.6509468460571952 0 5.6509468460571952 46.054234223189269 0 0 0 0 9.2732130538663284 -1.7195575330351858 0 -1.7195575330351858 59.752571767152403 0 0 0 0 19.842320098714225 -4.2831671790208929 0 -4.2831671790208929 64.466020059830043 0 0 0 0 16.493545885495621 12.430209149035363 0 12.430209149035363 84.432456958566036 0 0 0 0 31.373004659762955 6.205836626357268 0 6.205836626357268 86.797368473737151 0 0 0 0 20.947558805182858 2.1516712468728656 0 2.1516712468728656 58.699572944366082 0 0 0 0 4.5717709371945716 9.324428114501643 0 9.324428114501643 89.949694672515761 0 0 0 0 7.2332744676751446 3.6267399419375579 0 3.6267399419375579 66.049122666510812 0 0 0 0 18.313881653798909 6.580566419760089 0 6.580566419760089 90.339850445896445 0 0 0 0 -0.31369427592852617 11.24649806954767 0 11.24649806954767 59.329912780274753 0 0 0 0 12.008963711161385 4.887055795363267 0 4.887055795363267 38.186588271390065 0 0 0 0 6.9816466289040875 -5.5202977105254831 0 -5.5202977105254831 39.188416224053071 0 0 0 0 0.97709353707641355 -5.8088224595098836 0 -5.8088224595098836 14.607151107120444 0 0 0 0 2.8232892851381521 2.051767347877103 0 2.051767347877103 28.260976945392031 0 0 0 0 -0.17074594337563553 1.4679568021128944 0 1.4679568021128944 43.243178483015072 0 0 0 0 -12.609398556577275 -5.629295413105865 0 -5.629295413105865 41.374898313718859 0 0 0 0 -8.7690222029061147 7.9758555947410059 0 7.9758555947410059 38.353730269045627 0 0 0 0 -29.665063636550215 10.158881981073137 0 10.158881981073137 42.25573125291703 0 0 0 0 -21.282743260896403 10.565570081808119 0 10.565570081808119 15.596784661211132 0 0 0 0 -24.01782071642522 -6.8835343511620977 0 -6.8835343511620977 13.663723562640371 0 0 0 0 -26.244963529666229 0.30729622188300709 0 0.30729622188300709 60.98275287913566 0 0 0 0 -20.740639554838932 48.78304298353396 0 48.78304298353396 90.71119121450829 0 0 0 0 -9.9925422168374212 8.0116904505666753 0 8.0116904505666753 92.97789968720258 0 0 0 0 -4.9040994241035776 11.528984415106606 0 11.528984415106606 43.475752348761944 0 0 0 0 -6.806412523424278 16.640085502809143 0 16.640085502809143 74.501129555588705 0 0 0 0 -15.349712919742473 3.1408003998285494 0 3.1408003998285494 2.3530530030839145 0 0 0 0 -59.682228836856041 -19.225389269175139 0 -19.225389269175139 18.155168876328389 0 0 0 0 -0.0222391322358352 -0.54554704033939849 0 -0.54554704033939849 1.6151679763173448 0 0 0 0 -38.136365252325227 -25.649837670366196 0 -25.649837670366196 12.594592897985422 0 0 0 0 -10.252416686624986 23.386553549808013 0 23.386553549808013 24.649543141669255 0 0 0 0 -44.256620131687264 9.8056519964557083 0 9.8056519964557083 191.06984649116475 0 0 0 0 -4.0176708982287721 72.568701380765106 0 72.568701380765106 142.64376961155722 0 0 0 0 0.01527657898530492 -0.13670399678593981 0 -0.13670399678593981 0.74079181483327972 0 0 0 0 -29.022994954339687 21.530542002170478 0 21.530542002170478 136.14185887679923 0 0 0 0 -1.0479901627017014 16.459121879755003 0 16.459121879755003 92.58017153840774 0 0 0 0 -26.645607172248376 14.039207957051985 0 14.039207957051985 135.54247589802617 0 0 0 0 -34.613078252755898 24.569872409954769 0 24.569872409954769 143.67638587979309 0 0 0 0 -32.728679318617957 17.535413803587289 0 17.535413803587289 159.24062832374329 0 0 0 0 -15.369009741910737 14.012154683628069 0 14.012154683628069 139.8903359914184 0 0 0 0 10.929653972855075 47.937781872168671 0 47.937781872168671 85.769821183774184 0 0 0 0 -23.709669439164337 26.211251814032039 0 26.211251814032039 153.6643407997326 0 0 0 0 -21.892860084291371 24.217360278347769 0 24.217360278347769 151.5272662788102 0 0 0 0 -20.897900388144457 21.012073021051037 0 21.012073021051037 125.06741250662617 0 0 0 0 9.9145685857210708 -17.67673852887674 0 -17.67673852887674 155.29968142619509 0 0 0 0 -5.1607879836212751 5.779510358740481 0 5.779510358740481 108.0540881104971 0 0 0 0 7.8830503392292428 27.555122751140516 0 27.555122751140516 84.778323548958724 0 0 0 0 -4.4952749169962729 21.316946304829798 0 21.316946304829798 78.160812484718917 0 0 0 0 9.2551579975475491 28.154226672271761 0 28.154226672271761 52.157773854456991 0 0 0 0 0.016597502846314508 17.419714751896208 0 17.419714751896208 94.138472640139298 0 0 0 0 0.21062277419580155 21.039200441595312 0 21.039200441595312 91.636826857218239 0 0 0 0 0.29111998180920295 2.6936894601822132 0 2.6936894601822132 60.205114571210288 0 0 0 0 -6.4438209096177701 15.85483465622201 0 15.85483465622201 95.516582745656706 0 0 0 0 40.840774581531818 27.430671162925591 0 27.430671162925591 118.30980395430743 0 0 0 0 -4.9726835146754631 23.521151746965188 0 23.521151746965188 119.51530933345748 0 0 0 0 -1.7051325134177604 23.583629424931132 0 23.583629424931132 109.91645692130624 0 0 0 0 -0.056177997470150766 16.164631079541323 0 16.164631079541323 114.97241366423032 0 0 0 0 -5.2416439281279477 -10.052531445624709 0 -10.052531445624709 60.404216725028164 0 0 0 0 12.367059351811191 -47.679872331852039 0 -47.679872331852039 38.768327440739085 0 0 0 0 -8.4989230071228334 0.22641178308185772 0 0.22641178308185772 174.04149885756306 0 0 0 0 -12.029560299768178 11.499467029247171 0 11.499467029247171 18.520473032827795 0 0 0 0 -3.8957963053105011 13.277093750631138 0 13.277093750631138 2.3035553768513637 0 0 0 0 -1.6784756097382498 -13.188597351085264 0 -13.188597351085264 60.663190168144126 0 0 0 0 3.5652266004203739 3.5961944709233649 0 3.5961944709233649 14.441640630184338 0 0 0 0 0.052376246995880719 12.01651707374249 0 12.01651707374249 2.0540742860957835 0 0 0 0 -0.050038193672493493 0.026598015646264628 0 0.026598015646264628 -0.0089730348295624651 0 0 0 0 -4.498588336610851 8.7756661270068435 0 8.7756661270068435 -7.7135247529622575 0 0 0 0 10.553728495718044 -1.6971151891739282 0 -1.6971151891739282 -6.3017124452380813 0 0 0 0 -7.4875033693282766 5.1770879582463749 0 5.1770879582463749 23.275687171539175 0 0 0 0 -2.9177494188315336 12.331564538992097 0 12.331564538992097 32.822341438742114 0 0 0 0 3.6400140006337987 17.550082862879663 0 17.550082862879663 33.311040834043524 0 0 0 0 4.1773189334059566 20.029742930608336 0 20.029742930608336 44.284052395036269 0 0 0 0 0.013634276524079307 -0.050247995800383194 0 -0.050247995800383194 0.073911459263424462 0 0 0 0 -0.013969055947872589 6.8922633563197451 0 6.8922633563197451 25.134984976011765 0 0 0 0 -5.0929461158035618 12.020973984468583 0 12.020973984468583 33.135535123234149 0 0 0 0 -6.3125900830940935 -17.078081596829179 0 -17.078081596829179 -0.49025888322648825 0 0 0 0 -9.8656248232415749 -24.837836800210425 0 -24.837836800210425 -6.4896247903016047 0 0 0 0 -8.8462807756876032 -14.155088277728282 0 -14.155088277728282 -4.8438525874298648 0 0 0 0 4.1144663931192298 -16.616504729314329 0 -16.616504729314329 -3.530584135420213 0 0 0 0 2.544532929753899 -9.5933506227902399 0 -9.5933506227902399 2.7998660897937953 0 0 0 0 -7.0938412808912972 -18.479408134327969 0 -18.479408134327969 4.6409056043630699 0 0 0 0 -6.7449204770305471 -5.7074850962344499 0 -5.7074850962344499 16.520055835193489 0 0 0 0 -7.243414929776284 -13.268043590205707 0 -13.268043590205707 1.378409346434637 0 0 0 0 -20.030861497511609 -24.532788724649436 0 -24.532788724649436 -5.8124283493489202 0 0 0 0 -12.082563519074426 -5.9012503695630585 0 -5.9012503695630585 -9.1666895152129655 0 0 0 0 -21.954069761977564 -11.137885748117696 0 -11.137885748117696 18.111600691248896 0 0 0 0 -26.727267611835 -4.0137990704995445 0 -4.0137990704995445 8.4292824622825719 0 0 0 0 -26.526468130286915 -6.4029555125109709 0 -6.4029555125109709 -13.64333681804419 0 0 0 0 -53.601217872792205 -2.9349925000133226 0 -2.9349925000133226 14.345259568224719 0 0 0 0 -37.949626348335414 -0.64676471307029715 0 -0.64676471307029715 -14.523168193176389 0 0 0 0 -38.344056185061731 -30.742810365351033 0 -30.742810365351033 -18.064057704818879 0 0 0 0 -23.964224611884646 -19.338516576888651 0 -19.338516576888651 -11.489944202148763 0 0 0 0 -24.868089924103998 -18.29482421065768 0 -18.29482421065768 -2.3835162332979962 0 0 0 0 -39.827588200351755 -31.302865788285999 0 -31.302865788285999 -3.7465992118341092 0 0 0 0 10.28814319514256 5.7049870566297614 0 5.7049870566297614 -12.45282131624117 0 0 0 0 -0.33352952219542698 -0.097910203321205813 0 -0.097910203321205813 0.39989719480027475 0 0 0 0 -47.73906095646521 -17.440006576161977 0 -17.440006576161977 -5.956095066278067 0 0 0 0 -38.268843590831374 -31.532051826688758 0 -31.532051826688758 -44.000502086724737 0 0 0 0 -116.01489895217605 -10.906087181843759 0 -10.906087181843759 4.7852819871186512 0 0 0 0 -71.499011402777185 -43.691708460638438 0 -43.691708460638438 -32.484418854743126 0 0 0 0 -0.053212014028962529 -0.057056088419447093 0 -0.057056088419447093 0.30029421154547009 0 0 0 0 -37.867719256186717 -1.3314368259143521 0 -1.3314368259143521 -45.986018409239477 0 0 0 0 -58.791065096829158 7.4819372574675072 0 7.4819372574675072 -6.4614548873360036 0 0 0 0 0.24236745653524849 7.6685692446499161 0 7.6685692446499161 -1.532640311645082 0 0 0 0 -0.10714410292691363 -0.2906223703650177 0 -0.2906223703650177 1.5581892317528059 0 0 0 0 -9.2391200743143322 -6.898783771669514 0 -6.898783771669514 17.078072602234897 0 0 0 0 3.4096895608769131 -1.4973945229530727 0 -1.4973945229530727 14.065816014051961 0 0 0 0 2.8153687112547772 -9.3767966527575481 0 -9.3767966527575481 27.80593132326976 0 0 0 0 27.301310300000424 3.1531941453813488 0 3.1531941453813488 14.827261590344278 0 0 0 0 6.4506452567000281 -13.244601347522803 0 -13.244601347522803 17.93733839534616 0 0 0 0 -42.690396201772728 -23.565471713201987 0 -23.565471713201987 1.4470729159038456 0 0 0 0 -41.407211075327211 -11.313615627986451 0 -11.313615627986451 -2.8467752408832894 0 0 0 0 -6.9544565038372816 -13.864099468607037 0 -13.864099468607037 -7.0386966087971814 0 0 0 0 -5.6971381098076108 -10.242803871320575 0 -10.242803871320575 -13.107572489756421 0 0 0 0 -10.936572895082605 -19.441561725574502 0 -19.441561725574502 -3.4209255309606306 0 0 0 0 -8.4285617659547114 -22.51266955567462 0 -22.51266955567462 -3.7018125993490685 0 0 0 0 -8.1039493984473694 -19.025267106467254 0 -19.025267106467254 -2.9441659793565123 0 0 0 0 13.495765300253314 55.472556561183566 0 55.472556561183566 28.282114410860231 0 0 0 0 0.02764789371653141 -0.11062648132403297 0 -0.11062648132403297 0.59567709897054044 0 0 0 0 -8.2534267382291375 -19.128410633435578 0 -19.128410633435578 8.8522597111805226 0 0 0 0 8.9041453578348921 23.81428353285628 0 23.81428353285628 35.749904542237573 0 0 0 0 -0.031132492084823785 -0.10386098844064406 0 -0.10386098844064406 0.2407135937870919 0 0 0 0 0.055484371162067191 -0.17808616866947524 0 -0.17808616866947524 0.30878697417472267 0 0 0 0 13.286439110096318 21.822623347391527 0 21.822623347391527 12.66810687635234 0 0 0 0 2.2052918113137432 -2.3140463823992832 0 -2.3140463823992832 2.2470156932831742 0 0 0 0 5.4142502808651907 -4.3339834796370269 0 -4.3339834796370269 -1.6079319244790895 0 0 0 0 -1.4188810134188263 -2.6536066540120373 0 -2.6536066540120373 -0.33253227987529499 0 0 0 0 0.49278983282196265 -2.5350505943242752 0 -2.5350505943242752 -0.36731076005889918 0 0 0 0 2.9838598148966513 -1.1991983362186147 0 -1.1991983362186147 0.22434073435579194 0 0 0 0 0.0019943413799196471 0.014715919046461856 0 0.014715919046461856 0.031329563084497636 0 0 0 0 -0.065430348747788997 -0.26307070151726464 0 -0.26307070151726464 0.4858381111970651 0 0 0 0 0.088131232907477042 -0.20079527036702771 0 -0.20079527036702771 0.22907280328359292 0 0 0 0 -4.1001366917946171 -3.1410647998891363 0 -3.1410647998891363 0.63505827567860251 0 0 0 0 65.201994409387368 -25.564376707890915 0 -25.564376707890915 -0.63248662996511484 0 0 0 0 -0.1308641720742969 -0.53834872056904715 0 -0.53834872056904715 -0.41405562457293854 0 0 0 0 -8.8432338791467267 7.746176131109678 0 7.746176131109678 -2.568654356643151 0 0 0 0 -0.97383373207634172 -0.4768073922300573 0 -0.4768073922300573 -0.15625217593333218 0 0 0 0 -0.55000732431885468 0.45887480734199926 0 0.45887480734199926 -0.92853113899514028 0 0 0 0 -2.9645094531387595 -2.8838089726510816 0 -2.8838089726510816 -1.3510979023267282 0 0 0 0 0.74822320907180995 8.0661189484744682 0 8.0661189484744682 37.770518564549093 0 0 0 0 0.64849478379557191 8.537471101824849 0 8.537471101824849 45.133176929870274 0 0 0 0 -2.8712671642104786 -0.95455188479536446 0 -0.95455188479536446 0.2559629210663843 0 0 0 0 -2.4378377020445297 0.22647351935847837 0 0.22647351935847837 -0.052652500791737111 0 0 0 0 -1.0920986025141595 0.14285608189982213 0 0.14285608189982213 -0.048429344173200661 0 0 0 0 -1.2119119147250559 -1.3480185146836448 0 -1.3480185146836448 0.31656299391215725 0 0 0 0 -0.30818682851898727 -0.67065197190095205 0 -0.67065197190095205 0.8091671360671171 0 0 0 0 -0.58597502682943925 -0.51752706603656407 0 -0.51752706603656407 0.75076462455035653 0 0 0 0 -0.57961684056097929 -0.029961080479552038 0 -0.029961080479552038 0.90749463406973518 0 0 0 0 0.00089179716912619292 -0.15072602870804985 0 -0.15072602870804985 -0.38458752744099911 0 0 0 0 -0.10450419493374785 -0.0042989754329028074 0 -0.0042989754329028074 0.88650474045334704 0 0 0 0 0.0060970602959818203 0.0015174758989822124 0 0.0015174758989822124 -0.00085312356493716379 0 0 0 0 -0.00056154134620307991 -0.499682701604167 0 -0.499682701604167 1.487330435335025 0 0 0 0 -0.93709924595793348 3.7389142523506962 0 3.7389142523506962 4.8021065223756523 0 0 0 0 4.6190692106329427 0.6414358901365631 0 0.6414358901365631 -3.8767442585565277 0 0 0 0 0.23778760279621425 -0.35007992662212928 0 -0.35007992662212928 0.74548186729407462 0 0 0 0 0.014550774881631034 -1.4161533001679345 0 -1.4161533001679345 1.3413301152040731 0 0 0 0 0.0063702170874622259 -0.018123800463630602 0 -0.018123800463630602 0.0063173517355004094 0 0 0 0 -0.011645015438867645 -1.3446173663487571 0 -1.3446173663487571 1.6235804011594155 0 0 0 0 0.82224233816616898 -0.074018038709255052 0 -0.074018038709255052 -3.6710514265978418 0 0 0 0 -0.073318416439895367 -0.0017708522759147804 0 -0.0017708522759147804 0.15854603150222601 0 0 0 0 -1.7022711085621811 -1.6469171435273893 0 -1.6469171435273893 -3.0840195194687112 0 0 0 0 -0.033132080725150059 -0.070323504647603841 0 -0.070323504647603841 -0.10830055211226863 0 0 0 0 -1.6082450827873487 -1.5707210036653123 0 -1.5707210036653123 -1.8635925187809335 0 0 0 0 0.01139289367357478 -0.0089811044213128355 0 -0.0089811044213128355 0.0092102303541068409 0 0 0 0 -1.7915626515336314 0.069503746490227059 0 0.069503746490227059 0.52636323089063808 0 0 0 0 -0.83819454536640592 0.040896490007071407 0 0.040896490007071407 -0.31139011188497534 0 0 0 0 1.2413260298746707 0.27502515529340599 0 0.27502515529340599 -2.2887661828415276 0 0 0 0 -0.38304715931700334 -0.28705828758449314 0 -0.28705828758449314 0.029485412286280877 0 0 0 0 -1.2192118782590771 0.084738946330617182 0 0.084738946330617182 1.0283117726175988 0 0 0 0 -1.1524501238868226 -1.9410800887699224 0 -1.9410800887699224 4.37650631890574 0 0 0 0 3.1273791517211214 -1.4313084026489378 0 -1.4313084026489378 -3.4604917136975928 0 0 0 0 0.086686013529156725 -1.3005615783526991 0 -1.3005615783526991 3.1210836058107816 0 0 0 0 -8.2357001703156882 -1.6705554422624118 0 -1.6705554422624118 6.7215037936948647 0 0 0 0 0.013038393122582403 -0.0088993543239670458 0 -0.0088993543239670458 -0.018464627428457447 0 0 0 0 1.5841311381639098 -0.55659338312216278 0 -0.55659338312216278 3.3732613227712136 0 0 0 0 6.5563710352500664 -5.4082805720981924 0 -5.4082805720981924 4.2760270474791469 0 0 0 0 22.116830683542531 -16.974058894835252 0 -16.974058894835252 6.9895443834634534 0 0 0 0 -5.1846956240727593 -16.432157357161486 0 -16.432157357161486 43.333047356278257 0 0 0 0 0.046038753397639451 0.082228657549034523 0 0.082228657549034523 0.11278491093171539 0 0 0 0 18.611949537291743 -29.396133361356078 0 -29.396133361356078 47.792121936512558 0 0 0 0 21.432756254252013 42.001858767639533 0 42.001858767639533 60.853316131715474 0 0 0 0 34.098197410550128 11.208627645948582 0 11.208627645948582 4.4394870344513038 0 0 0 0 36.918232146678989 47.346004954678392 0 47.346004954678392 44.455333737597357 0 0 0 0 24.49535813997619 8.8657612045844871 0 8.8657612045844871 3.8295421133643686 0 0 0 0 -0.008810928661539711 10.960420791045481 0 10.960420791045481 20.575460579879291 0 0 0 0 -4.8146902153770492 -4.8145680086254288 0 -4.8145680086254288 6.7853099367225695 0 0 0 0 -2.0010020947662497 0.37491703357591177 0 0.37491703357591177 6.9366629950673087 0 0 0 0 -0.60024934754688286 -0.55350500037131045 0 -0.55350500037131045 0.79733398052898252 0 0 0 0 2.4530011741157978 3.3533008340000379 0 3.3533008340000379 5.7375651324327919 0 0 0 0 1.4322453509156503 1.3250389732456824 0 1.3250389732456824 3.3288391189598769 0 0 0 0 0.43649181834695128 8.0820581091047643 0 8.0820581091047643 15.324622053325584 0 0 0 0 -1.6089739301110058 2.9570985078062222 0 2.9570985078062222 7.9367577426869502 0 0 0 0 -3.3437225884315467 2.4693735857454158 0 2.4693735857454158 8.12705236329748 0 0 0 0 -1.8883759746745454 1.5245261947311519 0 1.5245261947311519 7.7384418929632375 0 0 0 0 -4.0790554908104468 -1.9222632939799951 0 -1.9222632939799951 1.100779545315163 0 0 0 0 -2.1006284377996849 -1.3639343639360959 0 -1.3639343639360959 -1.8465000763862918 0 0 0 0 -1.0032087472672737 0.57433534587016766 0 0.57433534587016766 6.0610138500087487 0 0 0 0 -0.72279455642431556 -0.75539750903627478 0 -0.75539750903627478 0.60180334307334959 0 0 0 0 -8.2414994391374421 -1.3638639011587657 0 -1.3638639011587657 5.3525361055071699 0 0 0 0 20.380119060480752 26.938622872301494 0 26.938622872301494 27.282803745358251 0 0 0 0 1.2755586705829955 -0.032741319306296646 0 -0.032741319306296646 -5.8866095182565914 0 0 0 0 -0.035855055978847084 0.0041969803080172952 0 0.0041969803080172952 0.3819468022494874 0 0 0 0 5.3461470725663105 -17.525146258289624 0 -17.525146258289624 11.695807643940498 0 0 0 0 -8.0149133021711805 -3.3987955411685107 0 -3.3987955411685107 45.968179903919008 0 0 0 0 -2.7454508216571867 13.78744297490266 0 13.78744297490266 51.933725236085593 0 0 0 0 -8.20825071129957 9.6522869794125654 0 9.6522869794125654 27.744451053938974 0 0 0 0 -3.0396548578039528 6.2391932624068431 0 6.2391932624068431 27.561221103098433 0 0 0 0 -4.0322704320196863 14.811491854996575 0 14.811491854996575 34.837383414182113 0 0 0 0 13.106877311811786 12.039510935443104 0 12.039510935443104 9.7292262583123374 0 0 0 0 -7.9728518233662271 5.1794887063824717 0 5.1794887063824717 17.990073339900846 0 0 0 0 -4.5412077722733812 10.299456826993151 0 10.299456826993151 23.755964384661638 0 0 0 0 -13.73980730232438 3.6317588277997856 0 3.6317588277997856 29.189506128828725 0 0 0 0 -13.053671852553748 3.1607118706006077 0 3.1607118706006077 25.277025990473703 0 0 0 0 -14.980717723236715 -3.6582716004215854 0 -3.6582716004215854 28.00188903058006 0 0 0 0 -16.051475268224337 1.7085421949711872 0 1.7085421949711872 25.452421294925443 0 0 0 0 -8.0850637571439847 3.9578935318240838 0 3.9578935318240838 22.598258265219556 0 0 0 0 -5.77195324952379 -13.135181452524193 0 -13.135181452524193 24.996068541309796 0 0 0 0 -8.8898129899520768 -5.1672329544016975 0 -5.1672329544016975 22.273528271402029 0 0 0 0 -9.1310194104179345 -8.1207550233957591 0 -8.1207550233957591 20.567542691882409 0 0 0 0 -0.26403394938870406 -10.572812916170733 0 -10.572812916170733 17.23816176546643 0 0 0 0 -4.0447901798661121 -5.2417460731339816 0 -5.2417460731339816 9.746625505395059 0 0 0 0 -3.3937810666369614 -2.6274488353064953 0 -2.6274488353064953 8.1270893707769574 0 0 0 0 -7.8990833961518092 0.062642349017551169 0 0.062642349017551169 17.010655652786227 0 0 0 0 -3.2173211509183943 3.3857003626612823 0 3.3857003626612823 12.717080582930066 0 0 0 0 -8.0737206804893731 -1.6104017839097651 0 -1.6104017839097651 18.374868765820793 0 0 0 0 -4.3698498235190186 -5.2191285061499002 0 -5.2191285061499002 13.124808961310919 0 0 0 0 -3.7268816527156332 -2.3341703227233666 0 -2.3341703227233666 12.299900610487384 0 0 0 0 -3.1972848982197206 -0.81715173174688971 0 -0.81715173174688971 6.5694190244503261 0 0 0 0 -3.2173866858795463 -0.10445714576417231 0 -0.10445714576417231 10.065727321461964 0 0 0 0 -0.97772533621510749 -0.38208295634811762 0 -0.38208295634811762 0.3818285672477959 0 0 0 0 -0.61756607772542793 -0.44066436546927434 0 -0.44066436546927434 2.899572520997026 0 0 0 0 -0.78100960722113655 0.024706970966690278 0 0.024706970966690278 1.198532829407668 0 0 0 0 -0.82551674223684413 0.05822104173029885 0 0.05822104173029885 0.2640681519870185 0 0 0 0 -2.6192996824780721 -3.3907545499278058 0 -3.3907545499278058 6.6258581588355696 0 0 0 0 1.305533852691724 -1.5096755302793099 0 -1.5096755302793099 -0.77381499595867353 0 0 0 0 -1.5651798739625953 -1.2842926848634306 0 -1.2842926848634306 0.23905076143819315 0 0 0 0 -0.72996623816923722 -0.36000044882957738 0 -0.36000044882957738 0.082286333035082926 0 0 0 0 -2.6160523355321175 -3.0619656752223818 0 -3.0619656752223818 7.7274243957490398 0 0 0 0 -0.22000854668913217 -0.097912214646619589 0 -0.097912214646619589 -0.024716519134223347 0 0 0 0 -0.32601480957359286 -0.35846308540430982 0 -0.35846308540430982 0.130614252822852 0 0 0 0 -0.44699362242184293 -0.21663042623731599 0 -0.21663042623731599 0.42849411628412781 0 0 0 0 -0.14364508252191871 -0.33265369033304282 0 -0.33265369033304282 0.25555409556375253 0 0 0 0 -2.7246098216524288 7.1046810162006295 0 7.1046810162006295 0.372285086528791 0 0 0 0 -0.24485808170796541 -0.058784979360073208 0 -0.058784979360073208 0.17534097240603685 0 0 0 0 0.58490497460249635 2.7581432333226985 0 2.7581432333226985 0.55861198576167226 0 0 0 0 -3.6156046420666783 -1.7956434506613732 0 -1.7956434506613732 1.7686762742175119 0 0 0 0 -1.3679071412717434 0.43728118977810482 0 0.43728118977810482 2.1940443783423689 0 0 0 0 -4.6244914096647278 -0.16823760654824582 0 -0.16823760654824582 4.7455342474631834 0 0 0 0 -1.8507995269773403 0.19365183652644191 0 0.19365183652644191 3.0133688612104379 0 0 0 0 -0.6279440345294458 -0.19800460445163459 0 -0.19800460445163459 2.185513056118964 0 0 0 0 -2.3444721682429304 -0.80249815035176653 0 -0.80249815035176653 0.1831323686928954 0 0 0 0 -0.55737467955077591 0.13796361562708626 0 0.13796361562708626 0.96423141127797862 0 0 0 0 -1.121157343761892 0.79119951600890204 0 0.79119951600890204 2.2194982573303434 0 0 0 0 -2.8717240611738908 -1.146522199555311 0 -1.146522199555311 1.3272964144022552 0 0 0 0 -1.3505366848343108 -0.30678048986295536 0 -0.30678048986295536 1.3470704850756441 0 0 0 0 -1.3829053641177325 2.2356651823583888 0 2.2356651823583888 5.510421735158161 0 0 0 0 -0.96858430502497583 0.44897267551004916 0 0.44897267551004916 3.5737722730882524 0 0 0 0 -1.5396164912042691 -0.038888516560199093 0 -0.038888516560199093 1.7301544095070338 0 0 0 0 -1.5902965181822992 -0.17995109601906734 0 -0.17995109601906734 3.4952229720402102 0 0 0 0 -1.305763934403501 -0.17194033938903885 0 -0.17194033938903885 3.409763182144161 0 0 0 0 -1.9277175946638181 0.2743563521435135 0 0.2743563521435135 3.365041604231692 0 0 0 0 -1.1736438483276941 0.38258796595436095 0 0.38258796595436095 3.4848869605758992 0 0 0 0 -1.5325919112413535 -0.18519642245843215 0 -0.18519642245843215 1.7917412778999733 0 0 0 0 -1.5869657296329649 0.81355800332403305 0 0.81355800332403305 2.9583518724903115 0 0 0 0 -2.621932831157352 0.093828468905485352 0 0.093828468905485352 3.6678340072285209 0 0 0 0 -0.13017146166951843 -0.0040131441843342941 0 -0.0040131441843342941 1.1325433395019839 0 0 0 0 -1.2518214926793689 2.1951347148369678 0 2.1951347148369678 2.9038234929230384 0 0 0 0 -0.29917043562636536 1.4643703118135818 0 1.4643703118135818 2.2513975557967569 0 0 0 0 -1.3187203081530754 2.0071744552064956 0 2.0071744552064956 2.6685157744941534 0 0 0 0 -1.6519683262946074 1.1630722688378228 0 1.1630722688378228 2.2952511733201391 0 0 0 0 -0.5134020811313178 0.627045752070444 0 0.627045752070444 2.2027899356411353 0 0 0 0 0.11619127586558875 1.0020981230627513 0 1.0020981230627513 2.1288061507775637 0 0 0 0 0.40197598900029241 0.7884340147799449 0 0.7884340147799449 -0.39250276374092152 0 0 0 0 -0.90715626950353823 1.987837723260327 0 1.987837723260327 2.3919739135326381 0 0 0 0 -14.600323638560312 -3.7869912123223912 0 -3.7869912123223912 35.977206456542262 0 0 0 0 -11.605623105400809 12.179448046697871 0 12.179448046697871 27.045971601983183 0 0 0 0 -6.9256800279116852 2.659224473136419 0 2.659224473136419 13.486892661583624 0 0 0 0 -9.6747203375071926 11.49256102000345 0 11.49256102000345 3.3936716099851765 0 0 0 0 -14.25143096282893 -0.30027956361300312 0 -0.30027956361300312 12.643342881248827 0 0 0 0 -6.0417331339635645 0.740530998498798 0 0.740530998498798 0.12197637683493667 0 0 0 0 -7.7784409905175904 -4.3229330282647425 0 -4.3229330282647425 5.1629723128462501 0 0 0 0 -6.8582422797125702 -3.9560506885291034 0 -3.9560506885291034 3.1418100293376483 0 0 0 0 -0.23486835002794088 0.21700751949127195 0 0.21700751949127195 1.5575734495354041 0 0 0 0 -3.9822968870244466 -3.0040298410906416 0 -3.0040298410906416 -5.3958719704605755 0 0 0 0 -9.2599398102016863 -8.9574901439664245 0 -8.9574901439664245 17.06023823571195 0 0 0 0 -8.3898830429702151 -5.5445162427367904 0 -5.5445162427367904 4.4221366089514049 0 0 0 0 -3.9964084096919308 -9.9777392893374781 0 -9.9777392893374781 4.0032841642919266 0 0 0 0 -3.3697731254021779 -6.9196749200739305 0 -6.9196749200739305 -2.9431469565533916 0 0 0 0 0.95628629859282199 -8.3788578487583436 0 -8.3788578487583436 -5.0274538161538658 0 0 0 0 0.22317837756096992 -11.580079032602953 0 -11.580079032602953 -3.4233834438564372 0 0 0 0 -4.1921997326619902 -11.084919862973038 0 -11.084919862973038 -2.2504774789995281 0 0 0 0 -2.9437361530320203 -14.791719516286321 0 -14.791719516286321 -2.0721976592249121 0 0 0 0 -2.7681120365970315 -14.5649695262764 0 -14.5649695262764 -8.4633133893366903 0 0 0 0 -0.77239431324871077 -14.132149482000386 0 -14.132149482000386 -9.9498888927992084 0 0 0 0 -10.786710420317291 -15.866190685555921 0 -15.866190685555921 26.11163336313075 0 0 0 0 -4.8096684752588743 -12.145593915645804 0 -12.145593915645804 3.662146048998693 0 0 0 0 -9.2612655439015157 -13.569842456035985 0 -13.569842456035985 4.6217338106544048 0 0 0 0 -0.29792317935880419 -12.849408177606165 0 -12.849408177606165 -8.0243897158507025 0 0 0 0 6.9262164726107471 -16.833039701399684 0 -16.833039701399684 -13.241443889326547 0 0 0 0 -1.9136820084887134 -16.723744409015126 0 -16.723744409015126 -12.676534539234126 0 0 0 0 3.2199851677901989 -12.401368450588052 0 -12.401368450588052 -9.7218266462805332 0 0 0 0 0.56573211041187932 -9.8559048594415799 0 -9.8559048594415799 -10.130674281608663 0 0 0 0 3.0050931975895478 -10.885152008248269 0 -10.885152008248269 -11.521892717246374 0 0 0 0 0.25285953858636478 -3.9219645705634321 0 -3.9219645705634321 -11.895950091020495 0 0 0 0 6.5246766222206176 -9.4302687870513182 0 -9.4302687870513182 -15.564983779051545 0 0 0 0 9.4231787550439243 -5.6132334683334193 0 -5.6132334683334193 -15.98230397356383 0 0 0 0 7.380354069025195 -18.690842755226186 0 -18.690842755226186 -9.3287477340782061 0 0 0 0 6.2674992164172973 -12.294686177083349 0 -12.294686177083349 -17.187141172449628 0 0 0 0 11.045400789714151 -11.867028749198653 0 -11.867028749198653 -7.7209080327020274 0 0 0 0 1.9428423480336221 2.8459226404834226 0 2.8459226404834226 -7.9629996799558285 0 0 0 0 4.5622894215200294 -10.490520088486846 0 -10.490520088486846 -6.2480577545647975 0 0 0 0 12.539205802647452 -10.907227971736575 0 -10.907227971736575 -6.2580194933159419 0 0 0 0 -7.2842886707327974 5.657728734491684 0 5.657728734491684 -7.585051418900548 0 0 0 0 -2.4306363286964086 -23.680530909943627 0 -23.680530909943627 -26.889511423818476 0 0 0 0 9.9635925504790528 -1.7184344177112507 0 -1.7184344177112507 -32.805927707413503 0 0 0 0 4.6007214155349061 5.4384976000183087 0 5.4384976000183087 -19.207270895138208 0 0 0 0 -12.591065380766786 -20.924015984602192 0 -20.924015984602192 -34.182198634654924 0 0 0 0 0.32408712203107504 -1.7782101358117188 0 -1.7782101358117188 0.33343546876858454 0 0 0 0 2.2932809688196372 0.6739931983211136 0 0.6739931983211136 0.94269944352527091 0 0 0 0 4.4726007265963688 -4.6606127011764329 0 -4.6606127011764329 -6.8075415357889142 0 0 0 0 0.094036620377946217 0.20710804479827516 0 0.20710804479827516 0.090164632334420958 0 0 0 0 0.16824203605073218 0.25229205109896569 0 0.25229205109896569 0.062321935956326513 0 0 0 0 9.6151959476963782 -4.7761468633416371 0 -4.7761468633416371 -1.3367939283962187 0 0 0 0 18.083207603146732 15.776731582637467 0 15.776731582637467 -8.8663741694253986 0 0 0 0 19.225259066104247 -1.7646283504291205 0 -1.7646283504291205 11.672727543998917 0 0 0 0 18.102100249270322 14.181017807601165 0 14.181017807601165 45.524447387109831 0 0 0 0 13.469845736568445 2.0521923898440946 0 2.0521923898440946 37.632651367235667 0 0 0 0 12.773968421172974 1.3086193766503129 0 1.3086193766503129 33.010055482363896 0 0 0 0 28.061347696552918 0.74635405056687887 0 0.74635405056687887 32.345401669044804 0 0 0 0 15.667872216729155 -1.2797871891016257 0 -1.2797871891016257 54.227945413751058 0 0 0 0 24.522234599689078 -1.6595329132924235 0 -1.6595329132924235 31.81598993458465 0 0 0 0 14.838947492983486 -10.99120991475138 0 -10.99120991475138 21.16145518283156 0 0 0 0 20.868183011416761 -4.9815948314044363 0 -4.9815948314044363 15.293633921872242 0 0 0 0 10.751073868588207 4.3991575942891359 0 4.3991575942891359 8.3361329659164767 0 0 0 0 13.975938912322604 -1.8265620464080712 0 -1.8265620464080712 13.850016754375247 0 0 0 0 2.0307179745004884 -11.230607721441629 0 -11.230607721441629 9.8899534173397115 0 0 0 0 7.7858267751223416 -15.424701885956893 0 -15.424701885956893 4.2845190348525648 0 0 0 0 8.1058218014837138 -10.503407840968066 0 -10.503407840968066 16.909994116453163 0 0 0 0 8.0231571133713935 -8.4879126847317821 0 -8.4879126847317821 20.290089447284117 0 0 0 0 15.817927014222079 -10.102448910154635 0 -10.102448910154635 4.1776906272924634 0 0 0 0 13.880764872745488 -1.0518218028737465 0 -1.0518218028737465 31.990195093760121 0 0 0 0 15.549016691804383 -0.21566432319013984 0 -0.21566432319013984 29.899706480442546 0 0 0 0 16.21588237049027 -11.684173152593758 0 -11.684173152593758 17.002272649355291 0 0 0 0 10.362976858484643 -11.42992963859524 0 -11.42992963859524 29.763967657978355 0 0 0 0 1.8475825815426958 -12.278404666212737 0 -12.278404666212737 18.445158008988074 0 0 0 0 9.769659626423163 -4.6565844136857777 0 -4.6565844136857777 13.189425261992255 0 0 0 0 2.3072968274890684 -15.85992249467381 0 -15.85992249467381 11.399844946306985 0 0 0 0 12.195425342952511 -12.414449867021176 0 -12.414449867021176 0.66265395739173982 0 0 0 0 5.6418082725450631 -19.578515808395423 0 -19.578515808395423 -0.5512467755106627 0 0 0 0 -0.77524959518223113 13.00273961326684 0 13.00273961326684 10.500737090707844 0 0 0 0 0.42546915114121475 12.234628460254044 0 12.234628460254044 2.2225339449814783 0 0 0 0 18.25272654047572 5.167799207067219 0 5.167799207067219 -10.627945064680716 0 0 0 0 17.636742251991862 18.911354535401642 0 18.911354535401642 24.833800727748894 0 0 0 0 26.601522616418549 3.3322052124376569 0 3.3322052124376569 5.010926185774224 0 0 0 0 35.182369590747271 -3.4982346752985904 0 -3.4982346752985904 30.648276159257875 0 0 0 0 25.249792474510457 18.898185965855646 0 18.898185965855646 3.846519929013084 0 0 0 0 -8.6531604360441747 12.033213910666746 0 12.033213910666746 29.296881840564311 0 0 0 0 -12.734792020353552 40.212179691073288 0 40.212179691073288 -6.2754898011280602 0 0 0 0 -62.06825168968868 -16.644039830800693 0 -16.644039830800693 -6.2947690362088906 0 0 0 0 -51.481178654604378 25.173978130098476 0 25.173978130098476 20.345487081172905 0 0 0 0 -28.413503144010519 -26.194529250380583 0 -26.194529250380583 22.489759925338149 0 0 0 0 -31.506724751720583 -14.435993947221505 0 -14.435993947221505 68.824473639870121 0 0 0 0 -74.177267968988943 -63.494369993409236 0 -63.494369993409236 1.6532537475741265 0 0 0 0 0.82114794888322296 -3.0263450862745875 0 -3.0263450862745875 8.5076239450603452 0 0 0 0 -13.288377954512839 19.61604268004794 0 19.61604268004794 14.44902400700812 0 0 0 0 -19.331532619241031 -57.765640038223864 0 -57.765640038223864 -44.206058709874014 0 0 0 0 -12.385678646924767 21.529795144092532 0 21.529795144092532 -1.7674520826822118 0 0 0 0 -107.58995080335002 -65.900127520631486 0 -65.900127520631486 51.834469071833155 0 0 0 0 0.42838832812041155 -2.2512872864458657 0 -2.2512872864458657 7.2755121489932861 0 0 0 0 -7.149689159501861 -9.086979126515871 0 -9.086979126515871 77.682812042746605 0 0 0 0 40.52818126317942 25.740684280558526 0 25.740684280558526 39.443166807241141 0 0 0 0 12.76479941317433 -18.159045203739879 0 -18.159045203739879 25.850512632583559 0 0 0 0 40.376004741419138 35.068408743054533 0 35.068408743054533 113.53834650034241 0 0 0 0 28.267029064411986 2.785751613744651 0 2.785751613744651 99.17334055410663 0 0 0 0 41.110147920576026 18.351030267947863 0 18.351030267947863 50.227637666782357 0 0 0 0 49.685541500950649 1.0972870304121898 0 1.0972870304121898 59.140898134499366 0 0 0 0 30.878936430010356 3.431042183050522 0 3.431042183050522 16.189176046576904 0 0 0 0 43.667196246327208 -5.4357097470920053 0 -5.4357097470920053 20.738863906462939 0 0 0 0 44.985260208422005 -5.1093882847128498 0 -5.1093882847128498 11.724792013410479 0 0 0 0 24.877845212311627 -19.009115086088059 0 -19.009115086088059 -11.490700374649577 0 0 0 0 36.124280600156737 -4.1028071508521862 0 -4.1028071508521862 -9.541336852904351 0 0 0 0 23.089245820604447 -2.1443028714529646 0 -2.1443028714529646 -2.0545297458938876 0 0 0 0 38.854412445831599 -4.6883294553881569 0 -4.6883294553881569 -2.2423867131110455 0 0 0 0 7.1571015352141245 -6.9152568546160182 0 -6.9152568546160182 8.5011083416720794 0 0 0 0 7.8757221806364441 -11.032478490846188 0 -11.032478490846188 12.335043408663296 0 0 0 0 11.266030285204902 -25.229227568493002 0 -25.229227568493002 -15.341040886578412 0 0 0 0 -35.846917275970327 -36.457076488510211 0 -36.457076488510211 -8.0719412384896714 0 0 0 0 -63.146690289579794 -13.142732174717366 0 -13.142732174717366 -5.6840409037395148 0 0 0 0 -26.049820269283828 -14.771739458341472 0 -14.771739458341472 -28.828877697949792 0 0 0 0 5.4105070402779916 -24.518617610268848 0 -24.518617610268848 -25.072930977206852 0 0 0 0 -22.071892773858906 -25.895124512819166 0 -25.895124512819166 -15.02651027135289 0 0 0 0 -1.2206427720901729 -27.065089610594441 0 -27.065089610594441 -10.853757894204932 0 0 0 0 -4.3831147695942718 -26.565196806972381 0 -26.565196806972381 -23.314705335265899 0 0 0 0 -4.1027220510559177 -18.399087873613155 0 -18.399087873613155 -11.23884973848908 0 0 0 0 -23.342807181924002 -25.218854661055957 0 -25.218854661055957 -7.8311895266051579 0 0 0 0 -0.037863854904273575 -2.5644624974579173 0 -2.5644624974579173 9.5308598770807933 0 0 0 0 -57.575602091644896 -21.71912609401079 0 -21.71912609401079 -2.8958163542483817 0 0 0 0 -22.596993814062273 -30.257086903280651 0 -30.257086903280651 -23.778036355489348 0 0 0 0 35.997939315906677 0.1408367921185345 0 0.1408367921185345 -10.022326541367875 0 0 0 0 7.040394000973329 -10.386888210370444 0 -10.386888210370444 -12.93903683121971 0 0 0 0 7.9799962644730158 -24.24038672334791 0 -24.24038672334791 -15.719645312088687 0 0 0 0 15.172053736292071 -7.8858257363099256 0 -7.8858257363099256 -8.1331156238229596 0 0 0 0 20.830160942395054 -11.191601823285509 0 -11.191601823285509 -12.219386652028334 0 0 0 0 6.8112204426170138 -13.684356806495998 0 -13.684356806495998 -4.2101238845189073 0 0 0 0 4.5009435112292238 -18.956789213014417 0 -18.956789213014417 -2.5965255693481595 0 0 0 0 4.0042632725655949 -17.232334753009127 0 -17.232334753009127 -7.8400832330971753 0 0 0 0 -4.540561326321594 -19.895356314566015 0 -19.895356314566015 -2.4666666702760267 0 0 0 0 -0.61491658837198315 -13.348526740969646 0 -13.348526740969646 3.9523142762118368 0 0 0 0 2.679912716371966 -5.0243399626767768 0 -5.0243399626767768 12.545895844104962 0 0 0 0 -6.0263590496113864 -21.515181214343102 0 -21.515181214343102 -3.6486834673087287 0 0 0 0 -0.41576501163285917 0.89787287380440794 0 0.89787287380440794 1.2922000166238234 0 0 0 0 -5.5362927478842323 -24.511113526187728 0 -24.511113526187728 0.07647465684931376 0 0 0 0 -5.6575249873915254 -18.982825688730372 0 -18.982825688730372 -9.1652296661814034 0 0 0 0 -6.114060587214567 -22.320291222977175 0 -22.320291222977175 9.7134868347384327 0 0 0 0 -29.546407081707088 91.130978582552416 0 91.130978582552416 -30.957574050349649 0 0 0 0 -0.43466128806829829 1.7877327373334992 0 1.7877327373334992 4.9897956577447076 0 0 0 0 -0.4919596648921758 -1.2118162131944814 0 -1.2118162131944814 3.9869660035035928 0 0 0 0 -0.53568676851554642 2.2688437061233344 0 2.2688437061233344 3.5284834075473555 0 0 0 0 -0.60784853956357665 0.14944173662479443 0 0.14944173662479443 3.8161509374469915 0 0 0 0 -1.5730439818447337 1.8687648550803715 0 1.8687648550803715 2.4629313935593018 0 0 0 0 -1.1711347287378544 1.9336994888162735 0 1.9336994888162735 2.3834677665272466 0 0 0 0 -0.26626759194256511 1.3995695565332014 0 1.3995695565332014 2.4698348193155581 0 0 0 0 -2.0696071142660486 1.7006033053257852 0 1.7006033053257852 4.0573279777781863 0 0 0 0 -10.524923284002739 14.414598956323971 0 14.414598956323971 16.833411561225148 0 0 0 0 -3.8108613892328549 -2.9410257269901194 0 -2.9410257269901194 49.587136533356897 0 0 0 0 -0.89850217168674906 1.160585826494561 0 1.160585826494561 0.019050415450818647 0 0 0 0 6.1118884629499917 7.5157059602188383 0 7.5157059602188383 -10.551895874556067 0 0 0 0 7.1899443595141292 1.6481047764264076 0 1.6481047764264076 -2.1844817788369255 0 0 0 0 -0.2093980626263463 0.79783900802430274 0 0.79783900802430274 -0.35726224745460655 0 0 0 0 5.0537219396946966 7.9718114314309787 0 7.9718114314309787 -5.2596605576982256 0 0 0 0 -2.5578500477599722 4.1295643570611489 0 4.1295643570611489 -0.22758562760582102 0 0 0 0 -17.806994746684779 14.190730443686334 0 14.190730443686334 7.5500899587532331 0 0 0 0 -1.7102094075632026 2.5369389623950092 0 2.5369389623950092 2.6806355151165011 0 0 0 0 -4.346466745935686 6.9789455067366362 0 6.9789455067366362 -2.2295164669631049 0 0 0 0 6.3873852029678346 10.094836735024728 0 10.094836735024728 -3.5667093516531168 0 0 0 0 -1.1661614583803404 0.26773523609033845 0 0.26773523609033845 1.6000782920076659 0 0 0 0 1.407861199989926 3.9053422066672283 0 3.9053422066672283 8.404797878323734 0 0 0 0 1.5264000076573083 3.5263597665889392 0 3.5263597665889392 9.3558555247245749 0 0 0 0 -27.284301051059401 -9.1878935808861115 0 -9.1878935808861115 180.93514116783263 0 0 0 0 -20.145825614927503 2.5506478196305125 0 2.5506478196305125 86.65075403377341 0 0 0 0 -32.122513231509188 24.775134352794339 0 24.775134352794339 155.19997223169969 0 0 0 0 -7.3898573901233675 0.46764402498592972 0 0.46764402498592972 8.8383611312274297 0 0 0 0 -4.6532015599312331 -0.98476039513161595 0 -0.98476039513161595 9.4876985752616747 0 0 0 0 -0.40328061397336612 0.10992908498908349 0 0.10992908498908349 -0.055485329439836306 0 0 0 0 -9.6218623142461297 2.7049418866954511 0 2.7049418866954511 17.460095195518079 0 0 0 0 -0.34885896825214502 16.149906283754262 0 16.149906283754262 35.166847074075122 0 0 0 0 0.65553482419534248 -21.580573668941724 0 -21.580573668941724 99.898571900734169 0 0 0 0 33.769726287277763 3.682801851037766 0 3.682801851037766 59.910131277027176 0 0 0 0 40.779240641689199 32.978946075996646 0 32.978946075996646 42.051829688775797 0 0 0 0 44.897547743616798 37.849423870745341 0 37.849423870745341 107.06059213736808 0 0 0 0 54.113452789766058 15.546478126864258 0 15.546478126864258 15.331782007400761 0 0 0 0 39.136958582670275 18.766479361735037 0 18.766479361735037 4.6614571875106776 0 0 0 0 29.204566385247631 0.083941635476548981 0 0.083941635476548981 2.6943688478731929 0 0 0 0 35.054761936134966 10.336747024608258 0 10.336747024608258 15.150570499157766 0 0 0 0 13.303918621125689 7.1090754060569452 0 7.1090754060569452 -0.5467286196517307 0 0 0 0 27.373463330100833 4.591826191387554 0 4.591826191387554 -4.4990146647214715 0 0 0 0 9.2880564201551365 -2.1791935272665341 0 -2.1791935272665341 -3.1663417339586886 0 0 0 0 9.5395046702064974 -0.79779048522868834 0 -0.79779048522868834 -5.8187570538848377 0 0 0 0 5.4300330018832597 -2.4795099514576577 0 -2.4795099514576577 -2.6409408905192322 0 0 0 0 4.5244279706243162 2.5663064840518928 0 2.5663064840518928 -2.9278302226903179 0 0 0 0 14.097289110733641 3.5382898785592261 0 3.5382898785592261 -3.4151637135200872 0 0 0 0 10.27806776834953 8.1254253158313077 0 8.1254253158313077 -0.55471975217369618 0 0 0 0 6.1536477692330038 6.6208344006427069 0 6.6208344006427069 -1.9977856085533858 0 0 0 0 5.472915063458089 7.6803139149733397 0 7.6803139149733397 0.67525886262228596 0 0 0 0 9.7057819233077538 7.249896029629781 0 7.249896029629781 -1.8919331874894851 0 0 0 0 10.088582554034033 9.8927919278467016 0 9.8927919278467016 1.7321910812061105 0 0 0 0 9.2749866091050137 7.4546649377753056 0 7.4546649377753056 0.14658490995861939 0 0 0 0 16.303498374244128 11.460981430055654 0 11.460981430055654 2.3392349916066451 0 0 0 0 4.0452197652136022 14.892493136478151 0 14.892493136478151 16.051363838047109 0 0 0 0 -3.9888809269532999 7.8013627178297611 0 7.8013627178297611 9.813993300031143 0 0 0 0 -12.596667277063762 1.722454953227043 0 1.722454953227043 7.7397327607213811 0 0 0 0 -10.258973405286667 5.2144741360261833 0 5.2144741360261833 11.85964177965343 0 0 0 0 -6.2756208809154259 4.4607674047383625 0 4.4607674047383625 6.8459881702574421 0 0 0 0 -4.72465744246621 3.7216386494601466 0 3.7216386494601466 6.2428052730465424 0 0 0 0 3.6040529184369703 3.3905603808266278 0 3.3905603808266278 -2.0393770496448269 0 0 0 0 -3.8304476826790221 1.7498841760716459 0 1.7498841760716459 -1.8235136499224609 0 0 0 0 12.573998545212675 4.0242423052804952 0 4.0242423052804952 -6.3322239771778186 0 0 0 0 -0.41921045461294776 0.089828890090622338 0 0.089828890090622338 0.77415442985367378 0 0 0 0 -4.1801584758612762 -2.1802038267032913 0 -2.1802038267032913 -0.62898833318831748 0 0 0 0 -7.6456569842331454 1.0157566930142821 0 1.0157566930142821 -0.82877811718026351 0 0 0 0 -7.1725631102684346 7.0530780741737544 0 7.0530780741737544 -5.1184863977578061 0 0 0 0 0.78449914605938442 1.7154994659428624 0 1.7154994659428624 2.0931140966543822 0 0 0 0 -2.9901353935217685 1.0000754097727622 0 1.0000754097727622 4.8780879666446708 0 0 0 0 0.098317184733730301 2.5639172217033774 0 2.5639172217033774 4.8410768040070025 0 0 0 0 -1.0433201520858688 0.17076802033443528 0 0.17076802033443528 4.1080146162712481 0 0 0 0 0.18849542437600236 0.28273678948867964 0 0.28273678948867964 0.04136397451517837 0 0 0 0 0.067268404761364531 0.9984356215572916 0 0.9984356215572916 2.3375860807373101 0 0 0 0 4.8736457254128265 3.9121637794501112 0 3.9121637794501112 -0.92528027780281263 0 0 0 0 5.415627577557582 5.2453486364925084 0 5.2453486364925084 2.3385238705850497 0 0 0 0 2.8285252472169162 5.2825406823212688 0 5.2825406823212688 7.7440514092631929 0 0 0 0 2.7059776482453586 4.2662734903808541 0 4.2662734903808541 4.9895582214849128 0 0 0 0 -0.9946143339794542 3.1208660002703255 0 3.1208660002703255 8.1982026814257551 0 0 0 0 -0.016339393891229292 1.7379367158673631 0 1.7379367158673631 6.8963796115640434 0 0 0 0 -0.24322585392329188 -2.320286318818944 0 -2.320286318818944 5.7441446723005356 0 0 0 0 -0.42515636081051866 0.95855390297492704 0 0.95855390297492704 5.4279980880564835 0 0 0 0 -0.11004643465875216 0.24106003727474201 0 0.24106003727474201 3.2703383674784163 0 0 0 0 -1.6560577092404181 3.0868983727284558 0 3.0868983727284558 6.6969960170572449 0 0 0 0 0.98528435426894134 0.66847501644770091 0 0.66847501644770091 2.7593902644421178 0 0 0 0 1.0907620997691936 0.76454650155210402 0 0.76454650155210402 2.6883504517318215 0 0 0 0 0.27186796841163019 0.27839274168565353 0 0.27839274168565353 0.73708215620377615 0 0 0 0 0.62499070667041678 0.84488796918958542 0 0.84488796918958542 3.6932546710086172 0 0 0 0 1.166541936744693 1.064958502753143 0 1.064958502753143 3.4307166996313754 0 0 0 0 -4.7489751213281295 -0.95696134421746137 0 -0.95696134421746137 7.2304219256511715 0 0 0 0 2.7080252209035223 2.0494595994086922 0 2.0494595994086922 3.0924878236473887 0 0 0 0 -0.12800539382648718 0.62976823202570698 0 0.62976823202570698 3.5827619698974971 0 0 0 0 0.96849176874565046 0.76833974464170751 0 0.76833974464170751 3.2638062041805824 0 0 0 0 0.09372621936855538 -0.045831340044212965 0 -0.045831340044212965 0.030031288564593694 0 0 0 0 3.4708036047811532 -0.1816469478808358 0 -0.1816469478808358 -1.1940722647068469 0 0 0 0 4.1411642732473553 11.716123640240767 0 11.716123640240767 11.973838491394702 0 0 0 0 -9.8273464234351806 2.8505340895740119 0 2.8505340895740119 12.459828493188979 0 0 0 0 4.7844090649132838 -0.032814644027212125 0 -0.032814644027212125 2.6515074882045155 0 0 0 0 4.9328447504936968 0.85187376082035371 0 0.85187376082035371 0.98714861251573893 0 0 0 0 3.0129802898224796 1.3659890282087872 0 1.3659890282087872 0.85790956247637951 0 0 0 0 4.1699649413857571 -0.32986391100712353 0 -0.32986391100712353 1.3681193385200459 0 0 0 0 1.0813477683880315 0.98108971598821881 0 0.98108971598821881 2.2144986108469311 0 0 0 0 1.4701069922652152 0.4884601141056919 0 0.4884601141056919 2.5223588790850044 0 0 0 0 1.001440752481102 0.54338990940959775 0 0.54338990940959775 3.1092977682965284 0 0 0 0 2.1398236717608086 -0.65964934542535048 0 -0.65964934542535048 1.4601678884064313 0 0 0 0 1.7773550672971936 -0.24522558491844393 0 -0.24522558491844393 3.2505789161623397 0 0 0 0 2.5520909151086073 -2.0326416372954554 0 -2.0326416372954554 3.7534367315056443 0 0 0 0 2.8726978900122617 -3.2170207617109554 0 -3.2170207617109554 0.088369073579087853 0 0 0 0 5.685466830556436 -8.8786347220011521 0 -8.8786347220011521 4.6112476951475401 0 0 0 0 8.4907716155340154 -7.1011379541087081 0 -7.1011379541087081 -0.84773358697384538 0 0 0 0 6.9232789399537893 -3.3552972227298596 0 -3.3552972227298596 -4.1205387748268549 0 0 0 0 4.8692890441151349 -5.6062025360988628 0 -5.6062025360988628 2.4204495363446767 0 0 0 0 4.8813380064861747 -2.3954681173672725 0 -2.3954681173672725 -2.1533361166730174 0 0 0 0 3.5910093580991429 -1.1883059637048063 0 -1.1883059637048063 -2.4064886548694631 0 0 0 0 4.9809113347006928 -1.6631566600135557 0 -1.6631566600135557 0.055330523165622481 0 0 0 0 4.1513836899611789 -0.74764502159905533 0 -0.74764502159905533 -0.22754724842161522 0 0 0 0 5.1926735082953996 1.3404770138104141 0 1.3404770138104141 2.637684061555774 0 0 0 0 5.5334252886478907 0.65220057881015236 0 0.65220057881015236 -0.14153858455392765 0 0 0 0 6.9148353478289053 9.4889260984436987 0 9.4889260984436987 5.6980405815556878 0 0 0 0 4.1454168770985689 0.54618790689346497 0 0.54618790689346497 4.4225710069622437 0 0 0 0 8.0485241502218514 4.7273040034388032 0 4.7273040034388032 -2.2110503830044763 0 0 0 0 5.4732427445758134 1.118046007411067 0 1.118046007411067 -2.1157922822276305 0 0 0 0 1.2619975193413069 -1.9136147837748467 0 -1.9136147837748467 -9.8050471957030823 0 0 0 0 2.5261823881061218 1.3647433764635934 0 1.3647433764635934 -3.9777486135171785 0 0 0 0 3.5449353303503131 -0.11243010430735012 0 -0.11243010430735012 -1.8359232665043237 0 0 0 0 -2.6860529443105783 -6.916135358000929 0 -6.916135358000929 -7.3376806895303162 0 0 0 0 2.8669950919932603 -3.2167998500299291 0 -3.2167998500299291 -5.4704294735311123 0 0 0 0 4.9717541333467352 -2.0014779934917897 0 -2.0014779934917897 -5.11204300542704 0 0 0 0 -3.8858746670870801 -1.6082625922354055 0 -1.6082625922354055 -1.6332889042932948 0 0 0 0 -2.3713520577306895 0.87188692384188471 0 0.87188692384188471 10.146243012000923 0 0 0 0 1.0730415689827186 0.53581080955704863 0 0.53581080955704863 0.72186048802471703 0 0 0 0 1.2533065491025468 0.35525378764850757 0 0.35525378764850757 5.3479295395154622 0 0 0 0 14.0280639410189 -4.6027042522910051 0 -4.6027042522910051 5.1211880474220379 0 0 0 0 0.22093345786682572 0.18674704657133212 0 0.18674704657133212 0.38761554312020152 0 0 0 0 12.862363566851499 12.250737500642572 0 12.250737500642572 -1.8996297183639399 0 0 0 0 0.1029726977173222 0.22760582452601952 0 0.22760582452601952 0.40823611930345649 0 0 0 0 9.7966582988040045 -19.912432783974509 0 -19.912432783974509 16.374231936008073 0 0 0 0 0.46808048357854337 -1.6056456475326559 0 -1.6056456475326559 2.6812784105493712 0 0 0 0 1.4380605485359474 0.090327395470808369 0 0.090327395470808369 5.4723277351913566 0 0 0 0 1.4326174388973953 0.15267336845022328 0 0.15267336845022328 4.761352323803294 0 0 0 0 0.64502186321480848 -0.21063079668370932 0 -0.21063079668370932 2.6231527927685683 0 0 0 0 0.85978810414831686 1.4372974946667796 0 1.4372974946667796 2.0074891238015837 0 0 0 0 1.2385865979296113 1.0272996575031357 0 1.0272996575031357 4.5146050849298263 0 0 0 0 0.73772671856414718 0.73919598722386581 0 0.73919598722386581 3.3211766973818158 0 0 0 0 1.6838803503492272 0.53897327794402372 0 0.53897327794402372 5.4147102358601842 0 0 0 0 1.2175426965452341 1.0583627661273525 0 1.0583627661273525 2.1530600030009168 0 0 0 0 1.1437243333409697 5.1837133964536406 0 5.1837133964536406 -5.2337802466354333 0 0 0 0 1.0519566903671147 -0.13237482823985403 0 -0.13237482823985403 1.5382780732870351 0 0 0 0 0.47486530629652179 0.39662854964171856 0 0.39662854964171856 5.1115451918212784 0 0 0 0 -9.1528654860751146 10.771185403215441 0 10.771185403215441 22.18156245812861 0 0 0 0 3.9508695689342517 -13.349173671882454 0 -13.349173671882454 19.385126867604868 0 0 0 0 -1.82217027115599 -4.2780205383737666 0 -4.2780205383737666 9.2995489669156086 0 0 0 0 -0.43809852987181586 -1.1668957657807368 0 -1.1668957657807368 3.5258543507006834 0 0 0 0 0.81750415735672277 0.95304663940714818 0 0.95304663940714818 2.8081089802999486 0 0 0 0 0.97850025694121712 0.95132147708318371 0 0.95132147708318371 2.5946418680505303 0 0 0 0 0.71392882677973868 0.71655647540938006 0 0.71655647540938006 1.1280171145189506 0 0 0 0 0.46108950553497152 0.57158644400806224 0 0.57158644400806224 3.3279363164510869 0 0 0 0 1.1166829366998172 1.2842856179595401 0 1.2842856179595401 5.8932773767319304 0 0 0 0 0.18241594704373743 -0.54856965752503584 0 -0.54856965752503584 1.9232365303666548 0 0 0 0 1.9706192316293141 2.8503145632530504 0 2.8503145632530504 4.5355896420878707 0 0 0 0 -0.045776699490829742 2.2792556135664199 0 2.2792556135664199 6.0493884870284091 0 0 0 0 0.76788500689449646 0.53281374580371477 0 0.53281374580371477 0.65508015056074509 0 0 0 0 1.1897810741631822 -1.8084622878861865 0 -1.8084622878861865 2.9963990037522308 0 0 0 0 0.81086475682080916 1.0839895727119142 0 1.0839895727119142 2.1657683926496247 0 0 0 0 4.2701551333874477 4.5267680962406303 0 4.5267680962406303 5.7561771089058311 0 0 0 0 1.4445036324657394 3.6949920074039255 0 3.6949920074039255 7.2607287426944822 0 0 0 0 0.11820280533864422 0.13064861479534873 0 0.13064861479534873 0.048814872481841576 0 0 0 0 0.31906054616860913 0.50916332496761729 0 0.50916332496761729 1.2880813929951316 0 0 0 0 0.43109204432511206 0.29696138708004582 0 0.29696138708004582 1.7997700002815691 0 0 0 0 0.7752862106283942 0.83408485386189568 0 0.83408485386189568 1.716128903630306 0 0 0 0 1.0306620739539767 0.62375629795133136 0 0.62375629795133136 2.6972262878134643 0 0 0 0 -0.085264222401685019 0.23267347987578191 0 0.23267347987578191 1.9377842955427269 0 0 0 0 0.27676865826342761 0.55595001488824991 0 0.55595001488824991 2.2702210652943897 0 0 0 0 -0.44850234665724287 0.41681586971435536 0 0.41681586971435536 1.0408437790028984 0 0 0 0 -0.079993628264825034 0.27156769822765625 0 0.27156769822765625 2.3694546111512906 0 0 0 0 -0.72412526022608148 2.1186029762448015 0 2.1186029762448015 2.014320423881145 0 0 0 0 -2.5975640152662365 1.6999843970015718 0 1.6999843970015718 4.8612874307891616 0 0 0 0 6.7556609075089114 0.17033082638590713 0 0.17033082638590713 5.0733883927180159 0 0 0 0 -1.2167966171625086 -0.30407153342912352 0 -0.30407153342912352 3.1834098575770895 0 0 0 0 -2.4798999920252167 2.0197543506992588 0 2.0197543506992588 4.2301833847902799 0 0 0 0 -1.4862605774102491 1.2436709475405223 0 1.2436709475405223 3.9914041474739861 0 0 0 0 -0.46343311520251229 0.14977928499017956 0 0.14977928499017956 2.70017478138152 0 0 0 0 -2.7411772929460319 2.433770711928446 0 2.433770711928446 4.0739290298229207 0 0 0 0 -0.016963667816078623 -0.01280240166587987 0 -0.01280240166587987 0.84969743842034395 0 0 0 0 -0.74090914187186108 -0.33542396681971809 0 -0.33542396681971809 1.1572323590062297 0 0 0 0 -0.88385258735225136 1.0128693444112287 0 1.0128693444112287 5.3152397514768381 0 0 0 0 -0.040027808636906914 0.99797271500458429 0 0.99797271500458429 3.371166690214821 0 0 0 0 -1.1395819244883114 2.0942179887260863 0 2.0942179887260863 2.5657147605415958 0 0 0 0 -1.6323226415447323 0.50999632125149219 0 0.50999632125149219 5.0136887877488334 0 0 0 0 0.05491967330264913 0.79092221580322075 0 0.79092221580322075 4.4311679543188802 0 0 0 0 0.22125335602103746 -0.063882915161229903 0 -0.063882915161229903 5.5878491422579373 0 0 0 0 1.9815642073092619 1.0677744163176612 0 1.0677744163176612 4.8224739328470605 0 0 0 0 -0.12790874409062547 -1.2612983642588329 0 -1.2612983642588329 2.6192255407850489 0 0 0 0 1.8992773543059869 1.3495795811356857 0 1.3495795811356857 5.1026772889690619 0 0 0 0 49.467125016611988 -55.179377190139348 0 -55.179377190139348 23.884544054833441 0 0 0 0 -4.9210299584813271 1.8443526238661434 0 1.8443526238661434 -3.8395802436780286 0 0 0 0 -11.472818296058648 -11.306251194286233 0 -11.306251194286233 11.648781162011346 0 0 0 0 -12.710906856922207 -6.7933596665925506 0 -6.7933596665925506 4.7309197364191959 0 0 0 0 -6.7112818936221004 0.76861436417357254 0 0.76861436417357254 12.944830205608014 0 0 0 0 2.3032724037422554 2.2916210581643099 0 2.2916210581643099 5.4182842699810863 0 0 0 0 0.94521806924313978 0.83392632924912391 0 0.83392632924912391 0.16373897141396654 0 0 0 0 -0.63354999234804366 -0.56336654869333636 0 -0.56336654869333636 2.2800857544576694 0 0 0 0 2.196420067170493 1.6292911352902593 0 1.6292911352902593 4.8560498164733872 0 0 0 0 0.95602210536248111 -0.87366404839267631 0 -0.87366404839267631 1.9389567313714515 0 0 0 0 1.2444442016054182 -7.4660475715654684 0 -7.4660475715654684 -20.120193843751622 0 0 0 0 -6.5004210604938351 -2.4149173646474082 0 -2.4149173646474082 7.7127135687878763 0 0 0 0 0.32013340924255657 -1.693323662245998 0 -1.693323662245998 2.6406159131095102 0 0 0 0 -1.8488346523020311 -10.945674492792023 0 -10.945674492792023 6.4313214817884727 0 0 0 0 0.35143871720133191 -0.80204791996785474 0 -0.80204791996785474 0.6817007520199212 0 0 0 0 1.8284289426529199 0.85584698336151632 0 0.85584698336151632 4.7005132851782037 0 0 0 0 6.3713138455278653 -2.6951877955289092 0 -2.6951877955289092 -2.2920544227963546 0 0 0 0 1.3093254408774442 1.0527782930457761 0 1.0527782930457761 5.2222911965209278 0 0 0 0 4.7960115921043425 5.4162637603049006 0 5.4162637603049006 1.6738869027067267 0 0 0 0 -5.0192421420941855 1.7542119533713958 0 1.7542119533713958 9.7465498038436635 0 0 0 0 3.609864631469307 -4.8612970293797844 0 -4.8612970293797844 13.806360982775004 0 0 0 0 2.5325979483503716 0.99861348989816179 0 0.99861348989816179 1.0456739524579461 0 0 0 0 -1.4690715618364116 1.4480868036266656 0 1.4480868036266656 21.670353516765317 0 0 0 0 0.13437419722757593 0.25113716605179093 0 0.25113716605179093 0.37776379391100967 0 0 0 0 4.398116279226457 11.991102587617206 0 11.991102587617206 14.504591936187353 0 0 0 0 1.6169155832321565 -3.7331253502979962 0 -3.7331253502979962 28.359878949573613 0 0 0 0 0.51262459510779501 0.030342036664581684 0 0.030342036664581684 -0.45739960970765736 0 0 0 0 1.3464069957800575 0.67374525606919633 0 0.67374525606919633 3.7940009448166165 0 0 0 0 1.1671136042416661 0.58464586534356755 0 0.58464586534356755 -0.11556458886449139 0 0 0 0 2.3781886179634455 3.3202151957211754 0 3.3202151957211754 8.7434248581730571 0 0 0 0 3.3902958174927562 4.8745206603744009 0 4.8745206603744009 4.5215512831891829 0 0 0 0 0.022757723210560243 -4.5562001119142224 0 -4.5562001119142224 2.692940158060992 0 0 0 0 6.9552965514329799 11.008735423492908 0 11.008735423492908 12.769143535588228 0 0 0 0 -1.6496923300985458 -5.3985809880014131 0 -5.3985809880014131 21.570278357401548 0 0 0 0 8.3608214712227209 -11.262607947639481 0 -11.262607947639481 12.927040637830942 0 0 0 0 1.4488200443536243 0.31044897944047989 0 0.31044897944047989 4.5438083615281357 0 0 0 0 1.4583380959813326 0.80085053911352588 0 0.80085053911352588 4.7492677954314786 0 0 0 0 1.059470471586792 0.61033923306331417 0 0.61033923306331417 5.0144154629615514 0 0 0 0 1.6558176157283668 0.92756859449673357 0 0.92756859449673357 4.5439990189352102 0 0 0 0 1.0088043410679843 0.88811931323403392 0 0.88811931323403392 1.6706600982531512 0 0 0 0 2.8667782897164216 2.4651785246533109 0 2.4651785246533109 6.1433284221639042 0 0 0 0 3.4908261804930589 0.060597631989367073 0 0.060597631989367073 4.6174521007051226 0 0 0 0 1.4300597885097659 -0.92371990794890735 0 -0.92371990794890735 5.8500247765914537 0 0 0 0 0.4041307749144234 -0.3363881307039982 0 -0.3363881307039982 -0.35978282326905031 0 0 0 0 2.1852806747628426 0.012686954492345137 0 0.012686954492345137 2.2169508130979807 0 0 0 0 3.811063675766718 3.5153972293692277 0 3.5153972293692277 1.8216894913857686 0 0 0 0 -7.1456787874781185 3.8431976404681336 0 3.8431976404681336 7.9199715000031574 0 0 0 0 -1.5900109734359882 -0.53005310311827358 0 -0.53005310311827358 3.3229833938913806 0 0 0 0 -11.650448326133642 9.702478315184635 0 9.702478315184635 9.182648312567153 0 0 0 0 0.85653082620475374 -3.8757870508225096 0 -3.8757870508225096 9.3457874088926474 0 0 0 0 -0.30938271952783403 -1.2196699556934618 0 -1.2196699556934618 3.2986910792715207 0 0 0 0 -0.92600526536567784 3.105145898048022 0 3.105145898048022 8.1803312068659579 0 0 0 0 -2.8839149254755494 0.60368144846142968 0 0.60368144846142968 6.1136667090036099 0 0 0 0 1.8812443553582625 -7.4843715383340168 0 -7.4843715383340168 2.7700005813803728 0 0 0 0 -1.9942441443154026 -1.2845416173912589 0 -1.2845416173912589 2.9336797290023462 0 0 0 0 -4.3671996420657138 1.1160279699324747 0 1.1160279699324747 7.6124414929654449 0 0 0 0 -1.9810896798555682 -0.95309155027098313 0 -0.95309155027098313 8.1597217834182629 0 0 0 0 -6.4280283389493889 0.13050792006833944 0 0.13050792006833944 12.658593738624404 0 0 0 0 -8.3489135880167851 1.2850041881174548 0 1.2850041881174548 11.965043015548872 0 0 0 0 2.4687686447510941 12.078549407248829 0 12.078549407248829 -4.7895988883119571 0 0 0 0 -3.9440821051717876 24.219668859712328 0 24.219668859712328 -3.8225227658585936 0 0 0 0 -11.452708714122082 6.0817827933351509 0 6.0817827933351509 17.960329663670564 0 0 0 0 -2.9750993386010123 12.823276493626508 0 12.823276493626508 0.15739579912042245 0 0 0 0 4.8594182238682722 4.0435795291075323 0 4.0435795291075323 3.0386898518370984 0 0 0 0 -0.7756093704110274 0.94046144233033147 0 0.94046144233033147 1.1697584034587329 0 0 0 0 1.7978977032362309 14.883554776225537 0 14.883554776225537 -9.6509744965878781 0 0 0 0 16.004931763884542 7.4342197226960707 0 7.4342197226960707 -12.914158221021353 0 0 0 0 0.89866728777042226 7.6064971223731845 0 7.6064971223731845 -1.0858255306593492 0 0 0 0 -6.3081084242705856 1.5940965567679086 0 1.5940965567679086 -6.3409891870578576 0 0 0 0 5.3765534462830828 19.69859171803887 0 19.69859171803887 -44.781753611037857 0 0 0 0 16.878973204966314 0.9335363573700306 0 0.9335363573700306 -4.9596527055473416 0 0 0 0 14.310573634128929 -0.87912775137124299 0 -0.87912775137124299 -2.8308437288651476 0 0 0 0 11.72672549553954 3.7181251997808431 0 3.7181251997808431 3.9700755669673526 0 0 0 0 13.068309316954583 4.2001329589566012 0 4.2001329589566012 -7.8580560014870571 0 0 0 0 10.710942348140577 -1.9794334689577227 0 -1.9794334689577227 -5.3318842078515445 0 0 0 0 7.8017273331772685 1.3102513187423028 0 1.3102513187423028 -3.993511540338659 0 0 0 0 5.3827711110627661 -1.1427249421358283 0 -1.1427249421358283 -5.4468246909309528 0 0 0 0 8.2767621741604671 5.8433328238570539 0 5.8433328238570539 -5.4540813585845171 0 0 0 0 6.9633137350097059 3.65735162810779 0 3.65735162810779 -3.4221457775256567 0 0 0 0 3.9838310299222091 3.7854675490894003 0 3.7854675490894003 4.2432237236295833 0 0 0 0 4.1457411245417006 3.9143376849297056 0 3.9143376849297056 -3.1587483056100609 0 0 0 0 3.0530221952792544 0.24684185826663452 0 0.24684185826663452 -2.4253119352360955 0 0 0 0 3.8782519165499707 0.64898262899987458 0 0.64898262899987458 -2.6035571346292272 0 0 0 0 1.9477960513439427 -4.8588469766235676 0 -4.8588469766235676 -4.0046214944668463 0 0 0 0 1.3141698574436305 -0.49458142239927838 0 -0.49458142239927838 3.3613217729180178 0 0 0 0 1.896145222051473 -0.87845959645801486 0 -0.87845959645801486 -2.3004382929466374 0 0 0 0 0.38298283221926477 -0.24228257204375048 0 -0.24228257204375048 0.54071121566001779 0 0 0 0 1.432182240598479 0.85038372339568014 0 0.85038372339568014 4.6603318519355525 0 0 0 0 0.87526794835451982 -0.51047291930746752 0 -0.51047291930746752 1.4341321830852465 0 0 0 0 1.361788240660303 0.54889899590671121 0 0.54889899590671121 4.3051313911910256 0 0 0 0 0.92989233712975783 1.4844243711169476 0 1.4844243711169476 1.9311858939487898 0 0 0 0 3.3677116121023118 -1.3146144842667127 0 -1.3146144842667127 -9.6914132324363891 0 0 0 0 -0.059011586513630476 -0.20810570189883748 0 -0.20810570189883748 0.89648226418583477 0 0 0 0 -1.1540535142972885 -1.7583006343634224 0 -1.7583006343634224 3.1331569999656494 0 0 0 0 7.9258846058700598 -5.8365023046982856 0 -5.8365023046982856 -7.7178565982103464 0 0 0 0 7.593681533850031 -0.57244461958180182 0 -0.57244461958180182 -5.3087288536935375 0 0 0 0 3.9092426013319255 4.0285872485073924 0 4.0285872485073924 -7.7034466592154107 0 0 0 0 6.6944790265700931 -2.2014217294308764 0 -2.2014217294308764 6.2220602287197835 0 0 0 0 -10.1977002723429 -5.1087984874170616 0 -5.1087984874170616 13.622090902317723 0 0 0 0 13.68047810224175 2.4619439416301248 0 2.4619439416301248 4.9446101005814853 0 0 0 0 -1.7880362401074308 -9.5442947579836073 0 -9.5442947579836073 14.873986153754231 0 0 0 0 9.9101828186147713 0.68274438310845653 0 0.68274438310845653 -2.8836577368456346 0 0 0 0 0.03837894395629271 -0.2130500873499539 0 -0.2130500873499539 0.64483068801003185 0 0 0 0 -0.019223042767431697 -0.015137950040465142 0 -0.015137950040465142 0.38835166987328762 0 0 0 0 -3.1291008153446001 11.139232850298413 0 11.139232850298413 61.636245364403294 0 0 0 0 25.391920032798566 47.333404179633362 0 47.333404179633362 46.149826180913806 0 0 0 0 16.398982882316886 1.6010215875494396 0 1.6010215875494396 7.9749901988247984 0 0 0 0 5.2570379102007792 37.465217508212845 0 37.465217508212845 82.057335386242812 0 0 0 0 6.3520172897026441 22.302449786353463 0 22.302449786353463 87.846498731387783 0 0 0 0 6.434218129808869 30.32950121021986 0 30.32950121021986 97.930261712011998 0 0 0 0 -3.6017498681163147 8.6691044987437635 0 8.6691044987437635 105.51121088110631 0 0 0 0 -3.429978427962169 38.826339699263372 0 38.826339699263372 152.07365959214803 0 0 0 0 12.65876748705125 6.1882483214562853 0 6.1882483214562853 36.567128040187526 0 0 0 0 6.1070087162679556 17.388398183147729 0 17.388398183147729 9.9254323014720285 0 0 0 0 9.4429425774358151 4.1540047867883914 0 4.1540047867883914 37.263321798236575 0 0 0 0 18.101864148001823 -5.3837564734258194 0 -5.3837564734258194 -2.1934121212152604 0 0 0 0 22.394979021786639 0.92367008664405148 0 0.92367008664405148 4.61517215500362 0 0 0 0 10.621935866754825 -2.0663151732578626 0 -2.0663151732578626 25.242659274907055 0 0 0 0 26.91423364651024 23.913585238803535 0 23.913585238803535 27.850581361079094 0 0 0 0 1.0050441328784245 1.793888366893043 0 1.793888366893043 8.7938241065071452 0 0 0 0 0.56906983247506426 2.1370123479303604 0 2.1370123479303604 5.2706372787552134 0 0 0 0 1.3126223041114713 0.54344406233121845 0 0.54344406233121845 7.104359715784085 0 0 0 0 -0.023354133820930656 3.2139218246384189 0 3.2139218246384189 9.5720570057496843 0 0 0 0 0.14841667802576142 -0.55248826951988761 0 -0.55248826951988761 2.3738861837546352 0 0 0 0 1.669997962062439 -1.7124813654248783 0 -1.7124813654248783 4.8413162484848726 0 0 0 0 1.2162270299434113 1.6907794162889331 0 1.6907794162889331 7.2541149202315864 0 0 0 0 1.2801533211757672 1.4074727380783543 0 1.4074727380783543 5.6248767886463611 0 0 0 0 1.294566467995935 0.75648061506763042 0 0.75648061506763042 4.9206461463982123 0 0 0 0 0.46221740228588715 0.54557229891997849 0 0.54557229891997849 6.3946176392055349 0 0 0 0 1.1614002671788057 0.88542109766467547 0 0.88542109766467547 6.3320294215500326 0 0 0 0 0.20919484353197504 0.067103974476594885 0 0.067103974476594885 6.1463784683382983 0 0 0 0 0.76727691758162564 0.30470201558227927 0 0.30470201558227927 6.180006514341585 0 0 0 0 1.3640381696841928 0.27671866983382643 0 0.27671866983382643 5.2354478538964031 0 0 0 0 1.179513356588302 0.50622746673525398 0 0.50622746673525398 6.0977057544964737 0 0 0 0 0.048961337125585924 -1.8331628169325782 0 -1.8331628169325782 2.4825802585115468 0 0 0 0 3.9069282463407546 -6.3995853375658953 0 -6.3995853375658953 -4.387622332018509 0 0 0 0 4.6063767356074266 -5.4206255176945888 0 -5.4206255176945888 2.0787236408359604 0 0 0 0 0.084384991239062401 -1.1270765711606145 0 -1.1270765711606145 -0.80102502450199609 0 0 0 0 35.603761075055218 -0.65050199666984554 0 -0.65050199666984554 -2.426353470086724 0 0 0 0 -31.230875965274606 11.199403039899153 0 11.199403039899153 2.5638971262060295 0 0 0 0 -14.391506588725179 -2.2720623423010693 0 -2.2720623423010693 11.497956600353973 0 0 0 0 -1.9581960180774267 -9.7278591400889241 0 -9.7278591400889241 5.596312811545431 0 0 0 0 -0.23615816122861477 -1.6879134003716878 0 -1.6879134003716878 3.0898269146855988 0 0 0 0 -0.2227307552379898 0.92256316559451079 0 0.92256316559451079 6.4286766978752894 0 0 0 0 0.065724271723939243 1.4740128481906076 0 1.4740128481906076 6.9874068463329095 0 0 0 0 -0.15515861925529673 -0.76746225989520056 0 -0.76746225989520056 1.4921331776888849 0 0 0 0 -2.0860076043384765 -1.7407108591401084 0 -1.7407108591401084 -4.5498202741964633 0 0 0 0 3.464497477356403 -10.355937120690896 0 -10.355937120690896 -8.3535863365668774 0 0 0 0 -1.6291749686107693 -4.0992362375248437 0 -4.0992362375248437 6.902836637316085 0 0 0 0 0.69945226798486715 -1.5653529631949823 0 -1.5653529631949823 11.965250716106311 0 0 0 0 1.5711068251998199 1.8094118703770619 0 1.8094118703770619 13.644363416129636 0 0 0 0 -8.6200177987161624 1.7220226982199165 0 1.7220226982199165 42.661137365934565 0 0 0 0 15.843936745100351 -3.3380465127311254 0 -3.3380465127311254 13.348532839401742 0 0 0 0 -0.41820584042041986 -6.9152847030368321 0 -6.9152847030368321 13.995954331196117 0 0 0 0 -0.98033596855626115 1.3719517520821682 0 1.3719517520821682 -2.1104637326384363 0 0 0 0 10.429075334499885 -2.6122074806980891 0 -2.6122074806980891 -4.4899158556114571 0 0 0 0 0.13689483778466638 4.9121962401959536 0 4.9121962401959536 46.859666495140118 0 0 0 0 0.20847554549767322 -0.1910330952652437 0 -0.1910330952652437 0.15431277705987245 0 0 0 0 1.1626416471824541 -36.079113029728433 0 -36.079113029728433 37.634709503414342 0 0 0 0 -15.74803664688443 -12.36189859282149 0 -12.36189859282149 71.192618128306094 0 0 0 0 11.16209639548731 -12.989422114090303 0 -12.989422114090303 -1.9658852313314128 0 0 0 0 0.44679906177951367 0.55024117103177161 0 0.55024117103177161 0.38569683698693069 0 0 0 0 -1.3472306636897997 8.7850306310747328 0 8.7850306310747328 -2.4304832839170558 0 0 0 0 -11.923295297591721 -40.511599652368886 0 -40.511599652368886 32.453152184445571 0 0 0 0 67.084671543229092 32.937236197682068 0 32.937236197682068 -37.682128773652948 0 0 0 0 0.28431023535591748 0.34371928452312694 0 0.34371928452312694 0.31627720099119472 0 0 0 0 44.727797031149294 117.5174295796096 0 117.5174295796096 40.046419150146903 0 0 0 0 14.429885907670553 42.714678649807183 0 42.714678649807183 161.57514699231979 0 0 0 0 42.344423334432236 101.84585430933885 0 101.84585430933885 172.60254063101456 0 0 0 0 91.021687103221097 83.651316693874833 0 83.651316693874833 100.83714325615074 0 0 0 0 69.008314876698648 63.725380381684772 0 63.725380381684772 185.32005871328147 0 0 0 0 59.200799974314805 104.1842302002442 0 104.1842302002442 162.86661188587391 0 0 0 0 80.510000840148905 102.093269654697 0 102.093269654697 85.202384791593431 0 0 0 0 67.699300509613295 32.727474443392566 0 32.727474443392566 69.339090583895313 0 0 0 0 77.781622963038217 66.845477599121295 0 66.845477599121295 58.389492275491648 0 0 0 0 75.853019743605927 66.150199451539947 0 66.150199451539947 90.885248836582832 0 0 0 0 55.003895671135012 41.808946652501163 0 41.808946652501163 101.48165892893303 0 0 0 0 77.200456735165346 43.928680724796322 0 43.928680724796322 101.5001972719383 0 0 0 0 72.107909780674049 38.050627078862817 0 38.050627078862817 120.09296636433101 0 0 0 0 85.044674053066274 49.730324120817386 0 49.730324120817386 86.832619989494106 0 0 0 0 73.500058432565993 64.20805750341151 0 64.20805750341151 97.366999602705619 0 0 0 0 47.587215658395053 52.990887985107292 0 52.990887985107292 96.419399505419051 0 0 0 0 35.795129144054044 59.538554703222871 0 59.538554703222871 99.052717874794325 0 0 0 0 21.771252910342184 49.111180432145375 0 49.111180432145375 103.35361435215054 0 0 0 0 34.006417133677445 32.278511194465409 0 32.278511194465409 133.88691882081912 0 0 0 0 46.496807966410984 24.574771423153834 0 24.574771423153834 108.00290665115858 0 0 0 0 5.4855144168584928 -0.99301147943742762 0 -0.99301147943742762 147.27291252859686 0 0 0 0 0.3815569002835319 -0.29198308321128863 0 -0.29198308321128863 0.12311149901796536 0 0 0 0 21.887777061339762 4.475259256991194 0 4.475259256991194 36.304828437446304 0 0 0 0 -6.9550821826738236 0.17001938818680173 0 0.17001938818680173 103.29179673042927 0 0 0 0 13.172298329176556 30.817338506210945 0 30.817338506210945 163.04906607472344 0 0 0 0 4.6505199827730621 44.696348036626659 0 44.696348036626659 140.44499909032675 0 0 0 0 0.40456163683529667 73.83666232439009 0 73.83666232439009 139.1990848801764 0 0 0 0 2.7280152358362102 43.212941424495511 0 43.212941424495511 140.18317037630749 0 0 0 0 9.5585169680575746 41.552731452345142 0 41.552731452345142 125.78632891860252 0 0 0 0 7.7860877820570522 29.969995216195912 0 29.969995216195912 81.373511330730253 0 0 0 0 13.305966880162259 80.576320914155986 0 80.576320914155986 100.89553134888047 0 0 0 0 2.3844279628453933 76.941277620110668 0 76.941277620110668 143.96981926857916 0 0 0 0 -10.556442247776999 72.180188279629419 0 72.180188279629419 195.46925806106083 0 0 0 0 -13.330601106096992 58.461945053155887 0 58.461945053155887 133.56196490462207 0 0 0 0 8.2383584056320842 59.890039877169784 0 59.890039877169784 120.4510566539866 0 0 0 0 6.2634978567410826 57.454244253525758 0 57.454244253525758 121.43243777865428 0 0 0 0 37.688961190148348 71.357575798961989 0 71.357575798961989 109.05981699413041 0 0 0 0 29.197045573159016 30.754898962210973 0 30.754898962210973 62.434026698332673 0 0 0 0 64.606506980347717 30.068742596830816 0 30.068742596830816 46.551787641712508 0 0 0 0 69.371272755281154 56.891306402865609 0 56.891306402865609 90.930849537933682 0 0 0 0 73.380308674830985 92.073086016105663 0 92.073086016105663 88.537387221457834 0 0 0 0 30.045783158618519 83.384079440001187 0 83.384079440001187 216.12124543076789 0 0 0 0 9.8761355944710658 28.139185280611855 0 28.139185280611855 276.1179467179918 0 0 0 0 67.433843262344226 80.136871578039063 0 80.136871578039063 149.30228150616676 0 0 0 0 23.7650934449739 49.50265655883868 0 49.50265655883868 137.61753913229222 0 0 0 0 31.462812893053979 89.754509066664468 0 89.754509066664468 154.66231340361446 0 0 0 0 72.996149013568129 74.404030994412096 0 74.404030994412096 -213.43184653155276 0 0 0 0 0.17611030113482284 0.57517996747926503 0 0.57517996747926503 0.18535290170476326 0 0 0 0 -9.0126241044281414 -9.4654585071066322 0 -9.4654585071066322 -94.92849731172646 0 0 0 0 -19.503544843535678 75.84123031796571 0 75.84123031796571 372.30866546762445 0 0 0 0 22.103801543662712 155.77050248499927 0 155.77050248499927 -11.425077959931514 0 0 0 0 59.216735952255931 92.03945379056222 0 92.03945379056222 121.61192022507748 0 0 0 0 89.271784804411936 161.69179270172572 0 161.69179270172572 237.40585201534259 0 0 0 0 63.120102719190527 78.926364898245083 0 78.926364898245083 124.29000587986911 0 0 0 0 57.040453559507114 32.203769449426545 0 32.203769449426545 -8.907108815808499 0 0 0 0 66.019501744840568 67.300138197578235 0 67.300138197578235 74.471409928182766 0 0 0 0 -48.638205557269828 40.034339614168857 0 40.034339614168857 -5.6091388328568428 0 0 0 0 10.189142486999572 2.0366446985153743 0 2.0366446985153743 58.09486760935556 0 0 0 0 -15.080711377810871 53.994125785628967 0 53.994125785628967 45.586119871673873 0 0 0 0 -2.9836795283606534 0.95391791716974694 0 0.95391791716974694 11.399480009289164 0 0 0 0 -14.934981551763713 46.092483586528033 0 46.092483586528033 16.02075617409082 0 0 0 0 -2.6439934272593746 33.662942755861877 0 33.662942755861877 151.49164705982457 0 0 0 0 6.8794699111708724 42.598068024715303 0 42.598068024715303 -97.150503530565402 0 0 0 0 0.040955449439677771 1.6547857116330356 0 1.6547857116330356 0.2552608766301212 0 0 0 0 17.158713492543825 14.243821631845549 0 14.243821631845549 3.9382320046297536 0 0 0 0 -17.937267910442188 10.159071078453053 0 10.159071078453053 115.42052023723863 0 0 0 0 -11.891789393910514 32.575816946481382 0 32.575816946481382 0.39967322357369994 0 0 0 0 -5.6519664127467877 3.1962383636882805 0 3.1962383636882805 -27.788078496174421 0 0 0 0 -13.655279318357316 15.282271100683829 0 15.282271100683829 10.940771747075814 0 0 0 0 -13.675436793452718 23.126046811202286 0 23.126046811202286 9.3207899636090588 0 0 0 0 -9.5748846114566959 10.274319200743776 0 10.274319200743776 -1.1763627468226332 0 0 0 0 -19.258073641268879 5.6659931688545839 0 5.6659931688545839 12.059189513476667 0 0 0 0 -9.5694317935539175 10.50413042846867 0 10.50413042846867 6.2327796388162824 0 0 0 0 -3.2850591477695161 18.051213926654782 0 18.051213926654782 8.8524161221548638 0 0 0 0 -8.8227432157499379 3.8298333601505874 0 3.8298333601505874 31.933971422227842 0 0 0 0 -1.2518708436623456 -0.64118300254631322 0 -0.64118300254631322 6.4640923388469673 0 0 0 0 -1.3273518006150828 1.872302423177814 0 1.872302423177814 1.285668606178703 0 0 0 0 -0.54157786002249964 0.0068104116547686999 0 0.0068104116547686999 0.3766527574410321 0 0 0 0 -1.912680863946548 22.706951584775197 0 22.706951584775197 -31.578759798618194 0 0 0 0 14.642353436641315 22.748169685355606 0 22.748169685355606 88.915629143172737 0 0 0 0 -0.88116645067163812 1.8538416451755246 0 1.8538416451755246 0.88288942880746824 0 0 0 0 0.030060750030123096 0.27008714059525829 0 0.27008714059525829 -0.34373248616429919 0 0 0 0 -1.09554407253097 -6.04456461279824 0 -6.04456461279824 36.610541816398836 0 0 0 0 52.492696715753937 95.809053385912193 0 95.809053385912193 -3.6779108254218045 0 0 0 0 27.171524739022402 105.65663272128131 0 105.65663272128131 146.05582749332825 0 0 0 0 1.9711256889386277 1.0934362201214753 0 1.0934362201214753 -14.701897829005247 0 0 0 0 -0.2969612665899386 0.66212068726359163 0 0.66212068726359163 0.88470715926156984 0 0 0 0 0.69052287545783564 0.8320690106294002 0 0.8320690106294002 0.93018212641689857 0 0 0 0 84.598982516572505 11.564841222877476 0 11.564841222877476 3.7846596314548151 0 0 0 0 -6.9419972935041869 25.769386012352697 0 25.769386012352697 303.85414603654408 0 0 0 0 54.326188063640018 166.20027176828239 0 166.20027176828239 148.16906221548561 0 0 0 0 -10.964518961709928 113.74634021836755 0 113.74634021836755 282.71850772325251 0 0 0 0 -8.1075463945101092 95.434259287110763 0 95.434259287110763 143.49043839054502 0 0 0 0 -1.3876926615995444 54.557207847142308 0 54.557207847142308 160.35005595306575 0 0 0 0 0.54272396983213844 0.020054219579584753 0 0.020054219579584753 0.92148475878753189 0 0 0 0 1.3406823216306947 2.1559695363656068 0 2.1559695363656068 2.323397417552826 0 0 0 0 1.4111089814635704 10.641155800720611 0 10.641155800720611 -0.52411528641277982 0 0 0 0 1.8474952735462011 3.0588283868946746 0 3.0588283868946746 4.7414097318896893 0 0 0 0 2.4231880050821673 1.2189221924006688 0 1.2189221924006688 3.2493860932481766 0 0 0 0 1.8473290163327647 2.1612156696864986 0 2.1612156696864986 2.4495346379967486 0 0 0 0 1.3837661201806293 2.2082204094395905 0 2.2082204094395905 2.5991844536745532 0 0 0 0 -5.037494084737375 5.1277269228767182 0 5.1277269228767182 12.874554418110165 0 0 0 0 1.4601823286911895 3.0229974645444599 0 3.0229974645444599 2.9733138504379895 0 0 0 0 -0.92600966141594299 0.21384525214185857 0 0.21384525214185857 0.78060371151020824 0 0 0 0 -0.69715040661913008 0.75293447579679196 0 0.75293447579679196 8.1985529054218205 0 0 0 0 1.2238022728016631 2.253953921066568 0 2.253953921066568 2.4956218485021964 0 0 0 0 6.8457560070846739 -0.064595040204949328 0 -0.064595040204949328 0.72862791497163926 0 0 0 0 -9.7145324362347765 -7.5090577247879082 0 -7.5090577247879082 4.6550608954748895 0 0 0 0 -1.510580682899711 1.2074075455850526 0 1.2074075455850526 2.4291907191671136 0 0 0 0 0.922638554983223 -0.38385814135290275 0 -0.38385814135290275 5.2294379182276316 0 0 0 0 -1.1195389244035141 1.5913200265513296 0 1.5913200265513296 5.1242619201840398 0 0 0 0 0.36510656390623808 -1.9840966468982515 0 -1.9840966468982515 3.9168660134491802 0 0 0 0 -0.19276892303787463 -1.0501350957038085 0 -1.0501350957038085 8.58153029627465 0 0 0 0 -0.30882772216542698 0.01024992053653051 0 0.01024992053653051 0.83344719435648429 0 0 0 0 -1.3784952192552282 0.29948831175715895 0 0.29948831175715895 7.5438437482052905 0 0 0 0 -2.0240507394930773 -0.15829237873913371 0 -0.15829237873913371 7.8587025887791242 0 0 0 0 0.14944250457403996 0.72953953333126265 0 0.72953953333126265 3.0228513048632522 0 0 0 0 -0.1398048944370629 -0.12572582198583504 0 -0.12572582198583504 1.5560995440231018 0 0 0 0 3.7967690872388857 5.075092995461091 0 5.075092995461091 3.6071246449337195 0 0 0 0 -0.57645274712419448 1.2102727782416487 0 1.2102727782416487 2.6906785957882171 0 0 0 0 -0.75876006023509035 0.63330141192273004 0 0.63330141192273004 4.0888921155747084 0 0 0 0 -0.81740818852673836 0.60128028823986313 0 0.60128028823986313 3.0752083082826491 0 0 0 0 -0.39828874226554678 -0.99322761138134297 0 -0.99322761138134297 2.3263004046006159 0 0 0 0 -0.78353905526930134 0.81349336768562353 0 0.81349336768562353 4.2573904943783418 0 0 0 0 -0.8978409744088367 0.58692628972494276 0 0.58692628972494276 4.2685287099229754 0 0 0 0 -0.86676943415727692 0.43933962104347302 0 0.43933962104347302 3.2780706386110978 0 0 0 0 -0.90532230821193505 0.67091638982322266 0 0.67091638982322266 3.4934313644035164 0 0 0 0 -1.016707176849694 0.42734143430930516 0 0.42734143430930516 3.1400000412758176 0 0 0 0 0.14341763457838791 0.90828610525770515 0 0.90828610525770515 4.1270586090607253 0 0 0 0 -0.063182185265557411 0.17616757851309472 0 0.17616757851309472 0.84058969399254702 0 0 0 0 -0.72715261753614424 -3.8925568806046158 0 -3.8925568806046158 4.8856135488749715 0 0 0 0 0.11760053259390801 0.9433521906853457 0 0.9433521906853457 2.3893719464031165 0 0 0 0 -0.19452208066244964 -0.037304641989848619 0 -0.037304641989848619 0.8844443071545669 0 0 0 0 -2.0478065721298542 1.3990748761352734 0 1.3990748761352734 5.728912538613713 0 0 0 0 -0.23794855951176463 0.14651132715517434 0 0.14651132715517434 2.4702717141296802 0 0 0 0 -1.8472453037058107 2.0623568886649082 0 2.0623568886649082 2.875473117648653 0 0 0 0 -0.7020269796029126 1.8248289583152655 0 1.8248289583152655 2.66021015764818 0 0 0 0 -0.72014381245444614 0.30771298072319642 0 0.30771298072319642 3.2369978300737898 0 0 0 0 -0.89543178893151776 1.055142038931308 0 1.055142038931308 3.5231677861665958 0 0 0 0 0.63384886576113786 1.8159593807649799 0 1.8159593807649799 2.8307367012439499 0 0 0 0 -0.5776869434685068 0.54130976316082524 0 0.54130976316082524 3.65993293828069 0 0 0 0 -0.64402159768990996 0.19253761943372893 0 0.19253761943372893 3.1890579709901914 0 0 0 0 0.15479521759039039 0.41385321898916771 0 0.41385321898916771 0.8972058804512244 0 0 0 0 -1.2227401336492676 0.27090942808717955 0 0.27090942808717955 4.1424678416969982 0 0 0 0 -0.73945685755898349 0.69720676310959817 0 0.69720676310959817 3.2618672138080029 0 0 0 0 -0.84245727648431057 0.17040472166263498 0 0.17040472166263498 3.7168050614000094 0 0 0 0 1.1326759154666064 1.8977926138131807 0 1.8977926138131807 2.7499258726202243 0 0 0 0 -6.7050312073749971 -2.1608731209180405 0 -2.1608731209180405 6.5341179050528808 0 0 0 0 -9.6699725093407469 6.893947297239265 0 6.893947297239265 21.110781372670317 0 0 0 0 -12.813970987747243 -4.3099845635895235 0 -4.3099845635895235 10.082782018635044 0 0 0 0 -2.030444554381071 0.2359192950752913 0 0.2359192950752913 4.3313774414800719 0 0 0 0 -4.6704528325853047 1.3535447266131087 0 1.3535447266131087 4.0750466640893137 0 0 0 0 -0.010950788968812774 -1.8058874071652899 0 -1.8058874071652899 4.0175582567808306 0 0 0 0 -3.3503950956072317 -2.3505836243721205 0 -2.3505836243721205 6.5087641727734535 0 0 0 0 -1.360640746051105 -1.1741281702406923 0 -1.1741281702406923 3.7800157646051957 0 0 0 0 -2.0805470324133442 -0.37494710085775296 0 -0.37494710085775296 4.1106973228861534 0 0 0 0 -0.91416575120430354 -0.51468692238631775 0 -0.51468692238631775 3.2225360624297537 0 0 0 0 -1.8958585370335779 -0.32091769630869749 0 -0.32091769630869749 3.5184709046698117 0 0 0 0 -0.90243757010870973 -0.49200282031233655 0 -0.49200282031233655 2.8442881218579714 0 0 0 0 0.0021474994327489883 -0.99346659930506576 0 -0.99346659930506576 2.9844322282060602 0 0 0 0 1.4061898531738279 1.9281700325018392 0 1.9281700325018392 3.7213234238561199 0 0 0 0 1.4404198281883396 1.3018454869006746 0 1.3018454869006746 3.1060963426825765 0 0 0 0 0.0079363430220951159 0.53227232024119076 0 0.53227232024119076 3.0442942759182188 0 0 0 0 -0.53761915512029979 0.29012133461042389 0 0.29012133461042389 3.3938121602163491 0 0 0 0 1.7220521261581325 1.0136855344517244 0 1.0136855344517244 3.006742643210373 0 0 0 0 2.3923146895711511 0.50728316991171596 0 0.50728316991171596 3.6435963275853283 0 0 0 0 0.25717331445966352 0.39347371993062552 0 0.39347371993062552 4.2608230921978247 0 0 0 0 1.3250879804379565 1.1023024050482491 0 1.1023024050482491 5.0494322248068784 0 0 0 0 2.5491957087507444 3.3284363860711892 0 3.3284363860711892 6.3926662056273926 0 0 0 0 1.4637761892215511 -0.39049571340970601 0 -0.39049571340970601 0.11710732368989696 0 0 0 0 152.29434829600825 225.91978850924761 0 225.91978850924761 254.47337720573523 0 0 0 0 -32.796106642050717 34.294027935876329 0 34.294027935876329 258.94766754849479 0 0 0 0 0.91247375626170424 2.1870585933829716 0 2.1870585933829716 6.398352486312433 0 0 0 0 16.20687946592534 32.805968008371565 0 32.805968008371565 138.50741698209094 0 0 0 0 1.3605420097788685 0.15710245325410099 0 0.15710245325410099 0.55775864216309756 0 0 0 0 13.315720374881959 138.00344358882262 0 138.00344358882262 246.65467693958635 0 0 0 0 28.642376235707538 110.81259960460284 0 110.81259960460284 145.1537201770825 0 0 0 0 71.125314893873664 172.94472288886573 0 172.94472288886573 135.07870688332696 0 0 0 0 -0.33998774068456683 -0.47131205455207237 0 -0.47131205455207237 2.8425350411962427 0 0 0 0 -0.0017286007762258423 -0.29876232936567249 0 -0.29876232936567249 2.6398692070251855 0 0 0 0 -1.3910484982218816 -0.31720934222448705 0 -0.31720934222448705 3.1452598569121619 0 0 0 0 -0.86941653363116389 -0.030365626125785639 0 -0.030365626125785639 2.8315124771306728 0 0 0 0 -0.52830526971637859 0.29381830939750309 0 0.29381830939750309 3.5613685995476416 0 0 0 0 0.069851045403961698 0.064949237348640665 0 0.064949237348640665 1.2351990615407331 0 0 0 0 105.96175922206348 173.05918350789398 0 173.05918350789398 193.47332665362956 0 0 0 0 -0.31955290754344118 -0.12598033951690013 0 -0.12598033951690013 2.7996627481243195 0 0 0 0 -0.23609010455380192 0.29060914029746954 0 0.29060914029746954 0.63922884009853931 0 0 0 0 8.5565144124984442 -36.339443475628286 0 -36.339443475628286 160.10450686012791 0 0 0 0 40.067250215299623 110.92035798765482 0 110.92035798765482 230.91318723301265 0 0 0 0 -0.063495189254239512 56.133420479059168 0 56.133420479059168 156.27723102970231 0 0 0 0 110.703939099761 38.192992224547652 0 38.192992224547652 100.89220254675638 0 0 0 0 42.165755772171423 35.147581237799386 0 35.147581237799386 229.45655353886627 0 0 0 0 35.457475271908905 10.066944352169003 0 10.066944352169003 90.844235954913529 0 0 0 0 52.099387848977962 87.653799428455045 0 87.653799428455045 137.36750823899638 0 0 0 0 0.064205904011084849 31.498829873315117 0 31.498829873315117 84.393753352154818 0 0 0 0 26.550443970563393 23.957630823784712 0 23.957630823784712 82.528200358474351 0 0 0 0 9.7925866518662303 37.627812982670548 0 37.627812982670548 72.003670166577649 0 0 0 0 49.170930236376371 40.163427262208643 0 40.163427262208643 71.048350967750594 0 0 0 0 11.657545655097664 16.911043602511199 0 16.911043602511199 107.355958051774 0 0 0 0 6.5063649183481971 -8.1496447585004717 0 -8.1496447585004717 50.084623769678728 0 0 0 0 -2.9217290101051674 0.93389460225898802 0 0.93389460225898802 42.070037847570347 0 0 0 0 -18.470675006730346 -8.3638867235622456 0 -8.3638867235622456 36.503545792231307 0 0 0 0 -28.282137286835109 3.5869760834557383 0 3.5869760834557383 42.998060054587768 0 0 0 0 -5.9608198142498452 -6.6113670370450563 0 -6.6113670370450563 30.541035767881112 0 0 0 0 4.5817936543075604 17.235908771386676 0 17.235908771386676 13.591421672193974 0 0 0 0 -29.603761469272513 0.39140440808114363 0 0.39140440808114363 5.3767025653542078 0 0 0 0 -46.268077118479994 26.888026382634962 0 26.888026382634962 17.940202949481318 0 0 0 0 -18.779806104555178 38.080418932585872 0 38.080418932585872 -46.772065284651035 0 0 0 0 -20.147030137118065 9.8973447151174696 0 9.8973447151174696 7.7986912291125918 0 0 0 0 -21.88841669053113 16.625625881181804 0 16.625625881181804 2.6919123656880402 0 0 0 0 -27.430772582986606 3.0869928618667473 0 3.0869928618667473 25.715552771089278 0 0 0 0 -18.289280402062786 -1.1326435576484073 0 -1.1326435576484073 25.3286081207807 0 0 0 0 -20.111552649181021 -1.3053217085416691 0 -1.3053217085416691 27.024980466964735 0 0 0 0 -22.873855158070967 6.2390115717130357 0 6.2390115717130357 24.520102895930904 0 0 0 0 0.64401619676766586 -3.0534364111972536 0 -3.0534364111972536 20.753684836837238 0 0 0 0 -9.7821930695184847 2.4003918726484699 0 2.4003918726484699 18.023582672400153 0 0 0 0 -10.186418915917784 10.709597864983152 0 10.709597864983152 4.67100976326401 0 0 0 0 8.5896405152535635 27.074715978043969 0 27.074715978043969 21.140252620231877 0 0 0 0 23.680287741571647 -5.9145026193918966 0 -5.9145026193918966 21.458738670253297 0 0 0 0 3.509638986786797 13.44907405036588 0 13.44907405036588 4.226680303534522 0 0 0 0 -2.2928095896718332 8.3807502158015268 0 8.3807502158015268 2.29336027635145 0 0 0 0 13.363817913380444 4.7251203972882649 0 4.7251203972882649 -20.44032315664117 0 0 0 0 2.4978065316234961 21.693963916974099 0 21.693963916974099 -25.596836019337388 0 0 0 0 5.1588183928447027 3.616951435658212 0 3.616951435658212 2.0334798302084565 0 0 0 0 3.6156864660014207 5.8751331993389613 0 5.8751331993389613 -13.219418523687636 0 0 0 0 -1.998571823539578 17.304570545866227 0 17.304570545866227 -10.361937619796663 0 0 0 0 6.6274238912894816 10.669861149852295 0 10.669861149852295 -21.962178831599886 0 0 0 0 1.0044995744333109 -0.16900905668670596 0 -0.16900905668670596 -1.089112699374791 0 0 0 0 -6.4510353999823646 39.469758822042976 0 39.469758822042976 -6.4631999433622696 0 0 0 0 -10.91181899465164 11.464410903921816 0 11.464410903921816 -0.25441663644687651 0 0 0 0 -12.437367743139816 18.689190184026302 0 18.689190184026302 -8.5400318492429506 0 0 0 0 -0.93509920620635967 7.1092159199652087 0 7.1092159199652087 0.96863053095148643 0 0 0 0 22.344503643285378 -17.167458710302753 0 -17.167458710302753 -8.9970372123279958 0 0 0 0 -12.157576352106162 40.075551603497843 0 40.075551603497843 79.424528549879142 0 0 0 0 35.56659162362098 9.7217448172950753 0 9.7217448172950753 -5.1797712693792732 0 0 0 0 18.926074278630267 -20.699873864765323 0 -20.699873864765323 45.549350578197846 0 0 0 0 5.4655296651649223 -10.434375907696449 0 -10.434375907696449 249.68263186982813 0 0 0 0 3.1664132378004979 4.6395409876176927 0 4.6395409876176927 151.96640777747689 0 0 0 0 117.70417313369154 59.560750712822028 0 59.560750712822028 128.8173106107588 0 0 0 0 7.3717129795240908 -2.366159681478166 0 -2.366159681478166 116.17133888851822 0 0 0 0 12.258997140435895 110.2887694972369 0 110.2887694972369 235.72644957473858 0 0 0 0 -0.73676710112243882 36.428892371598522 0 36.428892371598522 155.87836223544764 0 0 0 0 23.609204771427954 112.32237761455235 0 112.32237761455235 215.40038832857226 0 0 0 0 59.964643185099419 53.004065881577844 0 53.004065881577844 185.615314959241 0 0 0 0 -16.182060537984682 19.206977111184642 0 19.206977111184642 286.58620488993074 0 0 0 0 49.320015177408351 98.694209615829777 0 98.694209615829777 -115.67184879512388 0 0 0 0 1.365016416529349 1.1115065411186968 0 1.1115065411186968 0.73857787359871097 0 0 0 0 -38.416728455838381 51.4385613097229 0 51.4385613097229 449.83320233919403 0 0 0 0 33.500826939279229 72.887810444173965 0 72.887810444173965 100.44907139168572 0 0 0 0 3.7274488731627642 2.7015617197623243 0 2.7015617197623243 1.3727155871476064 0 0 0 0 1.251553166600992 35.290376953502573 0 35.290376953502573 108.92831739543726 0 0 0 0 4.5368784818392065 13.373302789739228 0 13.373302789739228 33.300761355413556 0 0 0 0 1.9081860752304678 7.0813939345372887 0 7.0813939345372887 19.89996779103322 0 0 0 0 5.8045380200176311 8.8975660805699022 0 8.8975660805699022 27.112540602301863 0 0 0 0 -17.817403202906604 8.7838271708348401 0 8.7838271708348401 28.485634383715919 0 0 0 0 -0.13824492817437101 0.094562109447166559 0 0.094562109447166559 18.575660847584498 0 0 0 0 -19.11751678805777 18.113255298138291 0 18.113255298138291 11.472083358113139 0 0 0 0 -0.53885196791250667 -1.3505338353476095 0 -1.3505338353476095 2.6274842925323036 0 0 0 0 -11.766524695047735 -18.267931983240153 0 -18.267931983240153 38.850398247778543 0 0 0 0 -9.5574587588377113 3.3938543747996235 0 3.3938543747996235 19.86875658736335 0 0 0 0 -8.0105271893506611 8.2487842464151981 0 8.2487842464151981 30.221200705974525 0 0 0 0 -2.8509174276830294 0.86597426054606785 0 0.86597426054606785 26.048629829772835 0 0 0 0 -0.142883893105477 9.1447307533062485 0 9.1447307533062485 36.262307482019764 0 0 0 0 3.7833237382622258 -3.5194748151739077 0 -3.5194748151739077 21.702781423391571 0 0 0 0 15.894877134399593 -21.984827100787243 0 -21.984827100787243 43.891722140878869 0 0 0 0 -1.1415863153406747 -8.3029511924223698 0 -8.3029511924223698 20.277607586200475 0 0 0 0 -10.122541222278159 -4.7201208119438434 0 -4.7201208119438434 22.957222685666238 0 0 0 0 2.5907663105808254 -10.049994191160749 0 -10.049994191160749 20.867992409683552 0 0 0 0 2.0482730533480673 -1.8894778542767483 0 -1.8894778542767483 11.384495522001089 0 0 0 0 -0.21430586012688191 -0.14156190815785497 0 -0.14156190815785497 7.7942052474964241 0 0 0 0 1.3422848013134026 1.1959530230824722 0 1.1959530230824722 1.9125368844771113 0 0 0 0 -4.2821763261256649 4.8788956722332841 0 4.8788956722332841 6.7231600822678956 0 0 0 0 -4.7691665058080908 -4.5856409457074108 0 -4.5856409457074108 13.281844590274886 0 0 0 0 -0.70189991295156207 -0.93495289182465235 0 -0.93495289182465235 2.3175168429865707 0 0 0 0 -4.8868839503541608 24.717660807436914 0 24.717660807436914 -34.265644550271645 0 0 0 0 -0.22692250871631908 -0.33597066199067172 0 -0.33597066199067172 0.49343408995827343 0 0 0 0 -6.6848609652936233 12.519052586622422 0 12.519052586622422 -6.2680288575429586 0 0 0 0 -18.824092890374743 17.195042744599959 0 17.195042744599959 -3.1633215976216889 0 0 0 0 0.45103007837735731 0.34534770446680341 0 0.34534770446680341 4.1302507555042212 0 0 0 0 1.2918993307654887 0.90824363760930282 0 0.90824363760930282 3.7429513544884685 0 0 0 0 0.63360877177834418 1.458668816885293 0 1.458668816885293 1.9735307642363153 0 0 0 0 -10.198274688842616 11.587564462072805 0 11.587564462072805 -2.1215494242960631 0 0 0 0 0.39870480159829375 1.4013594758900245 0 1.4013594758900245 3.5426321478165868 0 0 0 0 -0.33825113904930504 3.4181179061106377 0 3.4181179061106377 5.7094140563240217 0 0 0 0 1.9944336324990442 2.1388491034813542 0 2.1388491034813542 1.3978914023572422 0 0 0 0 -8.6587277542025163 5.305054481183106 0 5.305054481183106 2.0428572075186366 0 0 0 0 -2.0429545306234616 2.8345517653014483 0 2.8345517653014483 2.7427513645670842 0 0 0 0 0.68544920710913304 3.0360141224352879 0 3.0360141224352879 2.6235228889826097 0 0 0 0 0.46114143958753395 6.2019305478770832 0 6.2019305478770832 -0.54939300253978152 0 0 0 0 -12.129072666554315 9.8207927202622827 0 9.8207927202622827 32.930856330115034 0 0 0 0 1.5214267904308372 2.0773748082692691 0 2.0773748082692691 -0.19606145213219861 0 0 0 0 -0.5977060174438682 0.15427514220455713 0 0.15427514220455713 20.335070918069341 0 0 0 0 3.6333957026154167 -0.031468057767369828 0 -0.031468057767369828 0.29471899573672999 0 0 0 0 -5.0939769856425414 -5.4901813813639819 0 -5.4901813813639819 6.6317367602578088 0 0 0 0 6.1579074141186538 2.201859135315317 0 2.201859135315317 1.1302737612236342 0 0 0 0 11.278718080768726 12.967126988429072 0 12.967126988429072 4.8565825739142383 0 0 0 0 15.842054130456063 15.280038344459626 0 15.280038344459626 0.11233167189766391 0 0 0 0 15.914879909532146 21.872970399205769 0 21.872970399205769 16.226604031495299 0 0 0 0 12.275047381787772 8.842328401409759 0 8.842328401409759 9.7962174958611286 0 0 0 0 5.923528170657737 4.5478630067818644 0 4.5478630067818644 -3.0674123690440096 0 0 0 0 13.906388043964398 6.317686298954186 0 6.317686298954186 -3.4183522812832052 0 0 0 0 3.2692699793874738 10.504953755077693 0 10.504953755077693 16.444241068021142 0 0 0 0 5.331227616593992 7.2825453779750546 0 7.2825453779750546 14.484549633158707 0 0 0 0 -4.5003418193279821 6.6039976278617525 0 6.6039976278617525 11.062899129469093 0 0 0 0 4.176895331476203 13.070849527966601 0 13.070849527966601 9.8301046262165102 0 0 0 0 22.37092531833207 15.851647337610416 0 15.851647337610416 6.8914798455934942 0 0 0 0 -0.67957293491787141 10.680606738314786 0 10.680606738314786 19.008360315404616 0 0 0 0 -39.258397635719064 48.001842464215727 0 48.001842464215727 -36.626269494168497 0 0 0 0 0.29502629471291941 1.7871566622313204 0 1.7871566622313204 1.4315658299298621 0 0 0 0 2.026011237640386 1.5724156991301554 0 1.5724156991301554 0.28779962532228653 0 0 0 0 35.842298940464531 41.690258598966757 0 41.690258598966757 38.049369746741263 0 0 0 0 50.586943731241945 36.288828281738034 0 36.288828281738034 12.97373080177033 0 0 0 0 11.390031759258932 96.114624709260227 0 96.114624709260227 8.3204953041733916 0 0 0 0 2.6487613126767968 8.9967856284974914 0 8.9967856284974914 36.705424101969669 0 0 0 0 1.9874796660677845 14.486137479313342 0 14.486137479313342 42.455031461204385 0 0 0 0 6.6016937431779752 21.619122616504384 0 21.619122616504384 34.627014817518585 0 0 0 0 11.880222681683744 4.2545887063993852 0 4.2545887063993852 -2.0337534166520039 0 0 0 0 10.804134826249879 17.328513533202447 0 17.328513533202447 30.853865461311443 0 0 0 0 -1.9653272574403786 9.6453010203111518 0 9.6453010203111518 31.864744997004657 0 0 0 0 0.85214166209580355 7.8251147280831113 0 7.8251147280831113 28.899756933352336 0 0 0 0 -15.597719484023287 0.4324085449359778 0 0.4324085449359778 34.378614675343883 0 0 0 0 -0.6304655988549841 -0.25167444739602141 0 -0.25167444739602141 0.19098275121605496 0 0 0 0 4.7219423028529803 -21.189616089297864 0 -21.189616089297864 53.358659282615477 0 0 0 0 -56.416029992326401 -4.8547850578989511 0 -4.8547850578989511 49.726280724655965 0 0 0 0 -0.42476762019972369 -1.7023174746373044 0 -1.7023174746373044 19.72675841108466 0 0 0 0 8.3164644649356205 -8.4936264813871674 0 -8.4936264813871674 19.256714426309202 0 0 0 0 -36.613170485825208 13.050346156910621 0 13.050346156910621 182.28853773362746 0 0 0 0 -3.6491233136601977 21.928391655553526 0 21.928391655553526 155.88826495500319 0 0 0 0 -43.621333642133948 48.739326683577119 0 48.739326683577119 107.39422883110154 0 0 0 0 -31.256019741569219 36.387511953508138 0 36.387511953508138 39.559744132191021 0 0 0 0 15.133651680157641 -60.056891380544272 0 -60.056891380544272 59.896981469854353 0 0 0 0 17.878130832723627 -48.882345805992799 0 -48.882345805992799 93.60690980928544 0 0 0 0 65.094194863937901 -106.44145822171721 0 -106.44145822171721 158.43936080922509 0 0 0 0 62.017740190775157 -84.255063338179369 0 -84.255063338179369 69.555251012304865 0 0 0 0 4.3084873189869768 -68.044275075103371 0 -68.044275075103371 76.591829111155448 0 0 0 0 24.276835087695488 -47.892094710430015 0 -47.892094710430015 34.709869401153554 0 0 0 0 24.40982154517917 -72.254755283335783 0 -72.254755283335783 70.680146241102136 0 0 0 0 30.418472962355509 -56.130284792938994 0 -56.130284792938994 113.76787063288702 0 0 0 0 -1.3487899990951009 -0.71578552191462141 0 -0.71578552191462141 -0.43945300486192684 0 0 0 0 36.570014146576426 -70.465942439552578 0 -70.465942439552578 51.646672076356367 0 0 0 0 18.879419913944151 -63.23192122108577 0 -63.23192122108577 60.316469177193483 0 0 0 0 17.890433730155518 -10.223088846980552 0 -10.223088846980552 7.778782308693053 0 0 0 0 20.693139640875529 -53.285423197162118 0 -53.285423197162118 36.6524304215298 0 0 0 0 -2.1326185525890553 -2.2691856860247972 0 -2.2691856860247972 0.64292342454185825 0 0 0 0 -3.5256338411930699 -3.0864058737122235 0 -3.0864058737122235 17.952952423869561 0 0 0 0 -3.8788887997081929 -14.822216431758306 0 -14.822216431758306 12.486235004804939 0 0 0 0 -3.4503984854991359 3.4468241327258511 0 3.4468241327258511 8.3513635959045587 0 0 0 0 -10.843390619510672 -9.1661342357355124 0 -9.1661342357355124 15.706130342274832 0 0 0 0 -0.1269993749660141 -0.66048345485681781 0 -0.66048345485681781 7.0134419188890229 0 0 0 0 -23.304398632785876 -3.2470398923392665 0 -3.2470398923392665 16.808455571949111 0 0 0 0 -0.027152181423847697 0.05793711059930795 0 0.05793711059930795 8.1405142920815354 0 0 0 0 -10.105789901239248 0.10436488960633739 0 0.10436488960633739 13.88329721770333 0 0 0 0 -4.4615097490074049 -6.9204231799906211 0 -6.9204231799906211 3.3424487154025542 0 0 0 0 8.0989424368200389 -19.792072974296389 0 -19.792072974296389 20.151206613961591 0 0 0 0 -5.0300042217861147 -7.480607400402822 0 -7.480607400402822 14.597378151392455 0 0 0 0 -9.2692736244133869 2.533085760596677 0 2.533085760596677 5.5570159440173654 0 0 0 0 -0.10044045239434264 0.71629164062341677 0 0.71629164062341677 9.0447993663547432 0 0 0 0 -24.886827053872452 2.4855852855145955 0 2.4855852855145955 15.008021786690364 0 0 0 0 -14.420551435403041 3.2652861896207384 0 3.2652861896207384 5.5825702956230288 0 0 0 0 -1.5313779573817783 2.4932804825589763 0 2.4932804825589763 17.21350321344417 0 0 0 0 -13.940703482510173 6.2690261316254379 0 6.2690261316254379 20.632858269496339 0 0 0 0 -2.8887063329131593 20.268756728293738 0 20.268756728293738 15.681950732727273 0 0 0 0 0.50217358873130991 2.7400432339748022 0 2.7400432339748022 1.157576677598172 0 0 0 0 -3.0656863307977886 5.6882856395709496 0 5.6882856395709496 18.768141959905847 0 0 0 0 -0.63971722408919351 0.62746093174362816 0 0.62746093174362816 8.6392643521901107 0 0 0 0 2.2271840454267817 -3.7600879910480671 0 -3.7600879910480671 15.389285507876139 0 0 0 0 0.69750330514068537 2.2322741070308894 0 2.2322741070308894 4.0904281036703196 0 0 0 0 -6.3143640815971462 -3.3008377221382403 0 -3.3008377221382403 13.015050767377488 0 0 0 0 -1.390280371372199 0.971375855724669 0 0.971375855724669 7.3629561902259111 0 0 0 0 -2.95222177023971 -0.21069480779773198 0 -0.21069480779773198 10.714018636013492 0 0 0 0 -15.85825289113734 10.864006259037978 0 10.864006259037978 15.60396481664884 0 0 0 0 -5.0571438139239575 -2.3255792683198706 0 -2.3255792683198706 4.9853470775374262 0 0 0 0 0.18766773355258692 7.6730050704908308 0 7.6730050704908308 10.375949246954406 0 0 0 0 1.1570981347639679 4.5995547295709862 0 4.5995547295709862 10.666592662016367 0 0 0 0 1.0729409928209179 3.5651118136015612 0 3.5651118136015612 17.584878309273336 0 0 0 0 -0.38021980628097585 0.10730287706472619 0 0.10730287706472619 5.6871564956575522 0 0 0 0 3.9110502080613969 5.8437187301187805 0 5.8437187301187805 10.479709097104546 0 0 0 0 1.7954761961432268 -1.9691093596875362 0 -1.9691093596875362 4.4654098169371537 0 0 0 0 10.030905465364583 6.7011498591668897 0 6.7011498591668897 11.226745897029105 0 0 0 0 9.1990887024502399 9.4680339313395052 0 9.4680339313395052 2.7034213915330838 0 0 0 0 -0.1548410588917668 -0.44343644407834448 0 -0.44343644407834448 4.6146841633792857 0 0 0 0 4.5449828695942642 5.5039505279910372 0 5.5039505279910372 6.8655749478070902 0 0 0 0 -2.1844294698428257 6.1815055372339884 0 6.1815055372339884 10.41855537175752 0 0 0 0 -0.15360378222084137 3.3054615472340174 0 3.3054615472340174 12.243744155332934 0 0 0 0 -3.5293143376715079 2.0553059634889905 0 2.0553059634889905 12.09573824053291 0 0 0 0 0.49022420644475817 4.238123208616158 0 4.238123208616158 9.4143262553178921 0 0 0 0 -0.13254361841040918 6.8742771582119531 0 6.8742771582119531 8.528003648874801 0 0 0 0 -1.9263432943740781 2.6916534873359979 0 2.6916534873359979 -0.65132515465393226 0 0 0 0 -7.9028962742975182 2.719597734960189 0 2.719597734960189 8.9435933672773444 0 0 0 0 -3.8005532963907172 2.7822027684860586 0 2.7822027684860586 8.9222059728369914 0 0 0 0 -3.9707332921497027 3.8019899335927221 0 3.8019899335927221 11.794847937630948 0 0 0 0 -7.1673351951305788 0.88919624351014548 0 0.88919624351014548 8.8133593244375579 0 0 0 0 4.0208888950523942 -26.027366406418878 0 -26.027366406418878 4.7538249333329077 0 0 0 0 -5.3925630539188489 18.935779131616187 0 18.935779131616187 -54.110867501758548 0 0 0 0 -0.40170579448941091 0.6514885623940927 0 0.6514885623940927 1.9020695779800931 0 0 0 0 -4.2871818597836224 6.2973654672916837 0 6.2973654672916837 9.1683931564621162 0 0 0 0 -7.0262837591572733 -1.5299048645693336 0 -1.5299048645693336 5.7562720471090962 0 0 0 0 -41.073110031768465 12.892752881279193 0 12.892752881279193 15.746952137802964 0 0 0 0 -5.5378909014512221 -2.1873612884969198 0 -2.1873612884969198 5.6430422495639601 0 0 0 0 -22.398342522891426 -19.476614061642067 0 -19.476614061642067 5.1192743765841442 0 0 0 0 -2.9373500225846101 -6.918447680655845 0 -6.918447680655845 4.5377796358297928 0 0 0 0 -7.8015224888213197 5.8926369113041801 0 5.8926369113041801 9.2482780932032256 0 0 0 0 -4.6555266327875984 -3.1347200950655179 0 -3.1347200950655179 10.090967719585024 0 0 0 0 -0.95785460845336168 0.33922082375621443 0 0.33922082375621443 2.2131126367498979 0 0 0 0 2.654415058630434 -7.1305792484713493 0 -7.1305792484713493 11.948821077529828 0 0 0 0 -7.3610722657836618 -0.26259674947004896 0 -0.26259674947004896 15.409164385358054 0 0 0 0 -6.5265491253428252 1.0171673811105393 0 1.0171673811105393 16.969712937725035 0 0 0 0 -7.1242526325194646 -0.37253670512109238 0 -0.37253670512109238 15.459064201432739 0 0 0 0 -7.2303250750326242 -0.33662130022980818 0 -0.33662130022980818 29.543176819786822 0 0 0 0 -4.0681015129705429 5.0689038843211165 0 5.0689038843211165 19.904948243853141 0 0 0 0 -0.75605899028118984 17.426489032608515 0 17.426489032608515 24.481980047239631 0 0 0 0 -7.8080712761466202 4.0660098123826174 0 4.0660098123826174 49.169298340841124 0 0 0 0 12.448932040362024 -40.848230614721615 0 -40.848230614721615 17.949804709990985 0 0 0 0 -1.9514661370246813 33.781038956580232 0 33.781038956580232 21.643038370089982 0 0 0 0 15.240616754795525 14.660936486075798 0 14.660936486075798 0.14251581348526088 0 0 0 0 0.75092731517520839 0.45923182110473704 0 0.45923182110473704 -0.15008437970104183 0 0 0 0 8.6347208344928958 -21.253107162265223 0 -21.253107162265223 40.823949084029437 0 0 0 0 -12.978916794064048 19.631790899220505 0 19.631790899220505 95.985997229603527 0 0 0 0 10.405692116278772 13.089488320802957 0 13.089488320802957 96.759691686813085 0 0 0 0 -14.108142568191212 5.9474869640689576 0 5.9474869640689576 149.73120697919148 0 0 0 0 -12.527035648134927 39.813431378276618 0 39.813431378276618 150.6764696308619 0 0 0 0 -5.7956621829904407 26.040473385533915 0 26.040473385533915 89.251511831202151 0 0 0 0 -15.528498837474366 -9.5584000810819134 0 -9.5584000810819134 75.104142276028142 0 0 0 0 0.14065450931611156 -0.39107302127857579 0 -0.39107302127857579 0.093556244913177267 0 0 0 0 17.238912731221149 3.3627574791535153 0 3.3627574791535153 17.023186111381619 0 0 0 0 -3.5606879885365288 25.500567054957173 0 25.500567054957173 65.426284604367538 0 0 0 0 -11.339714549393307 -1.5030900801450571 0 -1.5030900801450571 22.322288338498765 0 0 0 0 0.58063212382648999 30.773789420943103 0 30.773789420943103 72.364139124985741 0 0 0 0 6.6627370321596118 39.719802803390849 0 39.719802803390849 63.622396272645005 0 0 0 0 62.503076835855381 36.13648916762304 0 36.13648916762304 24.384821698609358 0 0 0 0 25.481723981676168 45.103243803067016 0 45.103243803067016 47.768851188382541 0 0 0 0 19.744841849156273 -9.3946464434684458 0 -9.3946464434684458 7.8875897466509741 0 0 0 0 17.014239961531075 3.0109471613704955 0 3.0109471613704955 -11.415279794186404 0 0 0 0 -28.732883120069289 -1.0892315337450782 0 -1.0892315337450782 15.493292737601223 0 0 0 0 -4.1059516913499818 -3.2465839538756303 0 -3.2465839538756303 5.7642165072317191 0 0 0 0 1.4259620056448057 -43.140247643932526 0 -43.140247643932526 -8.345854855126106 0 0 0 0 -6.7568370339231159 -2.838848901631934 0 -2.838848901631934 12.33479939373683 0 0 0 0 -3.5620707911590301 -0.22563049632935872 0 -0.22563049632935872 13.862888471989663 0 0 0 0 -2.6233517776729229 1.3411317487643828 0 1.3411317487643828 14.396432787598314 0 0 0 0 -9.902434851185518 28.834349953038668 0 28.834349953038668 -1.3337125137586554 0 0 0 0 -24.720625696998241 -0.011417575826271786 0 -0.011417575826271786 44.203421117770631 0 0 0 0 1.2382625080881553 -25.28011223327394 0 -25.28011223327394 -11.852816449473494 0 0 0 0 -2.9768840890959605 -3.7592608707614019 0 -3.7592608707614019 6.059984147258616 0 0 0 0 1.7881444733034186 -21.223818730352832 0 -21.223818730352832 -9.7984239729030378 0 0 0 0 -17.702165228416654 -1.2106503915013036 0 -1.2106503915013036 8.4317831111329724 0 0 0 0 -2.2239288779075914 -4.117739660955209 0 -4.117739660955209 6.0972519488499337 0 0 0 0 20.407636769873591 -6.1471038764393597 0 -6.1471038764393597 7.9610379766318147 0 0 0 0 0.70390176241437885 -0.54460004120551275 0 -0.54460004120551275 12.359183068343555 0 0 0 0 0.19413943067438311 1.718959173136227 0 1.718959173136227 14.336861222264361 0 0 0 0 0.35648603242087518 1.2739746841666602 0 1.2739746841666602 10.281486720668909 0 0 0 0 0.91658378244528649 0.33951035810059693 0 0.33951035810059693 11.71958790296776 0 0 0 0 -3.144132669675372 2.0877116497863426 0 2.0877116497863426 12.428510588334575 0 0 0 0 0.11469910062230326 1.2381431926760342 0 1.2381431926760342 11.16631343782683 0 0 0 0 -0.43615872928531019 0.4340557539967449 0 0.4340557539967449 13.429512167640496 0 0 0 0 -3.2799468026046696 1.6159998284506401 0 1.6159998284506401 11.603329115710949 0 0 0 0 -3.1480340455774822 1.7827798094208447 0 1.7827798094208447 9.0598345637899911 0 0 0 0 -5.1581979294839186 0.25729481919915997 0 0.25729481919915997 9.6382870509678469 0 0 0 0 -4.8219515788950389 0.54166489732142509 0 0.54166489732142509 8.0107047255514772 0 0 0 0 -4.3737078153351945 -0.91099776230248608 0 -0.91099776230248608 6.3710222603585862 0 0 0 0 -4.4911966973622981 -0.79790661990227818 0 -0.79790661990227818 8.3922181052421365 0 0 0 0 -1.58615863859829 0.90471864019150416 0 0.90471864019150416 5.5177566428665159 0 0 0 0 -0.60191873231651272 -1.2503861637223963 0 -1.2503861637223963 9.6244798273739889 0 0 0 0 0.45737069957145593 3.0594126291734938 0 3.0594126291734938 10.25591652867115 0 0 0 0 -3.1827371278473464 1.3693325885049035 0 1.3693325885049035 11.413138095569593 0 0 0 0 2.0733243407241275 -0.58733609798719044 0 -0.58733609798719044 10.516777639524662 0 0 0 0 3.6179178684068347 0.8735675744837863 0 0.8735675744837863 10.121654132527283 0 0 0 0 0.8550035327571095 4.8601135275257548 0 4.8601135275257548 9.902364870791871 0 0 0 0 0.96264048584835749 0.0077287825147323019 0 0.0077287825147323019 3.2572970050032382 0 0 0 0 -0.10265984906910292 0.35433269055363681 0 0.35433269055363681 0.67282800964176914 0 0 0 0 -0.090379920187196205 3.5064331056312312 0 3.5064331056312312 6.5127092714537866 0 0 0 0 0.52074597622335894 1.2241782615632477 0 1.2241782615632477 3.5647126305907051 0 0 0 0 0.81065373492532444 3.5455334310818216 0 3.5455334310818216 6.1914035877894094 0 0 0 0 0.1099367249720018 2.5602159435192107 0 2.5602159435192107 11.046562775563871 0 0 0 0 -0.29630716071593244 0.49542391344755288 0 0.49542391344755288 1.8132218191645677 0 0 0 0 -0.17992884758587024 -0.66812189881602535 0 -0.66812189881602535 11.127256603638671 0 0 0 0 -0.65241007184755517 0.39297535647074255 0 0.39297535647074255 11.93492995110455 0 0 0 0 -1.2779912045979813 -1.9878559638891602 0 -1.9878559638891602 4.1883591686814725 0 0 0 0 1.5315186636593978 0.86310204920846445 0 0.86310204920846445 10.365647248681853 0 0 0 0 -33.666942300984147 28.719548852821958 0 28.719548852821958 22.828545814087192 0 0 0 0 -3.2780916385760044 -0.79670208138375642 0 -0.79670208138375642 9.4230401108086959 0 0 0 0 -4.0595766869533918 -3.7615953101785635 0 -3.7615953101785635 0.3961218341085555 0 0 0 0 7.2249466808349894 -34.043554643388461 0 -34.043554643388461 68.948061623038484 0 0 0 0 24.288455472719988 18.177405139694656 0 18.177405139694656 1.8747488799428993 0 0 0 0 0.84042298909736513 0.47853735354999571 0 0.47853735354999571 0.12260118712097778 0 0 0 0 -2.895356439055405 82.865202970309383 0 82.865202970309383 44.756945025976165 0 0 0 0 -2.8663643534213823 -1.4722581607794929 0 -1.4722581607794929 9.7476561635420076 0 0 0 0 123.21471522530226 -31.837758663215936 0 -31.837758663215936 -11.424806255547082 0 0 0 0 -11.836988357643136 -32.098305135739679 0 -32.098305135739679 25.074143096466287 0 0 0 0 -9.8227142942920409 -2.9328888897207435 0 -2.9328888897207435 78.105970704345964 0 0 0 0 3.4861785787405211 8.5363103151835276 0 8.5363103151835276 -0.52629386490571051 0 0 0 0 -4.0297640487938224 3.7972113526311659 0 3.7972113526311659 8.9599016092370221 0 0 0 0 -3.2598889606859984 8.8281804263724553 0 8.8281804263724553 20.925106908300904 0 0 0 0 -4.389862452900843 4.0938105164791523 0 4.0938105164791523 15.436837414136562 0 0 0 0 -3.7236917325052445 2.384901290412472 0 2.384901290412472 10.9487416183797 0 0 0 0 -4.4658108020833538 -0.21973323975453241 0 -0.21973323975453241 7.7746332932392761 0 0 0 0 -2.7430197250695301 2.0793330854016858 0 2.0793330854016858 10.263905220447668 0 0 0 0 -5.842755088359354 -1.0111916699679568 0 -1.0111916699679568 8.4608804646231874 0 0 0 0 -3.9247947929953244 -0.13543910159980044 0 -0.13543910159980044 8.0627561010397741 0 0 0 0 -4.6736068159141269 0.18132556513273812 0 0.18132556513273812 9.2478504689788679 0 0 0 0 -6.1586892636563562 0.77418870155634067 0 0.77418870155634067 9.0158198724493559 0 0 0 0 -5.7365172626847425 0.8990700835656753 0 0.8990700835656753 7.5429998328054353 0 0 0 0 -5.8779020522412679 -1.20700947318619 0 -1.20700947318619 5.4718844007737175 0 0 0 0 -6.2212319725245493 -0.85529102382497513 0 -0.85529102382497513 6.3004085315940301 0 0 0 0 -5.1043579256126463 -0.45470630417548819 0 -0.45470630417548819 7.5210208394428264 0 0 0 0 -5.0882766435027236 0.28031531031092527 0 0.28031531031092527 5.916948612935812 0 0 0 0 -5.2655898916189017 -0.16610019731888315 0 -0.16610019731888315 5.5080459477612749 0 0 0 0 12.930966543105455 -0.76759640999443945 0 -0.76759640999443945 9.8430908816656029 0 0 0 0 22.880863065165897 18.634617673596949 0 18.634617673596949 3.5288136699755341 0 0 0 0 1.1383707042270998 -1.6046845673163261 0 -1.6046845673163261 -4.5657104627057379 0 0 0 0 -24.467363890446336 11.185223556096389 0 11.185223556096389 1.8810100915115981 0 0 0 0 12.51674028988073 2.3783893898287261 0 2.3783893898287261 -2.5703700293561269 0 0 0 0 -9.7708432658465085 26.967326886584033 0 26.967326886584033 20.617516441908265 0 0 0 0 -14.218038950853895 8.3655634587571512 0 8.3655634587571512 -0.49027752321853768 0 0 0 0 0.17360608817521095 -0.43907139934525219 0 -0.43907139934525219 0.075561630916640254 0 0 0 0 -18.399845665137718 25.827829074693909 0 25.827829074693909 -36.246063750876601 0 0 0 0 -22.467604374723749 32.354839718249423 0 32.354839718249423 -25.240121281197389 0 0 0 0 -13.387301126243386 9.9013614869818412 0 9.9013614869818412 -13.058060694636424 0 0 0 0 -4.0932524879093393 4.7423798760046338 0 4.7423798760046338 2.0908256567681747 0 0 0 0 -15.599309516222434 13.610432183032117 0 13.610432183032117 0.07028744859417202 0 0 0 0 0.92034784145880622 8.5647022968605597 0 8.5647022968605597 2.5619617151829743 0 0 0 0 15.28861513514363 0.81654411200133836 0 0.81654411200133836 0.45908145867679195 0 0 0 0 9.3956909540976312 6.7997312079087351 0 6.7997312079087351 -0.41437766190028924 0 0 0 0 9.8788207229002865 -3.2010063822065149 0 -3.2010063822065149 0.52813420477286854 0 0 0 0 -0.29785672761930793 1.1777344365125451 0 1.1777344365125451 4.5944010847692383 0 0 0 0 24.362087797167533 -2.2841852822243709 0 -2.2841852822243709 -0.22924957131726842 0 0 0 0 -5.2788272711958939 3.3030347638739386 0 3.3030347638739386 4.7897682311795506 0 0 0 0 -2.3092268518417751 1.914279278251275 0 1.914279278251275 3.6856405424649807 0 0 0 0 -1.2553145403935559 1.8698390764716351 0 1.8698390764716351 1.5208344453503742 0 0 0 0 15.241661091780884 2.847273951371335 0 2.847273951371335 3.9211918736828011 0 0 0 0 0.40202462524794758 0.97303588656716422 0 0.97303588656716422 2.612337431657739 0 0 0 0 -6.2245702208407465 1.18110194329347 0 1.18110194329347 6.6096206861047904 0 0 0 0 23.596732220939998 -5.8737583150168575 0 -5.8737583150168575 3.6093621389135961 0 0 0 0 -3.7979679110425479 2.4819567269457821 0 2.4819567269457821 7.1479633346025366 0 0 0 0 -3.4837647832491712 1.7366864673729197 0 1.7366864673729197 6.9010608061289531 0 0 0 0 -4.0327604301228348 1.1430344750469885 0 1.1430344750469885 7.3703352666775572 0 0 0 0 -5.1275048874782811 2.3305467630825092 0 2.3305467630825092 11.591981303463399 0 0 0 0 22.78832564598514 0.11109979449702223 0 0.11109979449702223 5.4705647376504203 0 0 0 0 22.693567946212642 17.931520794578695 0 17.931520794578695 12.989654577877445 0 0 0 0 1.5858971620214177 9.3271233292846318 0 9.3271233292846318 9.9465136575881843 0 0 0 0 15.884253483934827 2.4126012154563341 0 2.4126012154563341 4.728205170844376 0 0 0 0 -0.10101602374008467 0.27022027207435073 0 0.27022027207435073 1.0513983154064945 0 0 0 0 1.1510387351954137 3.2141104109095977 0 3.2141104109095977 1.5718699841017951 0 0 0 0 0.15356565623778806 1.0774456491981255 0 1.0774456491981255 1.3840412584795558 0 0 0 0 2.4661179663388566 0.2193356827910975 0 0.2193356827910975 1.6830704213398349 0 0 0 0 -0.96979474225599915 -1.0606435651134234 0 -1.0606435651134234 4.0912616560490278 0 0 0 0 0.23286468606351418 -0.11975148115535816 0 -0.11975148115535816 1.1798294120436852 0 0 0 0 -0.70768302509759451 0.28415775510802632 0 0.28415775510802632 1.7325318932998925 0 0 0 0 -0.50199928376543668 0.50198693114759863 0 0.50198693114759863 3.7084810650821858 0 0 0 0 -0.41997690819129646 0.75332919746960769 0 0.75332919746960769 2.9302292031337744 0 0 0 0 0.01546689693579717 0.72911922988505928 0 0.72911922988505928 1.6201527849297328 0 0 0 0 0.12331230026018147 0.50732504233951659 0 0.50732504233951659 0.088912278173665982 0 0 0 0 -0.48235690719684854 0.83074814398969465 0 0.83074814398969465 3.7826749737414502 0 0 0 0 -0.060039946073937811 -0.081463805171381409 0 -0.081463805171381409 0.79367538419463557 0 0 0 0 0.19840113478711174 1.2209972980085695 0 1.2209972980085695 3.0497703309320059 0 0 0 0 -0.10951296118375264 0.80764828992616877 0 0.80764828992616877 2.1837256660055075 0 0 0 0 -0.83358426105495909 3.005846586987218 0 3.005846586987218 1.6793763969890279 0 0 0 0 -2.5531655180816415 0.66477225897415337 0 0.66477225897415337 1.926294260958457 0 0 0 0 0.41943185083835743 -0.35088710457876005 0 -0.35088710457876005 1.9977499447559239 0 0 0 0 -3.538304292201218 -0.30082915924185727 0 -0.30082915924185727 4.7143817997457518 0 0 0 0 -0.062331532743854057 -0.16428689457910295 0 -0.16428689457910295 0.014283579391147327 0 0 0 0 -3.4898475830379425 0.4934552763343163 0 0.4934552763343163 1.8718246637035918 0 0 0 0 -5.9289513849299738 0.60750052867024351 0 0.60750052867024351 5.0278162314671135 0 0 0 0 -2.6801854941476013 0.83391341051889789 0 0.83391341051889789 2.7764555768599024 0 0 0 0 -4.6423308424293452 -1.7034969901505974 0 -1.7034969901505974 2.650516176514202 0 0 0 0 -0.90647008385303707 3.2758545655289026 0 3.2758545655289026 5.0709375447695493 0 0 0 0 -0.35455729306295325 2.3704245820545111 0 2.3704245820545111 4.2955860908014074 0 0 0 0 -0.80901305876204788 2.6704395191100048 0 2.6704395191100048 6.9286688320153189 0 0 0 0 0.42859036636724568 3.9965466314661171 0 3.9965466314661171 6.3646902102555032 0 0 0 0 -1.7376909119500397 3.1810680524258714 0 3.1810680524258714 7.8178722878310509 0 0 0 0 -2.1611100371985685 3.2419225262128748 0 3.2419225262128748 7.858172911881411 0 0 0 0 -5.3688178316403992 4.3618294010238969 0 4.3618294010238969 7.738621301547937 0 0 0 0 -1.5762510596482571 3.9755833350991452 0 3.9755833350991452 7.0567123832825018 0 0 0 0 0.44548132230920601 3.766441321484308 0 3.766441321484308 6.1148336118185398 0 0 0 0 0.85466937938235787 2.9600596180553111 0 2.9600596180553111 6.2851750527843251 0 0 0 0 1.0265188380126347 3.2254554347746307 0 3.2254554347746307 6.2772685690724757 0 0 0 0 -0.40341006332937468 2.7073721895903873 0 2.7073721895903873 7.4896262831462082 0 0 0 0 0.14336017063760664 3.5060683173578582 0 3.5060683173578582 8.1136900452238478 0 0 0 0 3.3392955524212908 4.1088953067168461 0 4.1088953067168461 5.2402484832728078 0 0 0 0 0.61778448523864427 3.0593221202670975 0 3.0593221202670975 7.0299065159961174 0 0 0 0 -3.4066060646150618 2.3290391998161795 0 2.3290391998161795 11.485160474625445 0 0 0 0 3.777347309306009 4.4612872478323879 0 4.4612872478323879 2.6637146482335083 0 0 0 0 -1.6811621914356927 0.29673162128822916 0 0.29673162128822916 3.8488612587378235 0 0 0 0 -2.3367240372584774 -0.37909186030992714 0 -0.37909186030992714 2.9457574467305676 0 0 0 0 0.14364032284213302 0.12789558503527232 0 0.12789558503527232 0.88576001587159325 0 0 0 0 -0.078824191031041657 2.9335101839878073 0 2.9335101839878073 4.3749877870789753 0 0 0 0 1.8086618478482706 2.0176537869556341 0 2.0176537869556341 6.917431587480678 0 0 0 0 1.4397786832023485 3.6284615266922629 0 3.6284615266922629 5.6068366502804565 0 0 0 0 3.273091478153674 2.7551353178963609 0 2.7551353178963609 5.7737798315502005 0 0 0 0 2.3495444190125454 3.6268351001599513 0 3.6268351001599513 5.24402581317554 0 0 0 0 -2.6825010614538627 -0.48720257960212621 0 -0.48720257960212621 1.767149149498664 0 0 0 0 -0.68768360179222976 0.14539692007313754 0 0.14539692007313754 1.9010110815031105 0 0 0 0 -2.2654317443490237 1.320838670188067 0 1.320838670188067 3.6315585857927566 0 0 0 0 -0.87189448001299752 -0.92756001323778037 0 -0.92756001323778037 5.4012047734031512 0 0 0 0 -2.2847263897297978 0.044437160887810023 0 0.044437160887810023 5.0638716799076064 0 0 0 0 -2.49124963404401 0.76095004256922039 0 0.76095004256922039 3.195329846257664 0 0 0 0 -2.1848004151340774 -0.7346888720694551 0 -0.7346888720694551 3.351023919216459 0 0 0 0 -1.4648292028384731 -0.70837040353762859 0 -0.70837040353762859 2.7489462013272714 0 0 0 0 -1.775873041856471 0.66821150011128339 0 0.66821150011128339 1.3032061342819361 0 0 0 0 -2.4292293199839605 0.17299389816071198 0 0.17299389816071198 2.1386889912009792 0 0 0 0 -0.92274280359720251 -0.50286648859491834 0 -0.50286648859491834 2.9842260493205686 0 0 0 0 0.80269171639878323 -0.52575662238450604 0 -0.52575662238450604 2.754508067911047 0 0 0 0 -1.0910830491067145 -0.059032098837633384 0 -0.059032098837633384 1.8150577528303984 0 0 0 0 -0.51771778655631806 -1.6851744183331903 0 -1.6851744183331903 2.1150902071440214 0 0 0 0 0.27721435602944666 -0.53793330898861313 0 -0.53793330898861313 1.7748879125356325 0 0 0 0 0.98599659093383707 0.69423106374779309 0 0.69423106374779309 3.4165251320091556 0 0 0 0 -0.35303656156440866 0.11501253793358046 0 0.11501253793358046 3.2752796861132083 0 0 0 0 1.4297880275021271 0.24033470321228378 0 0.24033470321228378 2.9182497754554788 0 0 0 0 1.8908266043081312 2.3801194970437791 0 2.3801194970437791 5.2630492864536791 0 0 0 0 3.8330135475273437 0.11276780205662362 0 0.11276780205662362 3.2606492141458148 0 0 0 0 0.19503898961494315 0.41901574910116324 0 0.41901574910116324 3.6873781000358576 0 0 0 0 -0.15819095252919424 -0.031894368602095824 0 -0.031894368602095824 0.73820700956902741 0 0 0 0 0.30595473500800913 1.8266956651034629 0 1.8266956651034629 2.7636108014632548 0 0 0 0 13.891096876890288 16.148777782018442 0 16.148777782018442 5.0238919481930679 0 0 0 0 -0.96312639900293817 4.5237692122850603 0 4.5237692122850603 5.7619286650551658 0 0 0 0 -2.5825072413378738 2.6894486329820211 0 2.6894486329820211 6.5461298558125236 0 0 0 0 -0.44682201024027179 3.9635700111612095 0 3.9635700111612095 6.9652315105968228 0 0 0 0 -1.624443646514635 -6.2603994920145851 0 -6.2603994920145851 1.7885110176048329 0 0 0 0 -5.847640166072388 -4.5665001008077297 0 -4.5665001008077297 3.4868746035790537 0 0 0 0 -5.3508312598920043 -0.76101592449231248 0 -0.76101592449231248 4.8806840094512154 0 0 0 0 -0.39658101289546721 -1.3725361813212658 0 -1.3725361813212658 2.8224565936252475 0 0 0 0 -1.5697852320871561 -0.27958808407311153 0 -0.27958808407311153 3.7229366545898301 0 0 0 0 0.2948896697141663 -2.0372006065881578 0 -2.0372006065881578 1.996707623347902 0 0 0 0 -1.4803185859723271 -2.6003209704631445 0 -2.6003209704631445 3.693966909876508 0 0 0 0 -1.5854474478302265 -3.711480461140809 0 -3.711480461140809 1.2186729314162221 0 0 0 0 1.5563904400224828 -4.7439377103319202 0 -4.7439377103319202 0.78451041173138947 0 0 0 0 0.082224304368292145 -0.10164367020459686 0 -0.10164367020459686 0.057792767928560806 0 0 0 0 14.675525190252642 11.703306826912012 0 11.703306826912012 -2.3887197761396237 0 0 0 0 1.4080101061165351 -2.8259918089761413 0 -2.8259918089761413 0.1036967264735722 0 0 0 0 0.11259951167852478 -1.1823676736948983 0 -1.1823676736948983 -1.0833022329679807 0 0 0 0 -12.020269641223365 1.6049231460215196 0 1.6049231460215196 21.590698684402923 0 0 0 0 3.2994386325349296 3.7193376487248315 0 3.7193376487248315 7.0580658501917242 0 0 0 0 -1.3582410918663888 1.1153378590023646 0 1.1153378590023646 4.2402989673543985 0 0 0 0 4.2176899228672937 4.0086092695828484 0 4.0086092695828484 6.0633479404004902 0 0 0 0 1.9284076716007803 2.5593338510225294 0 2.5593338510225294 6.7449008505275287 0 0 0 0 1.3028224379900166 2.9798647682728188 0 2.9798647682728188 7.2503557074219316 0 0 0 0 3.3452036951207447 3.3352094790425326 0 3.3352094790425326 5.9462990678314327 0 0 0 0 1.8629257941367996 2.4492801755068285 0 2.4492801755068285 6.0021906616620981 0 0 0 0 4.2198177574571218 2.9776279166244422 0 2.9776279166244422 5.3817398708379187 0 0 0 0 3.0913839102615839 2.864126621534524 0 2.864126621534524 6.5922513665536826 0 0 0 0 2.5038268907901511 4.290834891880877 0 4.290834891880877 5.9608881040694541 0 0 0 0 2.5674071818236825 4.2986569891095314 0 4.2986569891095314 5.1521605272428133 0 0 0 0 1.2391197356896555 3.8598534075372299 0 3.8598534075372299 5.6053975875256583 0 0 0 0 1.8564024613638139 4.4716155663772952 0 4.4716155663772952 5.6114997337317618 0 0 0 0 1.5342691501807622 4.1196139687535833 0 4.1196139687535833 5.1013876317410904 0 0 0 0 2.4437363963833008 3.0454613068205276 0 3.0454613068205276 4.3608948066575977 0 0 0 0 2.3013246272153083 3.4849496792248829 0 3.4849496792248829 5.5408242361748989 0 0 0 0 2.5366358038343151 3.788869542516295 0 3.788869542516295 5.3964611875271657 0 0 0 0 2.420150955529607 2.8512662166940572 0 2.8512662166940572 6.019220310721721 0 0 0 0 1.1230533912887495 3.7743937633376845 0 3.7743937633376845 5.1933257330820197 0 0 0 0 0.96977264219862036 4.6074151354557671 0 4.6074151354557671 5.0891854140791111 0 0 0 0 -0.95911897814835356 3.8524141358429915 0 3.8524141358429915 6.2206172084916034 0 0 0 0 -1.2258063258454683 5.2177778316797685 0 5.2177778316797685 5.512316212803853 0 0 0 0 -1.3100604339406345 5.0641300379647873 0 5.0641300379647873 5.5659860425566876 0 0 0 0 0.24315145142463734 5.3597694082218368 0 5.3597694082218368 3.2531239309428202 0 0 0 0 1.178579316844889 1.0845971744302005 0 1.0845971744302005 3.2885551221759428 0 0 0 0 0.78804703691616851 1.8061343846356976 0 1.8061343846356976 6.1878045534367629 0 0 0 0 1.4619299824313998 2.5271877393433897 0 2.5271877393433897 6.7437241534726127 0 0 0 0 -9.6809919588496882 -8.0390007645582955 0 -8.0390007645582955 15.148454223099179 0 0 0 0 -14.980151639008625 1.2713407339629157 0 1.2713407339629157 3.6198970548057332 0 0 0 0 -0.12827132238248984 0.70462903060391469 0 0.70462903060391469 0.55808337858761803 0 0 0 0 6.6670918783318598 -28.759010439856866 0 -28.759010439856866 125.16202202102977 0 0 0 0 -18.484619349584136 19.939872792710048 0 19.939872792710048 114.41443121910561 0 0 0 0 4.479318679335961 10.340417775936203 0 10.340417775936203 71.618869302344137 0 0 0 0 2.5648862598744162 1.8475205016518341 0 1.8475205016518341 1.1212706537327577 0 0 0 0 -4.2232218410845235 1.9112504976255877 0 1.9112504976255877 89.739334841277014 0 0 0 0 22.07396768920114 -3.7136070988362917 0 -3.7136070988362917 -8.378816340782123 0 0 0 0 -0.39008414451018325 1.7301819944941599 0 1.7301819944941599 3.9315379185291022 0 0 0 0 0.9711747396650745 1.0184669194747258 0 1.0184669194747258 1.7349360263713942 0 0 0 0 1.0795825522206206 2.5818673440789919 0 2.5818673440789919 2.8855745619144564 0 0 0 0 0.75442753183098432 2.6257938035523694 0 2.6257938035523694 5.8761977919197079 0 0 0 0 -0.74756079364909189 0.89236573128318497 0 0.89236573128318497 3.8366514587184 0 0 0 0 21.20041617395384 39.743625737070033 0 39.743625737070033 67.441258120383281 0 0 0 0 -18.661857600149403 24.724630085883973 0 24.724630085883973 163.51206709444523 0 0 0 0 0.17154953540851658 -0.53642484195070139 0 -0.53642484195070139 1.2389232039477633 0 0 0 0 26.262685269828864 63.904638847034221 0 63.904638847034221 147.72956981325842 0 0 0 0 23.786630058588969 -18.509282262594752 0 -18.509282262594752 16.36438295949074 0 0 0 0 -1.4977799516520531 0.46175026985131495 0 0.46175026985131495 0.62969817772145653 0 0 0 0 -1.0517100695171138 4.0478627269749268 0 4.0478627269749268 10.433975230723263 0 0 0 0 -1.4280398189537111 2.5241025967488895 0 2.5241025967488895 9.34361424493909 0 0 0 0 102.2534536982489 -49.681412242567603 0 -49.681412242567603 -6.9276992194548939 0 0 0 0 27.469990123358002 89.675919727289056 0 89.675919727289056 117.56975634817081 0 0 0 0 19.145811303458913 61.931929089843834 0 61.931929089843834 105.52359332107153 0 0 0 0 0.52320744100509908 -0.10369119724185438 0 -0.10369119724185438 0.12996571529352607 0 0 0 0 101.45489857120521 51.472193117557708 0 51.472193117557708 67.988487858174267 0 0 0 0 -6.7633216086134738 18.030682763427649 0 18.030682763427649 89.910778347940322 0 0 0 0 14.0753152836757 41.422944880065643 0 41.422944880065643 71.566250986832529 0 0 0 0 2.2643800714100379 9.2190582475841438 0 9.2190582475841438 29.667548734460979 0 0 0 0 36.709979244407528 48.420687571740928 0 48.420687571740928 57.47597691656847 0 0 0 0 26.980356195251943 22.640893097231128 0 22.640893097231128 -10.003584515144496 0 0 0 0 45.341555029049445 5.8386966389442705 0 5.8386966389442705 4.510982668581164 0 0 0 0 13.650991961469458 -34.2747286979195 0 -34.2747286979195 21.431574267446194 0 0 0 0 -1.6871404435539148 -1.2973451681600636 0 -1.2973451681600636 9.8718801854720368 0 0 0 0 0.1797294041008014 0.42642523768010165 0 0.42642523768010165 0.82995100635769248 0 0 0 0 -13.675291587228685 7.7936902331448437 0 7.7936902331448437 9.1625407928154345 0 0 0 0 -10.434701523957983 -0.050284779415960656 0 -0.050284779415960656 21.813849416323137 0 0 0 0 -23.799688480190071 13.407471830023496 0 13.407471830023496 16.311981646144886 0 0 0 0 -3.7045314222361867 9.6543004817531255 0 9.6543004817531255 -1.1970533327767043 0 0 0 0 39.682628124014855 7.7482543684345728 0 7.7482543684345728 4.4767241350559743 0 0 0 0 0.73388010636617018 0.10330699738149463 0 0.10330699738149463 -0.17584489577356521 0 0 0 0 -7.6705658008470436 16.168483814086358 0 16.168483814086358 -21.265877623860433 0 0 0 0 -1.5217600930141089 11.141306288614942 0 11.141306288614942 -17.345342587846972 0 0 0 0 1.3718595323676368 3.0708937003792585 0 3.0708937003792585 -0.046780111124462564 0 0 0 0 -96.020453761518411 -19.402782446739366 0 -19.402782446739366 73.665183053662986 0 0 0 0 -41.138289917986299 33.659514183083957 0 33.659514183083957 -7.2200269561217283 0 0 0 0 9.1238610561759543 9.3859512339220146 0 9.3859512339220146 42.496735632750642 0 0 0 0 13.448489415219676 41.977704483163166 0 41.977704483163166 69.379564340060824 0 0 0 0 32.578810002605451 67.288591853212438 0 67.288591853212438 76.039497335539636 0 0 0 0 54.816335775546577 38.771703883436203 0 38.771703883436203 38.152288254242876 0 0 0 0 35.045868931944028 23.898529205562227 0 23.898529205562227 31.366325310331376 0 0 0 0 42.963504777250591 28.526387328439341 0 28.526387328439341 15.62646954178399 0 0 0 0 68.942710871933741 23.720223492675359 0 23.720223492675359 -10.437158673906652 0 0 0 0 98.943096321625944 82.734255373579799 0 82.734255373579799 34.554531057194595 0 0 0 0 0.97381277246936748 0.6489062334240554 0 0.6489062334240554 0.6116000174000682 0 0 0 0 19.395626936533574 15.869298238472766 0 15.869298238472766 269.62148804020671 0 0 0 0 32.69934066035097 81.305684665600893 0 81.305684665600893 186.82629433658803 0 0 0 0 29.582359153187639 58.900581748020159 0 58.900581748020159 67.234721897833879 0 0 0 0 22.093528156852699 23.110759755441904 0 23.110759755441904 124.69300538304924 0 0 0 0 21.687207600971384 30.251384313179983 0 30.251384313179983 31.208460324738553 0 0 0 0 27.943172985836625 51.962602395206886 0 51.962602395206886 58.067287621526702 0 0 0 0 34.582303884152338 67.74952480205593 0 67.74952480205593 74.766660896161738 0 0 0 0 55.535849459769452 75.315998178662994 0 75.315998178662994 66.211246016915538 0 0 0 0 18.361255135979462 63.274631772493194 0 63.274631772493194 44.718799122487326 0 0 0 0 9.7681101856748001 48.28002577566167 0 48.28002577566167 61.75660600091021 0 0 0 0 -13.590988044724956 30.889506098979382 0 30.889506098979382 61.356283298899143 0 0 0 0 -16.289208998256242 56.577025450236306 0 56.577025450236306 -6.1237864649374387 0 0 0 0 5.0352883403600686 23.613001022242315 0 23.613001022242315 44.829964376989757 0 0 0 0 -79.174924582841157 11.199701483694298 0 11.199701483694298 37.602142539996294 0 0 0 0 -40.751801044184035 -33.389040695115909 0 -33.389040695115909 2.2305103703311033 0 0 0 0 -31.563250544216942 -14.593770054272682 0 -14.593770054272682 10.439407086907522 0 0 0 0 0.18445177461822526 -1.6605136901325501 0 -1.6605136901325501 2.3230181207546146 0 0 0 0 -29.01961062548861 -19.104568929075413 0 -19.104568929075413 17.770047966088896 0 0 0 0 -7.8130586419930808 14.712948495316596 0 14.712948495316596 0.26616173064758186 0 0 0 0 -22.895862971434738 12.662983328276368 0 12.662983328276368 41.95685724635041 0 0 0 0 -20.886001012394189 30.814174599022408 0 30.814174599022408 63.305298299070273 0 0 0 0 0.60651828362375682 27.765046672441713 0 27.765046672441713 28.471134842969605 0 0 0 0 -2.545886016975424 2.4789199214022721 0 2.4789199214022721 15.560412299540188 0 0 0 0 -23.835920596677624 1.5951487899811241 0 1.5951487899811241 23.624018334895368 0 0 0 0 -36.833173363403375 -33.835474732165494 0 -33.835474732165494 1.2780287571204099 0 0 0 0 -33.095024925391954 -13.083730352929251 0 -13.083730352929251 -4.5647696246178384 0 0 0 0 -113.73559944212866 45.937804362778479 0 45.937804362778479 28.506039368486199 0 0 0 0 -3.1265055487463869 -1.9040614038779449 0 -1.9040614038779449 3.0906629005505231 0 0 0 0 -142.28683332148785 -16.852844242392621 0 -16.852844242392621 69.232241266955498 0 0 0 0 -59.619603382257992 -34.64472658696468 0 -34.64472658696468 29.589938859087852 0 0 0 0 1.3249503463297065 -4.8316570151460354 0 -4.8316570151460354 10.972688598910946 0 0 0 0 -3.0933356653617921 22.010779277526126 0 22.010779277526126 -2.5282079073685964 0 0 0 0 -12.839994657752982 -26.773020163089313 0 -26.773020163089313 -16.20005689354457 0 0 0 0 24.972976289255371 -26.546090525840555 0 -26.546090525840555 -30.380043176724939 0 0 0 0 -8.4085053988314939 -36.229006745325933 0 -36.229006745325933 -14.468111411961218 0 0 0 0 -3.3121643408037791 1.2150711950104613 0 1.2150711950104613 17.881946664116079 0 0 0 0 -50.773899519306461 -41.799330139136956 0 -41.799330139136956 81.384720965772431 0 0 0 0 1.0357001565799142 -2.8569879383380337 0 -2.8569879383380337 7.1142722929514584 0 0 0 0 -69.109382150101965 -10.422471344983023 0 -10.422471344983023 19.678713975253231 0 0 0 0 -66.746173349895116 -53.908842824738656 0 -53.908842824738656 -18.879012007724668 0 0 0 0 -48.20364570503807 22.668528741523005 0 22.668528741523005 71.307151580711434 0 0 0 0 25.834097494339858 30.661330597595224 0 30.661330597595224 -12.124612982865528 0 0 0 0 -7.3794835454632448 -27.536492043772341 0 -27.536492043772341 131.26144716361341 0 0 0 0 65.626083847187829 -15.658615024224673 0 -15.658615024224673 37.45071173566248 0 0 0 0 0.017496665163099792 0.82524833097307981 0 0.82524833097307981 1.5712151749987306 0 0 0 0 156.87633905047758 93.129084666194103 0 93.129084666194103 28.55760478789125 0 0 0 0 19.121842376812651 18.501167864194485 0 18.501167864194485 14.717373985029553 0 0 0 0 42.421909613482967 90.970157110753462 0 90.970157110753462 164.39131465496939 0 0 0 0 35.624440574363234 7.8667885312297585 0 7.8667885312297585 -23.728929386310483 0 0 0 0 38.43463480101741 38.140302604824228 0 38.140302604824228 -22.196785308726248 0 0 0 0 24.640496446655106 46.50546516040049 0 46.50546516040049 56.742898345095227 0 0 0 0 -1.5222122561534519 17.980773684953078 0 17.980773684953078 71.809844184996109 0 0 0 0 -24.419776398888658 40.26406375490842 0 40.26406375490842 81.189382581971131 0 0 0 0 61.246411085047619 56.278726162316758 0 56.278726162316758 43.072728368730168 0 0 0 0 -16.068794876150108 56.715832387243154 0 56.715832387243154 113.59454052393721 0 0 0 0 -52.428329806592842 15.057041436251893 0 15.057041436251893 104.29520371037484 0 0 0 0 5.9302766328523404 17.651322845996106 0 17.651322845996106 21.082842724264992 0 0 0 0 -17.135770038759375 14.189726188586519 0 14.189726188586519 22.04449779755123 0 0 0 0 3.1150907533207004 10.665152660965759 0 10.665152660965759 -3.6356595196739363 0 0 0 0 -51.253816788261133 13.674281517879535 0 13.674281517879535 10.42563483923368 0 0 0 0 -16.077364497151429 18.946585310398291 0 18.946585310398291 -14.935290660956525 0 0 0 0 -75.349869476913852 -19.9441634681707 0 -19.9441634681707 52.75275992088973 0 0 0 0 67.915227005309248 27.817580689791157 0 27.817580689791157 0.26101424520311411 0 0 0 0 42.058679562735279 69.054687026270585 0 69.054687026270585 21.524095331939861 0 0 0 0 41.703997307320606 73.646388980534994 0 73.646388980534994 60.995534310419316 0 0 0 0 58.396388121476548 72.003027025348729 0 72.003027025348729 58.343484188316324 0 0 0 0 31.900694405276909 84.222523245155571 0 84.222523245155571 59.606699239559703 0 0 0 0 37.294665856460142 55.105063670930576 0 55.105063670930576 89.70460868002192 0 0 0 0 22.683755792736292 24.591637620135316 0 24.591637620135316 38.40126920415878 0 0 0 0 47.185071194232933 29.619158847672225 0 29.619158847672225 44.583640470920727 0 0 0 0 37.643873647649968 21.626958486853255 0 21.626958486853255 32.307727328925466 0 0 0 0 37.575774694136584 50.362292434877446 0 50.362292434877446 35.986584102573033 0 0 0 0 42.152967727594842 34.080968897620551 0 34.080968897620551 40.651054369336634 0 0 0 0 44.821711434705776 19.771505571171474 0 19.771505571171474 38.584483999863664 0 0 0 0 -0.094622200512353705 1.1847161617956368 0 1.1847161617956368 4.1113513266571182 0 0 0 0 23.237974399063091 25.072783149815677 0 25.072783149815677 10.299468481311123 0 0 0 0 -3.2703431926224482 17.515328319677792 0 17.515328319677792 39.90569883149783 0 0 0 0 -1.8113413822857183 -13.950435726679643 0 -13.950435726679643 3.8252308269111381 0 0 0 0 63.514527855828192 30.248134558289621 0 30.248134558289621 17.965019946303073 0 0 0 0 46.94257436915359 34.342297081893321 0 34.342297081893321 28.668942359436187 0 0 0 0 48.299309273005179 32.892217694410192 0 32.892217694410192 17.519416022436417 0 0 0 0 37.785162685625892 31.82222490664526 0 31.82222490664526 19.319886895822492 0 0 0 0 35.658399897814888 18.731751711355173 0 18.731751711355173 15.970933884987971 0 0 0 0 11.395899869920186 14.659091656652436 0 14.659091656652436 35.14856748422244 0 0 0 0 13.849427978544497 11.965700993054952 0 11.965700993054952 30.431139763801184 0 0 0 0 25.262662290089338 26.454528180718626 0 26.454528180718626 41.896707323470764 0 0 0 0 6.3772154720356866 -6.5693379403019208 0 -6.5693379403019208 -0.24166749750020244 0 0 0 0 1.5499043225566367 -0.20458142936891477 0 -0.20458142936891477 -0.34275426493532279 0 0 0 0 33.991989273752552 1.4165312788545634 0 1.4165312788545634 -1.9271667068865099 0 0 0 0 25.300559772519591 22.922360020993438 0 22.922360020993438 48.307169301523572 0 0 0 0 8.9417244651062902 6.9124385315481049 0 6.9124385315481049 32.699252059676382 0 0 0 0 31.181131309573175 -0.74617627418592747 0 -0.74617627418592747 -2.6931079259002217 0 0 0 0 0.035378534732892153 1.2589356668502729 0 1.2589356668502729 5.7956108245873246 0 0 0 0 -17.081314946487538 -7.9519995189373276 0 -7.9519995189373276 11.582134824809145 0 0 0 0 -4.7032106336844208 -13.876875987784842 0 -13.876875987784842 8.5477473042310521 0 0 0 0 1.5995539673124233 1.2422994459635985 0 1.2422994459635985 1.4025360721551206 0 0 0 0 -5.6222721723867437 -8.3285489961458552 0 -8.3285489961458552 -11.228277109066767 0 0 0 0 0.72376384623353252 -0.56726170352251337 0 -0.56726170352251337 1.2199432106953907 0 0 0 0 0.56642479332356288 1.5516838048106365 0 1.5516838048106365 1.1776938393668388 0 0 0 0 -15.619077895311532 11.436689406676678 0 11.436689406676678 1.1353942812311288 0 0 0 0 -14.184434459428019 11.686683938497936 0 11.686683938497936 -2.0937976668119518 0 0 0 0 -12.638113167693646 14.460995970224758 0 14.460995970224758 2.3571621026003413 0 0 0 0 -11.771938153027122 15.871978240024873 0 15.871978240024873 -3.0373916908151841 0 0 0 0 -6.8100196294457831 16.453108682301831 0 16.453108682301831 -0.31899176800106943 0 0 0 0 -12.526057183691677 13.642014367678712 0 13.642014367678712 -1.1679099069733638 0 0 0 0 -14.435283633102102 15.975974054544622 0 15.975974054544622 5.6164133706211032 0 0 0 0 -15.792766176202065 11.885133116305951 0 11.885133116305951 2.2195262057393847 0 0 0 0 -16.205545666484753 12.60134077991961 0 12.60134077991961 1.8096398335219419 0 0 0 0 10.213422613768387 14.688446352782648 0 14.688446352782648 25.762707855219475 0 0 0 0 11.833750740288295 10.222663270420021 0 10.222663270420021 11.135361518718071 0 0 0 0 2.4109959803599281 23.827572849107639 0 23.827572849107639 38.739218801202782 0 0 0 0 0.21456491603632077 -0.35757812466153882 0 -0.35757812466153882 -0.1161648655513145 0 0 0 0 1.8436280779411156 1.4870837060733613 0 1.4870837060733613 3.4230428310110486 0 0 0 0 7.5559955783371606 10.365450086172473 0 10.365450086172473 18.695741143617795 0 0 0 0 0.82701559397901292 23.993153988091763 0 23.993153988091763 25.549134307601889 0 0 0 0 -5.479392609751117 4.3049909567163791 0 4.3049909567163791 14.8352752008223 0 0 0 0 -38.443105390978417 -2.7745417902278859 0 -2.7745417902278859 34.9633813870023 0 0 0 0 24.761079236712703 19.962737393525117 0 19.962737393525117 1.5233896734898735 0 0 0 0 71.360677989750002 35.545084783283073 0 35.545084783283073 4.1523901383287694 0 0 0 0 -2.4867071937019318 71.967378350421768 0 71.967378350421768 44.864784092299487 0 0 0 0 105.64795972192769 29.635749962673344 0 29.635749962673344 -0.48095250016922364 0 0 0 0 68.93026580770902 53.380004130982343 0 53.380004130982343 37.713073336540219 0 0 0 0 53.226180940650465 -32.181012993097738 0 -32.181012993097738 2.0646391436312115 0 0 0 0 7.183433986545424 -39.426284746655256 0 -39.426284746655256 16.050573289790918 0 0 0 0 20.355496820573535 28.763883717339922 0 28.763883717339922 11.607131715396463 0 0 0 0 70.382864766738521 37.183753813143085 0 37.183753813143085 4.9079964840893808 0 0 0 0 -102.33564236010056 -13.435618064402206 0 -13.435618064402206 19.627405146315141 0 0 0 0 1.6863661548652944 2.8193858817754673 0 2.8193858817754673 3.3008321146678679 0 0 0 0 13.585123860718852 1.4369138802684347 0 1.4369138802684347 14.787827236598446 0 0 0 0 9.8968893177228949 7.1223625409054279 0 7.1223625409054279 11.369444149353285 0 0 0 0 -3.3718772069521803 2.4994756615127649 0 2.4994756615127649 19.16606755429363 0 0 0 0 -116.56664884763291 16.262266871809061 0 16.262266871809061 81.426407600298262 0 0 0 0 64.157739727069384 29.940023817266592 0 29.940023817266592 14.84139923143448 0 0 0 0 70.961184370299634 23.139206618317985 0 23.139206618317985 20.46788673987794 0 0 0 0 77.727984551623877 30.802685717348595 0 30.802685717348595 8.2468031686657923 0 0 0 0 -52.504684245761155 143.59722886280679 0 143.59722886280679 68.67525472894522 0 0 0 0 270.08926904961936 255.02842193231481 0 255.02842193231481 9.698019357285375 0 0 0 0 48.170579573085661 20.880631827505681 0 20.880631827505681 90.143039393824438 0 0 0 0 51.336811200456395 2.9688182100180711 0 2.9688182100180711 129.84002200930991 0 0 0 0 110.06394906682317 -26.940488809835642 0 -26.940488809835642 81.192966086924571 0 0 0 0 85.060047579472666 19.37211504509105 0 19.37211504509105 17.105296810428626 0 0 0 0 -0.0082404879687008048 -0.7422715455059814 0 -0.7422715455059814 2.78179939687314 0 0 0 0 -89.742246844171177 -187.20302972958916 0 -187.20302972958916 -36.229503858550345 0 0 0 0 -136.44268779575032 -24.007933273118852 0 -24.007933273118852 6.6323548974542064 0 0 0 0 42.175243207442293 69.940880556972729 0 69.940880556972729 88.338363413946354 0 0 0 0 -3.3869180150483666 0.99134786385894058 0 0.99134786385894058 19.665610209396554 0 0 0 0 -5.3653445307390371 -9.3930319194989522 0 -9.3930319194989522 12.01726218105216 0 0 0 0 13.871887566224871 3.7784260076421958 0 3.7784260076421958 6.3870430037395636 0 0 0 0 3.7631532520949236 12.85482846399384 0 12.85482846399384 10.705931660514807 0 0 0 0 14.003683855207157 3.0715497706023598 0 3.0715497706023598 -1.5681715417702549 0 0 0 0 3.2550154630630459 6.0611911661869158 0 6.0611911661869158 9.2348231300818497 0 0 0 0 13.496291536747179 4.881279641494757 0 4.881279641494757 9.2340355322195364 0 0 0 0 22.627571863174808 3.510327323892966 0 3.510327323892966 6.0469547569541788 0 0 0 0 12.391510972566749 3.3647767916088327 0 3.3647767916088327 14.117393563722771 0 0 0 0 52.049322464860552 16.6068277224486 0 16.6068277224486 17.758972804201704 0 0 0 0 18.938589864673531 -13.408086769954423 0 -13.408086769954423 8.4097269465500517 0 0 0 0 0.5049957210131879 2.6101780610001128 0 2.6101780610001128 17.206099651496686 0 0 0 0 27.580013069173845 -28.526452181232855 0 -28.526452181232855 48.085112741727471 0 0 0 0 -22.910390086845979 -24.091260121236132 0 -24.091260121236132 24.85341727460343 0 0 0 0 1.6911208162032381 26.01013896120736 0 26.01013896120736 27.910126714222699 0 0 0 0 43.870883427744843 49.717051249746532 0 49.717051249746532 55.444315627418717 0 0 0 0 13.690919308241632 12.836824644013859 0 12.836824644013859 13.030930465280903 0 0 0 0 2.3194780122149723 20.751146863929421 0 20.751146863929421 58.430069686088132 0 0 0 0 -1.7605199467429316 -23.924408222911126 0 -23.924408222911126 49.391433445903658 0 0 0 0 22.625175808792704 -23.000968247574278 0 -23.000968247574278 11.56126694794375 0 0 0 0 0.025232823832258333 0.0054079283438714931 0 0.0054079283438714931 0.75921461197173334 0 0 0 0 -7.8546889569055907 -9.2688078406651471 0 -9.2688078406651471 23.148876062925297 0 0 0 0 0.93565581501366069 -1.6359319228684512 0 -1.6359319228684512 8.1528698426882897 0 0 0 0 2.2928481776359391 -11.026893519871457 0 -11.026893519871457 16.32237267447556 0 0 0 0 -5.5777204588638938 -2.9679116436381889 0 -2.9679116436381889 3.5483705389797251 0 0 0 0 3.7414173111105811 -1.0077104917598376 0 -1.0077104917598376 3.8868093426527963 0 0 0 0 -5.5087784759740543 -2.0059777343927294 0 -2.0059777343927294 8.5100141346061946 0 0 0 0 -2.7378075010087741 0.68877097160719813 0 0.68877097160719813 1.225365355895633 0 0 0 0 -4.136086463750587 1.729044739179102 0 1.729044739179102 3.8133669389528677 0 0 0 0 -1.7847966081681079 1.9218751067521964 0 1.9218751067521964 2.820787182182471 0 0 0 0 -2.5415647813814601 -4.1435629084119725 0 -4.1435629084119725 6.4876319747236266 0 0 0 0 12.081210176599939 -0.95374704037392632 0 -0.95374704037392632 -9.2469241559977036 0 0 0 0 10.164404412775411 -6.3182531723734883 0 -6.3182531723734883 1.3838556411217269 0 0 0 0 -2.7300352156128218 -2.0612271089812984 0 -2.0612271089812984 2.2718669464761883 0 0 0 0 -3.4579287635679066 0.26344389576388494 0 0.26344389576388494 1.0625968603981164 0 0 0 0 -8.573432001445326 -1.52712312046242 0 -1.52712312046242 11.039545876782199 0 0 0 0 -20.819345219883871 -5.4620723512775839 0 -5.4620723512775839 10.657834050834254 0 0 0 0 -17.851180232679098 -3.7713974710935645 0 -3.7713974710935645 10.852389755168019 0 0 0 0 -11.328612026765768 -5.0404450987359724 0 -5.0404450987359724 9.2915717943901655 0 0 0 0 -21.386108627684735 -9.9048658894188293 0 -9.9048658894188293 7.4698743517590174 0 0 0 0 -16.829356770195318 -17.214616716705223 0 -17.214616716705223 1.6199315195457302 0 0 0 0 -5.3337471187444407 -12.754751201856777 0 -12.754751201856777 3.1670924800691864 0 0 0 0 18.773745568185404 -19.724742773836738 0 -19.724742773836738 -1.5041781222669215 0 0 0 0 24.488258496804633 -5.6544286364345453 0 -5.6544286364345453 -8.5993713430229946 0 0 0 0 26.16136081682771 -4.8084120246707016 0 -4.8084120246707016 -8.1916791154752673 0 0 0 0 -2.5931960014770539 -10.540090734376463 0 -10.540090734376463 0.55479330732600829 0 0 0 0 13.040942815841291 -12.155510543993614 0 -12.155510543993614 -11.51102306826715 0 0 0 0 7.3646004519887356 -5.9023298495487779 0 -5.9023298495487779 1.6503225973117992 0 0 0 0 -13.01516628136801 5.953307541299182 0 5.953307541299182 2.4592308525898261 0 0 0 0 -0.89933274607116709 -1.5753950958115666 0 -1.5753950958115666 8.381701556263792 0 0 0 0 -0.68967468881056271 -0.53501525343153822 0 -0.53501525343153822 3.1510081973496762 0 0 0 0 3.2894664718159561 -14.212702804436688 0 -14.212702804436688 1.7870491847894527 0 0 0 0 -5.8941041027753727 -4.595880612338874 0 -4.595880612338874 17.950513507300457 0 0 0 0 -0.77002012806129549 -3.7311920902808682 0 -3.7311920902808682 6.8472971123735826 0 0 0 0 -4.4685405134086977 -2.3412362403396401 0 -2.3412362403396401 16.988354651801274 0 0 0 0 5.4976426574894504 -9.5482465144023081 0 -9.5482465144023081 3.8815632872392598 0 0 0 0 -1.0163977105861841 -0.94640223938517321 0 -0.94640223938517321 2.3124436013302532 0 0 0 0 -4.9673473890956075 0.45496994113699429 0 0.45496994113699429 2.2457010465628855 0 0 0 0 -2.6659788661695529 -1.6768111042192686 0 -1.6768111042192686 7.0294170405795739 0 0 0 0 -0.3867358120296735 -0.52413828321654021 0 -0.52413828321654021 2.9308426457450567 0 0 0 0 7.44047448402398 6.2080751316971146 0 6.2080751316971146 -7.3424654328860015 0 0 0 0 -2.8937091051939698 2.1406768567835295 0 2.1406768567835295 9.7535310721150772 0 0 0 0 11.32391034673833 -1.7416730687125437 0 -1.7416730687125437 -16.676158865583602 0 0 0 0 -5.881549453718435 12.193229792199418 0 12.193229792199418 46.460712100739329 0 0 0 0 -0.30022946439538711 -0.23885635116558457 0 -0.23885635116558457 1.9020852959170131 0 0 0 0 8.7016304852325241 36.676835361664352 0 36.676835361664352 30.479660533866081 0 0 0 0 -11.539599086428552 -10.350163461998818 0 -10.350163461998818 48.518513888359621 0 0 0 0 2.8876215208628082 -5.4769630641189906 0 -5.4769630641189906 36.567212444635516 0 0 0 0 -1.8273807122709131 1.3724136136314766 0 1.3724136136314766 10.093719543995112 0 0 0 0 -2.6453830829068687 3.2575261859501059 0 3.2575261859501059 14.885590779837116 0 0 0 0 -0.33458466064769254 -1.7561121365502004 0 -1.7561121365502004 5.2031321872925673 0 0 0 0 -14.479418786135966 14.163175812918212 0 14.163175812918212 16.667653934563077 0 0 0 0 0.80366205092380572 -1.9416989689934825 0 -1.9416989689934825 18.293766016666684 0 0 0 0 -3.3888128362690395 2.0401127426748644 0 2.0401127426748644 33.631857984322778 0 0 0 0 0.45733824309375049 5.7700457538301944 0 5.7700457538301944 7.1605555863291421 0 0 0 0 -2.6336569066840454 3.9281028598479359 0 3.9281028598479359 12.398986184038503 0 0 0 0 -0.14450481305176943 -0.36903474309151596 0 -0.36903474309151596 4.1291430254483217 0 0 0 0 0.74802870827124934 18.086144822827464 0 18.086144822827464 -32.922949286153198 0 0 0 0 -11.314418106921039 11.97004791227846 0 11.97004791227846 -2.6831981792711304 0 0 0 0 -27.87308518551788 51.937747305782864 0 51.937747305782864 22.986823860144341 0 0 0 0 -8.264345977752825 -0.18854094998062543 0 -0.18854094998062543 24.909546425099222 0 0 0 0 42.747590084530771 11.27710527220097 0 11.27710527220097 -34.158959620344092 0 0 0 0 0.46431769767349884 0.44875443960143402 0 0.44875443960143402 0.00032933284372482774 0 0 0 0 -9.8197047969989626 -8.4370557109457991 0 -8.4370557109457991 4.8466562967225855 0 0 0 0 13.319112087927124 -11.301150991936282 0 -11.301150991936282 -6.4034661861810491 0 0 0 0 11.862270711493153 -9.1938238861118862 0 -9.1938238861118862 22.91090509853575 0 0 0 0 3.5034048187548308 19.364817670044232 0 19.364817670044232 25.61366778120464 0 0 0 0 0.021028453955711512 -0.063350131430830903 0 -0.063350131430830903 2.0889515076756258 0 0 0 0 16.26053865759377 19.524607252459191 0 19.524607252459191 14.010991979786439 0 0 0 0 6.5256973670864227 18.083361434251174 0 18.083361434251174 13.065485690983905 0 0 0 0 5.6185909697173884 21.050090516623385 0 21.050090516623385 44.012905889185731 0 0 0 0 14.703664815066332 -9.1623059348227116 0 -9.1623059348227116 16.632379929746094 0 0 0 0 27.480912502751721 28.980237524579934 0 28.980237524579934 21.86375921712056 0 0 0 0 -21.612626660664432 15.00648647169993 0 15.00648647169993 18.426548564557152 0 0 0 0 -7.903577701256836 63.97485589032749 0 63.97485589032749 41.059050429009403 0 0 0 0 3.0873232414281464 7.1776107033709078 0 7.1776107033709078 12.094730938935408 0 0 0 0 -30.645153039473371 31.216082033592102 0 31.216082033592102 -5.7269202759271138 0 0 0 0 -0.17542675638460725 1.4893682747116159 0 1.4893682747116159 1.0325203490897579 0 0 0 0 -3.5540011386461003 -1.0313725161061029 0 -1.0313725161061029 11.161689352557005 0 0 0 0 -22.222953241310279 -48.151764479581288 0 -48.151764479581288 -5.9690450584639621 0 0 0 0 -3.8342997889767449 -0.72157722493194321 0 -0.72157722493194321 8.475403498214531 0 0 0 0 -2.8852491555933852 1.373100561031606 0 1.373100561031606 7.0832130159906228 0 0 0 0 -2.360273628358982 -4.7434632083436554 0 -4.7434632083436554 12.580530961218756 0 0 0 0 1.8009364619988446 -4.022871517533531 0 -4.022871517533531 7.0108280444736835 0 0 0 0 0.066219859020065996 7.6335566930029017 0 7.6335566930029017 17.374001520435741 0 0 0 0 -5.4629678378119024 -3.7158170986367622 0 -3.7158170986367622 26.529221787889583 0 0 0 0 -3.3100876427398243 2.9225053599758599 0 2.9225053599758599 3.6496983910628575 0 0 0 0 -3.5357031389834503 -1.3333523185319791 0 -1.3333523185319791 17.201715234361473 0 0 0 0 -30.80352909024532 8.9074911540083122 0 8.9074911540083122 -7.4031470295885811 0 0 0 0 -2.7218727940482133 2.0532152688694563 0 2.0532152688694563 6.9560376167172713 0 0 0 0 -4.4879846388470241 1.5613502300175837 0 1.5613502300175837 7.6893379426250732 0 0 0 0 1.6829246706286085 -0.83067328716697375 0 -0.83067328716697375 26.537573370989776 0 0 0 0 2.6826669750243513 7.1665090883212015 0 7.1665090883212015 7.7272262482811076 0 0 0 0 -19.94869051221076 22.270816814309001 0 22.270816814309001 -2.5997826866532705 0 0 0 0 -1.1461243584172489 -0.5232938030099028 0 -0.5232938030099028 0.85241558753654623 0 0 0 0 -13.84566669945599 -20.875759785066293 0 -20.875759785066293 -18.469311890564313 0 0 0 0 -49.88956535906766 27.558627936902667 0 27.558627936902667 -13.165924008414095 0 0 0 0 -1.2368674823653505 -1.0930658112198142 0 -1.0930658112198142 6.9663456886363271 0 0 0 0 -1.4286155632915438 -0.97914228779427503 0 -0.97914228779427503 2.1563089338537793 0 0 0 0 -5.8443805009272864 -2.5278460277813792 0 -2.5278460277813792 39.165261939064294 0 0 0 0 -0.084824058920531797 11.498614236787489 0 11.498614236787489 33.87268846214829 0 0 0 0 -0.64041982602093706 0.4904689098474595 0 0.4904689098474595 0.4296199872401445 0 0 0 0 -80.613856583166537 32.640864034057358 0 32.640864034057358 96.788256639484644 0 0 0 0 7.9175582131347397 -73.33400963813574 0 -73.33400963813574 76.006525883365612 0 0 0 0 -40.195044862982542 -10.983421341116582 0 -10.983421341116582 41.835226637199412 0 0 0 0 -2.2640306829685528 -16.814901843293683 0 -16.814901843293683 42.517406880539056 0 0 0 0 3.9808564121163252 -11.282116092972064 0 -11.282116092972064 6.2329716772187211 0 0 0 0 10.630857747649639 -18.177182686588367 0 -18.177182686588367 6.5920675908246267 0 0 0 0 -1.6137838467469692 1.8073290013826409 0 1.8073290013826409 42.200186678517639 0 0 0 0 8.9532846972067546 -3.5877481693387381 0 -3.5877481693387381 32.092938498586705 0 0 0 0 -5.7562170985167427 -4.8557103185130472 0 -4.8557103185130472 31.985392313526063 0 0 0 0 -10.69352100005824 -10.118481318349495 0 -10.118481318349495 40.481859440428707 0 0 0 0 2.7529842056766052 -10.799657384112173 0 -10.799657384112173 3.9264313835788269 0 0 0 0 16.608100025094373 -18.959393458842897 0 -18.959393458842897 -11.146665019382112 0 0 0 0 24.554634645927763 1.1364642377955079 0 1.1364642377955079 -4.3507981271355902 0 0 0 0 0.83969715536066847 -9.9628115116446807 0 -9.9628115116446807 6.2554876532040575 0 0 0 0 -3.4201000149722631 3.2271546082607188 0 3.2271546082607188 102.20621720474878 0 0 0 0 -14.816509126450605 -10.423679043266247 0 -10.423679043266247 41.04013385546773 0 0 0 0 29.238890855399063 -10.787367973962205 0 -10.787367973962205 40.975718800946893 0 0 0 0 118.97150389953003 30.575179749609788 0 30.575179749609788 -105.07409261612517 0 0 0 0 -11.753173680230248 -9.7123504823024405 0 -9.7123504823024405 89.913372861306016 0 0 0 0 3.1094695507640622 -0.088775774553394804 0 -0.088775774553394804 0.0078565702707323326 0 0 0 0 43.26244447511317 20.44547208089125 0 20.44547208089125 -28.798601196300751 0 0 0 0 -6.2527410731437385 -29.634650091132585 0 -29.634650091132585 44.659066476602675 0 0 0 0 25.487100865182128 -23.560690878470268 0 -23.560690878470268 45.474320581050165 0 0 0 0 -9.9138045315847876 10.340242631101091 0 10.340242631101091 37.07109029967296 0 0 0 0 8.3460731439326992 -23.442075332957074 0 -23.442075332957074 50.357174479730645 0 0 0 0 -23.878620702246394 -14.762709771453956 0 -14.762709771453956 48.25029991062047 0 0 0 0 11.5645840411471 4.6376323060494542 0 4.6376323060494542 38.026359059361369 0 0 0 0 -55.922620064849525 -40.61292363322724 0 -40.61292363322724 84.842997800542662 0 0 0 0 -43.522888566351412 -59.975647943850504 0 -59.975647943850504 22.828546039472485 0 0 0 0 -9.3501019515247208 -30.347979436962703 0 -30.347979436962703 -37.081383461769065 0 0 0 0 -1.1794722310721681 -24.317211690116665 0 -24.317211690116665 55.162327764834345 0 0 0 0 3.9557284484262882 -0.68764140905839044 0 -0.68764140905839044 -0.25851319520439664 0 0 0 0 -8.1045471074930902 -7.4458132312103658 0 -7.4458132312103658 1.3623852103697232 0 0 0 0 -29.332010960300281 -5.4474085303314741 0 -5.4474085303314741 16.913229436063716 0 0 0 0 -29.319235723027319 -3.3217082707657757 0 -3.3217082707657757 33.672810863844916 0 0 0 0 18.177764986897841 37.562166648271955 0 37.562166648271955 40.395163051157624 0 0 0 0 -29.068907870767362 -3.1215152695294819 0 -3.1215152695294819 33.777438364657883 0 0 0 0 -39.153571911070514 17.69288324847453 0 17.69288324847453 99.964994132385755 0 0 0 0 -2.1379400432779221 24.689182667869005 0 24.689182667869005 -8.9091188332313749 0 0 0 0 -11.888578914606569 3.3798853323700477 0 3.3798853323700477 6.0155393627632918 0 0 0 0 -5.2693637971540142 -0.61653102338171362 0 -0.61653102338171362 7.61983851248426 0 0 0 0 -10.964439544694201 0.52702132304557381 0 0.52702132304557381 10.652751025856787 0 0 0 0 -26.266800124479232 11.694562635666642 0 11.694562635666642 19.093437489609073 0 0 0 0 -25.444534044866032 14.82885749303351 0 14.82885749303351 30.669673937403733 0 0 0 0 -43.739144156086809 7.0919187307293043 0 7.0919187307293043 -18.262799120695377 0 0 0 0 12.063863630332094 -51.660365333790651 0 -51.660365333790651 33.794661321078109 0 0 0 0 -19.452930004751636 -55.933000984063646 0 -55.933000984063646 49.78582192404383 0 0 0 0 21.16638433441824 -56.943986678324052 0 -56.943986678324052 21.864751043197771 0 0 0 0 -0.16802067727217929 -0.63306235478059047 0 -0.63306235478059047 2.1583024288493995 0 0 0 0 0.21982987554537559 -37.087167901086843 0 -37.087167901086843 29.728402430899223 0 0 0 0 37.993988619262723 8.8367425224404776 0 8.8367425224404776 2.0229496708746142 0 0 0 0 -1.9015754390486599 -35.46413607824843 0 -35.46413607824843 42.932738820627776 0 0 0 0 0.35308124258876949 -0.93203823962386378 0 -0.93203823962386378 2.1527990952382505 0 0 0 0 32.39062649415439 -80.741274319131094 0 -80.741274319131094 96.846722024831024 0 0 0 0 114.41246515719035 -38.616352442997595 0 -38.616352442997595 21.652703703301597 0 0 0 0 16.411023366913696 -27.358022762443397 0 -27.358022762443397 -49.783666668438855 0 0 0 0 0.86590875029253311 3.2317782005296181 0 3.2317782005296181 6.3180539895228662 0 0 0 0 1.3601550226578638 13.903602320726804 0 13.903602320726804 6.7548170440042838 0 0 0 0 0.4161375679089685 -1.8231314674116399 0 -1.8231314674116399 6.6176172672513651 0 0 0 0 4.4161513404869766 46.366264799097166 0 46.366264799097166 41.945323870511857 0 0 0 0 63.852946458288784 63.46140752826625 0 63.46140752826625 56.721011219795855 0 0 0 0 38.153853459217544 27.81881171988789 0 27.81881171988789 8.1530478738378349 0 0 0 0 -22.168779183000424 8.9290436819421757 0 8.9290436819421757 60.944971402596821 0 0 0 0 -22.429428197543984 -1.3772054474052311 0 -1.3772054474052311 11.356191252390317 0 0 0 0 -38.831663913708326 -4.7727975188865912 0 -4.7727975188865912 3.1352584056564865 0 0 0 0 -26.355407820029995 23.502996516933081 0 23.502996516933081 33.183420984835152 0 0 0 0 -7.854270585574227 23.34569276082533 0 23.34569276082533 11.56845328905456 0 0 0 0 -97.065780577970145 -22.324178282817911 0 -22.324178282817911 20.101374191659943 0 0 0 0 -6.5478276094323746 -143.13055275114243 0 -143.13055275114243 -29.849582923248818 0 0 0 0 0.59808376541414043 -1.9945410728088873 0 -1.9945410728088873 4.1397758699345415 0 0 0 0 606.85878162478912 -238.03067696284415 0 -238.03067696284415 -19.805856463455484 0 0 0 0 0.29940881819598264 -0.22933626410486418 0 -0.22933626410486418 0.079210956481690076 0 0 0 0 -61.331666533441421 2.8886731769396192 0 2.8886731769396192 -9.3827261330724241 0 0 0 0 -62.191340561112611 6.7136166453046826 0 6.7136166453046826 11.187959301781705 0 0 0 0 -60.500702607861967 -28.528204511695321 0 -28.528204511695321 -26.396155417988894 0 0 0 0 -61.926330111166862 -26.757851531331653 0 -26.757851531331653 11.025997909274317 0 0 0 0 -51.961721818474189 -34.759814044854693 0 -34.759814044854693 -1.0515729235667095 0 0 0 0 6.1123228950878001 -3.8775390106033001 0 -3.8775390106033001 -4.0461488142387765 0 0 0 0 1.7052668472670121 35.270480600220594 0 35.270480600220594 16.197490344436915 0 0 0 0 -5.3302666972208499 12.206477552581305 0 12.206477552581305 5.5414488213143613 0 0 0 0 -23.946700892404351 16.423721764819504 0 16.423721764819504 16.189420818343024 0 0 0 0 16.675279046563446 43.402345999552495 0 43.402345999552495 28.527646534705468 0 0 0 0 0.52624328932529352 26.816936385792246 0 26.816936385792246 33.532412087686907 0 0 0 0 -6.2940825222838157 44.195854741430367 0 44.195854741430367 66.657392592908536 0 0 0 0 -7.4367879893652571 -19.015130818622083 0 -19.015130818622083 87.040616643360408 0 0 0 0 -33.444684495944273 -1.6846776897037472 0 -1.6846776897037472 86.682382729301708 0 0 0 0 -51.857196416049874 19.96502878473126 0 19.96502878473126 71.479164316009701 0 0 0 0 32.798990550864801 -43.386017280972339 0 -43.386017280972339 42.675405792409833 0 0 0 0 -5.3006149829508331 -7.1420631953571387 0 -7.1420631953571387 9.0901888823620993 0 0 0 0 -43.517636375360553 32.210668141022296 0 32.210668141022296 29.715847586534665 0 0 0 0 47.186994155607636 -51.112280592752711 0 -51.112280592752711 -16.608188364461625 0 0 0 0 0.022925173796561005 0.21527239339011839 0 0.21527239339011839 0.55964132007337763 0 0 0 0 -2.794872375715272 -6.6578942255776212 0 -6.6578942255776212 -15.722072771668991 0 0 0 0 -0.1816542287256806 -1.6793355113315025 0 -1.6793355113315025 1.6513947100194892 0 0 0 0 -8.0684086305442406 -18.158178174748571 0 -18.158178174748571 8.5824698436246081 0 0 0 0 -14.101706269434544 20.922018069620094 0 20.922018069620094 43.938317657211883 0 0 0 0 -23.199607640204931 -6.9010413423369528 0 -6.9010413423369528 30.99649985938845 0 0 0 0 0.30654723027772657 -1.9662146467656809 0 -1.9662146467656809 9.9434874688900479 0 0 0 0 -0.74962444109291937 -5.6785242062035195 0 -5.6785242062035195 34.701959477401033 0 0 0 0 25.250165751588156 -28.621899656653341 0 -28.621899656653341 32.936196220279527 0 0 0 0 -2.3556437913706532 15.187210540242233 0 15.187210540242233 32.644559814283639 0 0 0 0 189.87825252081984 -80.481371315107026 0 -80.481371315107026 -114.65560441270918 0 0 0 0 -4.5342734898626986 -63.643762855029536 0 -63.643762855029536 143.92280186695427 0 0 0 0 34.462975360316477 -0.81122759393258548 0 -0.81122759393258548 -96.437862084759331 0 0 0 0 1.1352686243136807 0.53803119454499115 0 0.53803119454499115 0.076537557905286047 0 0 0 0 19.206649213640503 -54.056269072092221 0 -54.056269072092221 56.376570174201333 0 0 0 0 -21.965006048587952 7.5869665088971487 0 7.5869665088971487 36.185053348400061 0 0 0 0 -8.0363131808861965 -11.666030976007953 0 -11.666030976007953 2.3509913561147187 0 0 0 0 1.9544291056020029 -0.58686396051234624 0 -0.58686396051234624 3.370906872294654 0 0 0 0 -4.4240453982897634 0.46287938354180369 0 0.46287938354180369 2.9995009189824486 0 0 0 0 0.10820031367850258 -0.2412410579147668 0 -0.2412410579147668 0.058621590934247791 0 0 0 0 8.9740621893724892 1.8482031652001751 0 1.8482031652001751 -8.9587595962402702 0 0 0 0 0.5041382209215044 0.66726211814238923 0 0.66726211814238923 7.0756277932209741 0 0 0 0 2.2157512909688584 -0.0007117395591933473 0 -0.0007117395591933473 -0.19380029262966758 0 0 0 0 1.6642681990831534 7.4196385566974641 0 7.4196385566974641 -12.786178472520078 0 0 0 0 -1.8431380575117373 5.5880600364152997 0 5.5880600364152997 -1.4991325283299375 0 0 0 0 3.5254725569216134 8.2577440711429517 0 8.2577440711429517 -12.469802650070051 0 0 0 0 -0.075121142213829151 0.4001346732644997 0 0.4001346732644997 -0.078945944081165287 0 0 0 0 5.0824319648813798 4.9745458723591582 0 4.9745458723591582 -14.670652585611833 0 0 0 0 -0.41764560665365025 9.6509251015856989 0 9.6509251015856989 6.7073010341700865 0 0 0 0 5.6820530071758242 2.2558908787477776 0 2.2558908787477776 -2.5939520032970904 0 0 0 0 0.25707809924332259 -0.19304024892001692 0 -0.19304024892001692 0.14324285422381244 0 0 0 0 17.4179441240708 -15.969898187729996 0 -15.969898187729996 22.527070698796706 0 0 0 0 -12.986911447546248 -1.3392237229813873 0 -1.3392237229813873 51.016026120676543 0 0 0 0 -3.0879790603959805 -0.61215826281932095 0 -0.61215826281932095 111.30784282460627 0 0 0 0 20.44380267398526 14.146269189952363 0 14.146269189952363 54.785510799473741 0 0 0 0 0.68144314088740998 3.8571592801238239 0 3.8571592801238239 97.99174723249962 0 0 0 0 -16.098425007419507 2.6311525489727501 0 2.6311525489727501 193.78603909440108 0 0 0 0 32.109441577778796 -26.743363508731022 0 -26.743363508731022 121.62296520287964 0 0 0 0 53.125339502043175 26.841658243727579 0 26.841658243727579 107.7909741505855 0 0 0 0 -16.575129031015763 -3.8942659101830941 0 -3.8942659101830941 141.91778432586443 0 0 0 0 0.22057562281404586 -4.3323683195912821 0 -4.3323683195912821 91.012593332125107 0 0 0 0 0.76144945471338588 20.360844880281547 0 20.360844880281547 53.623744277211244 0 0 0 0 9.597676818466141 23.843934904800335 0 23.843934904800335 119.63470951763611 0 0 0 0 -23.702372322607005 0.51335992453641666 0 0.51335992453641666 140.3423004055212 0 0 0 0 -19.509209849761703 0.5746424612325427 0 0.5746424612325427 137.219235401888 0 0 0 0 -23.405004320054097 4.4904390060100354 0 4.4904390060100354 193.46783026722551 0 0 0 0 13.908955209914438 82.989875271461642 0 82.989875271461642 158.93150094484054 0 0 0 0 14.059505232234869 10.632675668239244 0 10.632675668239244 66.642718122149745 0 0 0 0 9.4157147578977956 20.212688346963546 0 20.212688346963546 59.143433380004353 0 0 0 0 19.079324697260262 0.61641870849030056 0 0.61641870849030056 4.2357348454097519 0 0 0 0 7.0785351178872133 -3.329602470212194 0 -3.329602470212194 3.7247046484781094 0 0 0 0 -0.70893423469181016 0.0017415729143976932 0 0.0017415729143976932 8.3473883139768077 0 0 0 0 0.13875338315439723 -0.060542903335452536 0 -0.060542903335452536 0.097086641235593518 0 0 0 0 13.953518637896195 9.0426338384158953 0 9.0426338384158953 13.132640894527867 0 0 0 0 24.057284487842821 -9.4702425149953342 0 -9.4702425149953342 5.4028439443154639 0 0 0 0 14.076611819138407 0.025468996383096965 0 0.025468996383096965 -13.158354839412823 0 0 0 0 15.490619239526552 3.4094940630529891 0 3.4094940630529891 -6.057192678352294 0 0 0 0 -0.072983464434969392 -2.4281095528494916 0 -2.4281095528494916 -8.2358601670484859 0 0 0 0 17.432058983380671 -8.7223736227479094 0 -8.7223736227479094 -8.2865094887310988 0 0 0 0 -1.7605238739683955 -10.189208979608338 0 -10.189208979608338 -8.2133491435730548 0 0 0 0 2.2653303375376201 -2.7994906387444534 0 -2.7994906387444534 2.2041311530829262 0 0 0 0 1.3035933921082687 -3.0275125614571152 0 -3.0275125614571152 1.9716189531718555 0 0 0 0 0.915371073081231 -2.0198537783563637 0 -2.0198537783563637 2.1761725521799242 0 0 0 0 -0.30178058072399333 -2.4907378978089971 0 -2.4907378978089971 1.6608800380012632 0 0 0 0 -0.24384721929936859 -4.515320069858717 0 -4.515320069858717 0.0090664615418063477 0 0 0 0 2.2575133864883128 -4.8074834912649749 0 -4.8074834912649749 -0.1157479827552379 0 0 0 0 1.7539998332977689 -4.7467514014754215 0 -4.7467514014754215 2.7212163275598868 0 0 0 0 9.3118238343989503 -8.8934398449955552 0 -8.8934398449955552 9.078765008443952 0 0 0 0 0.70667287606693208 -0.74191161184171506 0 -0.74191161184171506 0.49160085912808427 0 0 0 0 0.42979750611575074 -1.4751560170200051 0 -1.4751560170200051 -1.1631292465935061 0 0 0 0 4.8966015085134131 0.71514949495031033 0 0.71514949495031033 0.54043515582452528 0 0 0 0 0.31660862777793652 -0.4332048427243258 0 -0.4332048427243258 0.17198917084467524 0 0 0 0 0.084272502465435495 -0.041886541512203834 0 -0.041886541512203834 -0.0094542095159511064 0 0 0 0 0.72726446068916084 -0.43232567666484245 0 -0.43232567666484245 -0.15355786160301221 0 0 0 0 9.7436362848033014 -3.7196004861916663 0 -3.7196004861916663 1.6753279400218162 0 0 0 0 44.854329077841157 -11.79241495394308 0 -11.79241495394308 -0.50472466653081938 0 0 0 0 22.18415852772165 -20.307301625310174 0 -20.307301625310174 25.674572620471736 0 0 0 0 32.407526902285298 -22.943782302468207 0 -22.943782302468207 26.124518206073844 0 0 0 0 0.2057546787836273 0.032130473562487438 0 0.032130473562487438 -0.12096124823953502 0 0 0 0 22.66511118563767 -38.68958540003041 0 -38.68958540003041 13.116364796052949 0 0 0 0 0.80117101015412118 -0.017883411121147219 0 -0.017883411121147219 1.7205345590409706 0 0 0 0 20.944936345648216 -25.982304816621763 0 -25.982304816621763 24.822944620496855 0 0 0 0 35.2233507829053 -28.553846547447392 0 -28.553846547447392 15.64810972961277 0 0 0 0 9.3611667404305763 -33.004881794573521 0 -33.004881794573521 24.386838781658298 0 0 0 0 0.20740301063454591 0.19256520937883437 0 0.19256520937883437 1.202958097498243 0 0 0 0 -19.980793845099413 3.7271321292610082 0 3.7271321292610082 5.7738890564082794 0 0 0 0 -9.7653206974051727 -8.7012032814918712 0 -8.7012032814918712 -0.2227910520741716 0 0 0 0 -9.08567532292534 -13.885771814708278 0 -13.885771814708278 6.3509719340381707 0 0 0 0 24.24355704942019 56.094390312863652 0 56.094390312863652 23.250721776870705 0 0 0 0 -12.957659216156628 -21.977381954338853 0 -21.977381954338853 0.68251966953539522 0 0 0 0 114.33566285349809 51.255838533365932 0 51.255838533365932 172.92963205171236 0 0 0 0 19.345166531090058 -43.818132649803829 0 -43.818132649803829 140.18916823769541 0 0 0 0 0.10532237981853909 0.2248214063372167 0 0.2248214063372167 0.48619209596445501 0 0 0 0 30.522978062676657 -44.503429201427025 0 -44.503429201427025 167.98014719381104 0 0 0 0 27.376819862803416 -21.118346909341199 0 -21.118346909341199 102.54080892288766 0 0 0 0 15.094982885830063 -45.683218249070705 0 -45.683218249070705 104.34084589309168 0 0 0 0 44.846132430296734 -63.052334007430545 0 -63.052334007430545 64.870903741550137 0 0 0 0 68.903798196299931 -30.599399445044583 0 -30.599399445044583 18.045635136542842 0 0 0 0 33.385830787893156 -4.7072285128469957 0 -4.7072285128469957 14.104711192602281 0 0 0 0 11.609135476972597 -1.8332909842029039 0 -1.8332909842029039 21.154752621347143 0 0 0 0 26.357419426703075 -34.213554046432364 0 -34.213554046432364 43.475399994380496 0 0 0 0 39.723153555341995 -34.662213702563349 0 -34.662213702563349 24.926836526567058 0 0 0 0 9.7873595957835278 -27.890663946478526 0 -27.890663946478526 35.847334521131415 0 0 0 0 -14.507516465004784 -27.998450120777306 0 -27.998450120777306 57.669253486141315 0 0 0 0 29.001002395644264 -39.908625769730861 0 -39.908625769730861 41.360841927669753 0 0 0 0 -1.8329734013109373 -42.869165109314054 0 -42.869165109314054 70.417825761171116 0 0 0 0 19.768722024649406 -53.8662216119601 0 -53.8662216119601 75.103530073809452 0 0 0 0 29.351914671532882 -39.916977252446486 0 -39.916977252446486 84.916337424723679 0 0 0 0 34.134023185308109 -43.456025459140619 0 -43.456025459140619 50.656054141381901 0 0 0 0 23.869933795893019 -31.510718073222051 0 -31.510718073222051 72.043479383079102 0 0 0 0 44.746557388986133 -90.536837736293819 0 -90.536837736293819 28.373778401750315 0 0 0 0 28.44961680596839 -20.504696273989794 0 -20.504696273989794 -41.251340992651421 0 0 0 0 -23.579717207361028 -50.530858650223308 0 -50.530858650223308 134.16127801934817 0 0 0 0 -45.275300942244961 -2.1027110955297985 0 -2.1027110955297985 57.072908876361907 0 0 0 0 98.645305966808152 -45.634694381440113 0 -45.634694381440113 10.627732208360612 0 0 0 0 -0.066802217811695624 0.31188333724607786 0 0.31188333724607786 1.1199383934030891 0 0 0 0 -3.5773623601840825 7.0990519675474388 0 7.0990519675474388 -8.8962472289294965 0 0 0 0 3.0660993925433786 -14.16403379039366 0 -14.16403379039366 39.253922993540982 0 0 0 0 9.6435009698157046 -29.02183620890537 0 -29.02183620890537 44.663131776862429 0 0 0 0 15.044073967324209 -7.7932802321847703 0 -7.7932802321847703 8.6954785651269049 0 0 0 0 27.703183459794218 -12.679271303931273 0 -12.679271303931273 1.5038581198696193 0 0 0 0 3.6110072583819033 -25.533417631864722 0 -25.533417631864722 -3.3024605524653907 0 0 0 0 0.7124775791635285 -2.2343068506787089 0 -2.2343068506787089 -2.3158186234650806 0 0 0 0 4.1424677965953691 -4.543423288953818 0 -4.543423288953818 1.9557372848594241 0 0 0 0 10.904145488771746 -15.856452776569313 0 -15.856452776569313 -1.222161348595364 0 0 0 0 12.800630683236989 -12.535313301448696 0 -12.535313301448696 1.5433979448180253 0 0 0 0 4.5918793324410672 -10.095628097773442 0 -10.095628097773442 7.5498608466969017 0 0 0 0 1.1176940248327081 -3.2945501287565544 0 -3.2945501287565544 2.2226179194101334 0 0 0 0 -16.229734310417228 -20.097095289013851 0 -20.097095289013851 6.0545572788541904 0 0 0 0 14.695526543253195 -20.648911193793992 0 -20.648911193793992 6.9983557689606641 0 0 0 0 0.75802877646466149 -7.1501252213729725 0 -7.1501252213729725 13.004099168845645 0 0 0 0 -97.041562094117808 -25.080620227782219 0 -25.080620227782219 175.81339095487192 0 0 0 0 -6.0893148512103608 -5.0187893687998439 0 -5.0187893687998439 7.3148286763698707 0 0 0 0 68.34614924020434 -63.279357434576696 0 -63.279357434576696 -41.518469459204425 0 0 0 0 1.1408580436457441 -1.4494776566040435 0 -1.4494776566040435 0.48644928059507997 0 0 0 0 -6.893200217570211 -4.070120174312251 0 -4.070120174312251 6.5852556304762402 0 0 0 0 0.95188031118610439 -6.0264838004219143 0 -6.0264838004219143 4.4104191925851932 0 0 0 0 3.4964317080072833 -3.1992360982871482 0 -3.1992360982871482 -0.075314206999181899 0 0 0 0 -0.60802505309354948 -3.2970758698257177 0 -3.2970758698257177 3.3679993271893061 0 0 0 0 6.4639613473767383 -6.9237004847759636 0 -6.9237004847759636 3.9508589147608291 0 0 0 0 2.3431207858694734 -6.6904819819415025 0 -6.6904819819415025 6.8731081730875303 0 0 0 0 7.0045475293483115 -9.890201428436967 0 -9.890201428436967 6.4380122154525452 0 0 0 0 -0.45323880886007684 -1.680068917537815 0 -1.680068917537815 2.5341559032217837 0 0 0 0 -8.9898185372030639 -3.4942290793187567 0 -3.4942290793187567 8.3161691037203127 0 0 0 0 -0.44345730186645649 0.26373887257714923 0 0.26373887257714923 2.7550904129186371 0 0 0 0 -0.95805027923314379 -0.69733469436826123 0 -0.69733469436826123 2.8002806145680026 0 0 0 0 -0.40786371482823824 -4.5316849477135293 0 -4.5316849477135293 8.4826676701725603 0 0 0 0 4.724991565437918 -9.0927908930916601 0 -9.0927908930916601 8.3605840435502614 0 0 0 0 -1.634443623288468 -0.81106638514255103 0 -0.81106638514255103 5.0890838788237538 0 0 0 0 -44.848797980519294 50.00647603630614 0 50.00647603630614 5.4934296609529838 0 0 0 0 -0.44933668942964872 -1.8662788322974633 0 -1.8662788322974633 10.554319366947498 0 0 0 0 -0.3001300784390537 -3.6727829727715289 0 -3.6727829727715289 9.5406335871889496 0 0 0 0 -9.8766156338793962 -7.1262300339863032 0 -7.1262300339863032 15.047697067995614 0 0 0 0 3.075116998184285 11.430418510117761 0 11.430418510117761 -3.2801520534740121 0 0 0 0 3.3856193071054577 6.4465131027188818 0 6.4465131027188818 -0.81088243584963493 0 0 0 0 -0.74833625695709238 1.6576513168736149 0 1.6576513168736149 0.86898032367168554 0 0 0 0 -2.4566728346508384 -0.37046363392174886 0 -0.37046363392174886 11.211101893393543 0 0 0 0 -1.2863571736753037 0.80136398919729235 0 0.80136398919729235 10.64959423361787 0 0 0 0 -0.0596322284531286 0.39844450569311252 0 0.39844450569311252 0.13198353241252647 0 0 0 0 -45.731942084211113 12.958227911896756 0 12.958227911896756 23.873754678049409 0 0 0 0 -3.9262002575218133 1.8888795431653307 0 1.8888795431653307 2.1024399108991929 0 0 0 0 17.682444499402749 -12.560224172012113 0 -12.560224172012113 11.043800754665426 0 0 0 0 -0.17604557916769883 -0.23280138158782693 0 -0.23280138158782693 1.434294359401509 0 0 0 0 10.668503423130048 -3.7729144575666851 0 -3.7729144575666851 6.2067448034929384 0 0 0 0 -4.7126613630359344 0.32013847448206434 0 0.32013847448206434 6.2376072649494745 0 0 0 0 1.0055419297634565 2.2108155279761377 0 2.2108155279761377 -1.8322038488477119 0 0 0 0 8.5693416158446674 -9.1231583047921276 0 -9.1231583047921276 4.07149782430497 0 0 0 0 6.8302580419055801 -10.789586445906025 0 -10.789586445906025 4.1835983034106903 0 0 0 0 10.380984400027373 -5.3927776460641326 0 -5.3927776460641326 -2.8654836288069419 0 0 0 0 -0.062951551727409974 -0.25257972643971227 0 -0.25257972643971227 0.54744264068121495 0 0 0 0 -1.4903000287460486 -8.3575008732882452 0 -8.3575008732882452 -3.7195710543951463 0 0 0 0 -16.644841366644265 6.8144385894992183 0 6.8144385894992183 14.47591555192048 0 0 0 0 -0.05342017727007381 -0.23134019379733939 0 -0.23134019379733939 0.28324987026525861 0 0 0 0 11.534067827602913 -17.699600224855374 0 -17.699600224855374 12.557706434332431 0 0 0 0 -5.2194496749044674 -8.5427974710928538 0 -8.5427974710928538 19.42577446674818 0 0 0 0 -9.1348739858941599 -1.5474530568717455 0 -1.5474530568717455 18.204651151148937 0 0 0 0 -5.7278113740478318 -8.4041560909918189 0 -8.4041560909918189 22.159151276213379 0 0 0 0 7.2233757003599166 -9.1969201067208814 0 -9.1969201067208814 10.346882502586595 0 0 0 0 -0.98803768443109163 -1.1097519941813516 0 -1.1097519941813516 5.3881099731424911 0 0 0 0 1.2272409868599885 -5.4442334271383857 0 -5.4442334271383857 7.8421115357959934 0 0 0 0 1.2935624131205543 -3.9140963607360391 0 -3.9140963607360391 6.7577164809990791 0 0 0 0 1.9743392737022702 -0.45379916825822875 0 -0.45379916825822875 -5.6872802138823317 0 0 0 0 -4.2110502281785216 5.8000769916852732 0 5.8000769916852732 1.9312590510035079 0 0 0 0 1.2719366421207718 -3.0349732157763025 0 -3.0349732157763025 0.60873331418703547 0 0 0 0 -0.99021733356889285 -3.0925474458545068 0 -3.0925474458545068 9.8166009156575456 0 0 0 0 -2.0476553971127061 -0.063213776844349923 0 -0.063213776844349923 4.6313903387508617 0 0 0 0 -1.8088107061114158 -3.126914138561915 0 -3.126914138561915 3.9996734999594992 0 0 0 0 -0.4688261139769736 -2.5897877757024617 0 -2.5897877757024617 -1.2575301484848751 0 0 0 0 0.93593398468533451 -3.0602713669541117 0 -3.0602713669541117 5.696580266521778 0 0 0 0 0.18069495507067823 -2.9420693803553366 0 -2.9420693803553366 0.76597406357854148 0 0 0 0 0.041884921733583269 -0.50360759504837915 0 -0.50360759504837915 -9.1752279380871187 0 0 0 0 -0.38828343517891994 -4.2143086249661792 0 -4.2143086249661792 3.9616569369409262 0 0 0 0 20.465002540850591 -3.2836906184033978 0 -3.2836906184033978 -5.3847068788581964 0 0 0 0 0.42177627961430075 0.1329771439422256 0 0.1329771439422256 -0.93284252205745055 0 0 0 0 -7.3883054095786065 0.69932381720172998 0 0.69932381720172998 16.527203185637518 0 0 0 0 -6.3132777833592399 -3.5879327375610046 0 -3.5879327375610046 -8.3717494406673723 0 0 0 0 0.15718888834586253 0.063709871266343754 0 0.063709871266343754 -0.057823767605008847 0 0 0 0 2.2336019051896963 -0.45787255030938923 0 -0.45787255030938923 1.7564593818490817 0 0 0 0 1.6232642678879472 -1.7894876010432199 0 -1.7894876010432199 9.3369379273390223 0 0 0 0 8.1401491387333635 -22.657637474229887 0 -22.657637474229887 5.3858898831931583 0 0 0 0 1.0153828219211116 -4.7757071233573676 0 -4.7757071233573676 5.9953287503538277 0 0 0 0 -5.1211097765392424 -0.62488933589975204 0 -0.62488933589975204 5.707649028963715 0 0 0 0 9.6416357733437508 -0.084839950285640953 0 -0.084839950285640953 -4.0044056803326384 0 0 0 0 -3.8905301482159302 -7.3528609032127861 0 -7.3528609032127861 17.428722440248748 0 0 0 0 13.428531108403646 -12.438562401736021 0 -12.438562401736021 13.292764520174387 0 0 0 0 -6.9750216330932062 -6.9455208545314235 0 -6.9455208545314235 30.447426906387591 0 0 0 0 -2.4960397998306689 -13.222113124999851 0 -13.222113124999851 27.14998102196796 0 0 0 0 6.64713856640617 1.3328859034750167 0 1.3328859034750167 2.6059275346360664 0 0 0 0 -2.5054042035719704 0.24586705202273151 0 0.24586705202273151 6.6717236047911683 0 0 0 0 14.691241208713848 -5.0952755464131769 0 -5.0952755464131769 3.8937748370017289 0 0 0 0 -0.072549483390389469 -0.17631175083351991 0 -0.17631175083351991 28.318786517494118 0 0 0 0 7.7096189714177683 -12.679580427390647 0 -12.679580427390647 18.923537436347942 0 0 0 0 -1.1072374464980612 0.2657672259579158 0 0.2657672259579158 31.630947080821443 0 0 0 0 -0.17572291207534363 -3.8640667714662413 0 -3.8640667714662413 10.658684833841107 0 0 0 0 8.7995880593769584 -3.538075915211266 0 -3.538075915211266 5.7934261804530252 0 0 0 0 1.5500808761581482 -7.8212253226770372 0 -7.8212253226770372 5.5767049542582754 0 0 0 0 -1.5067038996062934 -2.4527995987727991 0 -2.4527995987727991 14.853586461914347 0 0 0 0 -1.0606031373431506 -3.2639011101446158 0 -3.2639011101446158 15.662520807150031 0 0 0 0 -1.8511139876318676 1.1394744394823935 0 1.1394744394823935 3.168245931773976 0 0 0 0 -1.1985463319227847 -6.7558738249745147 0 -6.7558738249745147 12.708828952263275 0 0 0 0 -2.41863236323411 1.0528985417104195 0 1.0528985417104195 5.8752927912551058 0 0 0 0 1.4440389612949529 -5.543739902855684 0 -5.543739902855684 6.9105326520469248 0 0 0 0 0.82376083173363668 -3.3444163396916338 0 -3.3444163396916338 2.8652281948125164 0 0 0 0 -4.9959228867018499 -11.294668673440265 0 -11.294668673440265 5.7018699951104281 0 0 0 0 1.304265729083774 -4.9847584580559232 0 -4.9847584580559232 7.0965709754470421 0 0 0 0 -2.7315057579952509 -8.6978790059692983 0 -8.6978790059692983 12.312611886728519 0 0 0 0 1.5728892471327924 -1.2524019152105552 0 -1.2524019152105552 9.3636606484324147 0 0 0 0 -0.93340184516983982 -0.69652456770563731 0 -0.69652456770563731 12.46727906374349 0 0 0 0 -0.72811616118403322 -0.34550932630236275 0 -0.34550932630236275 9.7241510809963074 0 0 0 0 -0.84053081174050703 1.129388241955894 0 1.129388241955894 13.585868109532385 0 0 0 0 -0.90733856041612171 0.63885223124088952 0 0.63885223124088952 10.096083854683457 0 0 0 0 -13.707357746137347 69.43972376125339 0 69.43972376125339 78.969502852381083 0 0 0 0 -0.16837315619379267 0.48010618423936258 0 0.48010618423936258 1.2753215994637941 0 0 0 0 -16.63321215538042 13.096859390813506 0 13.096859390813506 166.7654829667872 0 0 0 0 30.729702568875467 35.677712495174546 0 35.677712495174546 -16.249405867524729 0 0 0 0 -0.39345480973147684 -2.1545330349453806 0 -2.1545330349453806 3.7936482544678292 0 0 0 0 -13.731595158709865 -59.716869737101661 0 -59.716869737101661 36.954732972856618 0 0 0 0 1.6515357421853309 -1.0661447629809118 0 -1.0661447629809118 4.0822457690987903 0 0 0 0 -1.2094140411638072 -1.7935946457071452 0 -1.7935946457071452 11.08524907908577 0 0 0 0 -1.238943232234538 1.8172273157632173 0 1.8172273157632173 2.382138352050946 0 0 0 0 -1.2284511701587304 -2.3614448928900842 0 -2.3614448928900842 8.2304899988530451 0 0 0 0 0.11148919969155902 -2.4248253800793655 0 -2.4248253800793655 4.1184511569918421 0 0 0 0 14.034844440250879 -53.480196455486293 0 -53.480196455486293 -22.726807352566198 0 0 0 0 19.341164469736782 -28.543769964537205 0 -28.543769964537205 -11.274191788055759 0 0 0 0 -2.2038879656403552 15.60270094158642 0 15.60270094158642 -53.792225828601659 0 0 0 0 -0.44896349003480229 -0.35841932866161308 0 -0.35841932866161308 1.0068226254687129 0 0 0 0 4.8296717125163013 -1.8974955126850546 0 -1.8974955126850546 3.2931338367379794 0 0 0 0 0.059916120576262166 0.093512680490829503 0 0.093512680490829503 0.68288953419456355 0 0 0 0 -3.3711450277205586 -29.531165758460702 0 -29.531165758460702 4.4423482545248589 0 0 0 0 18.093491737617533 14.51342755503083 0 14.51342755503083 -30.115321100362507 0 0 0 0 -15.292943672069896 13.867559076440102 0 13.867559076440102 63.723380191805518 0 0 0 0 71.194683307167679 -143.97298856805355 0 -143.97298856805355 241.16326662680831 0 0 0 0 16.258233882212437 -32.713096761313636 0 -32.713096761313636 106.80020951264623 0 0 0 0 4.2747631979822245 -37.248035833003996 0 -37.248035833003996 109.73130073039351 0 0 0 0 21.906026294252321 -30.484000969791737 0 -30.484000969791737 88.083627169912688 0 0 0 0 5.5102113678598528 -6.7074304868235686 0 -6.7074304868235686 55.392410827771755 0 0 0 0 27.042852337730164 -32.702243047786624 0 -32.702243047786624 22.408236224243637 0 0 0 0 6.8133834223519187 4.7996690335826315 0 4.7996690335826315 51.452418979807135 0 0 0 0 -0.024885518034917023 -0.17823760138835132 0 -0.17823760138835132 0.29629117894938872 0 0 0 0 16.887145855434838 -12.601146061146437 0 -12.601146061146437 46.334996581890209 0 0 0 0 4.2661810244717771 -25.396088257580686 0 -25.396088257580686 -20.251393283192556 0 0 0 0 -0.051612661445382457 -12.09678384335848 0 -12.09678384335848 4.5979595942662854 0 0 0 0 7.317043147964057 -4.1222664716833606 0 -4.1222664716833606 2.4102890432804998 0 0 0 0 -14.197561570051779 -8.5163603144771969 0 -8.5163603144771969 14.606498117283991 0 0 0 0 6.1444294774579049 23.578999648141007 0 23.578999648141007 20.026208018899069 0 0 0 0 19.460359460431988 24.244734328224695 0 24.244734328224695 8.9580766580711497 0 0 0 0 21.74255290820193 21.975848595501702 0 21.975848595501702 4.3068536598291303 0 0 0 0 28.621713518965805 37.291795130633545 0 37.291795130633545 26.767372229199282 0 0 0 0 11.546632022670792 12.037164708027149 0 12.037164708027149 52.3030281138399 0 0 0 0 41.227993509855651 -26.984678262645502 0 -26.984678262645502 11.27522919265266 0 0 0 0 10.551958760422153 61.324865609340463 0 61.324865609340463 2.1574383796632901 0 0 0 0 117.06784927071162 48.570333262046688 0 48.570333262046688 -23.014141044395728 0 0 0 0 -0.15151715128601434 0.058934134895880952 0 0.058934134895880952 0.30922788983461658 0 0 0 0 -64.739253628642842 -0.72452204015348798 0 -0.72452204015348798 36.388475748010933 0 0 0 0 0.062022173954483513 -0.61210713363829816 0 -0.61210713363829816 10.722312440441019 0 0 0 0 26.290135322597887 -62.907839545212916 0 -62.907839545212916 31.688952502523534 0 0 0 0 13.329168889196382 -0.50513548417325183 0 -0.50513548417325183 -11.054540699113204 0 0 0 0 11.579749296740601 0.34907780720800474 0 0.34907780720800474 14.809670590687233 0 0 0 0 -0.10531109673237651 -0.5426741373658851 0 -0.5426741373658851 9.3747568048691825 0 0 0 0 -30.370699450501633 -10.59209899094094 0 -10.59209899094094 27.253763576813071 0 0 0 0 34.649805101801064 -12.469261000138204 0 -12.469261000138204 -9.646880978678837 0 0 0 0 24.375751157969333 -42.711421413574783 0 -42.711421413574783 56.137015345626423 0 0 0 0 55.049314192271709 -66.326681625613219 0 -66.326681625613219 25.51627948116402 0 0 0 0 -1.2678631329321775 -18.797593416131576 0 -18.797593416131576 47.862040132849415 0 0 0 0 -0.016827941715711184 -0.71591389114817905 0 -0.71591389114817905 7.3892560556924813 0 0 0 0 144.86584372206696 -27.263913845000843 0 -27.263913845000843 -40.683671101722211 0 0 0 0 0.28234913030661712 -0.4393117802997904 0 -0.4393117802997904 3.134696619206867 0 0 0 0 85.172488626179756 -210.30270799092784 0 -210.30270799092784 499.35374107887174 0 0 0 0 285.49745804421872 -203.4250354605465 0 -203.4250354605465 176.84825458559726 0 0 0 0 33.486348557661316 -85.511602763500832 0 -85.511602763500832 199.63160603099413 0 0 0 0 -29.956779424730161 -82.558915814129705 0 -82.558915814129705 498.56364177709384 0 0 0 0 95.922893805272409 -137.40759425787729 0 -137.40759425787729 143.01461853812998 0 0 0 0 -12.582102968544234 -79.768413601759221 0 -79.768413601759221 116.02286316183961 0 0 0 0 -0.51540734857326664 0.13246604334182521 0 0.13246604334182521 1.9449388572245923 0 0 0 0 -73.46807369235998 54.637066630753225 0 54.637066630753225 65.973263800229688 0 0 0 0 131.02931850325004 -300.7538095386958 0 -300.7538095386958 499.49351337269354 0 0 0 0 -20.477308414783792 -40.428489495270469 0 -40.428489495270469 82.107486201265601 0 0 0 0 38.888136121827088 -87.192425836127541 0 -87.192425836127541 85.283763383556106 0 0 0 0 13.496915441089044 -62.292905064863589 0 -62.292905064863589 62.012216363125845 0 0 0 0 42.133623866433879 -82.610494006495628 0 -82.610494006495628 128.47074626902634 0 0 0 0 -0.82306480325429021 1.0192060578248903 0 1.0192060578248903 3.2170488393189771 0 0 0 0 -143.68418232615895 84.560073154126258 0 84.560073154126258 114.66808480651071 0 0 0 0 22.906286331616201 -47.378388334996885 0 -47.378388334996885 82.749789220629282 0 0 0 0 -28.240836323995239 -95.571742725770491 0 -95.571742725770491 273.37979989985251 0 0 0 0 -1.0608066812144583 0.82329044749091373 0 0.82329044749091373 3.4954702385979299 0 0 0 0 25.875515072015396 -146.59104181882117 0 -146.59104181882117 276.82147107641731 0 0 0 0 -121.80970811362873 -138.15452828070124 0 -138.15452828070124 500.03088790976381 0 0 0 0 -24.753968798463418 -62.915933800906487 0 -62.915933800906487 108.86924184909458 0 0 0 0 -125.71283527520742 -74.645337312845868 0 -74.645337312845868 345.19867060220849 0 0 0 0 -142.29989128386376 -59.696359270859375 0 -59.696359270859375 352.86842831713898 0 0 0 0 -129.30443076814282 -23.112147242898573 0 -23.112147242898573 499.85161958331537 0 0 0 0 -43.569782204594574 42.169685427585591 0 42.169685427585591 146.28323655958411 0 0 0 0 -125.91098871317797 187.20563458489733 0 187.20563458489733 16.706069784360352 0 0 0 0 -72.439807494189239 -35.611002317301427 0 -35.611002317301427 62.380542543567117 0 0 0 0 22.516274061540116 -68.551376347930272 0 -68.551376347930272 -85.448358198075312 0 0 0 0 -8.7558050457028003 51.984212598825252 0 51.984212598825252 175.28563786788538 0 0 0 0 0.86411567799523592 -0.59682211269113239 0 -0.59682211269113239 0.38067229239201872 0 0 0 0 11.735456424148822 -51.240917001978289 0 -51.240917001978289 -52.234548950820681 0 0 0 0 6.0527576373164607 -42.796398115436546 0 -42.796398115436546 7.5796657988344123 0 0 0 0 1.4262814867956846 5.8008643687587895 0 5.8008643687587895 10.258753485461673 0 0 0 0 5.1157412743933435 9.7601147278227245 0 9.7601147278227245 -13.448212504860635 0 0 0 0 -35.491899899476394 92.022129173180119 0 92.022129173180119 74.168379507932514 0 0 0 0 47.603435781867574 14.267067362976604 0 14.267067362976604 -42.923196548752003 0 0 0 0 -19.288877184356579 2.1625606039056038 0 2.1625606039056038 180.5852946158434 0 0 0 0 -15.147721821907197 -101.28483220034541 0 -101.28483220034541 54.654383633516773 0 0 0 0 15.757619028858926 18.178178082603608 0 18.178178082603608 46.528027414219366 0 0 0 0 3.8678486418345983 -11.618357155951799 0 -11.618357155951799 53.244277641781764 0 0 0 0 28.230659619216112 -4.7381753912763998 0 -4.7381753912763998 30.02307351666559 0 0 0 0 7.6553526344544025 6.0756958095651044 0 6.0756958095651044 59.931402111746138 0 0 0 0 3.0883596021126323 5.6824560981674495 0 5.6824560981674495 103.38798572471228 0 0 0 0 41.817129826130667 -13.674580018483994 0 -13.674580018483994 69.355802541875164 0 0 0 0 36.76099256414318 38.280547676093192 0 38.280547676093192 112.97419173228218 0 0 0 0 -10.84319162834322 37.583303531036108 0 37.583303531036108 120.48313756881998 0 0 0 0 1.2971617646312144 -1.5423307592539086 0 -1.5423307592539086 2.1607832056398193 0 0 0 0 -44.264668502758695 -75.987591640533083 0 -75.987591640533083 -37.039267481781735 0 0 0 0 16.311669433401789 -22.258116212951336 0 -22.258116212951336 30.522565251275864 0 0 0 0 -54.324189505834681 -51.600560619994042 0 -51.600560619994042 -7.5549331145102769 0 0 0 0 5.5224131014197155 8.372800554760488 0 8.372800554760488 22.397673170617054 0 0 0 0 0.2981926270206543 -0.32624638271418405 0 -0.32624638271418405 0.51971589666563034 0 0 0 0 35.087340667980698 49.412561655989521 0 49.412561655989521 69.087371328052996 0 0 0 0 20.296616522371096 20.986538062589489 0 20.986538062589489 24.588388436046444 0 0 0 0 -0.31419927209188714 0.30055640679349827 0 0.30055640679349827 0.62882912765121191 0 0 0 0 -29.507246849729427 23.387809384724164 0 23.387809384724164 -9.8907576232477368 0 0 0 0 -85.537334180329026 -42.637892331702915 0 -42.637892331702915 5.8206765915665528 0 0 0 0 0.7574657090832968 -2.3447381233165916 0 -2.3447381233165916 5.5012557608991663 0 0 0 0 -82.658046550667109 -30.00289968558144 0 -30.00289968558144 18.329983359572907 0 0 0 0 269.84027408693146 179.01144214023634 0 179.01144214023634 25.554283122223239 0 0 0 0 -47.487674876086203 -43.616800202958302 0 -43.616800202958302 13.099800904631138 0 0 0 0 -40.636336986742322 -24.100091533586919 0 -24.100091533586919 47.404129541071597 0 0 0 0 -58.565351429507245 -24.591952846514459 0 -24.591952846514459 -19.087215705080439 0 0 0 0 -57.251439093410255 -10.241392763507292 0 -10.241392763507292 43.790541431303609 0 0 0 0 -54.253962442896864 -26.523149138278086 0 -26.523149138278086 -3.0854989977715377 0 0 0 0 -31.471217971938586 -45.181658496080672 0 -45.181658496080672 93.085891439829993 0 0 0 0 -1.7881484402691967 14.515846605846946 0 14.515846605846946 55.944937169008426 0 0 0 0 -2.4657040139993285 19.448486764209818 0 19.448486764209818 176.18399780239815 0 0 0 0 105.89846842056841 -122.12134476472806 0 -122.12134476472806 110.11966393389753 0 0 0 0 33.938832705377649 -32.627364070566273 0 -32.627364070566273 -1.1516523909454008 0 0 0 0 18.024856811277004 -72.044872498976019 0 -72.044872498976019 37.733162942424769 0 0 0 0 5.6727100222021818 -46.586680623705206 0 -46.586680623705206 -9.9754937966727084 0 0 0 0 22.893518356735854 -53.944656443954102 0 -53.944656443954102 -5.9429920445954849 0 0 0 0 11.516372482903762 -26.284147253591527 0 -26.284147253591527 -68.778337751421077 0 0 0 0 -40.49491754899384 -14.400467915434547 0 -14.400467915434547 -8.6504379468283332 0 0 0 0 70.105008274447982 -25.599444924346244 0 -25.599444924346244 -50.270723922139567 0 0 0 0 21.694117428916144 35.218443398382988 0 35.218443398382988 -26.177384128614449 0 0 0 0 -41.063121228630962 29.886562858055925 0 29.886562858055925 173.05095580817374 0 0 0 0 188.38181738580784 31.41074314605703 0 31.41074314605703 -39.554303784925764 0 0 0 0 -8.3327035023442591 15.486751698316652 0 15.486751698316652 24.03624068442241 0 0 0 0 -21.14856060758882 28.237116676766163 0 28.237116676766163 32.004177989476894 0 0 0 0 -32.750944675090352 23.152574261229915 0 23.152574261229915 32.170060700083241 0 0 0 0 -2.3856239987226786 6.1263767196440782 0 6.1263767196440782 -8.3567822801360876 0 0 0 0 -0.58071522776161899 1.8376047472629611 0 1.8376047472629611 4.5436737482679881 0 0 0 0 0.57686773720501705 -2.3095586338495195 0 -2.3095586338495195 12.512365432235129 0 0 0 0 -3.4755173324697206 2.1267909049216769 0 2.1267909049216769 8.9652043076388495 0 0 0 0 1.1254512859540569 0.11866463378828485 0 0.11866463378828485 13.028833136850835 0 0 0 0 -24.206107668083177 12.526570207606028 0 12.526570207606028 23.894502784025462 0 0 0 0 0.29312430982880999 1.9166954333160708 0 1.9166954333160708 -0.14528127737496455 0 0 0 0 15.861916352169089 23.958465805253809 0 23.958465805253809 -6.0755025808996379 0 0 0 0 -4.7535633216916535 -0.79275745676034148 0 -0.79275745676034148 8.0091578659350944 0 0 0 0 -8.1359313735242722 2.3632333747397638 0 2.3632333747397638 10.77109416537013 0 0 0 0 -5.0348086888058479 -2.3005655817952402 0 -2.3005655817952402 13.120666013075834 0 0 0 0 -4.2621459119279281 1.6178235111098556 0 1.6178235111098556 6.5904223829115951 0 0 0 0 0.47200561338264235 -3.1839816862034098 0 -3.1839816862034098 9.9134188143825668 0 0 0 0 1.0723737381657372 -0.72755138157344845 0 -0.72755138157344845 10.207486645626801 0 0 0 0 -14.004022485817845 -1.0605575318452196 0 -1.0605575318452196 13.925790675229564 0 0 0 0 -6.0824826265370895 -1.0280464260331428 0 -1.0280464260331428 7.9466289219508326 0 0 0 0 -6.0399196890462656 -1.5711220881939312 0 -1.5711220881939312 14.717628286849958 0 0 0 0 -2.3747109601262748 2.4053616527332906 0 2.4053616527332906 10.584039222106185 0 0 0 0 -11.782987942255177 2.9490714461900467 0 2.9490714461900467 12.341582772277434 0 0 0 0 -8.1571882506559863 0.23628445363135597 0 0.23628445363135597 12.061935735054249 0 0 0 0 10.320262222339537 -18.832080631295412 0 -18.832080631295412 -11.610881646733844 0 0 0 0 -1.007648596890137 6.213147705739634 0 6.213147705739634 13.195444121707688 0 0 0 0 4.0009660577565995 29.008325409619886 0 29.008325409619886 -26.641298075568557 0 0 0 0 4.4700617937863782 1.0675519081473794 0 1.0675519081473794 9.5365642993706388 0 0 0 0 -0.53823575346084718 3.3096303096666579 0 3.3096303096666579 0.16991132814834842 0 0 0 0 6.4473667079324173 -3.5277965076627424 0 -3.5277965076627424 7.4256699667691919 0 0 0 0 18.698178841116082 -29.295009188585709 0 -29.295009188585709 48.937734197450027 0 0 0 0 -1.3327940454643912 -2.1606890374213208 0 -2.1606890374213208 30.593222183857506 0 0 0 0 -9.7501412342043352 18.409783351911756 0 18.409783351911756 15.617193770423683 0 0 0 0 -11.542571149862393 13.596283421877445 0 13.596283421877445 90.979580311769041 0 0 0 0 0.69393043441147029 83.150685504985177 0 83.150685504985177 23.111343530600379 0 0 0 0 -0.017341766671251355 1.6228972407134434 0 1.6228972407134434 6.0040820642687915 0 0 0 0 -24.269608606683974 -4.3542895607361061 0 -4.3542895607361061 111.06468581578247 0 0 0 0 -0.16847896044481458 -0.20358396671443013 0 -0.20358396671443013 0.62389614879454669 0 0 0 0 18.83857211640364 21.199113691146295 0 21.199113691146295 -35.144678699984524 0 0 0 0 6.790758766739188 18.307953800122959 0 18.307953800122959 13.148865315368539 0 0 0 0 14.462219090436745 46.972292293338739 0 46.972292293338739 -19.638953143625258 0 0 0 0 -55.264555317210359 12.199831715355799 0 12.199831715355799 -10.89527568053461 0 0 0 0 -4.4097374562154315 4.7353407639896403 0 4.7353407639896403 47.480856494213981 0 0 0 0 -0.14395239922781661 -0.56213514308698187 0 -0.56213514308698187 5.3067127567666983 0 0 0 0 2.8890174951048628 9.41168664242673 0 9.41168664242673 3.1555147267831671 0 0 0 0 -4.2942636807994692 -7.2706729337430964 0 -7.2706729337430964 -7.4241433681249873 0 0 0 0 57.002140330840746 -26.843113886743595 0 -26.843113886743595 -5.2123535965010888 0 0 0 0 64.071458989774612 50.728313402874846 0 50.728313402874846 21.391286223587713 0 0 0 0 4.0037358787717565 3.7355801653325216 0 3.7355801653325216 304.14774640353744 0 0 0 0 -91.501117928944097 -48.377508620622621 0 -48.377508620622621 314.22946446543529 0 0 0 0 -103.2846857813534 49.518503417941702 0 49.518503417941702 499.23396064547859 0 0 0 0 44.374476312338082 150.15739409201365 0 150.15739409201365 263.95362969693133 0 0 0 0 31.082914007754809 -54.209524576352919 0 -54.209524576352919 17.980085468917878 0 0 0 0 -0.017774477244223558 0.060989144261687667 0 0.060989144261687667 2.6520439955265971 0 0 0 0 -14.577060833177857 -134.25443675599718 0 -134.25443675599718 226.7538413384616 0 0 0 0 -89.620511504986382 -72.526872000651849 0 -72.526872000651849 498.68496502378366 0 0 0 0 80.840364388835582 241.46632557238388 0 241.46632557238388 497.51529509866714 0 0 0 0 36.746599353659661 123.20308752429466 0 123.20308752429466 190.31838202789572 0 0 0 0 -78.469825891528345 66.165729474570412 0 66.165729474570412 500.61263917957888 0 0 0 0 -75.184869469820697 -34.516442231105685 0 -34.516442231105685 228.33015334947186 0 0 0 0 8.5845742028217984 40.11691155046708 0 40.11691155046708 196.25745443789341 0 0 0 0 27.353353172514581 -16.74376620805856 0 -16.74376620805856 59.327016933029938 0 0 0 0 33.62017700797486 -43.652295440247315 0 -43.652295440247315 33.361825146679735 0 0 0 0 1.7518362602183766 50.986162021499837 0 50.986162021499837 -9.8159565374982094 0 0 0 0 2.72777944310638 6.8761597786426583 0 6.8761597786426583 10.363112554451623 0 0 0 0 27.301438260316395 -11.315484166021406 0 -11.315484166021406 -2.4369187066110953 0 0 0 0 13.61017943295758 -33.432842587012601 0 -33.432842587012601 7.6776473441564121 0 0 0 0 17.1336761414899 21.023981864013649 0 21.023981864013649 10.923240757002077 0 0 0 0 0.71697797126500928 0.02984559708730572 0 0.02984559708730572 -0.50070500924008599 0 0 0 0 -43.644870730164712 82.462960041933457 0 82.462960041933457 15.841862393814608 0 0 0 0 51.035822963595592 -33.160498113917583 0 -33.160498113917583 -46.504587307696056 0 0 0 0 30.636023545165699 2.2834643514706841 0 2.2834643514706841 -59.215301823132677 0 0 0 0 12.091831491413586 30.72861191324364 0 30.72861191324364 -42.60963220744577 0 0 0 0 -3.4802525858989952 17.514233254352121 0 17.514233254352121 -7.2307344413047758 0 0 0 0 7.1894876591055663 -6.0132727232017942 0 -6.0132727232017942 10.100205538421505 0 0 0 0 2.433260508799922 6.2607311738316396 0 6.2607311738316396 9.4745893368971839 0 0 0 0 1.3951974018458755 1.7033465153903167 0 1.7033465153903167 -5.5638082553342567 0 0 0 0 0.28676418737762299 -0.34977127199496305 0 -0.34977127199496305 -0.0011258029650731416 0 0 0 0 -24.008958779030657 62.956248957203414 0 62.956248957203414 53.679329214347717 0 0 0 0 101.19512565549392 -151.01224302529141 0 -151.01224302529141 107.32351155142531 0 0 0 0 -73.603877715202472 -94.736116758457882 0 -94.736116758457882 498.64354066377382 0 0 0 0 105.68935410593593 262.95538055348652 0 262.95538055348652 374.28058575724828 0 0 0 0 294.24992618705875 210.27746646592939 0 210.27746646592939 152.48436193672069 0 0 0 0 0.41597421049359429 0.13601626148054591 0 0.13601626148054591 3.5091642999780466 0 0 0 0 -29.435950708558746 176.58395941198685 0 176.58395941198685 499.21976530341078 0 0 0 0 -40.690552401928755 129.82721734947091 0 129.82721734947091 328.70451308537326 0 0 0 0 -87.247097516906663 99.614577167480036 0 99.614577167480036 499.96722319893104 0 0 0 0 -10.937548375502594 -1.1925861560211501 0 -1.1925861560211501 143.30386858704708 0 0 0 0 46.093928238749072 36.399809323887069 0 36.399809323887069 34.882958480074535 0 0 0 0 -36.72094544113628 12.50947716681975 0 12.50947716681975 329.58126904743102 0 0 0 0 19.173101687506815 47.192622124269178 0 47.192622124269178 153.81214156998686 0 0 0 0 71.724173378322021 48.347660803730435 0 48.347660803730435 -34.345052078320009 0 0 0 0 -17.086348148499113 102.24566991604695 0 102.24566991604695 342.61015192377226 0 0 0 0 19.606257871490961 100.47922747828176 0 100.47922747828176 127.03545861161092 0 0 0 0 9.0855760531784959 -59.655616005331353 0 -59.655616005331353 363.54269925865833 0 0 0 0 -64.550244266843919 -0.62598388988305942 0 -0.62598388988305942 500.18617519062036 0 0 0 0 -70.506731598003412 35.359125365615 0 35.359125365615 329.53972435708647 0 0 0 0 -8.6408924807256895 19.431758563503877 0 19.431758563503877 265.14312186739465 0 0 0 0 2.8845865966443696 3.4995618239332638 0 3.4995618239332638 2.7266274731841365 0 0 0 0 -41.194228617446335 -10.563514815557966 0 -10.563514815557966 37.980129971441784 0 0 0 0 -46.217307533453777 20.888783935342644 0 20.888783935342644 8.9768294021828297 0 0 0 0 12.815998928597025 11.273617774748402 0 11.273617774748402 -15.402363160606455 0 0 0 0 -8.4895779017612085 38.255187046226979 0 38.255187046226979 -32.199168655622998 0 0 0 0 -10.269273417714317 -16.946191252064523 0 -16.946191252064523 41.290436685737859 0 0 0 0 -26.2437027184219 -10.033153259189476 0 -10.033153259189476 50.999621890386607 0 0 0 0 0.73335183694687878 -0.56614902245599996 0 -0.56614902245599996 0.30080565374272394 0 0 0 0 23.797458471776707 41.918243573670679 0 41.918243573670679 33.770603339217104 0 0 0 0 30.807949966963633 10.669549675616054 0 10.669549675616054 -16.717778509419077 0 0 0 0 -17.049852362028048 -1.6407566118294881 0 -1.6407566118294881 54.954389112299054 0 0 0 0 3.6194552240396289 4.1850968072887245 0 4.1850968072887245 1.9169033079185516 0 0 0 0 -21.182973881458338 26.696490291753321 0 26.696490291753321 46.456611655957204 0 0 0 0 0.1217880605701005 -0.20026431213045637 0 -0.20026431213045637 0.14362520351662056 0 0 0 0 0.63001904674547404 -9.2053504280465859 0 -9.2053504280465859 6.109425628214467 0 0 0 0 -11.995193414506019 -16.517831355233682 0 -16.517831355233682 37.863292855839518 0 0 0 0 -13.056411035326505 -24.264269734552954 0 -24.264269734552954 10.069223166890879 0 0 0 0 -1.2978933847078906 8.9411138973941888 0 8.9411138973941888 45.315762088582233 0 0 0 0 0.43407320749254952 0.4482696527863963 0 0.4482696527863963 0.36945514142534641 0 0 0 0 -1.1422561317865529 3.1500705970545368 0 3.1500705970545368 70.159602896578235 0 0 0 0 11.470615068995869 -6.7284022016108906 0 -6.7284022016108906 58.130946046430381 0 0 0 0 0.52121139842142838 9.3171790589410648 0 9.3171790589410648 58.874997233920567 0 0 0 0 3.2144090268242849 12.260532499323745 0 12.260532499323745 61.443616160519923 0 0 0 0 -0.21742203153468154 2.7485346943177547 0 2.7485346943177547 51.698459053569877 0 0 0 0 -7.3333966581828918 -0.82433027812010096 0 -0.82433027812010096 45.424400826132569 0 0 0 0 0.91806115844156011 9.817451663338943 0 9.817451663338943 55.891610044835033 0 0 0 0 -12.50762471894086 5.5416715164810739 0 5.5416715164810739 51.876590115203271 0 0 0 0 -11.040318532760011 8.8189897106094577 0 8.8189897106094577 35.117282756403711 0 0 0 0 -10.920936441296369 6.3515201459464876 0 6.3515201459464876 53.85381326997549 0 0 0 0 -9.8254329296487697 -5.3241173531979484 0 -5.3241173531979484 48.377440319974994 0 0 0 0 4.878422891228297 20.343975074310947 0 20.343975074310947 5.3809570312992037 0 0 0 0 -31.189969969187928 -8.1694606927767381 0 -8.1694606927767381 83.812916805600253 0 0 0 0 -14.114327141173135 -1.1015870565752266 0 -1.1015870565752266 55.322514486921534 0 0 0 0 15.770933629065667 -52.545707515194408 0 -52.545707515194408 84.120630846389204 0 0 0 0 -14.547302452462759 -0.70220863223721608 0 -0.70220863223721608 55.327588371990487 0 0 0 0 -3.8948400400420269 -7.7082718322185428 0 -7.7082718322185428 59.101211108581992 0 0 0 0 5.7663332762708706 -12.098770182663657 0 -12.098770182663657 34.568718845178864 0 0 0 0 -6.2315192012811167 -18.222443159943623 0 -18.222443159943623 45.545184145582425 0 0 0 0 -4.4342845491320872 -23.235417324191872 0 -23.235417324191872 49.899127164766469 0 0 0 0 34.584985706398356 -15.654552475168202 0 -15.654552475168202 5.6704684349924719 0 0 0 0 8.7464662715228201 -1.3941859335712934 0 -1.3941859335712934 3.4929376895415771 0 0 0 0 0.82414917726480708 -0.0018316985376953809 0 -0.0018316985376953809 0.70324055730901558 0 0 0 0 16.846418476226404 -17.782810938622333 0 -17.782810938622333 28.274745579219598 0 0 0 0 -4.7387641177209616 -10.19915731269316 0 -10.19915731269316 36.343327465312996 0 0 0 0 0.34671081343837384 -0.022541992098252805 0 -0.022541992098252805 -0.021640870231949494 0 0 0 0 50.285089227432536 -3.9678099612053757 0 -3.9678099612053757 25.13974974423445 0 0 0 0 35.360884902007911 24.101596909703403 0 24.101596909703403 10.80664583912403 0 0 0 0 53.342763093724898 -24.221629015852159 0 -24.221629015852159 72.86902678788374 0 0 0 0 42.490705095810199 1.4529738080946117 0 1.4529738080946117 16.512010890891588 0 0 0 0 -30.453710796385167 -60.949700844291328 0 -60.949700844291328 85.568765698801144 0 0 0 0 0.22552337449722071 -0.074098850056425025 0 -0.074098850056425025 -0.037055715585196047 0 0 0 0 -58.767643155671067 -43.390882554204836 0 -43.390882554204836 224.85737128193978 0 0 0 0 -57.958543800695324 -60.243650265783998 0 -60.243650265783998 156.40920588833433 0 0 0 0 36.439282416875358 27.141462690436583 0 27.141462690436583 11.315578139307377 0 0 0 0 9.7979977794068418 27.481297716858535 0 27.481297716858535 26.519875413248883 0 0 0 0 23.846935353525168 17.59736849781666 0 17.59736849781666 33.105432433938859 0 0 0 0 12.361365922540415 27.841826846107551 0 27.841826846107551 48.502553535764491 0 0 0 0 9.7850670842303202 -2.8067036561750456 0 -2.8067036561750456 45.465420028343942 0 0 0 0 15.413768056376284 2.7209730705953916 0 2.7209730705953916 24.116777877649838 0 0 0 0 -12.424541779916296 -8.3404613011412039 0 -8.3404613011412039 128.03115897747733 0 0 0 0 -12.143664038452812 -8.4614774646533988 0 -8.4614774646533988 71.07080380196976 0 0 0 0 -10.17004920225429 21.342079990929506 0 21.342079990929506 85.04232106648351 0 0 0 0 -8.7727629550739721 9.3156365161539725 0 9.3156365161539725 92.562127919851264 0 0 0 0 -8.4001783433383252 12.030287373682768 0 12.030287373682768 109.70467872100562 0 0 0 0 42.042030781920175 35.374454422055805 0 35.374454422055805 64.738378012750672 0 0 0 0 67.356893136227484 32.934728049212936 0 32.934728049212936 56.849545861349725 0 0 0 0 17.968828277457192 -11.007391162931526 0 -11.007391162931526 89.152999810989513 0 0 0 0 7.9646746139879951 16.572308124076244 0 16.572308124076244 35.795982577671566 0 0 0 0 9.2301028470719757 -19.389553674248873 0 -19.389553674248873 20.829326163008318 0 0 0 0 -9.5757038864348942 12.202693907192497 0 12.202693907192497 51.288613872851556 0 0 0 0 25.478894685303516 14.962657988637375 0 14.962657988637375 -44.171807505460492 0 0 0 0 -4.7847892930641649 12.989736052406329 0 12.989736052406329 46.803473674925954 0 0 0 0 -5.6836569280955018 30.149275525572193 0 30.149275525572193 37.612587299066263 0 0 0 0 18.402148834385571 -13.281438472254422 0 -13.281438472254422 -47.138775826640085 0 0 0 0 9.2669343840560714 -29.880713635636766 0 -29.880713635636766 -10.174942612469863 0 0 0 0 -0.33296011916957013 -1.1275082034494517 0 -1.1275082034494517 14.654958322321818 0 0 0 0 -75.631183927131019 -23.321653997065368 0 -23.321653997065368 28.223804202595602 0 0 0 0 0.23286939688455227 0.087376312587099658 0 0.087376312587099658 3.4939872990228498 0 0 0 0 38.84635385068799 -32.183881394573518 0 -32.183881394573518 17.269739395512261 0 0 0 0 10.766591025088644 54.277750925251667 0 54.277750925251667 116.41405342708731 0 0 0 0 108.35092247558191 33.141848606967869 0 33.141848606967869 6.7593472552258618 0 0 0 0 21.128763454946409 -92.781376326084683 0 -92.781376326084683 26.216604925004503 0 0 0 0 57.396681627252917 93.91818783054714 0 93.91818783054714 28.00859141095528 0 0 0 0 0.85667473295700947 0.71111820719955166 0 0.71111820719955166 0.57273346112619627 0 0 0 0 53.946637718348335 77.265312645133918 0 77.265312645133918 -39.48630658140155 0 0 0 0 0.050446202389948958 0.3009371031783945 0 0.3009371031783945 1.500355160432882 0 0 0 0 -8.4625318230499715 65.554133869668476 0 65.554133869668476 35.743537887008642 0 0 0 0 72.235944336199168 -73.587006138211791 0 -73.587006138211791 67.413524724202944 0 0 0 0 -5.5501484351947283 -53.947571690204654 0 -53.947571690204654 163.81618365161512 0 0 0 0 -64.689671347470949 68.330368165619802 0 68.330368165619802 131.51936915380804 0 0 0 0 23.803620687471536 -10.88747566192319 0 -10.88747566192319 132.38220386118292 0 0 0 0 0.51410366559388554 -0.54257593719329478 0 -0.54257593719329478 0.27253226643549144 0 0 0 0 50.564320171371321 -22.969538296614246 0 -22.969538296614246 -17.787326478076693 0 0 0 0 99.168084038121918 -79.557231305735058 0 -79.557231305735058 93.226351776049796 0 0 0 0 -54.406856097690145 61.128039749262939 0 61.128039749262939 33.665850891168247 0 0 0 0 61.767570800631432 -29.091558024466394 0 -29.091558024466394 18.275504278522931 0 0 0 0 65.113647699001888 -35.659424334798132 0 -35.659424334798132 -53.107141212619354 0 0 0 0 23.125380728696939 14.018410038276215 0 14.018410038276215 -0.42449783413269415 0 0 0 0 53.909253512177536 2.4619972035554269 0 2.4619972035554269 6.5816439367445128 0 0 0 0 23.780323100557723 -2.4941372742109706 0 -2.4941372742109706 5.3959472593724058 0 0 0 0 16.934882026198373 -17.485999060567678 0 -17.485999060567678 0.29066262167907553 0 0 0 0 1.5024109676922082 1.6318983070043203 0 1.6318983070043203 1.6093971407002421 0 0 0 0 28.2463692332026 -49.386237766855174 0 -49.386237766855174 64.182876172761326 0 0 0 0 47.153031908941557 -41.811921536491127 0 -41.811921536491127 38.33314196701167 0 0 0 0 59.712385326766537 -6.8571569858056591 0 -6.8571569858056591 40.173024996074219 0 0 0 0 55.2482938177005 31.262741159726829 0 31.262741159726829 153.2010318807406 0 0 0 0 30.225045231714596 -5.661396807993583 0 -5.661396807993583 156.30584505950446 0 0 0 0 39.961766138073692 89.331250906656805 0 89.331250906656805 264.74745260737473 0 0 0 0 -26.6768216909567 29.440353219141116 0 29.440353219141116 397.88905142835893 0 0 0 0 -1.9879680546627014 7.0404505896103728 0 7.0404505896103728 20.422560874012561 0 0 0 0 -12.542429152684917 -2.7030390400032047 0 -2.7030390400032047 35.146574482375058 0 0 0 0 -18.321766001773938 -10.825754657868174 0 -10.825754657868174 37.844076449706336 0 0 0 0 32.802207307659216 -6.8207781927112592 0 -6.8207781927112592 25.942639271243479 0 0 0 0 32.146395441345618 -14.732652869305639 0 -14.732652869305639 77.801471839717124 0 0 0 0 42.527411991848325 46.986639420330675 0 46.986639420330675 105.62500687841202 0 0 0 0 37.306027632366067 50.427582612001288 0 50.427582612001288 103.37549135505651 0 0 0 0 1.032250388679131 -13.644308925515134 0 -13.644308925515134 -2.5620515342061481 0 0 0 0 -9.276077415837733 -11.668655225685825 0 -11.668655225685825 56.848201177213923 0 0 0 0 38.830247614414105 21.296355396718809 0 21.296355396718809 29.682278636053297 0 0 0 0 1.236713416462055 1.2889526551441932 0 1.2889526551441932 1.2338555375059297 0 0 0 0 67.257782767881835 117.61437004196955 0 117.61437004196955 -61.901901811555717 0 0 0 0 77.753734132300181 189.07023700083667 0 189.07023700083667 203.33135125639546 0 0 0 0 82.913968940779753 -53.651828219233977 0 -53.651828219233977 306.11853511734876 0 0 0 0 12.255558670516459 -22.559641891598176 0 -22.559641891598176 659.16659593896634 0 0 0 0 121.71978338895276 59.885959488675553 0 59.885959488675553 499.29179961620611 0 0 0 0 22.898471377680469 192.16910171382523 0 192.16910171382523 439.06938258593073 0 0 0 0 -0.35364913125210784 -0.17004708771275734 0 -0.17004708771275734 1.0403091064891719 0 0 0 0 -62.952488681299585 -43.610242738858005 0 -43.610242738858005 250.69217452405337 0 0 0 0 12.311977466791163 148.70322958123734 0 148.70322958123734 318.42069558056414 0 0 0 0 35.881218467067924 121.18453125522092 0 121.18453125522092 243.98887857090358 0 0 0 0 -0.36005755116829291 -0.096949152496049962 0 -0.096949152496049962 1.3016868070186027 0 0 0 0 37.260405702232433 217.07755694893854 0 217.07755694893854 499.73241811513776 0 0 0 0 14.019825407499189 143.89800666032033 0 143.89800666032033 306.43644976972348 0 0 0 0 -121.79028226403177 67.45275394810551 0 67.45275394810551 499.93860150207865 0 0 0 0 -83.596163076802952 33.287385362187024 0 33.287385362187024 394.21968707954193 0 0 0 0 -109.73216157344844 12.845781205754406 0 12.845781205754406 404.53666925061225 0 0 0 0 5.5831364835187145 11.719323283054791 0 11.719323283054791 347.63090864478636 0 0 0 0 -58.30261375648616 -20.97175595992735 0 -20.97175595992735 499.83857621705238 0 0 0 0 -27.193049301882919 -105.75566788199421 0 -105.75566788199421 500.07361042720277 0 0 0 0 -36.292568031300803 -69.539646813442005 0 -69.539646813442005 373.45504690691632 0 0 0 0 1.1351721775471693 -153.87566391447513 0 -153.87566391447513 386.83214282479184 0 0 0 0 60.66802420378329 -47.738540236065319 0 -47.738540236065319 369.55167408244591 0 0 0 0 47.517312160682195 -89.19113220727786 0 -89.19113220727786 255.57962643568317 0 0 0 0 17.763960872636808 -18.941341215835564 0 -18.941341215835564 300.04840646390426 0 0 0 0 35.598803031706652 -23.378502972413571 0 -23.378502972413571 39.176295419118162 0 0 0 0 68.979996167988375 -36.25542583071001 0 -36.25542583071001 104.67364560793249 0 0 0 0 97.632075153008856 59.787672194681818 0 59.787672194681818 44.344688509371281 0 0 0 0 100.81379832204452 61.724322360478254 0 61.724322360478254 50.36315117071581 0 0 0 0 -10.803806585065981 41.891078947918686 0 41.891078947918686 109.51694067965764 0 0 0 0 1.2786867096343384 1.5449406507460992 0 1.5449406507460992 1.8142677296832179 0 0 0 0 10.813354758431323 -46.60214578085197 0 -46.60214578085197 190.40141673504309 0 0 0 0 -31.048479433746763 -26.530711255231154 0 -26.530711255231154 382.29199213597826 0 0 0 0 0.489089385036934 0.61756391537192457 0 0.61756391537192457 0.98608036290116274 0 0 0 0 -19.541513012921669 -11.445029618642366 0 -11.445029618642366 119.27522308525977 0 0 0 0 -72.187788097760986 -23.626796845742319 0 -23.626796845742319 499.48696926148932 0 0 0 0 104.7509833392016 220.78996824149317 0 220.78996824149317 498.80156366847768 0 0 0 0 12.532925249386331 27.714602253440034 0 27.714602253440034 138.79680603492261 0 0 0 0 31.555826199592687 17.748989295044339 0 17.748989295044339 -30.153379514788867 0 0 0 0 0.46739149210318531 -0.67671981286247185 0 -0.67671981286247185 3.1370346171248578 0 0 0 0 227.24304674353999 -264.40278584631267 0 -264.40278584631267 190.68145608651685 0 0 0 0 45.578858466147928 -287.80487838467297 0 -287.80487838467297 498.95590159304038 0 0 0 0 3.2363077129921569 -148.1120423833531 0 -148.1120423833531 229.76585249242453 0 0 0 0 75.270978629399053 -126.09427001779295 0 -126.09427001779295 216.82181414288584 0 0 0 0 59.205091984160042 0.27251791291115524 0 0.27251791291115524 19.897382501031643 0 0 0 0 23.412404464031596 27.420794937111168 0 27.420794937111168 52.851376951002067 0 0 0 0 24.409050628250952 12.420356481953604 0 12.420356481953604 1.0986848056545568 0 0 0 0 -34.630377914306166 43.474504890863045 0 43.474504890863045 21.812917545493804 0 0 0 0 -72.074136639673981 -63.923342432311301 0 -63.923342432311301 36.203560144736457 0 0 0 0 94.753683141532676 63.135820815454508 0 63.135820815454508 22.506455921527959 0 0 0 0 0.24294807655887279 -1.4123130253834282 0 -1.4123130253834282 7.7746668966289896 0 0 0 0 -0.011606275881086703 -1.4282668858987666 0 -1.4282668858987666 10.283310760174796 0 0 0 0 6.7193657564081803 37.418775106289104 0 37.418775106289104 33.852905681972516 0 0 0 0 4.5048893790261459 34.892140629083769 0 34.892140629083769 40.045813552191248 0 0 0 0 5.4870718843212032 36.626303492045736 0 36.626303492045736 35.390694886429173 0 0 0 0 12.117188000975602 33.77641282508921 0 33.77641282508921 36.337741273189749 0 0 0 0 -0.079050408862824051 -2.0507095400030355 0 -2.0507095400030355 10.906284276627549 0 0 0 0 -21.155310858869974 -4.4355701540353039 0 -4.4355701540353039 -3.9233517358679819 0 0 0 0 -9.9227498963370451 -43.393173250471591 0 -43.393173250471591 57.588649344570513 0 0 0 0 0.54429514039144811 -0.5006155076572254 0 -0.5006155076572254 -0.43872692342434405 0 0 0 0 3.9145759692514872 -15.283173307358084 0 -15.283173307358084 67.240855821757577 0 0 0 0 7.3329560823781605 -21.138307334353158 0 -21.138307334353158 72.601540381591349 0 0 0 0 3.0588085505623752 -12.617280367556532 0 -12.617280367556532 64.25752928602742 0 0 0 0 5.5736477414122874 -15.619713055104512 0 -15.619713055104512 59.497182735733077 0 0 0 0 11.401017268485845 37.878890647790513 0 37.878890647790513 -1.7941933319998498 0 0 0 0 17.096227891925992 -9.1462263976864051 0 -9.1462263976864051 56.344475535948732 0 0 0 0 9.5891572401365863 9.3447036268437706 0 9.3447036268437706 26.636784753804022 0 0 0 0 14.840914278350041 24.889490263317384 0 24.889490263317384 46.586338483512009 0 0 0 0 52.055702703450208 -10.395008360585052 0 -10.395008360585052 -40.156924675837217 0 0 0 0 18.079363227381599 -8.5685672002441606 0 -8.5685672002441606 24.506216820147529 0 0 0 0 17.76582843591882 -48.200819693094672 0 -48.200819693094672 67.372506142493876 0 0 0 0 51.116233877183959 -57.34281324388121 0 -57.34281324388121 -18.436802156164049 0 0 0 0 -100.13877030774371 -14.64013178421169 0 -14.64013178421169 34.720561523843571 0 0 0 0 -17.337027274216268 -17.550843981241087 0 -17.550843981241087 -9.4611505800639861 0 0 0 0 0.90558013980398755 2.3120013524649039 0 2.3120013524649039 10.432747920080601 0 0 0 0 -55.525887965336004 -0.20285912862891564 0 -0.20285912862891564 28.763358765236262 0 0 0 0 -43.293299648155624 -5.1967368186251406 0 -5.1967368186251406 22.271074705380215 0 0 0 0 -35.046744088699995 20.264666617931653 0 20.264666617931653 7.9148711559373623 0 0 0 0 65.320409667926924 5.851531673441059 0 5.851531673441059 -0.13893092806756613 0 0 0 0 0.97241494415982288 -0.0053877265545452246 0 -0.0053877265545452246 42.313763135770188 0 0 0 0 -23.342208537893466 25.536220909854535 0 25.536220909854535 21.138363098361879 0 0 0 0 57.143080139447193 53.470565073477474 0 53.470565073477474 6.7021226396350357 0 0 0 0 41.290614481316808 64.052286910038447 0 64.052286910038447 28.398255361090378 0 0 0 0 76.997537295056759 59.384884069813182 0 59.384884069813182 8.2685345650961608 0 0 0 0 0.9010371258064821 0.17604570773549533 0 0.17604570773549533 -0.01258657034477606 0 0 0 0 87.922874162274383 -2.0903956660860672 0 -2.0903956660860672 -59.644847820740324 0 0 0 0 108.17663882292163 63.59319976044435 0 63.59319976044435 37.722229602263496 0 0 0 0 110.29608453131789 -11.188695158899918 0 -11.188695158899918 -21.92846261224895 0 0 0 0 26.656149436695159 -3.8450360348379036 0 -3.8450360348379036 -15.88639139772522 0 0 0 0 94.953642076749418 17.127596859930691 0 17.127596859930691 -11.700642177464033 0 0 0 0 24.049489030054872 46.171750855645314 0 46.171750855645314 42.061133327733472 0 0 0 0 -2.3009659515953516 32.40558024949371 0 32.40558024949371 5.4273758513204484 0 0 0 0 -3.2552323089745556 9.1544001204717915 0 9.1544001204717915 -1.3676729235899074 0 0 0 0 2.4439659325488012 0.77315738188020866 0 0.77315738188020866 1.8123423957472404 0 0 0 0 30.661328639407429 52.186916410373215 0 52.186916410373215 -96.468193823279137 0 0 0 0 190.01452202364612 -31.745465396173586 0 -31.745465396173586 -87.221822807064939 0 0 0 0 -7.236799662784847 -22.961145393962852 0 -22.961145393962852 -11.999911777616376 0 0 0 0 -1.1188548738355166 -59.860844985713811 0 -59.860844985713811 -2.6636597678498219 0 0 0 0 -3.2253521201567992 -46.902733999251609 0 -46.902733999251609 -29.036880131543512 0 0 0 0 36.397613852341465 -42.000956006050274 0 -42.000956006050274 -42.999892745181569 0 0 0 0 1.4060851448263707 -4.8866689667577692 0 -4.8866689667577692 -2.1894642728653118 0 0 0 0 -4.9849330312131883 -18.973405180659626 0 -18.973405180659626 -34.084814853378703 0 0 0 0 0.84618010814460831 -14.181809867039419 0 -14.181809867039419 19.53320706149708 0 0 0 0 7.0218543242045826 -27.085493160833721 0 -27.085493160833721 4.5130588685069597 0 0 0 0 14.924998745699696 -19.963863128647063 0 -19.963863128647063 10.096300469064317 0 0 0 0 19.436899098134035 -12.749216308518498 0 -12.749216308518498 7.957651322300535 0 0 0 0 14.328864335036464 -3.4798131754241695 0 -3.4798131754241695 22.327739732746068 0 0 0 0 56.494008208058929 27.778462213098223 0 27.778462213098223 21.967976039987207 0 0 0 0 -5.4486955362070972 26.00909821609639 0 26.00909821609639 27.062968416783065 0 0 0 0 36.275628658620739 3.3368141032651693 0 3.3368141032651693 -39.900511785824165 0 0 0 0 1.7029527881035254 0.40242516294959874 0 0.40242516294959874 0.0078954836365388026 0 0 0 0 20.370784209367002 20.613300170434513 0 20.613300170434513 -40.772979736155776 0 0 0 0 9.4226221358723024 -7.0330194998086881 0 -7.0330194998086881 -9.6521814060720317 0 0 0 0 -3.3163350942491121 43.263376832109259 0 43.263376832109259 42.747934317806539 0 0 0 0 5.4607848110325676 21.814704282559887 0 21.814704282559887 56.358634916434085 0 0 0 0 33.35895474993174 40.419850454874449 0 40.419850454874449 62.590080298073303 0 0 0 0 0.26983247548662348 43.697059133877246 0 43.697059133877246 108.01342452251265 0 0 0 0 -20.771897738477264 14.10944770177548 0 14.10944770177548 69.955743542757887 0 0 0 0 -2.1276448780389359 53.577658681188041 0 53.577658681188041 93.401556044058452 0 0 0 0 29.712442094020957 46.434661900383617 0 46.434661900383617 76.472070817723079 0 0 0 0 0.80661047092953275 0.20532680995259867 0 0.20532680995259867 0.068374958747423165 0 0 0 0 29.895651338507946 -22.538992106628257 0 -22.538992106628257 -17.188472148458004 0 0 0 0 30.974594176073651 77.224633582712613 0 77.224633582712613 84.915931017225375 0 0 0 0 -4.1206430340968723 6.9360976668328931 0 6.9360976668328931 -4.3175362188540021 0 0 0 0 0.44250178195229251 0.058322873740153547 0 0.058322873740153547 0.096800848188980382 0 0 0 0 3.6205381739377174 -1.0715318533381284 0 -1.0715318533381284 0.44128420882716657 0 0 0 0 -9.135269134351347 -7.8456917565240474 0 -7.8456917565240474 14.523155160472925 0 0 0 0 20.241876139300075 -20.614580306680637 0 -20.614580306680637 -28.897830414209693 0 0 0 0 -4.1810041214160947 -27.910011163390323 0 -27.910011163390323 78.137437223866073 0 0 0 0 -9.9430281158661273 -5.6060619325344305 0 -5.6060619325344305 13.770702676735596 0 0 0 0 -12.43161126321661 14.877084616706725 0 14.877084616706725 3.3436370786107261 0 0 0 0 -15.907818912701941 8.6183803776332297 0 8.6183803776332297 53.806365113177435 0 0 0 0 2.0125740886174457 -1.9878693922422555 0 -1.9878693922422555 2.217419410754303 0 0 0 0 -9.6741902376736846 -15.547194587078536 0 -15.547194587078536 -0.12624592298016069 0 0 0 0 -5.8632489330153703 -3.5150893006252772 0 -3.5150893006252772 3.6753635733558099 0 0 0 0 0.18504191758486321 -0.27947359117044712 0 -0.27947359117044712 0.65096541257721485 0 0 0 0 -8.6941120513961323 43.352583714855882 0 43.352583714855882 50.782673835080459 0 0 0 0 -1.368419061159841 30.032437285663491 0 30.032437285663491 65.583449652112677 0 0 0 0 -2.5391150784098571 50.236216549050468 0 50.236216549050468 132.35101998047594 0 0 0 0 14.879740393500995 16.881638478352897 0 16.881638478352897 14.282704555259443 0 0 0 0 -1.6529817239144222 -45.677944083549846 0 -45.677944083549846 18.145682237888536 0 0 0 0 12.123352671454256 -45.952375190880957 0 -45.952375190880957 -23.210532877910737 0 0 0 0 1.5299894107004761 -1.9530757207221061 0 -1.9530757207221061 2.2701450203701974 0 0 0 0 -18.410014996064831 15.728621793385514 0 15.728621793385514 24.361918136044551 0 0 0 0 43.065364227613031 68.716568090561623 0 68.716568090561623 51.128104918428107 0 0 0 0 -26.275882544510523 10.961632318214242 0 10.961632318214242 124.01178093992939 0 0 0 0 114.6160020392972 -2.1851748065114407 0 -2.1851748065114407 -60.2786450793119 0 0 0 0 0.6444764615797518 -0.84401683912983794 0 -0.84401683912983794 1.1316006775717558 0 0 0 0 -44.035276756896621 10.00948899333298 0 10.00948899333298 147.64846409067331 0 0 0 0 0.098114993301683606 -0.37696145139834836 0 -0.37696145139834836 1.4435125051594397 0 0 0 0 -52.616226506320345 -2.742012967966275 0 -2.742012967966275 157.9066955269675 0 0 0 0 82.702340257308947 -50.784848956615406 0 -50.784848956615406 21.810688322044143 0 0 0 0 -16.089921065507951 -62.972531826251725 0 -62.972531826251725 29.924420438107575 0 0 0 0 -21.185144790587174 4.8715699248136843 0 4.8715699248136843 13.615908195629231 0 0 0 0 0.7425363637076341 -1.0128436262160996 0 -1.0128436262160996 1.1295791880526345 0 0 0 0 0.43135648874352794 -0.46300473200254988 0 -0.46300473200254988 0.53745791649317809 0 0 0 0 -22.859117083847643 19.981498441463927 0 19.981498441463927 79.848046587571844 0 0 0 0 -22.681013756472829 22.883423602424095 0 22.883423602424095 45.589471208762916 0 0 0 0 24.912193232801826 115.14507395977489 0 115.14507395977489 201.5202851489048 0 0 0 0 35.637033335508193 -115.3419938055506 0 -115.3419938055506 161.60679266178158 0 0 0 0 -63.813251672758156 62.90834917729785 0 62.90834917729785 287.07318599059454 0 0 0 0 0.29337131766826385 1.0066501315486307 0 1.0066501315486307 3.3926944845463574 0 0 0 0 -47.902787771916678 -44.496033372978218 0 -44.496033372978218 134.39378758140128 0 0 0 0 175.45630711609056 114.88757675918418 0 114.88757675918418 30.236645629006034 0 0 0 0 79.43708860972788 39.027865357762721 0 39.027865357762721 124.09292313959213 0 0 0 0 0.96093456926618681 0.90273804913668165 0 0.90273804913668165 0.47409730377204085 0 0 0 0 -55.578800809279286 79.259313518036436 0 79.259313518036436 133.75525009785906 0 0 0 0 88.419890232651426 -42.321865993923666 0 -42.321865993923666 61.938550037677714 0 0 0 0 104.91596689388928 -44.217295693521237 0 -44.217295693521237 -12.891850182897315 0 0 0 0 77.928139789408647 -75.508674586249867 0 -75.508674586249867 66.62319623365056 0 0 0 0 -9.4031432873841823 46.438051165770958 0 46.438051165770958 119.0590074357151 0 0 0 0 -30.108119281039876 -6.8842028115934681 0 -6.8842028115934681 4.6479120383228292 0 0 0 0 -111.33324405946166 30.408965576198625 0 30.408965576198625 74.627690243780762 0 0 0 0 16.61812680041993 8.7665059719856799 0 8.7665059719856799 -25.520831198246015 0 0 0 0 13.982031011007848 -58.100226199599092 0 -58.100226199599092 10.000768078123201 0 0 0 0 -4.9185114558898704 22.730284496062495 0 22.730284496062495 27.292882810356787 0 0 0 0 0.50456870445715007 2.434558450331977 0 2.434558450331977 8.7745390880089111 0 0 0 0 30.588186890651173 -5.1235946802562466 0 -5.1235946802562466 43.935254739650873 0 0 0 0 54.544908613407529 64.423005292835114 0 64.423005292835114 9.8888329054116184 0 0 0 0 94.056391584222979 12.026620506904692 0 12.026620506904692 -3.6027997010360195 0 0 0 0 33.188283824704968 3.8945547247749346 0 3.8945547247749346 -2.8764460845832218 0 0 0 0 65.996983823473215 -3.4727476711375402 0 -3.4727476711375402 -5.3728828267849167 0 0 0 0 36.702964808475826 -18.132491488181131 0 -18.132491488181131 6.0098485980188343 0 0 0 0 14.911605653532206 -18.409319244698054 0 -18.409319244698054 9.1669548758709425 0 0 0 0 -33.057779435684552 8.5214758755328148 0 8.5214758755328148 30.826913397946555 0 0 0 0 -42.176349379011072 39.971194252329269 0 39.971194252329269 -2.9382747898480375 0 0 0 0 -0.017158729850854204 2.0718444275743186 0 2.0718444275743186 1.7399445396740454 0 0 0 0 0.19469133491987484 2.9606980197596191 0 2.9606980197596191 11.85295947126966 0 0 0 0 -18.298375586279917 14.772352364746894 0 14.772352364746894 2.6044887151892908 0 0 0 0 2.6457629150843331 59.899955385596058 0 59.899955385596058 -14.402769676784374 0 0 0 0 27.517222393084239 14.833528574586012 0 14.833528574586012 -25.23564704214732 0 0 0 0 90.750623516067094 -36.338969853965978 0 -36.338969853965978 -30.77725340415509 0 0 0 0 97.928960365753937 57.196582587723924 0 57.196582587723924 -7.8270634329037421 0 0 0 0 24.372715567105843 1.1193451525134606 0 1.1193451525134606 -8.2509923645466188 0 0 0 0 10.645284628975787 17.931540700344613 0 17.931540700344613 -25.804420083677996 0 0 0 0 2.1900633729268222 9.3588090728068067 0 9.3588090728068067 -3.6185770889233027 0 0 0 0 8.4685330700261829 3.6048100426069141 0 3.6048100426069141 1.0688522210066367 0 0 0 0 2.5017313003547201 0.68726057659114304 0 0.68726057659114304 7.1242933652720239 0 0 0 0 2.4469239779475629 0.88111222555198765 0 0.88111222555198765 7.0972059451025871 0 0 0 0 -4.894505537900983 9.4791802412410107 0 9.4791802412410107 0.7711666714239982 0 0 0 0 1.1097803999205098 1.9272852941644487 0 1.9272852941644487 6.2290292567399774 0 0 0 0 1.7144802317664087 3.9110799850925844 0 3.9110799850925844 7.9218764181678125 0 0 0 0 -0.22636101283828919 0.47750217248968641 0 0.47750217248968641 7.5068453549426089 0 0 0 0 -24.015204241316269 -19.394050631880418 0 -19.394050631880418 25.35795976463578 0 0 0 0 -0.89973232226461519 1.4908221581603422 0 1.4908221581603422 6.7980156662390669 0 0 0 0 10.993668693593236 3.2515551394308204 0 3.2515551394308204 -1.7623886994288114 0 0 0 0 1.4659801959325591 6.1674009916293926 0 6.1674009916293926 -2.1188797474478633 0 0 0 0 2.6066661056672729 -8.6773396853050144 0 -8.6773396853050144 -3.8673316686031285 0 0 0 0 0.46733667614744023 1.0026823157528488 0 1.0026823157528488 0.53684907056078401 0 0 0 0 26.975846719341916 19.339740985429671 0 19.339740985429671 0.7646332111812626 0 0 0 0 131.85685925850785 15.378081570652057 0 15.378081570652057 -11.681181268459113 0 0 0 0 18.465436763632852 -14.330713717202798 0 -14.330713717202798 20.290404991415926 0 0 0 0 12.479436667583101 28.652775799740596 0 28.652775799740596 47.827127320129875 0 0 0 0 14.018627992670417 38.771433268254896 0 38.771433268254896 52.661025515927122 0 0 0 0 0.29727576748176654 -0.50080721269166673 0 -0.50080721269166673 1.1113176653636323 0 0 0 0 55.756609751509359 -16.307458332439182 0 -16.307458332439182 1.4564148495924201 0 0 0 0 27.449374326139846 49.249188430566008 0 49.249188430566008 21.187614258275062 0 0 0 0 -41.788449644814591 48.006868344253689 0 48.006868344253689 60.84576494092471 0 0 0 0 31.483376766303557 -82.295841049979231 0 -82.295841049979231 5.9769183749685908 0 0 0 0 22.867020685624766 -24.250865117004651 0 -24.250865117004651 -25.529257896462184 0 0 0 0 1.4122817158446992 9.7377179405239076 0 9.7377179405239076 -23.244440349128581 0 0 0 0 -11.53849247237406 -69.128642711248517 0 -69.128642711248517 56.281679957411143 0 0 0 0 -4.4490180379823414 -27.803652343573049 0 -27.803652343573049 -16.503327113054183 0 0 0 0 0.31405507377690478 -1.1282446295049982 0 -1.1282446295049982 3.3953952510220038 0 0 0 0 0.352336586075225 -0.50502773601974393 0 -0.50502773601974393 0.63977277398522681 0 0 0 0 -19.944995274697249 13.253236387096877 0 13.253236387096877 56.617137480667225 0 0 0 0 -26.343887357501274 5.8123608218319873 0 5.8123608218319873 61.062427440673673 0 0 0 0 41.34340858634225 -28.67963566293389 0 -28.67963566293389 14.578637300026458 0 0 0 0 -32.145772476923185 7.451300047036284 0 7.451300047036284 6.7376035547385982 0 0 0 0 0.29883700492499732 -1.1631980791815688 0 -1.1631980791815688 4.2442912663054493 0 0 0 0 33.876425351026 38.831493303461457 0 38.831493303461457 -19.677270076404739 0 0 0 0 6.4687198366725625 6.0623663222033883 0 6.0623663222033883 -1.0619246196802123 0 0 0 0 10.661235768097413 -0.32698894859936445 0 -0.32698894859936445 3.7980291707890501 0 0 0 0 6.4052722617908557 -4.3413316709242054 0 -4.3413316709242054 0.22472477270093805 0 0 0 0 0.6718647420745234 -1.4097641677068524 0 -1.4097641677068524 3.0154188185360375 0 0 0 0 7.5378462459060529 -11.708866210993449 0 -11.708866210993449 4.5077613906059923 0 0 0 0 26.7493095620963 4.5221620232451869 0 4.5221620232451869 3.7900933695750609 0 0 0 0 42.191029087227548 -7.5873368225740023 0 -7.5873368225740023 0.28121014139742329 0 0 0 0 42.381119904958268 -6.4060116638825093 0 -6.4060116638825093 7.6188354273153891 0 0 0 0 6.1026640544860129 -4.0333487421280552 0 -4.0333487421280552 15.584238442927699 0 0 0 0 2.2279287574856426 3.7602681716094821 0 3.7602681716094821 16.121136129436309 0 0 0 0 0.21293979275769637 0.082635767498723922 0 0.082635767498723922 -0.099320880188266347 0 0 0 0 8.7386903938033811 -10.132964941298212 0 -10.132964941298212 26.971664146385592 0 0 0 0 32.062483678925673 -8.6537362455324001 0 -8.6537362455324001 -14.43144520034798 0 0 0 0 36.237777820298334 -24.458715903284428 0 -24.458715903284428 34.253835548519419 0 0 0 0 -0.13714980487884532 8.0287332846069148 0 8.0287332846069148 17.528350474533909 0 0 0 0 -8.5360962239949458 -4.2945978804588094 0 -4.2945978804588094 12.144614730503235 0 0 0 0 10.643953262084835 4.6934701054423158 0 4.6934701054423158 5.3716921977102174 0 0 0 0 16.212235542272992 18.438948917388188 0 18.438948917388188 13.900901498361918 0 0 0 0 17.040555257671031 15.764018847259422 0 15.764018847259422 19.471063974673598 0 0 0 0 14.861388007719142 19.180395480096649 0 19.180395480096649 70.649056792035708 0 0 0 0 0.031645027050434704 -0.24085361811807671 0 -0.24085361811807671 0.50635578641774615 0 0 0 0 21.035994715222159 4.6467937724330568 0 4.6467937724330568 -13.662812654912386 0 0 0 0 -11.420485462357533 -2.0749237954189539 0 -2.0749237954189539 7.4150626377552271 0 0 0 0 -6.1197200670154075 8.1393031018126862 0 8.1393031018126862 -2.4150647371097875 0 0 0 0 8.8460875040650535 -1.3159325774242916 0 -1.3159325774242916 -9.2738947566158458 0 0 0 0 9.2812207834988385 15.586231042436339 0 15.586231042436339 19.865789236972887 0 0 0 0 0.22526924116189306 0.010119443824240903 0 0.010119443824240903 0.34208481315811978 0 0 0 0 -2.4918624957622342 -8.5832987381280645 0 -8.5832987381280645 -6.5643565941286397 0 0 0 0 -0.15910894893023431 -0.84613286103884811 0 -0.84613286103884811 3.7876569903302855 0 0 0 0 -0.085695305341687344 -1.5474536620095023 0 -1.5474536620095023 2.8589685653560082 0 0 0 0 0.073736825593130106 0.17444988771126191 0 0.17444988771126191 6.3068653651343993 0 0 0 0 -0.0021642294209414104 -1.6557838656094646 0 -1.6557838656094646 4.5526317947765165 0 0 0 0 0.0057967596862704696 0.19544860090229044 0 0.19544860090229044 1.7553331505705501 0 0 0 0 -2.2511845269013975 1.1377000705633691 0 1.1377000705633691 16.5142894188225 0 0 0 0 -1.422894750482762 -2.0684019840658512 0 -2.0684019840658512 5.6786421054364418 0 0 0 0 -1.2065695636620148 -2.0802113217905571 0 -2.0802113217905571 10.288388422122807 0 0 0 0 -2.5465784511546503 -6.3767594789875037 0 -6.3767594789875037 2.5852983705226635 0 0 0 0 -0.08238796430396178 -1.4302553664629158 0 -1.4302553664629158 2.9264957595096348 0 0 0 0 -1.3475827402827116 -0.57113134564555379 0 -0.57113134564555379 6.1413156024908675 0 0 0 0 -1.6570247472403219 -1.1916531268352215 0 -1.1916531268352215 2.4465690035407173 0 0 0 0 -2.7024670166488249 -2.4524153565562301 0 -2.4524153565562301 2.1125929266736421 0 0 0 0 -0.77454798060034591 -0.21894591304135247 0 -0.21894591304135247 8.4949457482516664 0 0 0 0 -0.24357873518056294 -1.4355770807460431 0 -1.4355770807460431 8.0191377029589148 0 0 0 0 1.2919850548769318 1.6376737924506415 0 1.6376737924506415 11.601447749646013 0 0 0 0 -2.2236483042481723 -1.2954728949875971 0 -1.2954728949875971 17.956873313356482 0 0 0 0 -2.4645097108841441 0.2238072130032549 0 0.2238072130032549 18.87002908904833 0 0 0 0 -8.5284160579885793 3.0634868461215774 0 3.0634868461215774 17.544898013257807 0 0 0 0 -2.3686212001853164 1.2777781600725575 0 1.2777781600725575 19.164057095352291 0 0 0 0 -0.76572780347432823 -1.4596637986565542 0 -1.4596637986565542 0.7993685990127366 0 0 0 0 -4.2206304186636316 -20.376297700473437 0 -20.376297700473437 19.737432606883431 0 0 0 0 -1.4551099093711815 -2.4589141542223132 0 -2.4589141542223132 10.369871704384526 0 0 0 0 5.1263275097855967 -18.059684722603265 0 -18.059684722603265 13.014361673260964 0 0 0 0 -5.8228978110164462 -3.759475559225848 0 -3.759475559225848 18.144571472907955 0 0 0 0 -9.2500958383911893 8.695223085482553 0 8.695223085482553 -12.043854382122277 0 0 0 0 -4.4619073156816285 -4.1523653603222783 0 -4.1523653603222783 0.94149237148121756 0 0 0 0 -0.57174311850690573 -2.2636737016243047 0 -2.2636737016243047 5.4476147740980663 0 0 0 0 -1.4570764205785771 0.64770531027883949 0 0.64770531027883949 11.701718452342476 0 0 0 0 -0.011806640614111075 0.90310585682203248 0 0.90310585682203248 3.4068809815658874 0 0 0 0 -2.9499098447563483 -3.5461619504303599 0 -3.5461619504303599 12.057646927425594 0 0 0 0 1.4316401151871787 7.5327232532941366 0 7.5327232532941366 15.15591059080495 0 0 0 0 -7.5301322436629192 1.8900032933315245 0 1.8900032933315245 20.304718038913279 0 0 0 0 -7.128164916521996 3.8373949150915223 0 3.8373949150915223 19.653191901761332 0 0 0 0 -4.3354978472434924 -1.7633932592761368 0 -1.7633932592761368 1.5857105988762714 0 0 0 0 -4.9576982000453427 -3.4151098768495558 0 -3.4151098768495558 7.4181290123210601 0 0 0 0 -3.1547515832530735 -4.8037684029895331 0 -4.8037684029895331 9.466754343463009 0 0 0 0 -1.2746112417298718 -0.39795446585779359 0 -0.39795446585779359 4.3956262721475241 0 0 0 0 -1.4668931276005166 -0.014612659263956163 0 -0.014612659263956163 2.4115833186147508 0 0 0 0 -2.4540720907038134 -2.1503522233205543 0 -2.1503522233205543 3.0568549046345392 0 0 0 0 3.1759119771542146 -10.166771837191106 0 -10.166771837191106 15.735660987269398 0 0 0 0 -7.6334811019601148 -10.946743145922937 0 -10.946743145922937 29.990541380986883 0 0 0 0 -2.962688485327476 14.866875836087502 0 14.866875836087502 41.272362768552824 0 0 0 0 -1.9555960234025065 -4.9624211607120401 0 -4.9624211607120401 4.8166144483679432 0 0 0 0 -8.3561065921225008 -2.6965380147365181 0 -2.6965380147365181 22.186609927379493 0 0 0 0 2.3941534232750996 -2.4336250823756131 0 -2.4336250823756131 -5.129608237867842 0 0 0 0 -5.0422382209649186 3.55909114039423 0 3.55909114039423 7.4052696397370141 0 0 0 0 -3.6252232863003058 -2.0852329756909351 0 -2.0852329756909351 0.75314554730087158 0 0 0 0 0.17561362790254531 0.01373001023777376 0 0.01373001023777376 0.065791857690163713 0 0 0 0 -62.4331906747434 39.402828931610884 0 39.402828931610884 31.932991566110104 0 0 0 0 -24.956234356121968 -0.63345098419642909 0 -0.63345098419642909 7.9074464060143157 0 0 0 0 13.065824487516693 -13.719768734562422 0 -13.719768734562422 -21.133833304007908 0 0 0 0 -14.375683449647113 -5.9302781196566912 0 -5.9302781196566912 1.7256975185404713 0 0 0 0 37.32409915991957 2.1234689711689043 0 2.1234689711689043 -24.108061863282728 0 0 0 0 -27.737056420860881 29.593700397526959 0 29.593700397526959 11.188935191296082 0 0 0 0 -0.30713811219667342 0.29514963579164455 0 0.29514963579164455 -0.18836101366016178 0 0 0 0 -17.056165317942487 25.589039208814256 0 25.589039208814256 7.5678176429602217 0 0 0 0 -35.417304459131174 16.68439984126735 0 16.68439984126735 4.0676510161063106 0 0 0 0 -36.657679074053704 24.867210064087885 0 24.867210064087885 17.807928722058477 0 0 0 0 -37.439187779408257 28.43450510137302 0 28.43450510137302 13.849839025504025 0 0 0 0 12.720630573476683 -17.978139168718485 0 -17.978139168718485 -8.4400810694967277 0 0 0 0 -42.02891706769924 -0.04574367498923948 0 -0.04574367498923948 8.2213553079807298 0 0 0 0 17.112058940156203 21.017567585822007 0 21.017567585822007 8.1859557533139196 0 0 0 0 28.938656712866305 -8.8349935310193359 0 -8.8349935310193359 -11.25642430438856 0 0 0 0 25.57676689056143 -8.240858464093094 0 -8.240858464093094 -4.0266202516368139 0 0 0 0 24.932009840880255 -2.5865269872269891 0 -2.5865269872269891 -12.189369226110614 0 0 0 0 8.2670617921039593 -2.0670136803701098 0 -2.0670136803701098 -12.504107295775157 0 0 0 0 0.064594128280051955 -1.8390699722011197 0 -1.8390699722011197 3.7197871903070947 0 0 0 0 0.79079796480098441 -2.086610809944192 0 -2.086610809944192 3.3110543473063694 0 0 0 0 -0.67871851550523843 -1.6753574863250265 0 -1.6753574863250265 4.5431619665769176 0 0 0 0 3.7841388252249999 3.3388956041143842 0 3.3388956041143842 3.4777092173233086 0 0 0 0 -12.6260264054863 8.9032200800995724 0 8.9032200800995724 30.617159931417063 0 0 0 0 -3.2295172228082265 -14.92088331313937 0 -14.92088331313937 -6.3863025526062529 0 0 0 0 -1.548671840107894 0.094433346783627692 0 0.094433346783627692 1.7998994514254953 0 0 0 0 0.03280894348645802 -0.86220630592421788 0 -0.86220630592421788 -0.28256799562175328 0 0 0 0 -24.160836643017774 -13.22820969177053 0 -13.22820969177053 29.062276561683703 0 0 0 0 2.0034735975156583 -4.3032791933338093 0 -4.3032791933338093 7.15689731111169 0 0 0 0 -9.8032216237661487 -8.4101847976162389 0 -8.4101847976162389 17.685422355400078 0 0 0 0 -1.6034222027640226 -2.5090229012377279 0 -2.5090229012377279 -8.6951156014831668 0 0 0 0 12.381153572740459 1.782085032853729 0 1.782085032853729 -9.2802393797546756 0 0 0 0 12.464468596200959 -48.353304351816405 0 -48.353304351816405 -6.4503087006842179 0 0 0 0 18.0387564958761 -15.128552554860789 0 -15.128552554860789 23.8445273688003 0 0 0 0 -1.909930326800378 -17.340024487156654 0 -17.340024487156654 29.218006448206324 0 0 0 0 2.452746362371272 -35.985792672240677 0 -35.985792672240677 14.858033855521171 0 0 0 0 -1.6017324435588307 -19.949677005906096 0 -19.949677005906096 0.11787945040759951 0 0 0 0 -21.324290279176125 28.247757334282596 0 28.247757334282596 45.641748960005657 0 0 0 0 1.7753675188623212 -3.6181363781339653 0 -3.6181363781339653 6.7287655147429826 0 0 0 0 0.085000048152978014 -0.1766351680203968 0 -0.1766351680203968 0.30062658058901626 0 0 0 0 -43.837434898538959 -16.246059229676575 0 -16.246059229676575 -10.087532350950113 0 0 0 0 6.910410512351973 15.198139928070759 0 15.198139928070759 -6.5224313762259953 0 0 0 0 -16.510417155707955 19.03013902822795 0 19.03013902822795 22.105144693426155 0 0 0 0 -3.906614011833426 24.15099438114612 0 24.15099438114612 2.7566584209130269 0 0 0 0 -3.3962040130159039 16.049895202795142 0 16.049895202795142 30.831337145760699 0 0 0 0 4.3290527969552386 9.8277446141792097 0 9.8277446141792097 8.5874096495190315 0 0 0 0 5.5892359640506868 21.44634235694781 0 21.44634235694781 89.201144879499225 0 0 0 0 20.336684247414269 -38.063817663650298 0 -38.063817663650298 46.792554251071124 0 0 0 0 85.807857774099148 -18.021074719128592 0 -18.021074719128592 -5.5258165008752371 0 0 0 0 -19.581473496733906 21.371606355090421 0 21.371606355090421 15.71467510897071 0 0 0 0 64.544676736561087 61.650535784745557 0 61.650535784745557 15.078296279467622 0 0 0 0 -94.492117100480755 -28.428176016024167 0 -28.428176016024167 21.330118194670831 0 0 0 0 -98.802716559130658 21.743346471209861 0 21.743346471209861 51.206466005340076 0 0 0 0 -36.460312707748017 30.742962806459445 0 30.742962806459445 26.105898663575772 0 0 0 0 -19.212650349956789 24.30717614119375 0 24.30717614119375 12.377522418065837 0 0 0 0 -69.162098369800333 13.899835659425662 0 13.899835659425662 21.332958848829094 0 0 0 0 -65.741564889476649 -143.30988200730803 0 -143.30988200730803 54.998889537995183 0 0 0 0 -9.330318424358893 5.8750608494628977 0 5.8750608494628977 17.310011422261937 0 0 0 0 1.4177373564673434 -2.7500888739133758 0 -2.7500888739133758 4.6163552703040525 0 0 0 0 0.21306424212863728 -0.48082931538704399 0 -0.48082931538704399 0.81729467647439868 0 0 0 0 -28.421719365320996 -30.083563025595595 0 -30.083563025595595 -70.287178469470291 0 0 0 0 0.37847851879973615 -0.84113857646879797 0 -0.84113857646879797 1.233647129926883 0 0 0 0 158.35547007394644 -47.220498338277253 0 -47.220498338277253 -30.196330798563167 0 0 0 0 -33.690459905033094 -45.828742589244371 0 -45.828742589244371 173.21140969953331 0 0 0 0 1.5458676923858548 -3.7158904114926372 0 -3.7158904114926372 1.2397257896055862 0 0 0 0 -1.9649305558930337 -80.929208493415899 0 -80.929208493415899 -33.690933392790882 0 0 0 0 -55.028069175918972 64.901509240766927 0 64.901509240766927 -36.408805403634233 0 0 0 0 15.137058873316262 19.770176176948574 0 19.770176176948574 42.179905571343625 0 0 0 0 -1.5934015926854954 -1.0288428805456533 0 -1.0288428805456533 3.264326277319924 0 0 0 0 -7.0774108279219945 -0.0097738728691183496 0 -0.0097738728691183496 4.8674579393727981 0 0 0 0 24.22230468945736 35.14337997525945 0 35.14337997525945 0.79212644731160253 0 0 0 0 15.131199900798038 34.676528176448301 0 34.676528176448301 18.322232781209095 0 0 0 0 21.546274665625788 23.738328116791308 0 23.738328116791308 10.523907051746392 0 0 0 0 24.87042721498392 14.597177743202337 0 14.597177743202337 -8.9877095360307067 0 0 0 0 8.4549297119444873 27.709756681622821 0 27.709756681622821 32.307191744828742 0 0 0 0 12.125539112722663 36.904609084979711 0 36.904609084979711 50.390171921008914 0 0 0 0 30.481324614120467 29.181244033687108 0 29.181244033687108 32.286898229020153 0 0 0 0 33.128129859318278 15.448256918809648 0 15.448256918809648 50.689451665623892 0 0 0 0 50.095820104012546 -12.067928033437056 0 -12.067928033437056 95.037112918536877 0 0 0 0 30.128044440133408 -14.08450325015292 0 -14.08450325015292 63.95810319931843 0 0 0 0 64.457811909279371 18.965242434135689 0 18.965242434135689 40.431533217632932 0 0 0 0 17.846102751828312 22.020321698371845 0 22.020321698371845 42.666178803110597 0 0 0 0 14.292228792099195 25.006313955770565 0 25.006313955770565 39.586822432631379 0 0 0 0 30.032090138705826 18.093617314684707 0 18.093617314684707 38.140397623272293 0 0 0 0 24.862293553309996 1.0279199086755852 0 1.0279199086755852 58.203316640734556 0 0 0 0 9.8360048868830745 15.668288942451909 0 15.668288942451909 69.645223852059644 0 0 0 0 0.36119626927506765 -0.59048209629239068 0 -0.59048209629239068 1.0339568985535266 0 0 0 0 0.72337505516502132 -1.0257699858007647 0 -1.0257699858007647 1.1313166511648864 0 0 0 0 14.350597582579667 16.358920929806118 0 16.358920929806118 58.873229834265658 0 0 0 0 7.4544008151556227 5.594479055539523 0 5.594479055539523 77.923081732911669 0 0 0 0 4.1233931280667093 8.0269477913407172 0 8.0269477913407172 80.274300625034812 0 0 0 0 7.2889716180015967 -2.6252388534730926 0 -2.6252388534730926 58.244744837109465 0 0 0 0 0.29191842385262134 -23.480731313735305 0 -23.480731313735305 61.030298117770144 0 0 0 0 -20.366293658967606 -8.6574126526129476 0 -8.6574126526129476 99.509524566754408 0 0 0 0 -1.2775820735369052 3.016792491893284 0 3.016792491893284 77.258337173127074 0 0 0 0 4.2655629449036496 3.9636498863637826 0 3.9636498863637826 77.259631068613089 0 0 0 0 -4.501499344837157 6.7433570150669766 0 6.7433570150669766 80.237461689801421 0 0 0 0 -1.7034852224342103 7.7821242660002099 0 7.7821242660002099 80.619844920180185 0 0 0 0 0.67525083720511248 19.190411913413755 0 19.190411913413755 109.78175602465853 0 0 0 0 7.2490771119164492 22.619411198404578 0 22.619411198404578 61.963143268092608 0 0 0 0 -23.978048413046054 -7.436715157216895 0 -7.436715157216895 111.95766453995566 0 0 0 0 -45.199684590344987 3.0450582093017147 0 3.0450582093017147 121.66822960564969 0 0 0 0 -46.220508446236977 9.0548565977250064 0 9.0548565977250064 172.77169730675814 0 0 0 0 63.69115017722288 129.13465529348468 0 129.13465529348468 72.083157220511566 0 0 0 0 -33.941378262075887 78.83089362334249 0 78.83089362334249 322.14523066618676 0 0 0 0 111.40420318605175 288.04101039065063 0 288.04101039065063 241.34820758930891 0 0 0 0 69.124805285772027 45.501531328042802 0 45.501531328042802 23.325704093030708 0 0 0 0 21.92802229799986 33.165445648250397 0 33.165445648250397 25.765833518343243 0 0 0 0 17.997185570696445 15.237020176208119 0 15.237020176208119 5.439269467300619 0 0 0 0 -0.22728079333751339 35.065227997987222 0 35.065227997987222 37.01724383492251 0 0 0 0 3.2494024845364038 21.193503484254052 0 21.193503484254052 16.005656458069552 0 0 0 0 -3.6658969168172462 21.224690772120994 0 21.224690772120994 22.436280886922759 0 0 0 0 18.077748950364025 32.797473218833375 0 32.797473218833375 23.171678787623932 0 0 0 0 10.374975831464553 22.582265632469444 0 22.582265632469444 51.97607030002996 0 0 0 0 5.9535013077211261 29.746573458569287 0 29.746573458569287 26.451173091065812 0 0 0 0 -3.8475459222532891 7.9444026186913561 0 7.9444026186913561 36.933752748493589 0 0 0 0 7.1628951878396947 26.605535667270942 0 26.605535667270942 34.431094176632541 0 0 0 0 8.7317075291282436 5.9163046695139201 0 5.9163046695139201 9.7841194704663224 0 0 0 0 6.8598797699924035 8.4037538112670518 0 8.4037538112670518 14.803723848308437 0 0 0 0 0.46560467104295161 0.09896048918992717 0 0.09896048918992717 1.624270684263788 0 0 0 0 -11.271533429497879 10.245292399657899 0 10.245292399657899 -1.841682422624217 0 0 0 0 -14.683811370115563 -16.966854943288126 0 -16.966854943288126 41.344089654509844 0 0 0 0 0.020177663869055396 0.095945023976398147 0 0.095945023976398147 0.6193981934697721 0 0 0 0 5.652847925726519 11.558792449654902 0 11.558792449654902 -6.6438399082271644 0 0 0 0 -0.48299842298661133 5.6800478560717238 0 5.6800478560717238 33.907134394499735 0 0 0 0 4.4814949396986776 -3.9279942099556138 0 -3.9279942099556138 16.266162595733931 0 0 0 0 2.3606726289642666 14.116272723485054 0 14.116272723485054 -8.7623931238258592 0 0 0 0 3.691979343167759 7.4072688530347932 0 7.4072688530347932 -18.631190421518113 0 0 0 0 2.7814864828688899 -0.9373699008268499 0 -0.9373699008268499 0.62862195392301445 0 0 0 0 30.500485065342673 1.2752356795313062 0 1.2752356795313062 -42.812918764617649 0 0 0 0 -7.1475100194218157 5.1970041159015636 0 5.1970041159015636 20.145461576755679 0 0 0 0 3.7910529694188591 -0.92612606663405028 0 -0.92612606663405028 -0.11041126198118456 0 0 0 0 -9.0844197693910473 0.41971722088385377 0 0.41971722088385377 9.0278166845009764 0 0 0 0 68.417732975798344 -7.1545482027363505 0 -7.1545482027363505 9.3880966718918728 0 0 0 0 0.36500950293941514 19.424224903772938 0 19.424224903772938 72.922726902391787 0 0 0 0 4.3451716671856957 -3.5175292192839152 0 -3.5175292192839152 19.038582120168144 0 0 0 0 9.6265286893894881 -14.215459913771156 0 -14.215459913771156 69.843409512419839 0 0 0 0 -5.1137786050053364 8.2050044408786107 0 8.2050044408786107 37.618735389669155 0 0 0 0 44.188827592183088 -8.4270727835362322 0 -8.4270727835362322 -21.356713620367827 0 0 0 0 43.924556463568763 -17.089875601310304 0 -17.089875601310304 25.080039292043693 0 0 0 0 35.223141912519623 26.640351319427282 0 26.640351319427282 19.851830555280785 0 0 0 0 37.655425064355541 30.876415257465396 0 30.876415257465396 -24.675679156802744 0 0 0 0 19.054717050343925 13.086715028070557 0 13.086715028070557 9.78908511387408 0 0 0 0 19.860479287388685 4.9433540699483558 0 4.9433540699483558 29.707203542247044 0 0 0 0 10.479825821190843 24.262524945471569 0 24.262524945471569 27.697769317094753 0 0 0 0 -0.033976878351755557 -0.0081016963305367007 0 -0.0081016963305367007 0.27796619062424099 0 0 0 0 -12.083442143633647 -9.5153199940916693 0 -9.5153199940916693 44.723899865958174 0 0 0 0 40.419415852872248 34.585876435787384 0 34.585876435787384 81.233548101989982 0 0 0 0 -6.8392364874873692 11.540435117779452 0 11.540435117779452 85.112474991338786 0 0 0 0 -3.7739293190372791 16.219647437386413 0 16.219647437386413 85.485005150500001 0 0 0 0 -1.9935436882124122 -14.899989581845148 0 -14.899989581845148 55.549197649819689 0 0 0 0 33.877892287029937 -10.455399144263538 0 -10.455399144263538 -2.8639680047518823 0 0 0 0 -12.770068024988422 26.175666442464262 0 26.175666442464262 30.232737121823448 0 0 0 0 -14.70438972790306 -2.3281798361631445 0 -2.3281798361631445 -0.32273121601974708 0 0 0 0 -0.034927693109369898 0.42242904159599082 0 0.42242904159599082 4.519108630941048 0 0 0 0 -49.842016185802393 -6.9273379633468721 0 -6.9273379633468721 22.119587842684268 0 0 0 0 0.063766535177504025 -18.258598295420597 0 -18.258598295420597 1.6658881714974996 0 0 0 0 -5.8854392698740812 -5.6382152668011258 0 -5.6382152668011258 0.91956944374305749 0 0 0 0 6.5638554393461632 -1.3963963961559784 0 -1.3963963961559784 0.81069582553936925 0 0 0 0 -3.8665427920665252 10.248237739412616 0 10.248237739412616 -0.85609923700923218 0 0 0 0 -0.055571878480766439 0.6317917397048527 0 0.6317917397048527 5.3759254926383946 0 0 0 0 0.68595220795544376 -0.32477878200303678 0 -0.32477878200303678 2.2886533270660827 0 0 0 0 2.9862485825104157 -4.1181184104453301 0 -4.1181184104453301 3.9635860956816273 0 0 0 0 2.0118321892776976 -4.6337431456049671 0 -4.6337431456049671 6.2437627433987473 0 0 0 0 11.947956580671146 -22.704533193853422 0 -22.704533193853422 43.783193590770679 0 0 0 0 6.052930887651911 20.510937068183011 0 20.510937068183011 75.08611363885575 0 0 0 0 -5.5634073597797737 -3.7214501400057998 0 -3.7214501400057998 3.7597319370561308 0 0 0 0 0.77266232420843228 -1.1303594215705419 0 -1.1303594215705419 0.12055720324727304 0 0 0 0 20.388956827386068 -40.527324276171385 0 -40.527324276171385 55.877970203910081 0 0 0 0 -13.772533681269572 -20.841638004410015 0 -20.841638004410015 98.992845081589621 0 0 0 0 -23.797581422377448 -61.874725088098785 0 -61.874725088098785 204.89400501288128 0 0 0 0 -48.241184697172571 33.918496038676039 0 33.918496038676039 270.24733352015028 0 0 0 0 -33.638373388407871 44.467683000936631 0 44.467683000936631 255.19052009674942 0 0 0 0 19.767645287461107 76.143498318903767 0 76.143498318903767 372.16829658131053 0 0 0 0 2.570724628433652 134.00111342690616 0 134.00111342690616 789.63837941338079 0 0 0 0 7.40126334308016 -122.57444887073962 0 -122.57444887073962 365.79641074296183 0 0 0 0 110.44584953673737 -87.166439983665441 0 -87.166439983665441 3.9198720651074836 0 0 0 0 46.190381897295559 67.348382027366824 0 67.348382027366824 17.522045045708069 0 0 0 0 -30.945758072753559 -32.934386687594269 0 -32.934386687594269 33.810970397615165 0 0 0 0 112.08542106038753 -187.3515385691835 0 -187.3515385691835 346.70270101294591 0 0 0 0 -0.019421584833663314 21.900259273553274 0 21.900259273553274 666.58217594582311 0 0 0 0 0.03838436196672905 0.014507612718574592 0 0.014507612718574592 2.0569247176912597 0 0 0 0 -0.27245261328482762 -0.15129739581022861 0 -0.15129739581022861 1.370896799507328 0 0 0 0 -0.0021960424830722316 15.13033096213346 0 15.13033096213346 370.32947286152375 0 0 0 0 -31.95245359600386 68.521506142231146 0 68.521506142231146 499.65054988535803 0 0 0 0 32.916169325351554 54.43435483387475 0 54.43435483387475 170.22645035735604 0 0 0 0 108.94895489604818 100.86823034932149 0 100.86823034932149 720.68280484531442 0 0 0 0 30.720638303444755 54.504859297171606 0 54.504859297171606 320.8332299431986 0 0 0 0 32.163340703881566 197.57664010009603 0 197.57664010009603 515.66792348945273 0 0 0 0 -29.115980556894048 51.275427872015825 0 51.275427872015825 515.97146079718709 0 0 0 0 -0.30527368469730287 -0.39862831734981796 0 -0.39862831734981796 1.22603456074539 0 0 0 0 -67.414548284551103 -54.419630497971411 0 -54.419630497971411 152.04911543445678 0 0 0 0 -30.235152557721541 54.458704751692039 0 54.458704751692039 219.42518740688502 0 0 0 0 -0.54504118748916808 -0.71660355799964748 0 -0.71660355799964748 1.9299440647359098 0 0 0 0 -21.337309157900677 18.272906423384029 0 18.272906423384029 299.81959244944119 0 0 0 0 -15.458118739040657 99.261266263700236 0 99.261266263700236 346.15078151264152 0 0 0 0 -67.200753640878986 50.399263416014946 0 50.399263416014946 271.22695442892854 0 0 0 0 -43.82890334923168 72.419824767616319 0 72.419824767616319 283.76987387303234 0 0 0 0 -11.939121568256184 74.450074916167978 0 74.450074916167978 260.12495670593353 0 0 0 0 -16.557868887266352 47.691393326415891 0 47.691393326415891 270.31622404265545 0 0 0 0 -82.3115174456331 -19.561206257712911 0 -19.561206257712911 328.36364610363034 0 0 0 0 -71.389126419845667 56.842718013211197 0 56.842718013211197 453.77789371320796 0 0 0 0 -36.893800100154451 74.396537960148862 0 74.396537960148862 448.03879827706169 0 0 0 0 -12.776086254692839 129.31907811512338 0 129.31907811512338 435.82550135948679 0 0 0 0 -64.784346355675453 92.176395861417404 0 92.176395861417404 500.05310799113067 0 0 0 0 -21.809164103457086 88.808219453696438 0 88.808219453696438 428.00522294446182 0 0 0 0 15.353500900110653 117.97108661421498 0 117.97108661421498 327.77221319690852 0 0 0 0 33.06808334795835 98.482711175325221 0 98.482711175325221 326.83521898489016 0 0 0 0 -12.000186063174169 80.292387699920255 0 80.292387699920255 339.06721789481708 0 0 0 0 -25.464020168650251 60.281828028447762 0 60.281828028447762 343.97850542408378 0 0 0 0 14.689900554159184 68.320916293248956 0 68.320916293248956 280.17662115259554 0 0 0 0 19.070685621185522 89.056220670969196 0 89.056220670969196 275.59121615947856 0 0 0 0 44.396276626214259 68.284679728316405 0 68.284679728316405 259.89972365650465 0 0 0 0 54.142234567903728 111.6207438824913 0 111.6207438824913 225.38367050298257 0 0 0 0 43.244210162909042 69.313530741861086 0 69.313530741861086 192.28765685470171 0 0 0 0 2.0070673387281972 -2.5945913576671273 0 -2.5945913576671273 2.4055571016237991 0 0 0 0 -37.033444184280484 -65.308302839688622 0 -65.308302839688622 -38.3352162545807 0 0 0 0 2.467682190568762 -3.4622406268829931 0 -3.4622406268829931 3.1806119361300311 0 0 0 0 26.402000231211069 91.236118607838534 0 91.236118607838534 200.05081054754737 0 0 0 0 11.392310765553304 54.811658386038744 0 54.811658386038744 226.67803790798553 0 0 0 0 -27.924877512178888 34.904422740487917 0 34.904422740487917 196.34693115564005 0 0 0 0 -0.96270837260112785 58.593234715846847 0 58.593234715846847 181.72837074306153 0 0 0 0 8.3279426421189413 39.256664625998383 0 39.256664625998383 146.46631210373835 0 0 0 0 -4.4522703481224255 -5.8212168360614669 0 -5.8212168360614669 10.125076741580415 0 0 0 0 -2.6395330105812036 -7.7591644836247724 0 -7.7591644836247724 3.0481309701617647 0 0 0 0 2.8564922015553433 -3.9450274620733801 0 -3.9450274620733801 3.4956049793480979 0 0 0 0 3.0135275510203314 -5.0795310766461625 0 -5.0795310766461625 101.82704028817625 0 0 0 0 1.1712226763824845 -3.1984641189551439 0 -3.1984641189551439 8.4963957351737918 0 0 0 0 -9.9735108127833882 -4.8496710795725448 0 -4.8496710795725448 11.080927474994496 0 0 0 0 -9.0257326272311502 1.826697091083588 0 1.826697091083588 16.08276052706978 0 0 0 0 -7.2838762273679265 1.9744547987822898 0 1.9744547987822898 13.427271041493441 0 0 0 0 -6.2145312286666012 5.4044094812616095 0 5.4044094812616095 13.139905457106579 0 0 0 0 -18.66764492639399 -1.8201387316444197 0 -1.8201387316444197 15.234604702045544 0 0 0 0 -21.524670795336647 -3.2731280507005067 0 -3.2731280507005067 29.839846374475201 0 0 0 0 -13.781892351584588 -19.46383883483486 0 -19.46383883483486 -9.571776056123781 0 0 0 0 -24.653974840837805 -10.171070329129179 0 -10.171070329129179 15.665060116372842 0 0 0 0 146.71874016275461 -63.500043191978875 0 -63.500043191978875 -39.922915098021804 0 0 0 0 0.22863912143546988 -0.65952604402134751 0 -0.65952604402134751 1.8317443627215155 0 0 0 0 -6.7333114356828219 26.748297850946983 0 26.748297850946983 80.044690926322801 0 0 0 0 41.959672000132116 31.607040539390709 0 31.607040539390709 26.846932341804859 0 0 0 0 4.5889149598084842 3.8469872388938029 0 3.8469872388938029 6.7143193821520981 0 0 0 0 6.0627063887754957 14.707682549284073 0 14.707682549284073 20.075485737408599 0 0 0 0 -74.853913553963224 -49.536360344084187 0 -49.536360344084187 29.492192848662853 0 0 0 0 -124.8768577648182 2.4951827957474961 0 2.4951827957474961 46.401045750830235 0 0 0 0 0.45265932494990863 -2.0149140637342446 0 -2.0149140637342446 5.1574549994776504 0 0 0 0 9.6514638279052747 -5.4302356486791723 0 -5.4302356486791723 -83.175384594979732 0 0 0 0 5.4875322744005715 4.7140699324987736 0 4.7140699324987736 214.00983967163847 0 0 0 0 -164.03709260546825 -62.418151387993703 0 -62.418151387993703 42.762979326043933 0 0 0 0 -200.19690618764031 -102.93893003771791 0 -102.93893003771791 197.91031660426142 0 0 0 0 0.41758706584106786 -2.3161751889346522 0 -2.3161751889346522 5.9519141613197775 0 0 0 0 286.23464430947871 -159.15158729631048 0 -159.15158729631048 -0.3555103609460275 0 0 0 0 6.2351526671916417 70.679602088098818 0 70.679602088098818 40.586825056894668 0 0 0 0 -0.55193603416374937 -0.21669685377523784 0 -0.21669685377523784 5.9744797571904584 0 0 0 0 161.85301312915232 -138.19426783645122 0 -138.19426783645122 -143.29829885228901 0 0 0 0 -71.16320697087113 82.855682892223285 0 82.855682892223285 141.44761687111895 0 0 0 0 -92.787688175567183 -4.6003483663866973 0 -4.6003483663866973 20.080575024650898 0 0 0 0 138.75196289276926 -155.94350781752655 0 -155.94350781752655 -26.607444772238523 0 0 0 0 0.49559525230580881 -1.3629599764617737 0 -1.3629599764617737 2.5223744854837804 0 0 0 0 113.55906938745278 -158.10739377164555 0 -158.10739377164555 24.012579483707668 0 0 0 0 37.525196593248239 6.1645971539319362 0 6.1645971539319362 -21.037525470614128 0 0 0 0 -72.710575586713631 74.649782251973193 0 74.649782251973193 138.32651339702352 0 0 0 0 -81.92306701186908 26.19835728948965 0 26.19835728948965 150.49610627845323 0 0 0 0 -66.731756907039454 64.828626183785673 0 64.828626183785673 71.262845829071011 0 0 0 0 -67.691924211563389 -41.668468121330079 0 -41.668468121330079 291.79113988389872 0 0 0 0 79.01314528680382 -82.85565885336564 0 -82.85565885336564 48.069711354432911 0 0 0 0 36.87645668257511 11.476713340209244 0 11.476713340209244 -28.339647734733262 0 0 0 0 138.11518879847281 -62.29436012337851 0 -62.29436012337851 -18.284494342115067 0 0 0 0 -50.164791552679333 66.079303499985599 0 66.079303499985599 107.23432374378717 0 0 0 0 160.30216434058423 34.340718284936884 0 34.340718284936884 -40.139263140176809 0 0 0 0 -48.491067947362353 -12.687403297899436 0 -12.687403297899436 39.411005971569466 0 0 0 0 13.284388461038134 -64.220734096837077 0 -64.220734096837077 81.872787217827863 0 0 0 0 87.055859924191338 -67.56666798346123 0 -67.56666798346123 -109.36028021369111 0 0 0 0 23.873819630553839 120.10016429165444 0 120.10016429165444 313.20915501945274 0 0 0 0 0.95009844068409455 -0.95295941879505719 0 -0.95295941879505719 0.96392333342251035 0 0 0 0 54.808229345649124 10.310341588475239 0 10.310341588475239 -80.853126042806252 0 0 0 0 52.675739204207829 108.2223972470432 0 108.2223972470432 312.31475270585179 0 0 0 0 52.101266227150504 75.263709873748667 0 75.263709873748667 264.86505209390634 0 0 0 0 71.047718918925199 48.073268921702038 0 48.073268921702038 303.86396346128709 0 0 0 0 109.22445699453722 53.245155941658595 0 53.245155941658595 249.09371867690061 0 0 0 0 76.909794961786119 88.684153225234695 0 88.684153225234695 264.7228501657263 0 0 0 0 119.14926876493439 36.922034663963132 0 36.922034663963132 94.865588812648639 0 0 0 0 0.0016336426830630968 0.017637569075455772 0 0.017637569075455772 0.078703404598343241 0 0 0 0 117.36312799541406 -114.43690078869986 0 -114.43690078869986 365.85114616783994 0 0 0 0 -110.77090792876345 93.047193746377161 0 93.047193746377161 238.00191531837481 0 0 0 0 77.576514822564164 157.19574546140666 0 157.19574546140666 300.76692393253688 0 0 0 0 126.73876787445373 178.63266360879425 0 178.63266360879425 146.36669126691049 0 0 0 0 81.514149375342356 103.93633198478801 0 103.93633198478801 203.82197003427882 0 0 0 0 38.500995972681928 173.87790133050248 0 173.87790133050248 500.10878355494287 0 0 0 0 25.780534644011723 157.75991143277224 0 157.75991143277224 422.06310884529285 0 0 0 0 58.477217188456549 190.09229374161532 0 190.09229374161532 291.57800080713628 0 0 0 0 41.201020778528957 213.74138763811129 0 213.74138763811129 480.53736548235429 0 0 0 0 -4.7897872167547657 119.94745022401639 0 119.94745022401639 433.09355959653681 0 0 0 0 21.045297086232218 256.54757373996017 0 256.54757373996017 499.1052672005053 0 0 0 0 183.59459598969426 250.61386951957775 0 250.61386951957775 414.95424119182826 0 0 0 0 212.49247128404431 127.11185297656993 0 127.11185297656993 474.43277997533005 0 0 0 0 0.15566968413051907 0.81515506111421576 0 0.81515506111421576 2.1209535691277992 0 0 0 0 303.36924804130746 271.2450102459461 0 271.2450102459461 176.43512787600048 0 0 0 0 42.131111560195428 251.77918304792547 0 251.77918304792547 452.84405247209907 0 0 0 0 0.11184492382510638 -0.33800848504778003 0 -0.33800848504778003 2.8799099315431107 0 0 0 0 18.211678983145777 -70.813365485041231 0 -70.813365485041231 290.78401527452024 0 0 0 0 -29.176456026194789 -6.2111754326097071 0 -6.2111754326097071 12.784373620575025 0 0 0 0 -14.517744325126571 -10.609087381883 0 -10.609087381883 -5.176455561972034 0 0 0 0 -0.94690597083845862 1.5500813742518993 0 1.5500813742518993 0.9782013411200623 0 0 0 0 -24.447874228804523 -106.2737940625575 0 -106.2737940625575 -78.376129252908868 0 0 0 0 54.676275587900193 52.262420185403244 0 52.262420185403244 107.59514720960351 0 0 0 0 -96.606408218474371 121.53796294028507 0 121.53796294028507 95.807422490817771 0 0 0 0 -97.182905352771144 82.934750568968411 0 82.934750568968411 175.90259113012144 0 0 0 0 -112.38187808909294 57.943397234658732 0 57.943397234658732 146.46741592336912 0 0 0 0 -112.37174278201181 52.633794519583716 0 52.633794519583716 192.35520946274482 0 0 0 0 -0.66012153918848038 0.87386147595371977 0 0.87386147595371977 9.0125586560958624 0 0 0 0 -33.909349745437964 -150.16627349040618 0 -150.16627349040618 178.81458782858317 0 0 0 0 87.457408605778426 164.94529976047488 0 164.94529976047488 658.2292663835542 0 0 0 0 -24.101795404761411 3.0649429793020317 0 3.0649429793020317 6.0851475205636234 0 0 0 0 157.86429604805065 -186.09976119642306 0 -186.09976119642306 -683.86723426857498 0 0 0 0 -64.495235517830693 -1.1758507000749887 0 -1.1758507000749887 11.109156170865845 0 0 0 0 -67.24731067493903 -18.183004089331916 0 -18.183004089331916 10.779523019193221 0 0 0 0 -70.499274309346475 -18.066309536314634 0 -18.066309536314634 12.727045585756059 0 0 0 0 -53.631048840071529 -12.237463016422225 0 -12.237463016422225 5.3145184224276818 0 0 0 0 -53.177687314545523 -13.488202706758784 0 -13.488202706758784 7.7226990352464782 0 0 0 0 -83.584604099181746 -17.903535771626593 0 -17.903535771626593 -20.893086482254148 0 0 0 0 -83.652255504215276 -17.326456297424556 0 -17.326456297424556 14.231650906103823 0 0 0 0 -70.73841935659955 -20.502114989872382 0 -20.502114989872382 6.5992087687445746 0 0 0 0 -91.240406627034019 -15.07221219828898 0 -15.07221219828898 16.211614110587107 0 0 0 0 -93.622583559239928 -9.0453185967887748 0 -9.0453185967887748 10.001009129484373 0 0 0 0 -81.035358255267198 -8.7736234269823399 0 -8.7736234269823399 5.4876084280707573 0 0 0 0 -37.106366881750446 -23.747328120024122 0 -23.747328120024122 -5.9601883911964251 0 0 0 0 -29.742086031216864 -3.0911636325708969 0 -3.0911636325708969 -0.72778141223989223 0 0 0 0 -74.029110981614707 -23.14640648149134 0 -23.14640648149134 9.2921534590350348 0 0 0 0 -79.16913722137916 -44.226939501739253 0 -44.226939501739253 -12.034765030535709 0 0 0 0 -110.00903497972358 -56.95810856801927 0 -56.95810856801927 -11.628189514984712 0 0 0 0 0.083872735811770474 -0.40256942189525446 0 -0.40256942189525446 0.63303564905361398 0 0 0 0 5.9282668962062388 182.62737470094453 0 182.62737470094453 237.93454870638016 0 0 0 0 -94.003671654104949 -13.23987467090501 0 -13.23987467090501 15.229432187148632 0 0 0 0 -102.15385378840861 -25.076248523597314 0 -25.076248523597314 3.1169300309538812 0 0 0 0 -115.52041830636267 -23.342949150849563 0 -23.342949150849563 4.5870073700807552 0 0 0 0 43.861703767168159 268.80190604177187 0 268.80190604177187 -144.75204689682278 0 0 0 0 -0.089603449335840829 0.74424733526329945 0 0.74424733526329945 1.0628033077537378 0 0 0 0 -55.152808807778641 -117.29657535263868 0 -117.29657535263868 500.10196482066658 0 0 0 0 -128.74652281572796 -26.662303951506146 0 -26.662303951506146 8.0583046603769617 0 0 0 0 -11.967859902544943 335.30041985015396 0 335.30041985015396 306.80725008345871 0 0 0 0 -30.353412280153115 336.77702486410271 0 336.77702486410271 415.06395806899309 0 0 0 0 -11.392094039440055 168.67545624792683 0 168.67545624792683 410.09996361677986 0 0 0 0 -0.21775307662976473 -0.055230759922683337 0 -0.055230759922683337 1.5450686487702718 0 0 0 0 14.408451638404376 -133.79584567854863 0 -133.79584567854863 93.88603326709017 0 0 0 0 53.603106475122111 118.54249006972623 0 118.54249006972623 256.4588515267933 0 0 0 0 -54.964974485874656 -117.42180095460208 0 -117.42180095460208 498.68843133586779 0 0 0 0 -102.33107928950849 17.346415307913816 0 17.346415307913816 7.4533989718129305 0 0 0 0 -0.73120246104865538 0.95879901261912437 0 0.95879901261912437 3.0713748246965302 0 0 0 0 -137.85188946221439 17.087529026013499 0 17.087529026013499 7.5168821210536407 0 0 0 0 -47.566720952029755 5.3630960329892332 0 5.3630960329892332 2.6982805932711926 0 0 0 0 -0.64842383779964186 -0.40529188290726559 0 -0.40529188290726559 5.7118799728175951 0 0 0 0 -0.71177285486860553 -0.58252074137674903 0 -0.58252074137674903 0.74443638111444699 0 0 0 0 38.233141359040445 94.805697487528391 0 94.805697487528391 -4.4925196015437905 0 0 0 0 1.7596482764094503 8.8308195712897941 0 8.8308195712897941 51.568581271400035 0 0 0 0 10.086301563697475 30.773371579633931 0 30.773371579633931 36.33496699899888 0 0 0 0 -3.0831673544501541 -3.1873724921633766 0 -3.1873724921633766 21.916491678968669 0 0 0 0 27.15111054228764 42.136455798132602 0 42.136455798132602 44.565561237954171 0 0 0 0 -98.661969194934443 -9.8943578683274609 0 -9.8943578683274609 12.604851136499747 0 0 0 0 -0.20818231194439635 -0.17968886857063815 0 -0.17968886857063815 3.6444085057893076 0 0 0 0 18.19076084980361 28.44232556736506 0 28.44232556736506 24.860751944328683 0 0 0 0 15.04187167053243 34.207346109321406 0 34.207346109321406 38.077143647091361 0 0 0 0 11.663116467164262 30.532104664531005 0 30.532104664531005 44.743075275111551 0 0 0 0 0.81612690075274941 12.399237118159363 0 12.399237118159363 88.387942497240147 0 0 0 0 14.008822139287531 29.028079678191716 0 29.028079678191716 42.934809052669152 0 0 0 0 6.79439322442704 29.888404112254193 0 29.888404112254193 67.761412460451538 0 0 0 0 9.5947463753485245 10.528602610621689 0 10.528602610621689 66.90181044741621 0 0 0 0 -20.440111136789199 20.53424791659836 0 20.53424791659836 -4.4733999805430358 0 0 0 0 -44.879505007591646 -0.7715921206031453 0 -0.7715921206031453 64.776090724830283 0 0 0 0 2.3114065721303518 -12.707480067178494 0 -12.707480067178494 71.582723578718287 0 0 0 0 0.3098228340065563 -0.76766680170895718 0 -0.76766680170895718 0.56940448445669034 0 0 0 0 -57.728069320769876 46.272524384230337 0 46.272524384230337 145.97699820355592 0 0 0 0 -22.734903148321564 -38.577630340001633 0 -38.577630340001633 55.852758848961457 0 0 0 0 -0.09382928188163675 0.017818911298047801 0 0.017818911298047801 1.3198202324678974 0 0 0 0 130.8315985720734 118.31769529008352 0 118.31769529008352 69.703906901208029 0 0 0 0 4.1250094063766483 39.147625744244579 0 39.147625744244579 45.551525237285887 0 0 0 0 -124.45587584994723 -45.346242694686225 0 -45.346242694686225 34.115180412334666 0 0 0 0 -64.332961500774957 -11.039631867335629 0 -11.039631867335629 14.669196286090482 0 0 0 0 -112.17305759988915 -21.997377119447719 0 -21.997377119447719 74.471528782120913 0 0 0 0 -65.27712775622004 -20.765132341232857 0 -20.765132341232857 12.629341434284925 0 0 0 0 -78.266442941834484 -21.762834140101404 0 -21.762834140101404 28.288078168759967 0 0 0 0 -0.23491047783766095 -0.35286991798923495 0 -0.35286991798923495 1.8640986732108438 0 0 0 0 -84.78154085675061 34.533027958831326 0 34.533027958831326 121.09647585610583 0 0 0 0 -92.255914535837661 64.264810558526278 0 64.264810558526278 25.534778052266304 0 0 0 0 33.853498225120688 51.74740077642582 0 51.74740077642582 66.258361456262719 0 0 0 0 -39.115414606123238 92.6784543475178 0 92.6784543475178 128.24614729944824 0 0 0 0 -3.4713143757779079 3.399131998611665 0 3.399131998611665 26.617914433329133 0 0 0 0 -14.085188802597372 -16.837844493583816 0 -16.837844493583816 30.37346088301274 0 0 0 0 95.265472832011284 -17.812409960829882 0 -17.812409960829882 0.26696693808298733 0 0 0 0 23.5553984328007 -58.113072846778778 0 -58.113072846778778 154.69100565574081 0 0 0 0 25.069353871162264 -51.755161903291992 0 -51.755161903291992 43.856246098709335 0 0 0 0 36.886192845287042 13.008857812144925 0 13.008857812144925 -14.194098984483389 0 0 0 0 -19.798368675076631 -41.343711233992053 0 -41.343711233992053 -3.0677949710770918 0 0 0 0 -7.2424853478385103 -17.695972059489577 0 -17.695972059489577 10.304436027733573 0 0 0 0 -43.831469346326628 -18.835325558830846 0 -18.835325558830846 -7.2116055660508209 0 0 0 0 0.55907609461770846 -1.8296333452661599 0 -1.8296333452661599 -0.55779228137517833 0 0 0 0 -92.630251507646221 -26.827348862100735 0 -26.827348862100735 14.503018831363079 0 0 0 0 7.7546866992812511 -21.545359456249571 0 -21.545359456249571 -4.4046394631805015 0 0 0 0 -59.251412019773397 -72.388222461494479 0 -72.388222461494479 -17.730548251337495 0 0 0 0 -31.637520466735737 -24.412654057352029 0 -24.412654057352029 -28.075831906871827 0 0 0 0 0.91670033015963293 -3.7740181080161772 0 -3.7740181080161772 8.6890639716467035 0 0 0 0 50.855182030435969 -21.794713708944073 0 -21.794713708944073 -10.634295630176894 0 0 0 0 -2.802661985050662 3.801977686575583 0 3.801977686575583 5.959515795480911 0 0 0 0 -15.124617241169972 -27.975841521798429 0 -27.975841521798429 11.902393081170885 0 0 0 0 1.7627244653200735 -5.2494387311808257 0 -5.2494387311808257 7.7831555072750653 0 0 0 0 -0.046842714894545792 0.077932810140491415 0 0.077932810140491415 -0.18890019395846025 0 0 0 0 -141.44010429548473 7.6207930871200915 0 7.6207930871200915 61.80639695230002 0 0 0 0 -42.326844550905406 -20.172730358874048 0 -20.172730358874048 -19.275409824753297 0 0 0 0 -40.547666514475168 -6.1351513895479002 0 -6.1351513895479002 35.168588054683823 0 0 0 0 12.261692342854872 11.573893880288779 0 11.573893880288779 -7.2749499958054002 0 0 0 0 -4.1627012995918449 12.092700571218757 0 12.092700571218757 -10.973038809361697 0 0 0 0 -119.39388817714793 -1.0281165652397419 0 -1.0281165652397419 100.8537207707468 0 0 0 0 0.39253099855966694 -0.46433675085047676 0 -0.46433675085047676 3.6234315398281751 0 0 0 0 -13.290135617576539 -49.231137043437684 0 -49.231137043437684 -27.750575846144557 0 0 0 0 1.9559524619260671 0.84266351280257368 0 0.84266351280257368 -13.968127176865892 0 0 0 0 -34.301106689703261 -46.524679813126568 0 -46.524679813126568 -2.2140113117668534 0 0 0 0 0.78398853978509142 -1.6053850472458224 0 -1.6053850472458224 3.0474389422454458 0 0 0 0 -30.258100063505822 -35.909628049212188 0 -35.909628049212188 9.6904617216943052 0 0 0 0 -32.993122279372045 -40.289588765723011 0 -40.289588765723011 26.013577086461737 0 0 0 0 12.223723377034077 -2.1979959539612537 0 -2.1979959539612537 19.922451799773626 0 0 0 0 -23.554802521799161 -8.6979775607196643 0 -8.6979775607196643 19.65136681385502 0 0 0 0 1.3049990898668966 14.284300139928746 0 14.284300139928746 -4.7371328602066569 0 0 0 0 -2.0059410525152828 10.973358458689745 0 10.973358458689745 36.113949034727739 0 0 0 0 -1.5231017633855892 -0.057175987462283473 0 -0.057175987462283473 0.019310341619309668 0 0 0 0 -33.533501981269552 6.8491127444317499 0 6.8491127444317499 59.639243420094317 0 0 0 0 -1.3770200974056479 -24.094796664686783 0 -24.094796664686783 88.27743556639507 0 0 0 0 -58.739605243188635 52.07703248550024 0 52.07703248550024 -151.76350190325684 0 0 0 0 0.30666463809884215 -0.58640594233103283 0 -0.58640594233103283 0.93295307962392471 0 0 0 0 -66.919307530126503 -62.230457755958923 0 -62.230457755958923 13.629562924480524 0 0 0 0 -61.611783435209986 -10.762260569401406 0 -10.762260569401406 48.593002692353366 0 0 0 0 0.35068564016228265 -34.176077485275528 0 -34.176077485275528 92.183825900766351 0 0 0 0 -35.881969589303047 -202.36576512834023 0 -202.36576512834023 159.62573198175778 0 0 0 0 3.766333170407961 -27.514630149869845 0 -27.514630149869845 99.546685464708389 0 0 0 0 2.6727521944754926 -76.316792121702747 0 -76.316792121702747 -125.45625686938001 0 0 0 0 -6.4915773344871468 12.65961450584291 0 12.65961450584291 41.807244656942657 0 0 0 0 -26.995180722395617 28.4403439389921 0 28.4403439389921 49.247757546159846 0 0 0 0 -53.357917453506388 4.2662942543108784 0 4.2662942543108784 65.44174371948975 0 0 0 0 -37.271550436101961 19.706571047291618 0 19.706571047291618 42.022554500956176 0 0 0 0 -4.7522180055316312 -6.613706611183261 0 -6.613706611183261 77.440738596493247 0 0 0 0 -9.6539425472181222 33.996161890177973 0 33.996161890177973 93.955210231415549 0 0 0 0 -16.633154335251618 14.164308368645607 0 14.164308368645607 53.146588761848761 0 0 0 0 24.124733212643093 18.091347059638792 0 18.091347059638792 55.439806009992466 0 0 0 0 -3.5795974727020337 10.418522521981686 0 10.418522521981686 174.26196301541222 0 0 0 0 60.156406091975896 68.182550247884137 0 68.182550247884137 118.6394149476746 0 0 0 0 -5.8742526489091702 -45.45653558986146 0 -45.45653558986146 148.88766636540095 0 0 0 0 40.743455051992839 -50.998236466935396 0 -50.998236466935396 81.120348983410622 0 0 0 0 22.972957069269384 119.27464690880151 0 119.27464690880151 70.17038148960728 0 0 0 0 57.410761167592362 83.11634285952141 0 83.11634285952141 108.07952841249426 0 0 0 0 0.025556574920641555 0.73055042388807634 0 0.73055042388807634 1.472809900868338 0 0 0 0 118.50639532905808 -4.0237132493753052 0 -4.0237132493753052 31.733284182111731 0 0 0 0 30.819281349341114 7.1073689552367156 0 7.1073689552367156 121.98423270541116 0 0 0 0 66.474707074728855 -6.1070112034173007 0 -6.1070112034173007 4.7409763110208587 0 0 0 0 48.182270926794502 -16.495936690640519 0 -16.495936690640519 30.708549302451047 0 0 0 0 68.82773460519293 16.725997374652252 0 16.725997374652252 14.27724778396805 0 0 0 0 8.0769226026041565 34.330025295276755 0 34.330025295276755 55.690134310995887 0 0 0 0 4.0245487228497439 2.7068861862808262 0 2.7068861862808262 12.897270994674727 0 0 0 0 12.976779151714737 37.391138941012287 0 37.391138941012287 6.039035548146785 0 0 0 0 17.285480810589661 8.3671156572254404 0 8.3671156572254404 3.4361920334358729 0 0 0 0 -32.732699172670564 1.3339910562735895 0 1.3339910562735895 7.6981832185410894 0 0 0 0 -7.9650262522281139 14.183786016114027 0 14.183786016114027 -19.938551340550475 0 0 0 0 -17.506721873876018 25.45150243432272 0 25.45150243432272 -9.9528031386471412 0 0 0 0 91.081916159111415 -25.176694020671277 0 -25.176694020671277 -12.030288434725662 0 0 0 0 54.977249535118972 -17.773436104124812 0 -17.773436104124812 0.83715501444794427 0 0 0 0 41.990180425114147 -30.604380628999479 0 -30.604380628999479 -2.3690949950578215 0 0 0 0 -0.5776195216670601 -11.489104892754767 0 -11.489104892754767 5.3222902706938839 0 0 0 0 41.245695143694114 8.5259852132583092 0 8.5259852132583092 -46.269915579805456 0 0 0 0 42.75989967445679 -4.4171463120392218 0 -4.4171463120392218 62.079916906869585 0 0 0 0 78.394228625063647 69.30085107819832 0 69.30085107819832 -7.7014858835091218 0 0 0 0 -118.13823287435031 -7.1952265779527806 0 -7.1952265779527806 -33.771952191721994 0 0 0 0 -27.982297185256982 -3.2855456292654708 0 -3.2855456292654708 -33.655107423321169 0 0 0 0 -95.017543996143587 81.131278552571075 0 81.131278552571075 -61.286676451974927 0 0 0 0 -87.72571639476223 31.406494036087679 0 31.406494036087679 -8.4734454915269453 0 0 0 0 -86.139310678459651 106.56693017098405 0 106.56693017098405 -30.647716928462614 0 0 0 0 -1.3061046539303902 16.638460352527545 0 16.638460352527545 -3.5015821019642317 0 0 0 0 -1.1689154388126326 10.989566692327571 0 10.989566692327571 -144.37672419738738 0 0 0 0 -19.091897116817705 45.590321962332837 0 45.590321962332837 6.7775088506641623 0 0 0 0 -21.23538134616166 54.537460231706063 0 54.537460231706063 15.38270302201272 0 0 0 0 -45.464942179027503 20.637717189615614 0 20.637717189615614 26.360586055663589 0 0 0 0 4.8085656061293776 23.538397061181968 0 23.538397061181968 26.024130129033892 0 0 0 0 5.1571219938935542 42.405298297068839 0 42.405298297068839 19.249491399716135 0 0 0 0 9.0359464861584797 57.869946693177553 0 57.869946693177553 8.4878861555525873 0 0 0 0 11.291579483351882 76.24623468628306 0 76.24623468628306 -34.169521025791255 0 0 0 0 47.156081738026728 35.280096557122306 0 35.280096557122306 2.2653731773007166 0 0 0 0 -1.2618755547930967 -1.7018256645810723 0 -1.7018256645810723 2.2129020645198896 0 0 0 0 -6.3679813584394651 -4.0707772480818676 0 -4.0707772480818676 18.603415136295553 0 0 0 0 -4.0054930933267769 12.927551814794242 0 12.927551814794242 25.012444287187918 0 0 0 0 -1.6387122725466083 2.6012879421211395 0 2.6012879421211395 0.31476621776041902 0 0 0 0 4.7415222933020686 1.2418709718876926 0 1.2418709718876926 14.696334091697281 0 0 0 0 2.459283477272038 6.4263006921464694 0 6.4263006921464694 10.655847467211061 0 0 0 0 0.11234762474295046 -0.57571150924918868 0 -0.57571150924918868 0.61660148280363503 0 0 0 0 -14.931593580455001 -3.4414744427667756 0 -3.4414744427667756 33.104645753215664 0 0 0 0 -37.259374884905867 -16.784049975134621 0 -16.784049975134621 8.2844935358007206 0 0 0 0 -1.3797123004433915 0.063604329054863129 0 0.063604329054863129 1.124621690797678 0 0 0 0 -26.973352492534445 0.034486287928302772 0 0.034486287928302772 -147.67662067704987 0 0 0 0 -77.389868193515213 -0.7853357859530945 0 -0.7853357859530945 4.0182462431002932 0 0 0 0 -43.907229712368235 51.143501311677937 0 51.143501311677937 -23.232475119764786 0 0 0 0 -37.195209771055715 51.823956776939667 0 51.823956776939667 -48.905387023911317 0 0 0 0 -17.081164775787556 72.736810764961774 0 72.736810764961774 -49.316495098376436 0 0 0 0 0.52586437518271634 0.22524339546988337 0 0.22524339546988337 0.070384401974834532 0 0 0 0 -6.9242320173498229 -24.811441181639566 0 -24.811441181639566 43.197905397438262 0 0 0 0 34.750983237566288 38.525835303472377 0 38.525835303472377 -6.0077474308791352 0 0 0 0 -3.3728349230999015 56.885082980012839 0 56.885082980012839 -64.354781291329346 0 0 0 0 -20.154397739584965 30.938914641002157 0 30.938914641002157 -11.848878159515152 0 0 0 0 -8.2521311676941878 57.676019804361204 0 57.676019804361204 -31.771242433107545 0 0 0 0 -17.086020964262616 54.373639141371314 0 54.373639141371314 -22.853632148605811 0 0 0 0 -42.59630803775849 40.333947920029459 0 40.333947920029459 0.75818081192483078 0 0 0 0 -13.213956581422508 58.471821799083045 0 58.471821799083045 -29.329004176866874 0 0 0 0 -18.08050777794719 47.555054738433682 0 47.555054738433682 -8.6246075679118803 0 0 0 0 -12.26678227125376 28.09489000197209 0 28.09489000197209 4.3434414336243208 0 0 0 0 -17.287700744761082 53.207108821305155 0 53.207108821305155 -1.2809749880298114 0 0 0 0 -15.637170004691143 36.81332720399314 0 36.81332720399314 31.411670067705927 0 0 0 0 -15.584072290317266 47.268900654999698 0 47.268900654999698 15.353728900718124 0 0 0 0 -11.028727254122828 31.018712117192081 0 31.018712117192081 9.4924990565459666 0 0 0 0 -22.344274144567066 28.523136536699894 0 28.523136536699894 29.681838610273189 0 0 0 0 -19.557464889226594 40.017692640092719 0 40.017692640092719 51.751582360707118 0 0 0 0 11.470332474228201 28.608030328811765 0 28.608030328811765 28.411559827467499 0 0 0 0 -23.040424569381003 34.686441606064363 0 34.686441606064363 -10.62463369091347 0 0 0 0 -26.147236577580429 36.64499486136242 0 36.64499486136242 16.248568543471265 0 0 0 0 -23.836350378241036 36.383895980077796 0 36.383895980077796 15.395563698690239 0 0 0 0 -28.851649710220954 14.011404713904085 0 14.011404713904085 16.244170001465136 0 0 0 0 -23.218206804525607 22.479207745972417 0 22.479207745972417 -13.387185950806952 0 0 0 0 -13.598478865516 7.1714951036721004 0 7.1714951036721004 7.1597658657356078 0 0 0 0 1.3326963078954104 0.80243488409247377 0 0.80243488409247377 0.29185233933629995 0 0 0 0 -2.1786548688103267 -6.2554309379329425 0 -6.2554309379329425 27.311149198992098 0 0 0 0 -23.66623061172595 32.408767923186133 0 32.408767923186133 -15.313093916440607 0 0 0 0 -30.62925157743166 16.158911554576662 0 16.158911554576662 -24.19890652513368 0 0 0 0 -1.0742884433714153 9.5975107179647239 0 9.5975107179647239 19.900266017921695 0 0 0 0 4.2143896313233995 2.0252964460987641 0 2.0252964460987641 3.0959155404925696 0 0 0 0 -5.8895464620860594 -0.24807688152213814 0 -0.24807688152213814 19.395944435960217 0 0 0 0 9.3308119439478787 5.3062559344616602 0 5.3062559344616602 -4.7716894836821666 0 0 0 0 -0.22388323432625867 2.7615263420078051 0 2.7615263420078051 0.030057467962391726 0 0 0 0 5.7361435642573042 -0.22435986951268205 0 -0.22435986951268205 -2.5300655067439948 0 0 0 0 -1.533939751031653 5.0423059396480312 0 5.0423059396480312 13.133818350686852 0 0 0 0 -0.82397075277003751 1.4045830398054022 0 1.4045830398054022 6.3844366283883573 0 0 0 0 -0.8629516431549269 2.310085504544702 0 2.310085504544702 1.3753409307474413 0 0 0 0 39.425971892624148 10.278850706883532 0 10.278850706883532 9.61867926040577 0 0 0 0 12.891311019381234 13.931260841143626 0 13.931260841143626 16.319843419543759 0 0 0 0 0.36222856751918542 1.0374579978711513 0 1.0374579978711513 0.28346403546465382 0 0 0 0 62.239989870528149 -19.397827481668628 0 -19.397827481668628 -0.52312394565888098 0 0 0 0 -15.607504798045738 6.9244642219227899 0 6.9244642219227899 25.370522008171633 0 0 0 0 1.1617124288166143 2.8686819730382993 0 2.8686819730382993 0.55455497389624342 0 0 0 0 -0.56471821475201978 3.0586654082467248 0 3.0586654082467248 8.6852964026128205 0 0 0 0 -2.8827631598556138 0.071958135105205656 0 0.071958135105205656 8.276142563787289 0 0 0 0 -0.094546658265799222 0.55742800021738148 0 0.55742800021738148 6.9306501502741327 0 0 0 0 4.4368489534495552 -1.2896228272520602 0 -1.2896228272520602 10.244493680572305 0 0 0 0 -8.4461728807473264 10.740909952489346 0 10.740909952489346 3.3507798383534464 0 0 0 0 1.4884290566227341 1.4169021094767977 0 1.4169021094767977 2.4119096724043487 0 0 0 0 -13.544984822977767 6.9144719626219739 0 6.9144719626219739 8.0439984829517925 0 0 0 0 -2.4834456480141398 -1.8110825598641895 0 -1.8110825598641895 11.573743919680965 0 0 0 0 -0.59674330456756763 3.3961567617749324 0 3.3961567617749324 10.890417724533108 0 0 0 0 -0.23167858832446742 0.79775119766296232 0 0.79775119766296232 8.8293593666246579 0 0 0 0 -5.7518671192597921 0.038715163753295201 0 0.038715163753295201 7.6208184991755843 0 0 0 0 1.0406631502326036 6.6537655072029338 0 6.6537655072029338 5.0412983060596162 0 0 0 0 -0.37807517111627797 3.2755380505609994 0 3.2755380505609994 6.5329462776843883 0 0 0 0 -3.2821253023543435 0.036065713516599374 0 0.036065713516599374 2.239328900043037 0 0 0 0 -4.6732188809885855 1.8231309266220705 0 1.8231309266220705 12.355591858255139 0 0 0 0 -3.6650813077563384 1.1293733987977248 0 1.1293733987977248 13.434176784779993 0 0 0 0 -2.7889536404086925 1.6491805278764282 0 1.6491805278764282 8.4521761066697216 0 0 0 0 -4.9328777897067084 3.5653993102778259 0 3.5653993102778259 9.1234906676877472 0 0 0 0 -10.300358066716854 6.0518936231133011 0 6.0518936231133011 18.931621771154823 0 0 0 0 -8.1103920708010779 1.1889228056978336 0 1.1889228056978336 2.5646536987956727 0 0 0 0 -6.1924109361987121 3.4545473043800712 0 3.4545473043800712 12.615477007047957 0 0 0 0 -8.0446607249466524 7.159768684998653 0 7.159768684998653 7.410705677808437 0 0 0 0 -8.1027828209139443 7.0349003956744127 0 7.0349003956744127 10.16763021419456 0 0 0 0 -32.892579662825256 8.4837466591880002 0 8.4837466591880002 13.550025663835186 0 0 0 0 -13.938360753424149 -0.61979118554700108 0 -0.61979118554700108 16.157568423172052 0 0 0 0 -15.304304299935666 7.1765676455688663 0 7.1765676455688663 14.705514609428064 0 0 0 0 -37.410936583310288 17.883895898225205 0 17.883895898225205 21.044679576090857 0 0 0 0 -33.294155468739518 3.567279441258961 0 3.567279441258961 35.446303770887425 0 0 0 0 -44.359010594941992 -2.8921759644595113 0 -2.8921759644595113 31.676184653222663 0 0 0 0 -26.746964600219712 -14.589605100347853 0 -14.589605100347853 9.7928088005637619 0 0 0 0 -36.962202816594754 -16.895372196543576 0 -16.895372196543576 39.076253278469267 0 0 0 0 -6.7256015222587848 5.4550379378042635 0 5.4550379378042635 14.933273355577626 0 0 0 0 -7.4420542383395514 -1.6528722536068017 0 -1.6528722536068017 15.969454740350443 0 0 0 0 -96.77962389112156 -15.215998054205102 0 -15.215998054205102 146.08328949743373 0 0 0 0 5.4125104102430583 0.52327073325932361 0 0.52327073325932361 32.016057563472714 0 0 0 0 -42.807353738725894 -24.482534833717409 0 -24.482534833717409 28.110376250569061 0 0 0 0 -4.5044873040255924 -0.014195611126863739 0 -0.014195611126863739 -0.17191640048837664 0 0 0 0 -3.44497824963819 15.827318113284946 0 15.827318113284946 24.903609764861358 0 0 0 0 0.38580322484914414 -1.0122011173214687 0 -1.0122011173214687 1.7600500354905719 0 0 0 0 -29.563783580115029 50.741506515843867 0 50.741506515843867 74.261087605162174 0 0 0 0 -16.382358385103018 35.150063622153084 0 35.150063622153084 4.9341237519174683 0 0 0 0 66.047471556571168 -53.344061839534334 0 -53.344061839534334 -28.636479312137453 0 0 0 0 50.979721691635064 -54.980747000211522 0 -54.980747000211522 -19.661219114727373 0 0 0 0 0.42535537506530974 -1.4125607682226318 0 -1.4125607682226318 5.968403305404415 0 0 0 0 3.3919449938337038 4.3543358373981391 0 4.3543358373981391 10.225196900801166 0 0 0 0 -2.5340924006645764 1.3690203405158172 0 1.3690203405158172 9.139950744158341 0 0 0 0 2.0995473132200004 3.1028419417561963 0 3.1028419417561963 9.3551034674010225 0 0 0 0 -1.5935308409131062 -1.675732886390723 0 -1.675732886390723 10.041978267109002 0 0 0 0 -3.9173607448925196 0.0049650758106736248 0 0.0049650758106736248 11.543932506679994 0 0 0 0 153.3522808464445 22.837511730018377 0 22.837511730018377 -88.64760447685444 0 0 0 0 -98.607613271378256 -27.983094943255935 0 -27.983094943255935 121.48038312353856 0 0 0 0 -5.8510932347834341 0.59014115776517428 0 0.59014115776517428 13.028649624139234 0 0 0 0 -2.7852874200987117 0.31887965990972589 0 0.31887965990972589 13.019652253338791 0 0 0 0 -2.5243941158397547 0.99779186254636443 0 0.99779186254636443 11.697297357884054 0 0 0 0 -2.6994744563680797 1.7038351347018761 0 1.7038351347018761 11.850751959621675 0 0 0 0 -3.6565253071551069 2.0502352663534111 0 2.0502352663534111 13.419947962718652 0 0 0 0 -5.0892250138489175 -1.9490673218324446 0 -1.9490673218324446 13.412166143143622 0 0 0 0 -3.4684630689151845 -1.638362105334636 0 -1.638362105334636 12.636844079020193 0 0 0 0 2.4897089134803991 -2.9078662748352144 0 -2.9078662748352144 8.3656293197182094 0 0 0 0 -3.6249272090352207 -2.3475855263117182 0 -2.3475855263117182 14.145794109752387 0 0 0 0 -0.19881118164454392 -4.596632548404159 0 -4.596632548404159 13.685834519013952 0 0 0 0 -2.3955405047697695 -2.3743770136979947 0 -2.3743770136979947 12.206128470992553 0 0 0 0 -2.1394064606252243 -1.3565699416526513 0 -1.3565699416526513 11.630422832703516 0 0 0 0 -1.4704586419444339 1.6167421438937524 0 1.6167421438937524 2.0933760408021698 0 0 0 0 -1.6966870631946853 0.44034706030667792 0 0.44034706030667792 1.4922059411408437 0 0 0 0 -0.84184895791884173 1.6496092953948391 0 1.6496092953948391 7.7636594357336435 0 0 0 0 -1.3022519198487714 -0.29519437564908912 0 -0.29519437564908912 3.5336849488921871 0 0 0 0 -1.181165299888761 0.79649623041768791 0 0.79649623041768791 6.6519029382970984 0 0 0 0 -1.253734485873931 0.50135113749615812 0 0.50135113749615812 8.0652430218342488 0 0 0 0 -3.2192424952181113 1.1478296021741698 0 1.1478296021741698 8.5528916151961312 0 0 0 0 -2.0416211876438695 2.8999277343818903 0 2.8999277343818903 7.3502432532022794 0 0 0 0 -2.3069475926758805 2.7927407630990118 0 2.7927407630990118 3.2287535361540201 0 0 0 0 -1.4553823317745582 1.6492512050699588 0 1.6492512050699588 7.8450600392361594 0 0 0 0 -1.0916707390750133 0.66025614503541874 0 0.66025614503541874 11.809995059974199 0 0 0 0 -1.868211660317914 -0.77399037342216204 0 -0.77399037342216204 1.0515014043674853 0 0 0 0 -3.1054630940611787 -0.10042287848887099 0 -0.10042287848887099 12.568742927986932 0 0 0 0 -3.6151539603064933 1.956414429801498 0 1.956414429801498 7.3373861986292468 0 0 0 0 -2.1656043556071727 2.7553258400120644 0 2.7553258400120644 4.912481050065594 0 0 0 0 -1.0410005963756532 0.6335583097215931 0 0.6335583097215931 7.9989483265198942 0 0 0 0 -2.027237917623097 3.0044774939815397 0 3.0044774939815397 11.222826503557371 0 0 0 0 -2.1788684546598915 1.6227846082101678 0 1.6227846082101678 10.579721507650902 0 0 0 0 -2.3392234688420785 1.8837348253509845 0 1.8837348253509845 12.768173364758695 0 0 0 0 -2.5247724500507047 1.9919707917852065 0 1.9919707917852065 10.1043074497411 0 0 0 0 -1.1610950097448836 1.7943690448541929 0 1.7943690448541929 10.12125547787582 0 0 0 0 -2.1532567265980447 2.8464893265359024 0 2.8464893265359024 11.087691906614054 0 0 0 0 -1.3366905300101166 2.5448951635439698 0 2.5448951635439698 10.988179394673352 0 0 0 0 -1.9696675682246223 2.7476729528398209 0 2.7476729528398209 11.543064816622064 0 0 0 0 -1.6817576008646711 2.4329142496408167 0 2.4329142496408167 12.439374037989182 0 0 0 0 -0.74011594906136224 1.3081405093062131 0 1.3081405093062131 12.620740826230758 0 0 0 0 -1.7366730485734934 1.9635966617133818 0 1.9635966617133818 9.105865108074795 0 0 0 0 -1.9035001611489406 3.1305913997721291 0 3.1305913997721291 10.900083041191465 0 0 0 0 -3.1225117860103637 1.7138363335134272 0 1.7138363335134272 11.385369386534876 0 0 0 0 -2.169771990040033 2.0972961656234475 0 2.0972961656234475 9.8718329524672299 0 0 0 0 -3.4143660815632302 -0.053139251860557124 0 -0.053139251860557124 8.8307012605096133 0 0 0 0 -2.462734646066906 -2.2627762984120636 0 -2.2627762984120636 2.5116146014279366 0 0 0 0 -5.6758423880207829 -3.1759751824083651 0 -3.1759751824083651 14.174664151909383 0 0 0 0 -2.581528606804568 0.45855831091103028 0 0.45855831091103028 9.4467613073738903 0 0 0 0 -1.4018660771264422 1.5101570019050996 0 1.5101570019050996 10.894943940308622 0 0 0 0 -1.5545308478712059 1.7306995410162926 0 1.7306995410162926 13.614421492969996 0 0 0 0 -2.8719301033656848 0.38160168224749214 0 0.38160168224749214 13.676511432746338 0 0 0 0 -1.4060114880719539 1.192328984667256 0 1.192328984667256 13.683131981067163 0 0 0 0 -1.0258018083649887 2.0372152126733454 0 2.0372152126733454 15.236955973763543 0 0 0 0 -2.0341613695172782 2.4098389366590709 0 2.4098389366590709 16.416907017031917 0 0 0 0 -4.9505154731962193 -0.72311779620213201 0 -0.72311779620213201 19.853232145949733 0 0 0 0 -2.6716584322869039 1.3492899164884875 0 1.3492899164884875 16.301183662104449 0 0 0 0 -0.41386000575089649 1.0583347796396292 0 1.0583347796396292 5.901040577919197 0 0 0 0 -3.6853656315273611 0.78257027606332485 0 0.78257027606332485 5.9532052163367553 0 0 0 0 -37.306061148372009 -4.4745904474930285 0 -4.4745904474930285 36.690876023203941 0 0 0 0 0.019818573278273632 0.4968882673865842 0 0.4968882673865842 1.223318075415966 0 0 0 0 -2.0385078970970114 1.9622003237425432 0 1.9622003237425432 3.1894067890882756 0 0 0 0 6.5515746155647321 -2.979706408259517 0 -2.979706408259517 19.419640989478921 0 0 0 0 5.9615398478861721 -3.7064505101734539 0 -3.7064505101734539 14.086450956850967 0 0 0 0 6.5236224013080175 -28.550993057628148 0 -28.550993057628148 50.27938812908269 0 0 0 0 -3.5033821577314228 1.0799552708926967 0 1.0799552708926967 13.769453632910881 0 0 0 0 -7.2745398666884853 3.7453767210372462 0 3.7453767210372462 10.075984624760167 0 0 0 0 -3.5302622179951868 0.73071046016593755 0 0.73071046016593755 11.529499851966648 0 0 0 0 -1.1418785104564986 0.73629113909930766 0 0.73629113909930766 15.832643778059719 0 0 0 0 -0.99610066042390033 5.6250768469491774 0 5.6250768469491774 3.3223560147755009 0 0 0 0 -7.8642849461831474 9.1675555638394144 0 9.1675555638394144 5.987994981310294 0 0 0 0 -1.4228693216388137 2.2932834754737996 0 2.2932834754737996 15.21255296340405 0 0 0 0 0.076078642515795991 24.288450748576906 0 24.288450748576906 -12.800054890914907 0 0 0 0 -0.77869082597243144 5.0788834401886547 0 5.0788834401886547 4.1402649139793475 0 0 0 0 -7.2439051000400241 0.57694766968779732 0 0.57694766968779732 20.581036415211202 0 0 0 0 -18.605518081353893 17.785129587880874 0 17.785129587880874 38.438578997032891 0 0 0 0 -0.48847725672044895 0.60774902705725253 0 0.60774902705725253 13.407189274999837 0 0 0 0 -0.67805176657724076 2.0893257939251271 0 2.0893257939251271 10.963434155910363 0 0 0 0 0.045587723611149045 2.9319188677675356 0 2.9319188677675356 12.707291544576947 0 0 0 0 -0.17684960437100017 1.7272919993993128 0 1.7272919993993128 11.101062333539858 0 0 0 0 -1.669534441820872 2.1601823423079622 0 2.1601823423079622 11.04791405713263 0 0 0 0 -0.99304071494640311 1.0016469057263748 0 1.0016469057263748 8.5480773853951177 0 0 0 0 -0.32165322203424296 1.8195070973856673 0 1.8195070973856673 9.3358782637005788 0 0 0 0 -1.1548188287358485 0.40774874079193069 0 0.40774874079193069 9.4130881880682864 0 0 0 0 -3.9054737828881798 4.6900425561161683 0 4.6900425561161683 5.0536279982361521 0 0 0 0 -3.2064880871822972 0.11979695065656415 0 0.11979695065656415 33.169770397422326 0 0 0 0 8.2487005878129853 -8.6486030317000768 0 -8.6486030317000768 11.768573437913801 0 0 0 0 0.6375928824170618 -3.4228670163111019 0 -3.4228670163111019 8.3299711472682247 0 0 0 0 -0.03885650442328771 -0.11479294106294802 0 -0.11479294106294802 -0.017589251340135448 0 0 0 0 -2.2436198227495261 -7.7478898678755286 0 -7.7478898678755286 14.924939771553909 0 0 0 0 -8.5928143961892616 -0.94302119170333754 0 -0.94302119170333754 12.230167619069107 0 0 0 0 -0.48376304313704088 1.0722834046763294 0 1.0722834046763294 9.8670883160979415 0 0 0 0 -1.9309306511861095 -9.6168492645638253 0 -9.6168492645638253 -35.23913979165809 0 0 0 0 33.762004191087428 36.778843110052549 0 36.778843110052549 10.173898699573328 0 0 0 0 -22.083478359368797 31.302759652206078 0 31.302759652206078 57.60304838378579 0 0 0 0 10.322244739074804 -21.347718821283252 0 -21.347718821283252 45.11471908958265 0 0 0 0 -0.62329608506655454 -0.11856816365304468 0 -0.11856816365304468 2.4543737568868984 0 0 0 0 32.470376205294173 19.388135310018697 0 19.388135310018697 -58.13374849250431 0 0 0 0 -2.4005511792966949 7.7820707889268306 0 7.7820707889268306 -25.222243053621241 0 0 0 0 3.4374044147303096 -1.7885788032926939 0 -1.7885788032926939 2.2553418061779666 0 0 0 0 -20.090237793443812 4.9477574547327094 0 4.9477574547327094 0.33505927980331762 0 0 0 0 -9.4576748835823921 5.8347046876770037 0 5.8347046876770037 24.329175751307048 0 0 0 0 -1.6324010811770648 10.479045984466211 0 10.479045984466211 12.08367205085051 0 0 0 0 0.32097279728009198 21.505427880255411 0 21.505427880255411 5.854963268564461 0 0 0 0 -0.045485994169422672 0.2111478724383602 0 0.2111478724383602 0.59678528343132342 0 0 0 0 3.2202622120849824 38.519304742506847 0 38.519304742506847 -19.228341805148375 0 0 0 0 0.0398901239074263 16.423813148679983 0 16.423813148679983 24.049463016057416 0 0 0 0 -0.0079118049658081155 2.9132873697953983 0 2.9132873697953983 17.324507086615995 0 0 0 0 -8.2910303058859078 0.28828046482749414 0 0.28828046482749414 16.838497051297963 0 0 0 0 -5.0873503901882025 -1.1251851158576756 0 -1.1251851158576756 16.474429116903138 0 0 0 0 -6.4073201459367697 -0.79948803649517686 0 -0.79948803649517686 4.0532582632513368 0 0 0 0 1.1352839309838343 2.7667427273217982 0 2.7667427273217982 5.7200176609167102 0 0 0 0 0.93369088430109115 -1.4578446290844909 0 -1.4578446290844909 9.3256939760467503 0 0 0 0 1.8291858142510282 6.4230224131670184 0 6.4230224131670184 7.7230202042210294 0 0 0 0 0.010880900040463883 3.5687884355820643 0 3.5687884355820643 3.9704250255063016 0 0 0 0 1.9011599463699476 5.5103945962691796 0 5.5103945962691796 -5.5128355473325428 0 0 0 0 -0.96172769067912101 17.439786796052431 0 17.439786796052431 14.389330679567138 0 0 0 0 -2.5844437328890528 1.1716393799997604 0 1.1716393799997604 24.830423823058482 0 0 0 0 -2.7968631558620247 3.6319567119262501 0 3.6319567119262501 10.496486156836909 0 0 0 0 -0.01159280110545609 4.5859401260540835 0 4.5859401260540835 8.4429754026730279 0 0 0 0 -0.021383747305405612 0.078298511034095242 0 0.078298511034095242 0.26713138414610071 0 0 0 0 1.5322771503416428 2.3905593168492487 0 2.3905593168492487 5.652797944858321 0 0 0 0 -0.051397837639385643 -1.2220822901155375 0 -1.2220822901155375 13.433537777855236 0 0 0 0 -0.00051603667963179343 -0.70776653685008006 0 -0.70776653685008006 1.4954042373938137 0 0 0 0 -0.011981687041477729 1.0762519866784714 0 1.0762519866784714 3.882894521471826 0 0 0 0 0.051947957689563388 0.038866790788215866 0 0.038866790788215866 0.019199651047060229 0 0 0 0 -0.30947260741390714 1.9991968029362397 0 1.9991968029362397 5.6996807583764166 0 0 0 0 -0.2775460566589476 -0.65906022122453578 0 -0.65906022122453578 3.8526594658469548 0 0 0 0 0.10669469553972075 1.2643407201136565 0 1.2643407201136565 3.8443509148982216 0 0 0 0 0.029270303723340305 0.38429882098979817 0 0.38429882098979817 1.3106910653568455 0 0 0 0 2.5492739012507286 -2.4133708942536032 0 -2.4133708942536032 4.8091308249331632 0 0 0 0 2.3624222278993408 -5.5257898984100393 0 -5.5257898984100393 14.346472254201217 0 0 0 0 -0.76342740266086295 1.3197777229812822 0 1.3197777229812822 1.5502051566755348 0 0 0 0 10.131691001449429 10.207360766595684 0 10.207360766595684 7.394527741605998 0 0 0 0 -0.53444762907495402 2.0396983745740727 0 2.0396983745740727 1.1892272219793085 0 0 0 0 0.15992888570907104 0.24498008350835843 0 0.24498008350835843 0.13376919591232195 0 0 0 0 -10.680134305753782 8.7358648061199347 0 8.7358648061199347 15.25890803313996 0 0 0 0 -0.95647177000367378 0.94469883223428042 0 0.94469883223428042 8.5470216413887101 0 0 0 0 -0.37915274768199558 0.65244051492810762 0 0.65244051492810762 8.4160888672621255 0 0 0 0 -1.5226114627756715 1.6888406554471658 0 1.6888406554471658 7.1631232375261789 0 0 0 0 -0.092914665020773279 1.2944742274119347 0 1.2944742274119347 3.3868676647289675 0 0 0 0 -0.82125489249604411 0.70928936563102951 0 0.70928936563102951 1.7076138138652537 0 0 0 0 -1.1371450618192398 1.8372617161271592 0 1.8372617161271592 3.7012752003174683 0 0 0 0 -0.060437046445450449 1.13421037655894 0 1.13421037655894 5.1385450446105096 0 0 0 0 -0.9006141131271761 1.689127708502383 0 1.689127708502383 5.6884476660488872 0 0 0 0 -0.39653099013423798 1.5787771093164338 0 1.5787771093164338 4.5639319407841867 0 0 0 0 -1.0381312007825727 1.9387385893696774 0 1.9387385893696774 5.2557921154029827 0 0 0 0 -0.26998022491788731 0.32754370528573418 0 0.32754370528573418 6.5699004498774229 0 0 0 0 -0.73140927849383353 0.031430978313849778 0 0.031430978313849778 2.9423644920438257 0 0 0 0 0.54497968574788302 0.21889837542698842 0 0.21889837542698842 6.1143621999417519 0 0 0 0 -1.1296873928385445 1.282906634619188 0 1.282906634619188 2.3818627201881526 0 0 0 0 -0.20567938476881409 1.9844557227033874 0 1.9844557227033874 2.8502081168376208 0 0 0 0 2.3886012455127457 -2.8533046174379706 0 -2.8533046174379706 9.4539243139124665 0 0 0 0 -0.592744285561011 0.099379384668978332 0 0.099379384668978332 2.187101615943444 0 0 0 0 -0.52093879829362777 3.2385150078212064 0 3.2385150078212064 -2.948319176412042 0 0 0 0 -0.86952391170416377 -1.3133865542495187 0 -1.3133865542495187 15.866668045568076 0 0 0 0 -1.0797143983707731 1.1100562079536811 0 1.1100562079536811 6.9755146000603006 0 0 0 0 1.1725648860073079 -2.5025892498642861 0 -2.5025892498642861 8.017159988653475 0 0 0 0 -0.26315001292499574 -2.4837810321473626 0 -2.4837810321473626 13.705524433524261 0 0 0 0 1.9232422816066617 -5.0226115631442099 0 -5.0226115631442099 14.939303563798603 0 0 0 0 0.082458875452211422 -0.38640981134265484 0 -0.38640981134265484 6.5081742051160703 0 0 0 0 0.43828917920758315 -0.15371243373397192 0 -0.15371243373397192 5.7192864920471038 0 0 0 0 0.053870196633273533 0.33509793481820793 0 0.33509793481820793 1.0913565923673723 0 0 0 0 -0.038872666931183061 -2.0991633913554324 0 -2.0991633913554324 2.9888649822896696 0 0 0 0 -1.1831258808722536 1.8743130254852076 0 1.8743130254852076 10.858591052790871 0 0 0 0 0.0042591778010034149 -0.70260357842198573 0 -0.70260357842198573 5.9134984848569729 0 0 0 0 -0.19171503123856998 1.5737391933716935 0 1.5737391933716935 6.2833679694158491 0 0 0 0 0.059349350225403649 0.73074972776797864 0 0.73074972776797864 5.067061826343533 0 0 0 0 -5.7258112172162328 15.601983484568336 0 15.601983484568336 -26.275102590116603 0 0 0 0 -16.528632068526449 17.289226001862517 0 17.289226001862517 -4.9062540899431042 0 0 0 0 -6.2744673582340269 14.000719470032891 0 14.000719470032891 -17.971365389648781 0 0 0 0 0.0043086785469326934 22.764863236288875 0 22.764863236288875 -8.4626447193550121 0 0 0 0 -10.487960333346805 17.213928937879245 0 17.213928937879245 -4.9124563502057867 0 0 0 0 -11.42909874552555 14.384522188490337 0 14.384522188490337 -3.9454446457111771 0 0 0 0 -15.465940283882368 20.241765486637632 0 20.241765486637632 8.7858718493607739 0 0 0 0 -12.14341829803196 11.269352884793079 0 11.269352884793079 -3.5511664605910482 0 0 0 0 -0.29604558319737551 1.2832672615571958 0 1.2832672615571958 1.6982231483806771 0 0 0 0 -2.0218937023516901 8.0443360309254786 0 8.0443360309254786 -25.007543379919298 0 0 0 0 -10.52315998250522 21.875513840654094 0 21.875513840654094 -17.942919210805485 0 0 0 0 -0.57042832533931231 1.086131266870666 0 1.086131266870666 1.7637610573433093 0 0 0 0 -2.2950732886137573 0.67277784843236077 0 0.67277784843236077 2.5358882359596464 0 0 0 0 -1.5347385105853668 -0.66749950970648797 0 -0.66749950970648797 3.5957861884126032 0 0 0 0 -1.3539021939244531 1.3021898301443002 0 1.3021898301443002 2.3809812127965415 0 0 0 0 -2.1359892434058985 0.54858957012902465 0 0.54858957012902465 1.4790343669465074 0 0 0 0 -4.581912605905714 1.9397273029289863 0 1.9397273029289863 2.3562080634674203 0 0 0 0 0.032622382153440058 -0.48123494079341178 0 -0.48123494079341178 2.0496032375650799 0 0 0 0 0.65196542197589746 -1.211803511351718 0 -1.211803511351718 5.7817276715286425 0 0 0 0 0.2718537415583282 0.38726699630069561 0 0.38726699630069561 3.700823307812243 0 0 0 0 -23.675507167425394 25.75203093885284 0 25.75203093885284 -21.365145440867309 0 0 0 0 -7.919930082689703 18.797021546808537 0 18.797021546808537 -18.910820389226501 0 0 0 0 -0.1335141262101161 -0.081263592445921518 0 -0.081263592445921518 0.50302846108053956 0 0 0 0 -0.283766759006641 0.50798119501908978 0 0.50798119501908978 0.32296271745026672 0 0 0 0 -0.015803381289100051 18.680436995662603 0 18.680436995662603 -25.313951953084143 0 0 0 0 -7.0553241256666235 13.265740116555094 0 13.265740116555094 -24.741443217300912 0 0 0 0 -0.030992567580695095 0.026656243544330493 0 0.026656243544330493 0.0071484081418553558 0 0 0 0 0.91453051067221924 4.0187933718834756 0 4.0187933718834756 14.071324335805912 0 0 0 0 0.07461271027878702 4.8749750217148637 0 4.8749750217148637 13.31677563831181 0 0 0 0 4.6197799818560572 12.08693175888402 0 12.08693175888402 19.429833657861309 0 0 0 0 4.6505123438486944 6.1873992488763179 0 6.1873992488763179 6.6485096199082818 0 0 0 0 2.4193861495035502 6.6800618060606212 0 6.6800618060606212 11.781956342638296 0 0 0 0 5.1325746234495089 10.224682906234193 0 10.224682906234193 7.6839261955938127 0 0 0 0 5.3083317838112904 11.745686965450659 0 11.745686965450659 12.99017644116384 0 0 0 0 2.7341437527835097 10.315146396043929 0 10.315146396043929 8.2304261131575913 0 0 0 0 0.0026618541205901836 0.024788562678976334 0 0.024788562678976334 0.066369235584438968 0 0 0 0 -0.0025180886813325103 -0.063762375840269669 0 -0.063762375840269669 0.011521855289174709 0 0 0 0 16.145720539852288 15.628068204114243 0 15.628068204114243 9.5621911947600893 0 0 0 0 11.481422036688237 8.5196712973256581 0 8.5196712973256581 4.1807666942258948 0 0 0 0 4.0392425449803646 3.3457869833346194 0 3.3457869833346194 1.6462650176072202 0 0 0 0 -0.017699426723828498 0.011508726789070778 0 0.011508726789070778 0.14120476870328247 0 0 0 0 -0.084127457124402671 0.089004299872613046 0 0.089004299872613046 0.32536402730329428 0 0 0 0 -5.7193741907051301 3.1680552110719873 0 3.1680552110719873 5.9123707905509946 0 0 0 0 0.0075086635962290761 -0.14855963191803312 0 -0.14855963191803312 0.79647055430541513 0 0 0 0 2.9294762519519928 6.4200173854151217 0 6.4200173854151217 4.5448011487751501 0 0 0 0 3.8295001242374864 10.08353935568789 0 10.08353935568789 11.08247285127436 0 0 0 0 -0.6102386802401174 8.6731963750153227 0 8.6731963750153227 3.6475925158192695 0 0 0 0 0.65116944248308317 -0.73222872686392293 0 -0.73222872686392293 -2.4446393525722669 0 0 0 0 -9.8517495438705076 -7.3232292423213039 0 -7.3232292423213039 9.6690512792083609 0 0 0 0 1.405249706107071 3.7084544858400932 0 3.7084544858400932 12.681037934038613 0 0 0 0 1.2646697953786123 -1.9887599822850461 0 -1.9887599822850461 8.9262960208943696 0 0 0 0 -0.0060918340289180771 -0.0058536919751759342 0 -0.0058536919751759342 0.07795379054937257 0 0 0 0 4.2388434571324236 7.3226628980119131 0 7.3226628980119131 10.355598328678752 0 0 0 0 7.2127498695930115 13.071846237529826 0 13.071846237529826 27.207773368108519 0 0 0 0 21.229591926560165 11.788023137339792 0 11.788023137339792 -22.086309517402697 0 0 0 0 9.4096254906965626 8.9009261403352866 0 8.9009261403352866 -0.76735513341736805 0 0 0 0 17.210134888909504 -6.9998321937605397 0 -6.9998321937605397 21.414371913670038 0 0 0 0 10.222805053749937 -0.55007018502328719 0 -0.55007018502328719 12.924368901632988 0 0 0 0 2.1964472602346632 4.9989528662590601 0 4.9989528662590601 9.5780869644595441 0 0 0 0 11.019070202924226 10.73140879282073 0 10.73140879282073 13.602720738523772 0 0 0 0 16.170773189331058 9.0322389060047499 0 9.0322389060047499 6.0961912779748673 0 0 0 0 5.5529740469529436 3.7956918763838985 0 3.7956918763838985 7.6304856729002495 0 0 0 0 0.05689522975758686 -0.12912504400839353 0 -0.12912504400839353 0.40909099847584685 0 0 0 0 24.884252784795279 19.148615623051228 0 19.148615623051228 10.563708742638482 0 0 0 0 -9.6662155719492162 -8.1707069462277104 0 -8.1707069462277104 4.9233315836445399 0 0 0 0 -9.0762137472710833 -1.6454387343310373 0 -1.6454387343310373 -0.57976917798259819 0 0 0 0 6.4005777598653513 8.4772284453761131 0 8.4772284453761131 6.5141629291338177 0 0 0 0 0.10961072045449316 -0.3526498453537652 0 -0.3526498453537652 1.22423094416542 0 0 0 0 5.2803776025194971 7.178741726042972 0 7.178741726042972 7.8928055669211972 0 0 0 0 -9.4780247439643368 0.25600037540198173 0 0.25600037540198173 3.245452579421908 0 0 0 0 -5.2197130836122341 0.36976175980817061 0 0.36976175980817061 1.5891763538766099 0 0 0 0 -3.5295990068988203 4.3126358686095045 0 4.3126358686095045 1.4343156043560157 0 0 0 0 -6.2814854172188461 2.7592790051023712 0 2.7592790051023712 1.8464824921065883 0 0 0 0 -5.1517397415481128 3.2175289906190301 0 3.2175289906190301 1.1888716301164095 0 0 0 0 -0.73580952580604486 -0.012127835102800688 0 -0.012127835102800688 1.3815031351993454 0 0 0 0 -4.6634626546397158 2.6413268199494269 0 2.6413268199494269 1.0044590769957722 0 0 0 0 -8.0758727231179819 1.0422630115963329 0 1.0422630115963329 1.013028962329372 0 0 0 0 -8.8339718996081729 1.5608304813449649 0 1.5608304813449649 7.4249613819956721 0 0 0 0 9.7412047677943292 9.8273680995371251 0 9.8273680995371251 5.1633635106300062 0 0 0 0 0.58115892151408843 -1.2763912357031586 0 -1.2763912357031586 -13.064055312352139 0 0 0 0 -0.0033778450207283539 -0.017965389155595979 0 -0.017965389155595979 0.44713915583970021 0 0 0 0 -12.190748386227824 7.0241635971215146 0 7.0241635971215146 -0.62399619533971418 0 0 0 0 0.10895341632590316 1.5699879302301269 0 1.5699879302301269 -1.8277434247465862 0 0 0 0 2.9870997547138813 19.748059883401766 0 19.748059883401766 21.186719653756882 0 0 0 0 -6.6151639030481419 -7.77606568970441 0 -7.77606568970441 -15.024756929582509 0 0 0 0 -11.340743839270061 1.9367970163493737 0 1.9367970163493737 9.8125056129174482 0 0 0 0 -1.2407106204053377 7.7839074705198072 0 7.7839074705198072 6.3928026838766527 0 0 0 0 -7.5719967263529497 6.6700203336386039 0 6.6700203336386039 6.8280249374984123 0 0 0 0 -9.2016107486481502 6.4938095920242631 0 6.4938095920242631 18.893787502252962 0 0 0 0 -14.724504402665616 -13.520594307578904 0 -13.520594307578904 3.30791643172779 0 0 0 0 -9.8946661454159539 -13.348122497820441 0 -13.348122497820441 -26.338070767793397 0 0 0 0 -22.589671484081691 -6.9133497862239892 0 -6.9133497862239892 11.840127026707705 0 0 0 0 -19.396178243999969 -6.1560186250799234 0 -6.1560186250799234 9.7892794951803808 0 0 0 0 -6.8723133216331291 32.074196190038492 0 32.074196190038492 46.42501979971712 0 0 0 0 -34.561295431257804 -34.588018246546198 0 -34.588018246546198 23.598557405493921 0 0 0 0 -18.659483927404111 12.379373749964998 0 12.379373749964998 46.656434858017747 0 0 0 0 -0.58277999586619522 0.52499626042806291 0 0.52499626042806291 2.333900939150773 0 0 0 0 -5.3526224346034041 -1.8717034009796407 0 -1.8717034009796407 5.7318024630412765 0 0 0 0 2.9998002126967549 -6.4394929174335402 0 -6.4394929174335402 11.623657974178059 0 0 0 0 2.3219860913420689 -2.0084479993143987 0 -2.0084479993143987 3.173192899703281 0 0 0 0 -35.401505441008283 8.3914550454910568 0 8.3914550454910568 26.614216086249144 0 0 0 0 -32.214750639218749 24.225618135179502 0 24.225618135179502 -16.533062035087823 0 0 0 0 0.18774424870509226 0.63099118385119546 0 0.63099118385119546 1.1933184003338297 0 0 0 0 -0.91238401028836336 0.13975873760810487 0 0.13975873760810487 5.2468926330184331 0 0 0 0 -2.2417350162861567 2.460564366775543 0 2.460564366775543 5.4524943694940475 0 0 0 0 -2.7045438283055319 2.2343439507430958 0 2.2343439507430958 6.5893700711003476 0 0 0 0 -3.7300613729374845 1.7396520316783608 0 1.7396520316783608 6.7785837448263919 0 0 0 0 -0.14125027098047746 0.80916208675305823 0 0.80916208675305823 4.2911122955888246 0 0 0 0 -0.13634105319852097 1.1827441258392355 0 1.1827441258392355 6.0751778509711585 0 0 0 0 -2.1576215848482461 0.15773811130408433 0 0.15773811130408433 1.2032085838534883 0 0 0 0 13.411008727905482 10.241607752364871 0 10.241607752364871 7.8082002585197188 0 0 0 0 1.4996056169643452 21.222918450960606 0 21.222918450960606 15.32691204751427 0 0 0 0 -0.23016299467781209 1.4720838013199682 0 1.4720838013199682 3.3063599714150769 0 0 0 0 -14.186159709525782 -8.6239626034584944 0 -8.6239626034584944 -0.73881515384709928 0 0 0 0 -2.0235060784740209 -0.22473090203548329 0 -0.22473090203548329 3.6331057511609188 0 0 0 0 -3.9353539922928582 0.43677843166817176 0 0.43677843166817176 4.3228968394105038 0 0 0 0 -2.6186455517508875 -0.14426863715198124 0 -0.14426863715198124 1.9803042679850478 0 0 0 0 -1.3496081729270966 2.672956630069546 0 2.672956630069546 4.7298344828758374 0 0 0 0 -0.89677740712465903 0.062414154621651008 0 0.062414154621651008 0.66061402418151971 0 0 0 0 -2.613696588410221 -1.4922629006077841 0 -1.4922629006077841 -0.51639372797671967 0 0 0 0 0.56600811545331697 0.80072856368499146 0 0.80072856368499146 0.81481725637150149 0 0 0 0 0.1093968125795714 2.8910031861196686 0 2.8910031861196686 4.0669859498682541 0 0 0 0 -1.3494619482430608 10.013607163403776 0 10.013607163403776 21.364426110220847 0 0 0 0 22.229438656726529 15.712297306396977 0 15.712297306396977 16.314584276344249 0 0 0 0 37.841078382615208 27.924914612450181 0 27.924914612450181 -2.998414138381122 0 0 0 0 37.040313386273368 2.6283208405946823 0 2.6283208405946823 -4.1018493122101063 0 0 0 0 45.486461995774334 21.158632876466072 0 21.158632876466072 -0.11533206013700692 0 0 0 0 0.69022473676494589 0.27263616457913598 0 0.27263616457913598 0.16520589736310853 0 0 0 0 15.24800371564757 5.4007815681870852 0 5.4007815681870852 -7.0529191896239354 0 0 0 0 0.83135475033496609 3.0934330257800839 0 3.0934330257800839 2.8277123993870177 0 0 0 0 25.601152560458786 8.3766687751913196 0 8.3766687751913196 -5.1753209687176422 0 0 0 0 21.59769274881387 11.673611356129186 0 11.673611356129186 -2.9577815087995987 0 0 0 0 -5.6649573063091907 1.7206463202119266 0 1.7206463202119266 0.90437920314980147 0 0 0 0 -4.383657175427544 2.0099965781155333 0 2.0099965781155333 2.0382408835821479 0 0 0 0 -5.2342031708883212 2.5902199982174352 0 2.5902199982174352 2.6025623847872339 0 0 0 0 -3.767163181978475 2.6076567156287638 0 2.6076567156287638 2.9687756735875155 0 0 0 0 -4.4720066349408967 1.9031755417372551 0 1.9031755417372551 2.5969835336639235 0 0 0 0 -8.8729881484997577 1.8294374730658092 0 1.8294374730658092 3.7517870945430332 0 0 0 0 -6.3099509814668977 3.8480400034586637 0 3.8480400034586637 5.1342365214422898 0 0 0 0 -2.8670456269861404 6.3464077567300592 0 6.3464077567300592 4.6811276686403289 0 0 0 0 -3.6126452598615515 4.0012374017815091 0 4.0012374017815091 0.91602892419723503 0 0 0 0 -2.5349868293558302 2.1485202201392894 0 2.1485202201392894 3.09705972803431 0 0 0 0 -0.66327241294385064 1.9279668573066964 0 1.9279668573066964 1.8853049468603764 0 0 0 0 -3.2122355710196757 1.5520356248289318 0 1.5520356248289318 -1.6296684272609241 0 0 0 0 -2.573532085907118 5.0739424712355685 0 5.0739424712355685 0.11459038244265685 0 0 0 0 67.918387549331868 -14.330538511889728 0 -14.330538511889728 0.44620421167564928 0 0 0 0 -3.5165897440110712 0.66346409747370672 0 0.66346409747370672 0.1565172723348951 0 0 0 0 -3.1432865497153131 2.3446193304552381 0 2.3446193304552381 0.44623882584855323 0 0 0 0 126.58380030673561 18.450793104148033 0 18.450793104148033 -3.9297769568875083 0 0 0 0 -0.49573213123242521 0.20616617683139493 0 0.20616617683139493 -0.10131215403314542 0 0 0 0 82.513878738898484 43.076000776571163 0 43.076000776571163 19.163847505074955 0 0 0 0 73.197600470529778 56.353903544853893 0 56.353903544853893 2.1467247608770776 0 0 0 0 98.904794820783536 61.391843673511175 0 61.391843673511175 23.636961875079578 0 0 0 0 54.064800554685917 39.341296164684536 0 39.341296164684536 15.756207751843249 0 0 0 0 62.314004928906797 30.941927367102835 0 30.941927367102835 12.944212043163134 0 0 0 0 94.912523236100242 30.463575813880198 0 30.463575813880198 11.103273408691166 0 0 0 0 99.735497168094298 36.975071869010208 0 36.975071869010208 -13.874644419494871 0 0 0 0 127.30623175714481 29.232218789979925 0 29.232218789979925 3.7433785551547771 0 0 0 0 104.11888100829105 4.6550353144721157 0 4.6550353144721157 12.083493087884563 0 0 0 0 55.310190094026893 26.490068100896679 0 26.490068100896679 15.361227280074758 0 0 0 0 43.664199007316711 35.307205256922316 0 35.307205256922316 15.497060970625171 0 0 0 0 58.572592285938526 26.356562147491786 0 26.356562147491786 0.83856963068683399 0 0 0 0 53.490131882304468 17.958343436645009 0 17.958343436645009 14.354334160259896 0 0 0 0 29.841435071093656 -16.053084803759702 0 -16.053084803759702 11.656662484208937 0 0 0 0 0.94246085369817445 2.668841985543116 0 2.668841985543116 1.2174612680456249 0 0 0 0 1.9246149560137837 4.3064505305374041 0 4.3064505305374041 -1.5980896829169069 0 0 0 0 -8.7625691891979614 8.232949267301592 0 8.232949267301592 17.515753968058561 0 0 0 0 68.582923363172085 8.6944644472314394 0 8.6944644472314394 -3.3007634188797965 0 0 0 0 0.75979878789280342 0.19149141635725897 0 0.19149141635725897 -0.22064275149747559 0 0 0 0 -19.565324205466595 43.105836473115232 0 43.105836473115232 24.263984932932544 0 0 0 0 16.069401245482823 42.531832983917411 0 42.531832983917411 18.735922173617837 0 0 0 0 -3.9047454994235977 36.697107034601686 0 36.697107034601686 11.98872956469495 0 0 0 0 -1.2740986768344555 42.346650894531194 0 42.346650894531194 21.00908566299222 0 0 0 0 26.205564352204419 40.99668767422736 0 40.99668767422736 13.326407325438595 0 0 0 0 17.67308914409432 32.863596766343107 0 32.863596766343107 8.6532550326683122 0 0 0 0 28.565797634853197 25.212185506776223 0 25.212185506776223 11.530783041240284 0 0 0 0 18.768159666813517 33.50160144308029 0 33.50160144308029 20.149824154548696 0 0 0 0 24.141012088748923 46.881904912254981 0 46.881904912254981 25.816650762291829 0 0 0 0 24.949224240458079 36.181279543967321 0 36.181279543967321 26.22798213130045 0 0 0 0 39.933112247572353 44.227510750029978 0 44.227510750029978 21.463287633392611 0 0 0 0 57.815424856413983 50.772048845179143 0 50.772048845179143 31.27567809885295 0 0 0 0 23.55254105948643 33.528888853565149 0 33.528888853565149 38.732788680952581 0 0 0 0 -5.4712212089593777 37.524264024790682 0 37.524264024790682 36.558666433953476 0 0 0 0 -4.9816851730806775 40.924137078995045 0 40.924137078995045 27.50249072051156 0 0 0 0 -4.9700250313326109 40.969549661558005 0 40.969549661558005 20.957210370834218 0 0 0 0 -5.3151499693967708 37.203309060385436 0 37.203309060385436 21.601665512924228 0 0 0 0 -65.219036078113504 32.420401144763673 0 32.420401144763673 27.64967347757738 0 0 0 0 -34.033901645419746 29.625342953993822 0 29.625342953993822 22.353947011728451 0 0 0 0 -35.507084183558845 42.192313462634047 0 42.192313462634047 28.847256760832352 0 0 0 0 -41.24579854040212 -12.067544614088547 0 -12.067544614088547 9.6951241505494181 0 0 0 0 -67.175432781902373 0.79150139679040876 0 0.79150139679040876 17.831232416885541 0 0 0 0 -53.497990137925854 10.301554930361817 0 10.301554930361817 24.431204157361208 0 0 0 0 -42.64588488055108 -12.040675918432044 0 -12.040675918432044 9.7412623603995598 0 0 0 0 -31.435029752003061 3.6271910041725732 0 3.6271910041725732 14.221889572978398 0 0 0 0 -28.802210731978221 16.18341882990444 0 16.18341882990444 19.506777385108762 0 0 0 0 -43.310847333904576 12.421974968392533 0 12.421974968392533 20.032057882720437 0 0 0 0 -25.07733762197077 18.269815344016251 0 18.269815344016251 13.433847421052633 0 0 0 0 -25.084075268887773 32.889227846368158 0 32.889227846368158 17.471204454042891 0 0 0 0 -39.858812249495031 32.574348036758238 0 32.574348036758238 27.204932560403904 0 0 0 0 -21.866494937909465 30.526022206666312 0 30.526022206666312 13.888806851198751 0 0 0 0 -12.104400412077666 30.636092604995611 0 30.636092604995611 13.385407735303943 0 0 0 0 -7.8614576696127187 35.367101730329523 0 35.367101730329523 -6.8212619974510744 0 0 0 0 -15.501915132609611 15.850585206152573 0 15.850585206152573 7.28148810179664 0 0 0 0 -13.179882775368924 20.032721417021094 0 20.032721417021094 13.660596809817207 0 0 0 0 -2.0057952789101137 12.085841937681835 0 12.085841937681835 7.6821460983792349 0 0 0 0 -5.5203468027723375 15.53483201716017 0 15.53483201716017 5.0519324045271787 0 0 0 0 0.96143907880502866 19.838019041843836 0 19.838019041843836 -2.8466531152200787 0 0 0 0 8.2697401051365205 26.077093369664453 0 26.077093369664453 -55.93351720560895 0 0 0 0 -0.86347965727759401 31.954194023227501 0 31.954194023227501 9.2146076773551613 0 0 0 0 -6.2188870605425564 43.044992550792813 0 43.044992550792813 12.978938506323175 0 0 0 0 2.7565084462687537 42.504471815503166 0 42.504471815503166 -4.6470673464746142 0 0 0 0 15.011041659474699 15.693563334876671 0 15.693563334876671 -3.0128107274840659 0 0 0 0 15.350700428289201 30.547993855328968 0 30.547993855328968 -15.682216390121539 0 0 0 0 -0.14920231996143229 33.45860591322753 0 33.45860591322753 22.988375034470664 0 0 0 0 -0.30778316717056509 0.049411428271906033 0 0.049411428271906033 0.055361201421748163 0 0 0 0 -1.4346792483717081 31.036585967270412 0 31.036585967270412 70.54118148888665 0 0 0 0 0.089082726526271472 14.830076512190658 0 14.830076512190658 42.32127303348534 0 0 0 0 12.222026525699903 17.855784622814099 0 17.855784622814099 40.099103065067993 0 0 0 0 -0.37455963514645418 19.203704963437303 0 19.203704963437303 40.31465066878809 0 0 0 0 2.663000391964033 7.639392754394521 0 7.639392754394521 21.478909090783418 0 0 0 0 -0.4438936729808205 2.8395981569634614 0 2.8395981569634614 8.3169205310077814 0 0 0 0 -1.2571349793990092 -0.75245931839197766 0 -0.75245931839197766 0.78682991484895837 0 0 0 0 0.25047908888538473 3.0692351942114868 0 3.0692351942114868 9.3123912636983732 0 0 0 0 0.35390301176039429 0.44787995921342372 0 0.44787995921342372 7.0999128319917872 0 0 0 0 8.990061812799965 12.282878251592138 0 12.282878251592138 35.921105369789075 0 0 0 0 1.432734499174785 18.518098566873959 0 18.518098566873959 0.28695358838194807 0 0 0 0 4.8011406853066534 1.918662161832497 0 1.918662161832497 0.91390428792270129 0 0 0 0 -3.7871274485641386 0.67119701222782169 0 0.67119701222782169 1.8397877770811633 0 0 0 0 0.08373347426410449 -0.69542234723569152 0 -0.69542234723569152 2.0103326689210874 0 0 0 0 -0.50844308798836835 2.7711411034185964 0 2.7711411034185964 2.0319572484704338 0 0 0 0 3.2055982119027249 -0.67622495697651175 0 -0.67622495697651175 22.472616281629598 0 0 0 0 10.749229794995244 19.27043007798693 0 19.27043007798693 33.591479133641769 0 0 0 0 5.008647716663063 4.5182401889933317 0 4.5182401889933317 45.117622353581282 0 0 0 0 10.68839361764995 23.86772869121296 0 23.86772869121296 53.925229369016961 0 0 0 0 4.633830311907559 14.037116346983112 0 14.037116346983112 48.762454389503546 0 0 0 0 -0.56851738546673003 0.35590573604818587 0 0.35590573604818587 -0.080569224962232511 0 0 0 0 10.490445170388156 30.409624752756201 0 30.409624752756201 63.278042393772921 0 0 0 0 -0.7509433210093448 12.599928953649396 0 12.599928953649396 2.4974540132589027 0 0 0 0 2.7191531490742591 3.7693985852706646 0 3.7693985852706646 10.093744919455276 0 0 0 0 -2.6730039165037169 6.7759615665190722 0 6.7759615665190722 15.771729801203946 0 0 0 0 -0.033325817752739795 1.7718640870375566 0 1.7718640870375566 10.436707641525572 0 0 0 0 -3.2070615317126112 2.1065614721692327 0 2.1065614721692327 10.907712613926378 0 0 0 0 -1.8641973720540364 2.0765127081731407 0 2.0765127081731407 11.455954374971952 0 0 0 0 44.308144112928204 13.504679695715822 0 13.504679695715822 24.435672153986161 0 0 0 0 -0.87752102323871695 0.72467722012849123 0 0.72467722012849123 0.66647439001930842 0 0 0 0 -0.59981690617266681 0.55532296349223031 0 0.55532296349223031 -0.33596862864132682 0 0 0 0 -16.322747754652369 31.634837190479629 0 31.634837190479629 86.338849238665716 0 0 0 0 5.8651810861897502 26.192963491980663 0 26.192963491980663 60.803779807950377 0 0 0 0 6.7085731901527197 -3.7724035923320116 0 -3.7724035923320116 85.401568248238675 0 0 0 0 -8.0414133215952006 34.258657533704536 0 34.258657533704536 172.1013394665988 0 0 0 0 2.0032326537859038 0.24337827319962813 0 0.24337827319962813 0.0011980897654630951 0 0 0 0 105.5058436780871 104.84109073616855 0 104.84109073616855 6.4008275162123027 0 0 0 0 3.8826039081772024 -3.7075994162964889 0 -3.7075994162964889 -19.329708567889611 0 0 0 0 25.51751363937268 30.412540456180068 0 30.412540456180068 -35.136205285258711 0 0 0 0 9.0731609732465017 9.4626788070099792 0 9.4626788070099792 -6.0107453655436984 0 0 0 0 33.310549634046538 52.827605104368558 0 52.827605104368558 5.5948721503091292 0 0 0 0 -2.5248699774626289 13.726619436311921 0 13.726619436311921 13.009179385542666 0 0 0 0 6.9707821512515693 7.7906425083074282 0 7.7906425083074282 10.963986769005714 0 0 0 0 -14.96027730200035 -3.7675862106780187 0 -3.7675862106780187 16.676527049221022 0 0 0 0 37.490183539869818 39.073526738074634 0 39.073526738074634 16.262506109856986 0 0 0 0 4.6949595659277747 36.229471484960413 0 36.229471484960413 19.33544728905963 0 0 0 0 -0.75925319825205406 23.37737718421613 0 23.37737718421613 30.735251842575053 0 0 0 0 17.483302713971497 45.657601293836706 0 45.657601293836706 23.343516387171803 0 0 0 0 -9.006423773725146 40.933455263411815 0 40.933455263411815 24.781672540761065 0 0 0 0 23.420864365606121 26.385103757098477 0 26.385103757098477 13.746551925017911 0 0 0 0 8.4528563360690327 38.82661237288994 0 38.82661237288994 21.479631215101108 0 0 0 0 21.999606840091019 50.003350098728333 0 50.003350098728333 21.173706818570565 0 0 0 0 -8.3804064195996375 32.440465247800603 0 32.440465247800603 36.828077630770167 0 0 0 0 7.4028265437187049 44.295601494289713 0 44.295601494289713 41.729842195585661 0 0 0 0 4.0285279032798371 59.599960407495018 0 59.599960407495018 96.253024587662367 0 0 0 0 -30.20395525142186 9.2774760836182395 0 9.2774760836182395 56.755031875303757 0 0 0 0 45.041709242646562 93.330850568800088 0 93.330850568800088 85.014027685090696 0 0 0 0 -28.262712435940671 42.24359183114575 0 42.24359183114575 243.81395823383718 0 0 0 0 39.695313850349066 54.759514728641079 0 54.759514728641079 32.776504421104619 0 0 0 0 111.01126848035608 96.808294821128584 0 96.808294821128584 -3.4910358951310627 0 0 0 0 -42.262017964515167 -72.612508898157103 0 -72.612508898157103 150.02546963261557 0 0 0 0 -11.27950184679527 -26.672967405192594 0 -26.672967405192594 -107.68685204131179 0 0 0 0 -97.639583916507718 -64.41094622672972 0 -64.41094622672972 -53.205577076441841 0 0 0 0 -0.46430415498491739 -0.27158787932555484 0 -0.27158787932555484 0.60891309745460376 0 0 0 0 -11.752693138378049 -24.202238981115443 0 -24.202238981115443 81.906316800315835 0 0 0 0 -4.4938756441304122 -11.002894684945204 0 -11.002894684945204 24.076909145171157 0 0 0 0 -1.1653078286124208 -2.9565471382397526 0 -2.9565471382397526 2.9816791252115937 0 0 0 0 -2.8866476781844312 25.540925884162789 0 25.540925884162789 45.32877607721457 0 0 0 0 -0.80995375438041606 0.76139260667514463 0 0.76139260667514463 9.9662309485283913 0 0 0 0 0.0067986074227377458 0.19524151905488907 0 0.19524151905488907 6.5493295085016143 0 0 0 0 -2.6079592207852329 2.0238845734338611 0 2.0238845734338611 5.3584126143332469 0 0 0 0 -1.0844393494608084 1.6611130603541824 0 1.6611130603541824 8.551815271974192 0 0 0 0 -0.52224213154322763 1.8850140551707888 0 1.8850140551707888 4.3851082182576953 0 0 0 0 -1.6505460138546368 -0.26954929720523069 0 -0.26954929720523069 10.023323556624746 0 0 0 0 -3.0235681536468633 -0.54311332263750955 0 -0.54311332263750955 10.214457526647493 0 0 0 0 -1.7942654580891997 -0.02050908593719214 0 -0.02050908593719214 10.26447413368669 0 0 0 0 -0.91315624057267542 -1.6997454556617413 0 -1.6997454556617413 11.086577350510197 0 0 0 0 -1.2153656747191239 0.64032833508533393 0 0.64032833508533393 5.2447710769088296 0 0 0 0 -1.4537146320574552 -0.74252695042162653 0 -0.74252695042162653 8.5852133410096911 0 0 0 0 -6.0159309259181271 -4.1196406506032872 0 -4.1196406506032872 5.7739485903111927 0 0 0 0 -2.3039426195426245 -1.4766781584648925 0 -1.4766781584648925 4.0313683877848234 0 0 0 0 -6.3361773108703119 -0.59578237239202281 0 -0.59578237239202281 7.6383379369308386 0 0 0 0 -8.5876951323572825 -5.4379892611011655 0 -5.4379892611011655 10.112748273659236 0 0 0 0 -3.5373574554143374 -4.0940761972969995 0 -4.0940761972969995 11.18498244870716 0 0 0 0 -0.83773562093587839 -0.42506279253503187 0 -0.42506279253503187 7.0554228834928097 0 0 0 0 -3.2999646807225531 -0.53044824966673332 0 -0.53044824966673332 7.4679018472434109 0 0 0 0 -4.1278765624584821 -1.3169576568625416 0 -1.3169576568625416 8.1216696338824477 0 0 0 0 -1.6256545188507801 0.056292999772495023 0 0.056292999772495023 8.8656404072135047 0 0 0 0 -5.6753705224207351 0.83783411682088627 0 0.83783411682088627 10.286724108356793 0 0 0 0 -4.719770289303483 1.5912469479080755 0 1.5912469479080755 9.1632825019041775 0 0 0 0 -8.0551412723664271 8.8232554251853799 0 8.8232554251853799 8.5559018752651355 0 0 0 0 -2.7786547024675201 4.8251467537597819 0 4.8251467537597819 9.1063223834753444 0 0 0 0 -20.826405609314634 6.7539003729998512 0 6.7539003729998512 12.997891195675038 0 0 0 0 -10.771603562396592 7.878504973519739 0 7.878504973519739 11.964849003461495 0 0 0 0 -11.624091909146728 6.116460936200383 0 6.116460936200383 9.0329120314560214 0 0 0 0 -10.408372487706288 0.96510267953453877 0 0.96510267953453877 9.0488121459020476 0 0 0 0 -6.9364581560682552 0.64189377976026663 0 0.64189377976026663 9.046483578704283 0 0 0 0 -7.577281032019215 -0.71482000960031655 0 -0.71482000960031655 6.6941786094430427 0 0 0 0 -5.6052173870691604 -2.3739621738814094 0 -2.3739621738814094 6.5871628712684469 0 0 0 0 -10.351820623621506 -5.2615183318939671 0 -5.2615183318939671 4.1416441430883424 0 0 0 0 -12.668788859680376 -0.46203528923433623 0 -0.46203528923433623 9.0365779888816178 0 0 0 0 -20.034192816933455 -0.19995499346987344 0 -0.19995499346987344 9.0350547014734062 0 0 0 0 -21.239153848555247 -1.1589078929446259 0 -1.1589078929446259 11.97635484778948 0 0 0 0 -36.113903238768671 -6.0903238522041647 0 -6.0903238522041647 10.411493248200713 0 0 0 0 -15.923970682446225 -8.6254142537986809 0 -8.6254142537986809 -1.2737848156939435 0 0 0 0 -15.666306270322707 -9.4074678201977804 0 -9.4074678201977804 0.70833158327150159 0 0 0 0 -37.223695413339556 -21.095180190763131 0 -21.095180190763131 -5.1423993981479725 0 0 0 0 -9.3421345869558081 -2.0544420440674003 0 -2.0544420440674003 3.5304760641961366 0 0 0 0 -6.5700455051245399 -4.2507191641852842 0 -4.2507191641852842 4.1549307995719573 0 0 0 0 -1.4073175682202046 -1.6452537026515195 0 -1.6452537026515195 4.5307975546168215 0 0 0 0 0.45779828915146936 2.2015407920189318 0 2.2015407920189318 5.9454179492531694 0 0 0 0 -2.5083632877569926 -0.63327447939718695 0 -0.63327447939718695 9.5993541541874947 0 0 0 0 -1.8827752401964517 -0.31194235051134456 0 -0.31194235051134456 3.3729101078060921 0 0 0 0 -0.67319597948022603 1.0320562405768676 0 1.0320562405768676 2.0195229098540111 0 0 0 0 -1.7944154189238537 0.14441547479191463 0 0.14441547479191463 5.9268223596819993 0 0 0 0 2.0762934810788352 8.4789047148719874 0 8.4789047148719874 19.606887027433913 0 0 0 0 3.282185361905249 4.3751092073616746 0 4.3751092073616746 10.258698553787326 0 0 0 0 -4.0036351642504027 -0.22149519988848709 0 -0.22149519988848709 3.5428774417898854 0 0 0 0 -12.353571654868801 2.5341669743866078 0 2.5341669743866078 16.998149684593955 0 0 0 0 -5.5176475245938263 -0.37055193315609358 0 -0.37055193315609358 21.371526872313552 0 0 0 0 -3.4937957813345975 9.0452850134352047 0 9.0452850134352047 17.880138951886693 0 0 0 0 -3.6695634297228708 -10.112369331771333 0 -10.112369331771333 -10.697376122167043 0 0 0 0 -0.69831247643241168 -0.42470536291285299 0 -0.42470536291285299 0.46823018476857214 0 0 0 0 -3.8582505825966678 0.97449839542605332 0 0.97449839542605332 18.11534459872928 0 0 0 0 -2.6571772114673422 -1.5808363509167975 0 -1.5808363509167975 10.634819046888879 0 0 0 0 -2.6258970702751867 -1.2137017154334444 0 -1.2137017154334444 3.9190620192766801 0 0 0 0 0.77277417127606896 8.3271895786720052 0 8.3271895786720052 8.9069601795854396 0 0 0 0 -1.5023574875121994 1.584543950508305 0 1.584543950508305 15.067995689274539 0 0 0 0 -0.98180521442691315 -0.67673888747481215 0 -0.67673888747481215 9.1088973182195332 0 0 0 0 8.0312716563366848 1.5612028036975971 0 1.5612028036975971 11.355686435206735 0 0 0 0 6.0436032009652081 3.0860533397553809 0 3.0860533397553809 15.330826960964259 0 0 0 0 -5.498236654365428 -2.1009472038513195 0 -2.1009472038513195 18.694081149211343 0 0 0 0 -4.7646295141676092 2.2550525468050182 0 2.2550525468050182 20.844317288967432 0 0 0 0 -8.7655031216318093 -5.7918477684634126 0 -5.7918477684634126 15.393351211196205 0 0 0 0 -13.260121547178642 -14.680185455707033 0 -14.680185455707033 19.524430474099063 0 0 0 0 -8.5544955411296542 -5.7306108020493411 0 -5.7306108020493411 8.9546714326879737 0 0 0 0 -14.415137448099358 -10.630991895372063 0 -10.630991895372063 10.464914970256359 0 0 0 0 -22.903054383874405 2.0787414128481032 0 2.0787414128481032 7.1274254075929093 0 0 0 0 -9.5009118642203703 -8.3246202203567918 0 -8.3246202203567918 4.7312584904939285 0 0 0 0 -8.4001298292992033 1.6184903604407737 0 1.6184903604407737 12.04984897696886 0 0 0 0 -11.425156992251686 5.0698901220716834 0 5.0698901220716834 8.9930444577712478 0 0 0 0 -9.6002378822326477 -2.2772449586257153 0 -2.2772449586257153 6.3632419648347422 0 0 0 0 -9.0690266300362055 1.2160030956119954 0 1.2160030956119954 13.989775123973232 0 0 0 0 1.8129612119388412 4.2054256873619806 0 4.2054256873619806 13.159693807097938 0 0 0 0 1.2634618777906326 0.73756230595063244 0 0.73756230595063244 9.2369562438325374 0 0 0 0 8.9028727345419156 0.097770280693111999 0 0.097770280693111999 14.847367948799729 0 0 0 0 -27.937574539495472 -15.448053047650319 0 -15.448053047650319 42.056790080896462 0 0 0 0 13.443769509445531 6.0003828779729247 0 6.0003828779729247 11.791470022015346 0 0 0 0 -3.1188278203503308 1.4697733458291395 0 1.4697733458291395 0.97089468195007456 0 0 0 0 -9.2641256215213161 -6.2470912897269955 0 -6.2470912897269955 24.260149232552067 0 0 0 0 0.20253694299693148 -2.8534131038486237 0 -2.8534131038486237 9.4553819912542849 0 0 0 0 -0.66287974902880897 0.60719581596939065 0 0.60719581596939065 1.7763696382939216 0 0 0 0 -7.2106409602654367 3.8597779276224173 0 3.8597779276224173 5.2968736400348462 0 0 0 0 -2.0597689393367333 -2.1115759174999837 0 -2.1115759174999837 4.1695003073385379 0 0 0 0 -1.2616653399095412 12.295833283756565 0 12.295833283756565 22.461371121658885 0 0 0 0 -25.555835760741047 -28.956428331917778 0 -28.956428331917778 -31.359929410413315 0 0 0 0 -1.6653366973489483 -11.161088959503104 0 -11.161088959503104 -20.594431777721184 0 0 0 0 -1.2162059725237668 3.6806107685915777 0 3.6806107685915777 -5.0908135085032882 0 0 0 0 32.999951710095615 -1.9900850451808765 0 -1.9900850451808765 -35.069540913842502 0 0 0 0 0.20149883082703912 0.13760850602437102 0 0.13760850602437102 -0.38165601766651136 0 0 0 0 -22.116540177035404 46.844768053280859 0 46.844768053280859 26.11141208168192 0 0 0 0 -35.060079394848799 -0.25083010842718068 0 -0.25083010842718068 -4.6779095478673298 0 0 0 0 10.821545488634456 14.397317388074043 0 14.397317388074043 -0.62573225089727202 0 0 0 0 -70.96120547179828 34.837307095725009 0 34.837307095725009 24.920558538331534 0 0 0 0 8.2984544954361681 6.5599922038851162 0 6.5599922038851162 15.476496491713988 0 0 0 0 5.1018367936644609 4.2934512444226129 0 4.2934512444226129 17.718539964846059 0 0 0 0 19.430451778610063 6.2111844218625265 0 6.2111844218625265 -1.2168504049386684 0 0 0 0 12.08835944162206 2.3133236004423452 0 2.3133236004423452 15.77583958267769 0 0 0 0 0.44914657571233274 -2.4476808320431918 0 -2.4476808320431918 8.9501650650898696 0 0 0 0 -81.912225978460583 -8.7065392749154853 0 -8.7065392749154853 18.271872507069929 0 0 0 0 26.813445114996057 17.80583967743496 0 17.80583967743496 -11.586375803254668 0 0 0 0 19.919308114688874 35.15593528565023 0 35.15593528565023 13.486931871719207 0 0 0 0 -11.345792311044875 20.338524078880369 0 20.338524078880369 35.143582515222079 0 0 0 0 -11.435528453669122 21.741358297237639 0 21.741358297237639 14.358488177174877 0 0 0 0 6.6729485852316657 11.713046745653401 0 11.713046745653401 18.288995268379949 0 0 0 0 -10.823225557649948 3.473819765265489 0 3.473819765265489 33.233707456685806 0 0 0 0 -9.6674449223801275 3.7717376895134294 0 3.7717376895134294 21.368396616173413 0 0 0 0 -20.006588076639673 -15.904538236976805 0 -15.904538236976805 42.144279633994302 0 0 0 0 -19.346199054611134 -15.518029077573374 0 -15.518029077573374 31.438396653982636 0 0 0 0 -13.155392712483263 -20.417996327560104 0 -20.417996327560104 26.258516193058313 0 0 0 0 -17.91533818951666 -9.5031912263002596 0 -9.5031912263002596 26.297374858320836 0 0 0 0 -17.522287274310202 -4.6833426892826537 0 -4.6833426892826537 25.092079203814137 0 0 0 0 -30.500503309951455 10.646751561615019 0 10.646751561615019 30.675836247556617 0 0 0 0 -28.981054605549161 0.95974023801591102 0 0.95974023801591102 52.281246465230652 0 0 0 0 -30.373879816190765 -3.7421952959975897 0 -3.7421952959975897 43.825202716419881 0 0 0 0 -20.297073249990717 -10.181768556140014 0 -10.181768556140014 57.723470604047179 0 0 0 0 -17.057171308631041 -23.386595604481045 0 -23.386595604481045 47.60264356186417 0 0 0 0 -27.838818056400896 -12.446622166585257 0 -12.446622166585257 69.136673797649564 0 0 0 0 -47.831856235879513 -1.7761107360056485 0 -1.7761107360056485 59.595988620130811 0 0 0 0 -34.671343957568297 11.399605995718957 0 11.399605995718957 43.40167145669875 0 0 0 0 -17.393358262916081 1.8806735564721748 0 1.8806735564721748 57.371658086227399 0 0 0 0 -40.135760319981273 28.123425416138161 0 28.123425416138161 37.643672651927773 0 0 0 0 -72.320807894807331 -2.9902405365264713 0 -2.9902405365264713 57.325562059893855 0 0 0 0 -49.681918655295704 1.6020197249617922 0 1.6020197249617922 37.742016084721399 0 0 0 0 -85.548843523180949 14.734796975364588 0 14.734796975364588 75.254807042514585 0 0 0 0 -76.24281740160518 47.54455352307491 0 47.54455352307491 40.635575289161352 0 0 0 0 -83.683534068698009 10.542164568530097 0 10.542164568530097 26.207529179707308 0 0 0 0 -106.26261708235825 53.513577084061581 0 53.513577084061581 31.136966212372499 0 0 0 0 -66.972448532943645 14.952205981512634 0 14.952205981512634 -36.788364172991351 0 0 0 0 11.095683013048074 39.433145911936208 0 39.433145911936208 11.719278665534148 0 0 0 0 -7.5717309983504038 64.861858657676294 0 64.861858657676294 29.430627433896007 0 0 0 0 -49.685648587569631 32.478269297967927 0 32.478269297967927 40.155706509693118 0 0 0 0 -75.214682399696358 49.650987077242462 0 49.650987077242462 59.495077048843996 0 0 0 0 -23.507820086563697 16.667357882883152 0 16.667357882883152 9.8535126025017234 0 0 0 0 -202.32206790967211 -51.795559352002783 0 -51.795559352002783 38.244174962263514 0 0 0 0 -199.5806986301192 -39.879029560560866 0 -39.879029560560866 123.16894940036946 0 0 0 0 0.18421734018188318 -4.1160331344461598 0 -4.1160331344461598 22.500966419690883 0 0 0 0 -143.30718497392809 53.206381244377553 0 53.206381244377553 65.443848070583044 0 0 0 0 40.850280391320666 -76.748328595885141 0 -76.748328595885141 -64.745535104260853 0 0 0 0 -6.0514127233136605 -177.41958481700112 0 -177.41958481700112 182.9455591223832 0 0 0 0 -54.310896126365151 -222.28949032322225 0 -222.28949032322225 176.51053215688353 0 0 0 0 207.37249020720878 333.07166699849813 0 333.07166699849813 500.54386977009563 0 0 0 0 0.07853709999522196 -1.2182140309461902 0 -1.2182140309461902 9.3161558522406764 0 0 0 0 184.94652082270295 398.11489336199793 0 398.11489336199793 524.54671370207052 0 0 0 0 -51.359239101682078 -12.898047921771649 0 -12.898047921771649 196.13463421489178 0 0 0 0 -55.198402684327903 -22.873967462555811 0 -22.873967462555811 172.85152731738708 0 0 0 0 -74.745039683421965 21.64498433827066 0 21.64498433827066 56.076756326141549 0 0 0 0 -51.097438971411748 3.0276485905105801 0 3.0276485905105801 66.412524993547777 0 0 0 0 20.405043093754102 -111.11537650513856 0 -111.11537650513856 133.99266140267446 0 0 0 0 20.447917586808444 -110.02242280731662 0 -110.02242280731662 71.157446426887873 0 0 0 0 -3.9031435188803698 -136.17088585970214 0 -136.17088585970214 176.36058144410981 0 0 0 0 11.082326910646032 -118.18274027414168 0 -118.18274027414168 129.13527722936124 0 0 0 0 22.72963420627184 246.451184362606 0 246.451184362606 475.86757988318323 0 0 0 0 0.82412895840358269 -1.3803848224903028 0 -1.3803848224903028 1.9946070471857453 0 0 0 0 5.8691210481276528 -146.06000651181444 0 -146.06000651181444 -83.636704624677805 0 0 0 0 -0.86945399788896793 -153.35845479267118 0 -153.35845479267118 119.50450588768672 0 0 0 0 177.14742572528394 -60.11952059064788 0 -60.11952059064788 14.187863661578376 0 0 0 0 12.886784879139896 191.07091121431313 0 191.07091121431313 494.53375685553692 0 0 0 0 99.218213638451289 37.673595043649584 0 37.673595043649584 6.6735680296897044 0 0 0 0 -24.07924605659835 31.087191297044086 0 31.087191297044086 150.46679215914628 0 0 0 0 23.443231780016049 91.228670739317749 0 91.228670739317749 226.20303928859767 0 0 0 0 157.96800857571361 108.5673729822347 0 108.5673729822347 91.469158568766943 0 0 0 0 28.103684338188259 48.278267227696233 0 48.278267227696233 6.5149397982677328 0 0 0 0 0.38208137676572473 -2.2703267373237761 0 -2.2703267373237761 7.6768766313260883 0 0 0 0 2.65767967528393 -49.891438796803413 0 -49.891438796803413 26.674562205891561 0 0 0 0 65.066402659256937 30.71110667874018 0 30.71110667874018 -7.6868462085521969 0 0 0 0 -70.042941645366227 -35.059666790390111 0 -35.059666790390111 7.7340060439510125 0 0 0 0 -135.36622669104077 -12.574561521370924 0 -12.574561521370924 13.044494892066723 0 0 0 0 -37.187286502733059 6.4760731218302681 0 6.4760731218302681 8.9639080916417697 0 0 0 0 -24.166699441608216 -50.925301325255987 0 -50.925301325255987 33.349877154256319 0 0 0 0 -36.301799122016973 -22.744431043676286 0 -22.744431043676286 -31.985459259369236 0 0 0 0 -81.066059955245237 -126.91697630638737 0 -126.91697630638737 58.265116520563879 0 0 0 0 19.177625741256549 214.28790690474784 0 214.28790690474784 420.83273321558408 0 0 0 0 0.17026086244835348 -0.89728972280080654 0 -0.89728972280080654 3.5440334434451159 0 0 0 0 5.9403415528039432 303.38387410256018 0 303.38387410256018 288.76889788380868 0 0 0 0 -83.511246420049019 -92.852502009588989 0 -92.852502009588989 180.60140777287234 0 0 0 0 -88.935316979785284 -94.70229347903387 0 -94.70229347903387 270.13452669887556 0 0 0 0 -117.9030709167655 -15.890954736854837 0 -15.890954736854837 362.24255218398139 0 0 0 0 -49.926346606162952 132.58846461105895 0 132.58846461105895 298.6144779782062 0 0 0 0 -57.913801118945855 78.204926870466807 0 78.204926870466807 66.566901173915539 0 0 0 0 1.717185536454473 -3.0922940273718389 0 -3.0922940273718389 3.9027477573369858 0 0 0 0 232.77417937073528 -100.49015528377913 0 -100.49015528377913 193.9383800797159 0 0 0 0 -56.395523827921124 -23.150061535883651 0 -23.150061535883651 58.930699292756344 0 0 0 0 -78.426844278642193 -50.448304318058945 0 -50.448304318058945 64.954238133641411 0 0 0 0 -70.81487664971155 -26.787433170700751 0 -26.787433170700751 105.62094553236966 0 0 0 0 -107.0171485630982 -0.99139123033137366 0 -0.99139123033137366 89.616613091515319 0 0 0 0 -60.941606113475814 -6.8357646676086006 0 -6.8357646676086006 120.40650691617702 0 0 0 0 -106.10292317109941 26.320755686258963 0 26.320755686258963 160.3055627088188 0 0 0 0 -103.74067725439181 10.759554691770063 0 10.759554691770063 211.35313941340792 0 0 0 0 -115.85561681172368 -0.37315526695601875 0 -0.37315526695601875 201.14187947878963 0 0 0 0 -42.484712113470437 26.566909089967339 0 26.566909089967339 146.4456429257034 0 0 0 0 -4.7149474236815081 22.59069426761107 0 22.59069426761107 47.74167681965173 0 0 0 0 -50.821058528177559 -18.08494285946108 0 -18.08494285946108 99.473521645658366 0 0 0 0 -50.612462181720389 -30.360396810096063 0 -30.360396810096063 70.905955581963099 0 0 0 0 -13.056060528397722 -6.8303048899456371 0 -6.8303048899456371 8.1288029224961065 0 0 0 0 -11.325068822440301 -1.1268488381431325 0 -1.1268488381431325 26.763362971061724 0 0 0 0 0.50257798163178791 13.149791856535103 0 13.149791856535103 14.083454636711394 0 0 0 0 -18.584644690277855 11.114968854960807 0 11.114968854960807 52.81132370688465 0 0 0 0 -10.029741468211796 -24.281184258721623 0 -24.281184258721623 87.497828329805543 0 0 0 0 -8.6159395266170122 -3.7273250255157109 0 -3.7273250255157109 -8.3302952446638301 0 0 0 0 1.1879639004762197 -0.24104851314985609 0 -0.24104851314985609 0.10261846769327931 0 0 0 0 -8.0021175371964546 3.7739141950669364 0 3.7739141950669364 8.8287124462385691 0 0 0 0 -2.5022332109433592 6.4465333478119646 0 6.4465333478119646 -0.86863101208291482 0 0 0 0 -49.965904982740426 -16.564038447496841 0 -16.564038447496841 18.66526496464212 0 0 0 0 -42.231937356758635 -15.782403485834948 0 -15.782403485834948 0.0057387176839256426 0 0 0 0 -76.316429967755994 4.6122325050623658 0 4.6122325050623658 34.733375073012212 0 0 0 0 -81.896258899733766 3.0311986146789422 0 3.0311986146789422 37.745743076632607 0 0 0 0 20.059057586144263 -40.319193818766507 0 -40.319193818766507 25.474460883210213 0 0 0 0 -98.134576205556186 -25.461110833819475 0 -25.461110833819475 111.24084315043365 0 0 0 0 14.827370888701296 -45.519546748478888 0 -45.519546748478888 -29.512145263946877 0 0 0 0 -19.035189515973059 49.181529920635967 0 49.181529920635967 44.915116138687154 0 0 0 0 -99.864008453108227 -52.154653275949386 0 -52.154653275949386 -75.698275657676277 0 0 0 0 -131.11598899919181 85.375077244312706 0 85.375077244312706 -48.020445818197913 0 0 0 0 -73.275359458617004 52.123759140788025 0 52.123759140788025 1.2920396324116155 0 0 0 0 -93.764620414501223 26.655050160090468 0 26.655050160090468 58.004225563996442 0 0 0 0 -112.98391656476133 60.383771874212471 0 60.383771874212471 30.699004862890433 0 0 0 0 -90.399593908392944 -59.346663310592703 0 -59.346663310592703 -37.658585629396839 0 0 0 0 -1.2767967396424673 0.36997157273220438 0 0.36997157273220438 -0.30776352995434664 0 0 0 0 -177.11966484151162 -11.609929905396712 0 -11.609929905396712 17.993400096249388 0 0 0 0 -79.23352990398098 3.1716709921784059 0 3.1716709921784059 18.799260478055658 0 0 0 0 -98.033649735471954 -11.506158523819977 0 -11.506158523819977 7.8618508630697761 0 0 0 0 -77.715268521469852 -31.489651750713165 0 -31.489651750713165 -0.073858377620126703 0 0 0 0 -47.184283826188221 28.024365308061533 0 28.024365308061533 18.427154757115204 0 0 0 0 -48.181137279389532 21.920546633255071 0 21.920546633255071 -15.987034449837665 0 0 0 0 -109.23829641484525 40.071412170534813 0 40.071412170534813 19.577700042944343 0 0 0 0 -52.431836079037566 25.247029252661378 0 25.247029252661378 18.919083574177421 0 0 0 0 -42.289181949062367 42.546597005073181 0 42.546597005073181 25.204160819903336 0 0 0 0 -6.1014978331281782 21.801052954720944 0 21.801052954720944 9.0704498094046357 0 0 0 0 -7.928659521479176 21.417292738682363 0 21.417292738682363 51.793598873820883 0 0 0 0 0.86961306204148059 -2.5908720968527632 0 -2.5908720968527632 29.666739895275896 0 0 0 0 7.6253754699937417 25.310416200247801 0 25.310416200247801 140.59753388011086 0 0 0 0 19.167017015270858 42.382349738960329 0 42.382349738960329 35.24347166611733 0 0 0 0 37.434278360889266 50.868543796123049 0 50.868543796123049 59.066590649301361 0 0 0 0 -9.8842653086501286 -37.714056340253592 0 -37.714056340253592 75.794806422707552 0 0 0 0 18.671892833833681 27.181573944564661 0 27.181573944564661 60.345469673597108 0 0 0 0 136.17874101142274 84.734689129385515 0 84.734689129385515 87.261032233090191 0 0 0 0 47.627431103576555 -47.742816888802736 0 -47.742816888802736 89.354450729663768 0 0 0 0 79.964110925144269 92.047838291409789 0 92.047838291409789 82.526767674411531 0 0 0 0 136.11141404688419 69.215435083507145 0 69.215435083507145 18.964385860712355 0 0 0 0 2.0568786462971502 31.009784260920242 0 31.009784260920242 167.95247895473949 0 0 0 0 0.72985635790512404 1.3617322943059875 0 1.3617322943059875 0.6449962720908502 0 0 0 0 108.48790492276049 3.0861540344546938 0 3.0861540344546938 2.9510838791302376 0 0 0 0 2.0920804278312062 15.897900813200749 0 15.897900813200749 73.119064344295111 0 0 0 0 -1.4822379808001047 1.0784645438957483 0 1.0784645438957483 0.76849714289954818 0 0 0 0 -6.1033459294701231 4.3800557682443468 0 4.3800557682443468 2.8124576691288894 0 0 0 0 -6.2630135156549898 3.7719518267077774 0 3.7719518267077774 5.4011104686614999 0 0 0 0 26.418301351385523 60.682386444826648 0 60.682386444826648 96.214615338547446 0 0 0 0 24.337384226572226 72.117937035965952 0 72.117937035965952 96.141959224740276 0 0 0 0 -1.0723478130088924 0.39973649083780671 0 0.39973649083780671 0.31880202498191323 0 0 0 0 18.299467528000378 70.242306747266412 0 70.242306747266412 103.70553462124644 0 0 0 0 35.37365566393396 75.707215500096936 0 75.707215500096936 71.767081071639041 0 0 0 0 16.823864816507012 40.663445128730018 0 40.663445128730018 93.847532539439271 0 0 0 0 15.464707012199028 53.790439122612042 0 53.790439122612042 107.10227764389856 0 0 0 0 11.35351705837229 31.722522448165023 0 31.722522448165023 55.551276817412145 0 0 0 0 16.247850792295594 45.432763089566834 0 45.432763089566834 129.4322294730373 0 0 0 0 22.624165157141306 57.1900533059179 0 57.1900533059179 94.584951311050645 0 0 0 0 25.931545939639136 70.272500053629301 0 70.272500053629301 123.0060713210878 0 0 0 0 1.2328314482445195 -1.6309500657822049 0 -1.6309500657822049 2.4471796153416037 0 0 0 0 37.387690190468902 57.638238717176137 0 57.638238717176137 136.11462233376824 0 0 0 0 -18.787993088731554 -14.31544990421753 0 -14.31544990421753 4.3287957897191518 0 0 0 0 3.52287311805879 2.2853352937327145 0 2.2853352937327145 8.6450416111183586 0 0 0 0 2.4123971227040775 0.81806029032254912 0 0.81806029032254912 0.13391989994453724 0 0 0 0 -0.23830211654709038 0.11024382959136858 0 0.11024382959136858 1.3137810012066495 0 0 0 0 3.8381167229055877 -0.83313554753864238 0 -0.83313554753864238 0.60476285867810908 0 0 0 0 5.8235690102831086 0.40136959097617364 0 0.40136959097617364 29.331352840034015 0 0 0 0 21.270537843235047 -12.482244891062237 0 -12.482244891062237 -42.955582468137436 0 0 0 0 1.228171798544583 0.64245507128578794 0 0.64245507128578794 -0.46501218480357309 0 0 0 0 -7.727059121624265 -22.664957052732461 0 -22.664957052732461 -38.208209181908387 0 0 0 0 7.192983396825241 -15.005965158897197 0 -15.005965158897197 -23.698517228804121 0 0 0 0 29.551456898874676 43.71977166119359 0 43.71977166119359 25.764844509047407 0 0 0 0 -37.380050880839008 33.966519569444245 0 33.966519569444245 61.278203902040332 0 0 0 0 76.57302314807157 -25.298188863216637 0 -25.298188863216637 -4.8448812171336613 0 0 0 0 3.1041684295557697 -0.70497600486137912 0 -0.70497600486137912 0.079134196545306068 0 0 0 0 4.0564873146881268 12.895663138288 0 12.895663138288 7.95131166630199 0 0 0 0 11.75103730051535 5.8316067454543372 0 5.8316067454543372 -21.334794537906191 0 0 0 0 26.959735140428904 27.421395563044825 0 27.421395563044825 8.9680011125751662 0 0 0 0 33.906281118205086 18.847833315547177 0 18.847833315547177 -5.3144687798521772 0 0 0 0 17.172522284277363 10.900082224743528 0 10.900082224743528 19.902832473626404 0 0 0 0 8.0404879827108289 35.15487808434591 0 35.15487808434591 95.394957946222348 0 0 0 0 49.096658343342064 51.651098065673665 0 51.651098065673665 45.148995193198061 0 0 0 0 -6.7085572898916368 18.416532999959145 0 18.416532999959145 61.623019178307004 0 0 0 0 14.467495293295599 52.045748612740681 0 52.045748612740681 85.87221330176817 0 0 0 0 -8.8830036256568974 70.132335910727306 0 70.132335910727306 178.71311594583494 0 0 0 0 -42.345970127277582 26.71460819423703 0 26.71460819423703 124.67550307723286 0 0 0 0 36.317421442847632 43.014063328939301 0 43.014063328939301 97.197969465061306 0 0 0 0 48.352960762481658 87.131325077731162 0 87.131325077731162 194.53880179342377 0 0 0 0 -0.61728523210674879 59.311207976457581 0 59.311207976457581 317.14864053709061 0 0 0 0 60.247154908428186 42.171151957159964 0 42.171151957159964 198.33374381483316 0 0 0 0 -59.405577099827383 11.19497050231621 0 11.19497050231621 243.53571816928707 0 0 0 0 -8.4456965235538632 24.97323450417025 0 24.97323450417025 175.30703392235341 0 0 0 0 -5.8077000566743777 39.026584581214593 0 39.026584581214593 333.16310847327441 0 0 0 0 -31.073210725018953 115.73062024234969 0 115.73062024234969 151.60951933995239 0 0 0 0 233.2443948110344 -87.589718161279961 0 -87.589718161279961 386.03770992124282 0 0 0 0 147.69257763210175 -18.395459021568968 0 -18.395459021568968 141.59466043823886 0 0 0 0 54.26301281256508 45.237158032165098 0 45.237158032165098 330.80188760000601 0 0 0 0 138.86936322743472 107.65743722779735 0 107.65743722779735 191.42253221161263 0 0 0 0 67.673121138340605 24.94597812769257 0 24.94597812769257 112.86602248822965 0 0 0 0 99.138340131190688 42.728766654156971 0 42.728766654156971 63.110101942256733 0 0 0 0 39.663422755287058 0.16460405748784979 0 0.16460405748784979 36.805445642405175 0 0 0 0 36.787199488723047 -25.395591398726538 0 -25.395591398726538 79.508706307681678 0 0 0 0 77.106479764074209 32.559972224074954 0 32.559972224074954 105.01443489786652 0 0 0 0 25.017343825852592 -30.881534251443554 0 -30.881534251443554 83.673468463162862 0 0 0 0 9.7972363513547691 -36.871652960545362 0 -36.871652960545362 31.360366028271528 0 0 0 0 48.793192039348952 15.648753274966566 0 15.648753274966566 12.274824668173096 0 0 0 0 -9.2573569484332836 -14.213288730163185 0 -14.213288730163185 7.0378460207066382 0 0 0 0 50.943530134149924 7.9610725546286858 0 7.9610725546286858 18.461402037588414 0 0 0 0 26.369076479326822 14.171477071946356 0 14.171477071946356 59.41989301378112 0 0 0 0 31.86836501939446 24.810069122639106 0 24.810069122639106 4.9056778699323331 0 0 0 0 14.219077996015926 -15.15254377308338 0 -15.15254377308338 -1.9012071468196154 0 0 0 0 12.422759397044842 3.0755784955963463 0 3.0755784955963463 -34.48731643545284 0 0 0 0 20.192385242399478 -9.7612643190773269 0 -9.7612643190773269 -16.595667837624205 0 0 0 0 -11.92739261708644 -44.492044805231899 0 -44.492044805231899 -3.5446974653859797 0 0 0 0 -29.132152335095924 -13.492986777692749 0 -13.492986777692749 -38.347307070149327 0 0 0 0 6.9111236534929503 0.29176729107166466 0 0.29176729107166466 -23.150450707933487 0 0 0 0 -27.360691548139172 -36.986509222272616 0 -36.986509222272616 -33.026128466466616 0 0 0 0 5.7632772768614302 -44.901736964814518 0 -44.901736964814518 -94.640234820457408 0 0 0 0 0.56962942133695205 -0.17192636993079091 0 -0.17192636993079091 1.1976255903757664 0 0 0 0 -0.091894359819519877 -2.4794882757560117 0 -2.4794882757560117 9.1906916233765514 0 0 0 0 -0.044777841555616094 -1.9921236734914345 0 -1.9921236734914345 2.8501180275772668 0 0 0 0 -19.067882304317422 -46.957667847142488 0 -46.957667847142488 -16.369612632188364 0 0 0 0 1.1351623465391398 2.6432372057679459 0 2.6432372057679459 11.234679657271045 0 0 0 0 1.7061653660292002 2.4937764813021204 0 2.4937764813021204 10.838729497131681 0 0 0 0 -3.1667472985000549 6.5740516769528767 0 6.5740516769528767 14.496502001651606 0 0 0 0 -2.2154668403463518 -40.064654017385692 0 -40.064654017385692 -19.540784010356219 0 0 0 0 -22.653549769512932 -12.000751629081385 0 -12.000751629081385 8.1544729147044563 0 0 0 0 -22.665025536831422 -10.727825944045435 0 -10.727825944045435 83.1649296026917 0 0 0 0 -31.36650468960595 0.34086849884405979 0 0.34086849884405979 6.4308605261030607 0 0 0 0 -32.068062606952267 -12.00703065732705 0 -12.00703065732705 19.948594560989477 0 0 0 0 -0.099056421840596903 0.59095789641222041 0 0.59095789641222041 1.0329152217410105 0 0 0 0 -11.067013177907112 -70.381404353584003 0 -70.381404353584003 562.1250459869425 0 0 0 0 -14.461269234876131 107.97164255107509 0 107.97164255107509 -31.669221041453056 0 0 0 0 -3.851455055988275 -31.514534686037678 0 -31.514534686037678 195.48341385062486 0 0 0 0 -3.0372798399315828 -24.317972990123053 0 -24.317972990123053 257.51951584402195 0 0 0 0 -0.31479862496404321 1.6070704122418604 0 1.6070704122418604 2.4446802256003224 0 0 0 0 0.055045032863301931 3.8233820221184942 0 3.8233820221184942 114.85570010895754 0 0 0 0 0.96396876050989277 2.5366602957992654 0 2.5366602957992654 7.3157806613371577 0 0 0 0 -0.014989001160684641 -0.45896280637645148 0 -0.45896280637645148 0.93067291965812871 0 0 0 0 -0.15564616802374967 -18.668557975009346 0 -18.668557975009346 34.950332488748245 0 0 0 0 3.890333451953957 -6.3449894725699778 0 -6.3449894725699778 5.5393950553079776 0 0 0 0 0.048303079814586508 -2.1097888641905023 0 -2.1097888641905023 3.2620307001718132 0 0 0 0 0.32762353727861449 -0.10086463711775195 0 -0.10086463711775195 -0.0073050753061050244 0 0 0 0 0.39973114308471125 3.3758373850578209 0 3.3758373850578209 12.198026403527365 0 0 0 0 0.17942500827451885 0.24588339560111905 0 0.24588339560111905 0.092824568585678335 0 0 0 0 0.07854144754972156 -0.050196338239967275 0 -0.050196338239967275 0.063144171545980399 0 0 0 0 1.548039460499318 2.4516019391676309 0 2.4516019391676309 10.415534224049225 0 0 0 0 0.0039895750944365328 3.8504000505872682 0 3.8504000505872682 11.767978364863666 0 0 0 0 0.010189248181453324 29.522806777226471 0 29.522806777226471 117.4886257266553 0 0 0 0 -13.121200200961155 11.560382535645658 0 11.560382535645658 173.23704882053198 0 0 0 0 0.26843542817121602 -6.5560600312737733 0 -6.5560600312737733 71.947804549790817 0 0 0 0 -21.138129614137803 40.909157652430622 0 40.909157652430622 99.022948673164365 0 0 0 0 40.52540964182424 29.640198780263745 0 29.640198780263745 99.976024730884092 0 0 0 0 1.0260199226754028 0.66532879091034403 0 0.66532879091034403 -0.13043676317962216 0 0 0 0 -56.019748215875836 43.31597789211628 0 43.31597789211628 208.73313587334906 0 0 0 0 21.804544288130046 51.262496475535045 0 51.262496475535045 182.58540882960187 0 0 0 0 72.553370659947447 111.5850960409698 0 111.5850960409698 165.30723445785407 0 0 0 0 44.468927433276974 67.791487413172035 0 67.791487413172035 98.052812851468843 0 0 0 0 -0.31661877421151008 0.17592821699920691 0 0.17592821699920691 0.18222044797557402 0 0 0 0 -55.090777577201592 -34.181195294689132 0 -34.181195294689132 -15.837366352147001 0 0 0 0 -59.728721089429598 -0.61622756367881948 0 -0.61622756367881948 54.898734708978736 0 0 0 0 -23.522377359159236 4.7126296503593039 0 4.7126296503593039 26.485708007902758 0 0 0 0 -24.895726988563482 -3.2793556199876548 0 -3.2793556199876548 3.858745067423115 0 0 0 0 -29.017772863042026 14.753778785850045 0 14.753778785850045 9.5430469927850936 0 0 0 0 -0.85937312876755101 14.307110117923912 0 14.307110117923912 10.865844006481325 0 0 0 0 -12.628569785681684 20.980600240014155 0 20.980600240014155 10.23410680298548 0 0 0 0 -0.00179896059221669 29.685068908201394 0 29.685068908201394 38.203383770409346 0 0 0 0 -11.52816255943759 30.686945825059411 0 30.686945825059411 23.103877006460607 0 0 0 0 7.6197539366373803 7.5404226967402792 0 7.5404226967402792 8.2004191772614377 0 0 0 0 2.2238658833417446 4.2600932468316728 0 4.2600932468316728 6.6245785546457228 0 0 0 0 -3.9128239245629857 10.440022782946926 0 10.440022782946926 10.158021511767288 0 0 0 0 2.1312766864692154 4.4545995568520276 0 4.4545995568520276 8.9454816793030467 0 0 0 0 12.120025198639041 0.79052258662488839 0 0.79052258662488839 7.6741708998692957 0 0 0 0 24.062111965598433 3.7381059775323138 0 3.7381059775323138 3.3269138371887834 0 0 0 0 24.609652883189824 5.6890795812266219 0 5.6890795812266219 1.8339952823985186 0 0 0 0 26.11075739901662 4.6524275023159589 0 4.6524275023159589 2.5342756004069997 0 0 0 0 24.219914528012396 3.4303352039573838 0 3.4303352039573838 3.2060439592689818 0 0 0 0 26.267201241633757 6.1026549412938493 0 6.1026549412938493 1.606706099767905 0 0 0 0 27.81057960772182 6.2190994782240523 0 6.2190994782240523 1.5448709849110855 0 0 0 0 21.097228656210291 6.2603587420836675 0 6.2603587420836675 4.1297222364501636 0 0 0 0 19.03396780306025 6.9878058519694832 0 6.9878058519694832 4.4319118802209232 0 0 0 0 12.409844547583816 11.195182096679275 0 11.195182096679275 10.322486055323452 0 0 0 0 22.614871896620798 9.0667337446923852 0 9.0667337446923852 4.9791342338571667 0 0 0 0 30.400868276580695 11.601637119212683 0 11.601637119212683 5.6721182670842154 0 0 0 0 32.176565989622986 14.469986154308117 0 14.469986154308117 17.974246614713138 0 0 0 0 26.348295679997136 7.7229756738596507 0 7.7229756738596507 10.301299837069905 0 0 0 0 7.8215679464858567 6.7850275087829459 0 6.7850275087829459 9.6775179326309626 0 0 0 0 22.246551698502572 18.561189816264459 0 18.561189816264459 14.702688070151225 0 0 0 0 2.8811971257703135 9.8754281271804984 0 9.8754281271804984 12.194451163773465 0 0 0 0 5.7805310472238034 3.2409474806812568 0 3.2409474806812568 7.4549317424072967 0 0 0 0 1.6827204370428905 4.1603416546623766 0 4.1603416546623766 8.4263701302234697 0 0 0 0 -0.028946036093316252 6.4613484013986522 0 6.4613484013986522 10.988714690784946 0 0 0 0 -2.4491785678778797 2.5090361016099223 0 2.5090361016099223 9.5783762531915499 0 0 0 0 0.41780314349365089 1.0146335319903033 0 1.0146335319903033 1.5759936702115223 0 0 0 0 1.879627139062952 3.8444057028020748 0 3.8444057028020748 6.6599836789010842 0 0 0 0 -13.006424577383171 5.6208178618602744 0 5.6208178618602744 9.5930192829607392 0 0 0 0 -12.064235932001679 -0.92515705459490505 0 -0.92515705459490505 6.7448884918865986 0 0 0 0 -12.450843415987869 0.61953754200137823 0 0.61953754200137823 16.638571089212576 0 0 0 0 1.4719108754692343 6.9059062758321375 0 6.9059062758321375 9.3413269292378232 0 0 0 0 1.1975117668496296 8.0749834453931726 0 8.0749834453931726 5.1721860568260354 0 0 0 0 -0.44598872939598677 1.4813924208399296 0 1.4813924208399296 1.3301215298678453 0 0 0 0 7.7225033065664661 7.8273264153592095 0 7.8273264153592095 13.342762486926077 0 0 0 0 -8.1114183154739408 17.063222714823922 0 17.063222714823922 44.904899507078952 0 0 0 0 -2.7460325063693176 6.99530904187381 0 6.99530904187381 9.893797072566187 0 0 0 0 -19.458453063386344 -17.090955605142881 0 -17.090955605142881 -5.6682957428760119 0 0 0 0 -26.930529211536793 9.995715822404577 0 9.995715822404577 17.17291010396508 0 0 0 0 3.4208260787420528 15.722777426740926 0 15.722777426740926 -12.141820903949906 0 0 0 0 -0.40040933003801094 0.053613015026932054 0 0.053613015026932054 -0.27352435546199771 0 0 0 0 -19.280848752615498 17.439213870907452 0 17.439213870907452 11.629901970170636 0 0 0 0 -4.6382094100731592 -6.2484795126488848 0 -6.2484795126488848 -7.9624964161586576 0 0 0 0 -28.857426753163168 3.5137736536482294 0 3.5137736536482294 18.682579780976312 0 0 0 0 3.7456133783790051 11.554290550729405 0 11.554290550729405 1.8947385791450984 0 0 0 0 1.7960919046116146 5.5853434166620843 0 5.5853434166620843 7.0018544555672406 0 0 0 0 1.6102245801953359 4.6977345924069596 0 4.6977345924069596 9.4562836758209414 0 0 0 0 1.831287364911077 8.1721451351453425 0 8.1721451351453425 10.239916167607547 0 0 0 0 -5.0489835226024979 7.002106799680007 0 7.002106799680007 23.657382975281052 0 0 0 0 -6.5437406322366769 11.29507632876745 0 11.29507632876745 14.576070993236499 0 0 0 0 4.5466410663938746 9.7236077292978393 0 9.7236077292978393 19.095644533385439 0 0 0 0 -0.027530512875442392 -0.062432705930473453 0 -0.062432705930473453 0.14640867218505305 0 0 0 0 2.2743735513087344 18.558053227579883 0 18.558053227579883 33.462379071870373 0 0 0 0 -13.619009330186259 5.3930050515679682 0 5.3930050515679682 25.796751595813262 0 0 0 0 -8.8439790907512474 11.685947548235276 0 11.685947548235276 30.499828817960065 0 0 0 0 -11.921915564366543 5.5858620563647037 0 5.5858620563647037 18.9225114764712 0 0 0 0 -16.207393122782889 8.6221955102267316 0 8.6221955102267316 24.819968230194831 0 0 0 0 -9.8949514885182452 1.5639288858296823 0 1.5639288858296823 29.54839284268273 0 0 0 0 -12.447748829484709 5.8621277982786353 0 5.8621277982786353 22.458266306920223 0 0 0 0 -0.041656967635825159 -0.078511299642040733 0 -0.078511299642040733 0.17155147338839583 0 0 0 0 -12.100763201590425 -24.15088214347557 0 -24.15088214347557 0.79381236047424864 0 0 0 0 -10.673786750718023 0.57447392223969018 0 0.57447392223969018 15.542595707870987 0 0 0 0 5.0426200221885438 0.27711329591664935 0 0.27711329591664935 -8.0631716786436982 0 0 0 0 -8.6988289381729942 0.87162789908137484 0 0.87162789908137484 11.655244874298148 0 0 0 0 -0.080499914741439804 -0.14895664360736127 0 -0.14895664360736127 0.31502407482150474 0 0 0 0 -5.8909310569533773 -6.3120333200433265 0 -6.3120333200433265 12.172447910107962 0 0 0 0 -3.0516393389679197 3.2731172721061208 0 3.2731172721061208 15.761630161665494 0 0 0 0 3.5193144168857771 -10.586692667045554 0 -10.586692667045554 21.821751881383193 0 0 0 0 -7.5991821210779875 3.5951823367600753 0 3.5951823367600753 29.49252638771668 0 0 0 0 10.310709022804645 6.7042523193281767 0 6.7042523193281767 7.8684974480937626 0 0 0 0 -3.6236623522081572 11.016781381150167 0 11.016781381150167 21.852768240752326 0 0 0 0 -2.5243770923599982 -21.222856842108683 0 -21.222856842108683 19.93770998229752 0 0 0 0 -1.5525826991178224 -2.0263911958784435 0 -2.0263911958784435 9.972974100785013 0 0 0 0 -9.6281202415329972 -11.357264781992853 0 -11.357264781992853 13.616256090468596 0 0 0 0 -7.5528869714114535 3.5557764945926067 0 3.5557764945926067 12.8078414460781 0 0 0 0 1.4963102946537674 2.0406645809955535 0 2.0406645809955535 7.9603450892091132 0 0 0 0 -0.98637613977700767 0.23169782283588347 0 0.23169782283588347 13.290223496573738 0 0 0 0 -0.57923940637994065 2.5542870045925952 0 2.5542870045925952 3.5068097243738521 0 0 0 0 -3.3835221993226696 1.8395310663321425 0 1.8395310663321425 8.7437232527855997 0 0 0 0 -5.2627669942207831 -14.103754768111799 0 -14.103754768111799 -7.1923470548261399 0 0 0 0 -10.945506120022173 -5.5067304333878155 0 -5.5067304333878155 11.740470758647916 0 0 0 0 2.8313791726326087 4.7545147870069684 0 4.7545147870069684 12.946289009330599 0 0 0 0 -4.1933990259280165 2.406355067759371 0 2.406355067759371 20.726334421545971 0 0 0 0 -4.1517838489690035 2.6999814365082102 0 2.6999814365082102 13.24281796302671 0 0 0 0 -0.77036767163605191 3.2769514746377126 0 3.2769514746377126 28.746905694314819 0 0 0 0 5.5000082482630432 4.6134298881150357 0 4.6134298881150357 7.9089959470259856 0 0 0 0 34.109759543525342 -2.5762105550024899 0 -2.5762105550024899 5.9612595583926122 0 0 0 0 25.555217808202087 1.2018865097875278 0 1.2018865097875278 4.3759216980151905 0 0 0 0 28.731975076449544 3.0590937137121728 0 3.0590937137121728 4.090004759253361 0 0 0 0 31.425885115598476 4.5593378518546501 0 4.5593378518546501 4.7242122037387162 0 0 0 0 27.273958199847002 4.9047937318431849 0 4.9047937318431849 2.5191154761614598 0 0 0 0 27.063020299106171 1.4266841332483011 0 1.4266841332483011 4.0481969368756836 0 0 0 0 20.014504881633911 0.60003096176069448 0 0.60003096176069448 6.5325351492056143 0 0 0 0 20.2657843357415 -0.33261069964282797 0 -0.33261069964282797 7.6075747738622113 0 0 0 0 1.8037903977068721 4.4810658466671489 0 4.4810658466671489 9.8293238977056401 0 0 0 0 16.440084479665074 0.18795540008386524 0 0.18795540008386524 10.221607773220057 0 0 0 0 25.864320759626025 -2.2840088726638612 0 -2.2840088726638612 7.8827789035913156 0 0 0 0 20.26468952380128 -1.3314784852946104 0 -1.3314784852946104 10.396424024641874 0 0 0 0 32.855082594801843 -10.273847350536244 0 -10.273847350536244 14.508948755556048 0 0 0 0 14.502469528058555 -13.871168534998105 0 -13.871168534998105 17.036919422993378 0 0 0 0 -0.56992075833360811 0.98271683317648684 0 0.98271683317648684 1.4948997542524971 0 0 0 0 35.960786564974569 -10.905375798814475 0 -10.905375798814475 14.626038626108993 0 0 0 0 25.109296983789136 -6.6558673406423168 0 -6.6558673406423168 14.179757563329076 0 0 0 0 45.234143010120079 -0.54767212133458543 0 -0.54767212133458543 6.6120632513134296 0 0 0 0 -0.4585191131815809 -0.64995958486754812 0 -0.64995958486754812 1.4932309327008682 0 0 0 0 55.124406216002853 -15.027121613051577 0 -15.027121613051577 8.2003537719110682 0 0 0 0 -1.2405335318733794 -1.0132491786757132 0 -1.0132491786757132 9.818840400190016 0 0 0 0 0.15198701874783183 -11.003166457618931 0 -11.003166457618931 12.964719477585277 0 0 0 0 12.948622156785177 1.6917565849510083 0 1.6917565849510083 7.0406945223685398 0 0 0 0 -0.18974439702355994 8.4235491713332067 0 8.4235491713332067 19.259997606176967 0 0 0 0 44.747173346467207 7.7495081312345064 0 7.7495081312345064 7.8887727414125948 0 0 0 0 44.042080616809926 -4.9517823056837642 0 -4.9517823056837642 0.94063925312821084 0 0 0 0 23.406654338463568 -7.2052151106072415 0 -7.2052151106072415 21.254951747631139 0 0 0 0 48.396578342805185 12.512951627353573 0 12.512951627353573 14.678172363672957 0 0 0 0 20.246456115795354 4.4064469215632016 0 4.4064469215632016 13.733213571328406 0 0 0 0 12.801202067533268 5.7816551245844039 0 5.7816551245844039 7.0515031863341164 0 0 0 0 18.265319716256499 3.5784012358496966 0 3.5784012358496966 2.8464016981454421 0 0 0 0 15.747070827577772 2.9944947521983067 0 2.9944947521983067 -0.054237188498746036 0 0 0 0 0.96592418834989902 -2.0945998115363875 0 -2.0945998115363875 4.5685309831498202 0 0 0 0 -4.8605243592774059 -7.1694791759658756 0 -7.1694791759658756 10.170563983101374 0 0 0 0 1.5191865943168068 3.4302099001674833 0 3.4302099001674833 11.698559190477681 0 0 0 0 4.2520394526894734 -3.3370598689944018 0 -3.3370598689944018 8.6756835386286184 0 0 0 0 -3.5372636277202218 -4.0498742431232131 0 -4.0498742431232131 6.9605684850841953 0 0 0 0 5.1626238616943283 6.3268336542729458 0 6.3268336542729458 10.390516005576956 0 0 0 0 1.2260185505433383 -2.7207171218712012 0 -2.7207171218712012 6.072885289887525 0 0 0 0 13.673564673958253 6.0903638405904985 0 6.0903638405904985 6.079100269648734 0 0 0 0 -2.9507253610267981 -2.7681089807690569 0 -2.7681089807690569 7.7887227362093654 0 0 0 0 4.5503690409632327 1.1462563713535019 0 1.1462563713535019 7.4380556737351071 0 0 0 0 11.161212538693235 -0.31920717267348664 0 -0.31920717267348664 4.2511104639224868 0 0 0 0 10.78377867804511 1.9140332637364281 0 1.9140332637364281 5.3608759969956736 0 0 0 0 15.651696517522623 5.3498813355195125 0 5.3498813355195125 5.4913582641752328 0 0 0 0 21.08129980245667 3.7856404869114613 0 3.7856404869114613 2.6742683550091897 0 0 0 0 27.021847565386906 7.4377075522190808 0 7.4377075522190808 4.399722616147983 0 0 0 0 21.18985538770221 5.153342183386485 0 5.153342183386485 3.7907456383863973 0 0 0 0 20.069176309479303 3.9797232455706535 0 3.9797232455706535 7.7848014510441317 0 0 0 0 32.068260643186932 9.4751520742606772 0 9.4751520742606772 9.8206033482379098 0 0 0 0 18.130522678666352 6.5475294777593263 0 6.5475294777593263 9.0177551205697455 0 0 0 0 19.118170878708952 0.95107305946640963 0 0.95107305946640963 7.1736794553685286 0 0 0 0 13.185359474004144 0.95922832461542384 0 0.95922832461542384 4.7474712586699184 0 0 0 0 -1.7542971746040972 -2.2804524436327895 0 -2.2804524436327895 3.6088891840840631 0 0 0 0 -3.7843589508820514 3.2252700486205867 0 3.2252700486205867 11.468056740402972 0 0 0 0 12.352446837173147 9.2635156628753066 0 9.2635156628753066 14.661494413127002 0 0 0 0 -2.2192464979875695 -0.30722911385419138 0 -0.30722911385419138 10.907296200983637 0 0 0 0 -1.3600983310834636 -1.8107782561680779 0 -1.8107782561680779 8.8569030073558679 0 0 0 0 -0.45075496313282493 -0.39550555874191939 0 -0.39550555874191939 8.1040486992348519 0 0 0 0 -6.7670584781631362 -3.4316014543774145 0 -3.4316014543774145 19.028857163109933 0 0 0 0 0.0012573270160533001 -1.5785297682016179 0 -1.5785297682016179 -0.099574593956873514 0 0 0 0 -1.4469730544287813 -1.5982218348945025 0 -1.5982218348945025 4.823063498850388 0 0 0 0 -0.70662879735175177 -3.9048694176251608 0 -3.9048694176251608 4.6065616613161424 0 0 0 0 -3.6109364944682056 -3.3338130778756749 0 -3.3338130778756749 2.8963068707307684 0 0 0 0 -0.1469434306521511 -1.8382311594111318 0 -1.8382311594111318 4.1734419160492173 0 0 0 0 -1.3182968387042853 0.35603122402462972 0 0.35603122402462972 10.83440257971974 0 0 0 0 4.9933501805828655 -2.5592604947942164 0 -2.5592604947942164 -0.80702092759020161 0 0 0 0 -0.10207660350535586 0.47137813373368243 0 0.47137813373368243 2.6841116731506318 0 0 0 0 26.718266026244919 15.158731819426066 0 15.158731819426066 15.227959607258526 0 0 0 0 6.3190426332528205 -0.82554508376142621 0 -0.82554508376142621 12.674271764588411 0 0 0 0 0.23490518145696093 0.38716637305503276 0 0.38716637305503276 1.9649342334098172 0 0 0 0 -3.0657437570962429 -13.055661991889792 0 -13.055661991889792 2.0544367583660232 0 0 0 0 1.2879937304426221 10.636258993799856 0 10.636258993799856 13.321939139918413 0 0 0 0 -0.98129148345180339 -0.81624506345186765 0 -0.81624506345186765 7.2400944153156033 0 0 0 0 -3.1079089119341461 -2.2886918209078431 0 -2.2886918209078431 24.088917893892358 0 0 0 0 8.1572310946138487 -1.2011399085390622 0 -1.2011399085390622 5.9023534469524748 0 0 0 0 8.7161934466803359 -1.0970114769352222 0 -1.0970114769352222 4.9078285120549481 0 0 0 0 10.611972348880499 -2.7355286406782398 0 -2.7355286406782398 4.2457547877811521 0 0 0 0 4.2134287908916122 -0.15364584878625465 0 -0.15364584878625465 5.6222460407961989 0 0 0 0 1.0980761308799174 -1.8121199957536192 0 -1.8121199957536192 5.2314487528241784 0 0 0 0 -16.545233773760401 -1.4863565396458398 0 -1.4863565396458398 9.649606687047708 0 0 0 0 4.4070474128961905 1.7533366915567967 0 1.7533366915567967 1.3528305092295341 0 0 0 0 3.4300606508782039 15.473344498630468 0 15.473344498630468 -9.0300311523185428 0 0 0 0 -6.1389483976839756 -7.1137327144770097 0 -7.1137327144770097 -5.0594036257080006 0 0 0 0 3.2003345930805267 0.6999612688457546 0 0.6999612688457546 6.3841544314909697 0 0 0 0 -17.438917702920662 7.6589742293044765 0 7.6589742293044765 41.281813322442758 0 0 0 0 0.078956787882494384 0.93517689887588062 0 0.93517689887588062 6.4286926791205978 0 0 0 0 -10.651380417390101 -13.198051920617218 0 -13.198051920617218 11.770296528158724 0 0 0 0 2.8423013132066899 1.4659901354989415 0 1.4659901354989415 4.7600872204056941 0 0 0 0 -9.2033743525399814 -3.2895977746936751 0 -3.2895977746936751 6.6217103951639729 0 0 0 0 2.5392275438607612 1.007146760687192 0 1.007146760687192 6.7471547375889713 0 0 0 0 0.32021316540765943 -1.2545539011747611 0 -1.2545539011747611 4.4351848362644883 0 0 0 0 4.3242227903298271 -2.1808515332803609 0 -2.1808515332803609 0.90137302421862842 0 0 0 0 0.27070824804870619 -0.74910758838893843 0 -0.74910758838893843 4.8558129542306929 0 0 0 0 1.6261409518895107 4.8738938834321743 0 4.8738938834321743 4.2673082394933317 0 0 0 0 -7.2322344003367789 -2.8144127044299694 0 -2.8144127044299694 10.309412883372715 0 0 0 0 4.4421212474552476 -3.6719642242562713 0 -3.6719642242562713 6.7913203714197152 0 0 0 0 1.5092930194405856 -3.3949220431988989 0 -3.3949220431988989 7.599312519227551 0 0 0 0 -2.3519728524204311 6.0361938618407294 0 6.0361938618407294 8.1921000460056348 0 0 0 0 -2.5632275280202066 2.9644284900969069 0 2.9644284900969069 11.331760620711975 0 0 0 0 0.48766337483302913 -0.93801446906361585 0 -0.93801446906361585 1.6654396451571571 0 0 0 0 -4.7778656660418619 -12.262243761611103 0 -12.262243761611103 10.631001289399137 0 0 0 0 -12.088478781639651 -8.5945464655210344 0 -8.5945464655210344 14.55540810362254 0 0 0 0 0.55998012610728987 -1.7612180395281662 0 -1.7612180395281662 7.4210504933754713 0 0 0 0 -13.01122543794736 1.4513657524721566 0 1.4513657524721566 10.51418992748404 0 0 0 0 0.34267144557496126 -0.3324197820981496 0 -0.3324197820981496 5.5730243127949457 0 0 0 0 -2.9185928566141683 1.1184386335444287 0 1.1184386335444287 7.1065882330212844 0 0 0 0 15.589680790444049 0.95800766258525982 0 0.95800766258525982 4.2906565029043122 0 0 0 0 7.3525748866800313 -1.1675512763886218 0 -1.1675512763886218 3.4011758337700257 0 0 0 0 10.489515099199252 2.0455830814271394 0 2.0455830814271394 3.1354936628904397 0 0 0 0 12.673668247487853 6.4964525423583837 0 6.4964525423583837 12.753052930644117 0 0 0 0 -2.8477037542045309 2.034246519957378 0 2.034246519957378 17.598117984340206 0 0 0 0 3.2198275631028537 7.6775901958344548 0 7.6775901958344548 22.824109393926847 0 0 0 0 3.2720842360974984 -15.205409428401254 0 -15.205409428401254 28.613434636627062 0 0 0 0 -4.2863604674271869 -2.5237109572872214 0 -2.5237109572872214 7.3758783065695752 0 0 0 0 24.223801788169453 -5.8323516446666872 0 -5.8323516446666872 -2.1980867987476813 0 0 0 0 -34.64183621745633 17.103149912251411 0 17.103149912251411 55.305799368960834 0 0 0 0 -6.2619709658659986 -2.0766588423466601 0 -2.0766588423466601 8.6130029111782278 0 0 0 0 -0.9836806280389041 -0.46075318917511843 0 -0.46075318917511843 6.8718636890169336 0 0 0 0 -1.7413136824108879 -2.2822967743538953 0 -2.2822967743538953 5.11017442207973 0 0 0 0 5.173844826169443 -28.16912750094798 0 -28.16912750094798 -5.2998743977987033 0 0 0 0 0.0062690130755737039 -0.75481460734077643 0 -0.75481460734077643 0.92628301153773407 0 0 0 0 -3.0275639407180108 -0.29947894835447642 0 -0.29947894835447642 7.5460768826051208 0 0 0 0 19.08247201614779 -7.8144450116742519 0 -7.8144450116742519 -1.4200304700261768 0 0 0 0 -1.0941245366909089 0.28286263219213659 0 0.28286263219213659 5.1573089318543524 0 0 0 0 0.023387485160951738 -1.768761812939011 0 -1.768761812939011 5.2751804704115841 0 0 0 0 -5.3949439964974317 -0.26226486388623016 0 -0.26226486388623016 5.3499550616943452 0 0 0 0 1.2148641632501267 -4.101195730560903 0 -4.101195730560903 11.190330732259099 0 0 0 0 -7.3762163680395929 1.7256686882528811 0 1.7256686882528811 10.473682485898962 0 0 0 0 -0.93403471775776836 -0.67701311869950587 0 -0.67701311869950587 6.3983399639764684 0 0 0 0 -2.3585835000397992 -1.7791666044904559 0 -1.7791666044904559 6.2212066699903517 0 0 0 0 -5.4110303853680541 -3.2154134099531859 0 -3.2154134099531859 9.5491467104166077 0 0 0 0 -0.40781983934510413 -0.019240324741541137 0 -0.019240324741541137 7.2886207039946669 0 0 0 0 -1.3920232797481589 -1.591323458318584 0 -1.591323458318584 4.249118198911674 0 0 0 0 -5.3037075482456686 -0.76410992572505165 0 -0.76410992572505165 9.7615710985846817 0 0 0 0 -1.2595017255115484 -0.5592396712701202 0 -0.5592396712701202 3.9000891093566601 0 0 0 0 6.3202295673739286 -7.7095579178254638 0 -7.7095579178254638 3.1168436434381874 0 0 0 0 -1.8167609651753764 -5.4471023611085911 0 -5.4471023611085911 2.9934605742946587 0 0 0 0 1.8862930326479272 5.5593845405419415 0 5.5593845405419415 -5.5493093317375042 0 0 0 0 -0.67970110501751746 -0.30789610736062123 0 -0.30789610736062123 4.7918181426669406 0 0 0 0 1.5718936264534911 -5.8644613271211199 0 -5.8644613271211199 11.831563104498855 0 0 0 0 1.4206271813975491 -3.9321639772188064 0 -3.9321639772188064 6.9084225588376285 0 0 0 0 3.6187004899277326 -0.29401863563543884 0 -0.29401863563543884 11.209689440428519 0 0 0 0 -2.2717735311905471 2.3658387907616998 0 2.3658387907616998 16.01206985380486 0 0 0 0 -7.018964928234027 11.651077547743171 0 11.651077547743171 -1.6723936984617467 0 0 0 0 -0.11294281522147442 -3.2024483334840417 0 -3.2024483334840417 11.200478974779642 0 0 0 0 -2.4640428288585099 -8.1660333598852048 0 -8.1660333598852048 24.479942068825039 0 0 0 0 -0.47785376562700987 -1.1448297736087909 0 -1.1448297736087909 2.8298243953869893 0 0 0 0 -1.4146627686419597 -0.7815506761918698 0 -0.7815506761918698 3.2839233306893316 0 0 0 0 1.5084605343517978 -3.3563615319781093 0 -3.3563615319781093 29.771319270847016 0 0 0 0 3.5946889417155035 -8.4607220222060278 0 -8.4607220222060278 28.994391867712466 0 0 0 0 -10.287680075685785 -3.1021208349957305 0 -3.1021208349957305 6.5383706278635145 0 0 0 0 0.44484530605379957 -1.6380816359859625 0 -1.6380816359859625 7.1256641997644863 0 0 0 0 -16.875675617105571 -9.5871946453246437 0 -9.5871946453246437 33.636978574706518 0 0 0 0 6.1134306862036283 7.6721934383117514 0 7.6721934383117514 -19.158881513050801 0 0 0 0 -9.2761628723937974 4.020126242845663 0 4.020126242845663 33.718264538512813 0 0 0 0 0.13713334590572757 0.3148685331143275 0 0.3148685331143275 0.33645933070619094 0 0 0 0 90.314724070172815 -46.961639469755028 0 -46.961639469755028 11.414545022296807 0 0 0 0 22.446542436778145 -23.084995778662005 0 -23.084995778662005 22.914814740097427 0 0 0 0 40.786525876093606 47.73655757315646 0 47.73655757315646 -12.996856493045925 0 0 0 0 -1.632010950732365 -3.8461172140418967 0 -3.8461172140418967 4.2322222011407575 0 0 0 0 1.7606201737354574 -3.9579526037585504 0 -3.9579526037585504 8.6171084494580921 0 0 0 0 -6.895027445978485 -5.197366889171235 0 -5.197366889171235 7.0942948451465782 0 0 0 0 -7.3123495310948385 -10.523598880644556 0 -10.523598880644556 7.2790823578161508 0 0 0 0 -1.2844322406549509 -11.716808077949736 0 -11.716808077949736 12.208512334233092 0 0 0 0 -1.4273940934242546 -7.9830781639905695 0 -7.9830781639905695 6.5652615252056421 0 0 0 0 -3.7591176136994591 -11.188456996138143 0 -11.188456996138143 4.9778107521374295 0 0 0 0 -0.66645418666985279 -7.8554132831563948 0 -7.8554132831563948 6.2522159620375533 0 0 0 0 -1.9958687458110944 -6.9083519532323407 0 -6.9083519532323407 6.3808799829530471 0 0 0 0 3.3763767437444585 -6.8675397790971147 0 -6.8675397790971147 5.3557800981125183 0 0 0 0 -1.3878977242443398 -9.2758811274627533 0 -9.2758811274627533 6.2075079164351337 0 0 0 0 -1.0847375450168784 -8.9203621234555612 0 -8.9203621234555612 2.4025356097085933 0 0 0 0 -4.5259268917454847 -5.4431825734397989 0 -5.4431825734397989 3.8242783480050093 0 0 0 0 -2.0275239116458579 -9.2291690038221077 0 -9.2291690038221077 7.3170632700293936 0 0 0 0 2.6486623024666187 -6.7113606484099364 0 -6.7113606484099364 4.9200127293108835 0 0 0 0 1.1738110128778771 -8.4617415995151077 0 -8.4617415995151077 9.6802947942724131 0 0 0 0 7.8131445251924561 -7.2618099125807021 0 -7.2618099125807021 8.1235285851730623 0 0 0 0 -6.0906499021048148 -8.4098605837648392 0 -8.4098605837648392 9.7821366254431723 0 0 0 0 1.0832869257410493 -8.7489471449416669 0 -8.7489471449416669 7.8776361120817455 0 0 0 0 -3.2873086723352571 -10.438717735329305 0 -10.438717735329305 8.0240556451249176 0 0 0 0 0.20737115719975918 -6.3272480776840894 0 -6.3272480776840894 6.665359708183189 0 0 0 0 -0.67652268366737189 -7.2538024744876566 0 -7.2538024744876566 4.9866826320239852 0 0 0 0 2.0417369194966271 -4.1094472671824125 0 -4.1094472671824125 9.1586076772112683 0 0 0 0 -11.603731599970274 -12.665092484325385 0 -12.665092484325385 8.5943099795836133 0 0 0 0 -5.1869714790273065 -11.58867313333576 0 -11.58867313333576 3.8392819749515184 0 0 0 0 -10.929354128956675 -7.1123149838349491 0 -7.1123149838349491 8.9066087009232433 0 0 0 0 -0.82429194073893086 1.1906378364192278 0 1.1906378364192278 7.984404612761864 0 0 0 0 0.40420679717203711 -3.9733779959924505 0 -3.9733779959924505 8.8039402762551617 0 0 0 0 2.7207238256978599 -6.4669643486595305 0 -6.4669643486595305 1.693537022532837 0 0 0 0 3.5360820089862894 1.6877976834023549 0 1.6877976834023549 13.378184932986187 0 0 0 0 -1.3903993786381186 -1.7187198022587324 0 -1.7187198022587324 5.3844570382158246 0 0 0 0 1.0787580324512678 -3.1209648792965474 0 -3.1209648792965474 7.8885999303961221 0 0 0 0 -4.5756015230089817 -3.3905965428072022 0 -3.3905965428072022 12.347680291880351 0 0 0 0 -0.10041023311435993 -5.6728656295510973 0 -5.6728656295510973 5.5891559477749979 0 0 0 0 -2.9838076065992709 -1.947966196361449 0 -1.947966196361449 12.167134417545185 0 0 0 0 -0.99862057690552319 -5.9141763567340604 0 -5.9141763567340604 7.8542824635997022 0 0 0 0 -13.488672758928942 4.7631716596197293 0 4.7631716596197293 12.852802776918907 0 0 0 0 -0.39519998002427792 -3.4770096913647563 0 -3.4770096913647563 10.488270010025097 0 0 0 0 2.2545960338365205 -3.0451368880599148 0 -3.0451368880599148 6.3494722609639211 0 0 0 0 -0.95040880444645381 -1.0276473524007208 0 -1.0276473524007208 8.6606058528017265 0 0 0 0 -0.51179101651311498 6.8870323995906801 0 6.8870323995906801 19.42313220113283 0 0 0 0 -2.9681546272995831 -3.7939411595843922 0 -3.7939411595843922 19.61032198779867 0 0 0 0 24.99721642008717 1.9503636053937043 0 1.9503636053937043 1.8925540735244795 0 0 0 0 20.761567581611871 3.1809886000164624 0 3.1809886000164624 2.4782204527377871 0 0 0 0 20.038969861604073 0.37152550436184129 0 0.37152550436184129 2.0866104206324962 0 0 0 0 24.302898791367625 -0.32238236199123094 0 -0.32238236199123094 2.3717123805993197 0 0 0 0 23.593133890241916 2.8325320810615722 0 2.8325320810615722 2.3058231842727537 0 0 0 0 27.000122532941077 4.9532035758109032 0 4.9532035758109032 1.8932939752198763 0 0 0 0 26.257262285873367 4.9911768522426883 0 4.9911768522426883 1.3459894881677883 0 0 0 0 25.808276225582233 5.3453538976575317 0 5.3453538976575317 1.7651627990098859 0 0 0 0 23.31125836171941 5.1635686485608403 0 5.1635686485608403 1.8235619338192919 0 0 0 0 26.212750720410611 5.9304265590707743 0 5.9304265590707743 1.890241426756802 0 0 0 0 23.063342051611187 3.1543162295883604 0 3.1543162295883604 1.8977473862346415 0 0 0 0 17.488357926518802 3.5606100991578842 0 3.5606100991578842 3.3770333403888344 0 0 0 0 17.800063178845221 2.3261760276346308 0 2.3261760276346308 3.4312769131220193 0 0 0 0 9.0113216548152195 0.45160243589634774 0 0.45160243589634774 5.0890048899859721 0 0 0 0 10.834179279699583 -2.3230908403552348 0 -2.3230908403552348 3.8130410232288341 0 0 0 0 15.255554238896366 -0.17445432922431792 0 -0.17445432922431792 3.1844904742906976 0 0 0 0 15.069705070501186 1.2219114320882909 0 1.2219114320882909 3.8375112829423017 0 0 0 0 13.806732988990007 0.70375839180769617 0 0.70375839180769617 3.8093550240892 0 0 0 0 13.96567337585293 -0.6976713021708747 0 -0.6976713021708747 3.1536067072665901 0 0 0 0 -3.4485672420519222 -6.9078245245227663 0 -6.9078245245227663 7.1754980895175322 0 0 0 0 4.8463841325292378 -1.7486149492860932 0 -1.7486149492860932 6.5194345731877092 0 0 0 0 6.748914776231004 -3.1426449072260993 0 -3.1426449072260993 4.745058293976399 0 0 0 0 9.5854692370576231 -1.5099729635962831 0 -1.5099729635962831 4.643441685555814 0 0 0 0 0.15883461141493171 -5.5000312013196435 0 -5.5000312013196435 5.9523089324993634 0 0 0 0 4.1444862114731222 -3.7061145740935899 0 -3.7061145740935899 4.7366400501721273 0 0 0 0 0.70811051912096445 -6.0689137881731767 0 -6.0689137881731767 3.8895052502602994 0 0 0 0 -0.8489555980967225 -4.7383306965917882 0 -4.7383306965917882 5.5560279041064859 0 0 0 0 1.5325737033413134 -6.3774762374471266 0 -6.3774762374471266 4.9690457306624012 0 0 0 0 9.6962870458755788 -4.1711340067115543 0 -4.1711340067115543 4.2865878103311843 0 0 0 0 9.0854523129974041 -3.5603095946307803 0 -3.5603095946307803 4.203361963725456 0 0 0 0 5.4480689134497879 -4.8399587222768332 0 -4.8399587222768332 4.6855233725345897 0 0 0 0 12.938520922711177 -2.3981016105076378 0 -2.3981016105076378 4.3040238394607577 0 0 0 0 3.8542754085860906 -5.4121632106634934 0 -5.4121632106634934 5.5819941400072821 0 0 0 0 8.9743159127838226 -4.9722699658864258 0 -4.9722699658864258 4.4405856628502534 0 0 0 0 4.1955437380556759 -5.9833142238012442 0 -5.9833142238012442 4.8934168657183363 0 0 0 0 13.789023212470966 -1.2332650934272351 0 -1.2332650934272351 3.7502594480711764 0 0 0 0 16.792711435115962 -2.6254364406806872 0 -2.6254364406806872 2.8630607435397906 0 0 0 0 17.903540332550619 0.40286835672668531 0 0.40286835672668531 3.0106071888872066 0 0 0 0 17.415813896262534 -0.83687868747006178 0 -0.83687868747006178 4.0790882087887894 0 0 0 0 18.631909817040423 -2.0081025293534367 0 -2.0081025293534367 4.1151871564184148 0 0 0 0 13.418499512516973 -3.83210144948589 0 -3.83210144948589 6.9455897985612864 0 0 0 0 15.763039614642366 -4.9091342435076513 0 -4.9091342435076513 3.9448581195219958 0 0 0 0 17.901398639583476 -2.9374296729706657 0 -2.9374296729706657 5.2375109891108877 0 0 0 0 3.7389366817762948 -7.4920290283772601 0 -7.4920290283772601 6.1697902253463326 0 0 0 0 13.558944270283973 -4.4261038771651329 0 -4.4261038771651329 4.4227344942753462 0 0 0 0 9.3310070324409935 -5.7783395080309674 0 -5.7783395080309674 5.4349310063134908 0 0 0 0 9.1737526377814902 -6.0889039078351743 0 -6.0889039078351743 7.2666116513955785 0 0 0 0 15.484909043893822 -6.8362806508516769 0 -6.8362806508516769 6.4299917526914214 0 0 0 0 3.9883179225980712 -8.492404612357177 0 -8.492404612357177 6.7469075397921188 0 0 0 0 9.1181355652024649 -5.7303944925322412 0 -5.7303944925322412 5.0159015149341712 0 0 0 0 9.9439896645671979 -7.9248057964503005 0 -7.9248057964503005 8.1821363236949765 0 0 0 0 6.7643506785743739 -5.348900532758762 0 -5.348900532758762 7.2265595709618538 0 0 0 0 11.261210867074396 -5.0383080822893476 0 -5.0383080822893476 9.257416298044518 0 0 0 0 19.197532822090125 -6.0147379089862625 0 -6.0147379089862625 8.2373444604077122 0 0 0 0 12.212572642474697 -7.5897058178063617 0 -7.5897058178063617 12.176294007238084 0 0 0 0 8.8649674378675627 -4.3508043557469591 0 -4.3508043557469591 10.220348489327648 0 0 0 0 23.347536811610212 -0.56695202545211032 0 -0.56695202545211032 7.3317447756230649 0 0 0 0 23.634328261869541 -4.5544413614909445 0 -4.5544413614909445 13.874283241048943 0 0 0 0 20.195302480576856 -6.1287289327593726 0 -6.1287289327593726 7.3460695502303679 0 0 0 0 20.17213208080102 -1.4807239456738444 0 -1.4807239456738444 11.354878362736599 0 0 0 0 33.340517782850839 4.4279822383725786 0 4.4279822383725786 9.3342434180124201 0 0 0 0 32.02031497048074 -4.8491550388043834 0 -4.8491550388043834 7.7104920051590398 0 0 0 0 32.088807698918117 0.29927387068619282 0 0.29927387068619282 5.3178699891921042 0 0 0 0 26.085262767835502 -2.4988687784612011 0 -2.4988687784612011 3.7462464011755401 0 0 0 0 26.941826463486905 3.1411466888942812 0 3.1411466888942812 3.8114152318153174 0 0 0 0 27.242353992870449 1.271025832960504 0 1.271025832960504 2.7723905205959909 0 0 0 0 28.651536201533418 6.3059099497661464 0 6.3059099497661464 2.911403859528491 0 0 0 0 30.972800832532712 4.8213255216911008 0 4.8213255216911008 3.4355890084834755 0 0 0 0 33.396625301605354 1.6798266056694047 0 1.6798266056694047 14.170919586505306 0 0 0 0 31.48105304155979 7.024921952651539 0 7.024921952651539 7.1691417014126273 0 0 0 0 40.778923130991643 5.0501988901116874 0 5.0501988901116874 7.5855407706691267 0 0 0 0 49.940924619010502 7.3640206040840894 0 7.3640206040840894 15.307477142706148 0 0 0 0 34.901879533525289 12.023612270392846 0 12.023612270392846 38.605927915757775 0 0 0 0 76.825408738055103 30.340358996102736 0 30.340358996102736 40.671886682380318 0 0 0 0 48.116983063622911 4.6124688882615601 0 4.6124688882615601 49.808129864934244 0 0 0 0 44.778482656031429 14.611349073989459 0 14.611349073989459 28.781510710859521 0 0 0 0 33.128229850819935 -1.9906255910848358 0 -1.9906255910848358 26.453696258033887 0 0 0 0 34.009982076150891 -0.37327605468988168 0 -0.37327605468988168 13.162326416510268 0 0 0 0 20.293833691207055 -3.3428579775753633 0 -3.3428579775753633 23.465260555723034 0 0 0 0 20.3129342187558 -2.9110373600906314 0 -2.9110373600906314 10.854124461939136 0 0 0 0 14.723930765318073 -2.0210369158601225 0 -2.0210369158601225 13.241728278852349 0 0 0 0 8.4809978074151786 -7.4586900043356081 0 -7.4586900043356081 12.718427380342291 0 0 0 0 19.763463876638639 -1.7744525712854227 0 -1.7744525712854227 8.2630667529124366 0 0 0 0 24.42979445830133 3.8289033522374893 0 3.8289033522374893 9.8635130706054497 0 0 0 0 14.903116694118808 -1.4695642114032239 0 -1.4695642114032239 10.25199011775203 0 0 0 0 14.479211642294104 -1.92662590760699 0 -1.92662590760699 18.287224666597012 0 0 0 0 27.620766208847272 10.179087651591658 0 10.179087651591658 18.858789803827676 0 0 0 0 31.188062550007999 2.4406176485158539 0 2.4406176485158539 35.571949984035655 0 0 0 0 20.788977349923243 2.6932072456324931 0 2.6932072456324931 9.7844589414385155 0 0 0 0 44.330453714565465 11.017356760269763 0 11.017356760269763 3.1632761576642565 0 0 0 0 37.299043306694557 -6.6027310760715636 0 -6.6027310760715636 0.22995346049583532 0 0 0 0 -0.46977123846648183 -0.66319817059318797 0 -0.66319817059318797 -0.78501473470080763 0 0 0 0 46.140393633426356 16.974887131953892 0 16.974887131953892 -22.8685194251334 0 0 0 0 106.14181735304373 73.380621111362188 0 73.380621111362188 -51.362080205627194 0 0 0 0 33.740724178556093 72.228553223422864 0 72.228553223422864 39.484502813314577 0 0 0 0 52.006439965023901 35.51834945855569 0 35.51834945855569 13.538075543512377 0 0 0 0 48.968425265366477 47.495781136595951 0 47.495781136595951 69.183592278019432 0 0 0 0 -7.8718587497551198 -12.017382334154718 0 -12.017382334154718 -3.9436770808279107 0 0 0 0 -11.129009369568848 -15.876899884335216 0 -15.876899884335216 5.6732070377547643 0 0 0 0 -15.881132027720241 3.8247121657450407 0 3.8247121657450407 -9.386820392064692 0 0 0 0 -7.2182482842954414 2.3772606738839386 0 2.3772606738839386 14.479145963512565 0 0 0 0 -2.2025471358664603 -3.941935173241232 0 -3.941935173241232 8.2815271533616972 0 0 0 0 -2.0233552158819497 1.6118838629527685 0 1.6118838629527685 5.6805688324013559 0 0 0 0 -26.755779398400136 10.995503514346638 0 10.995503514346638 -0.24317783752849209 0 0 0 0 -43.720213855643323 -3.8607634878702584 0 -3.8607634878702584 9.3683341601281427 0 0 0 0 -34.131322579848074 3.2300725929844702 0 3.2300725929844702 14.38684718415243 0 0 0 0 -1.479613517859633 -4.1859756552685212 0 -4.1859756552685212 7.9914780765302567 0 0 0 0 -4.3093874943025661 -6.816375710153352 0 -6.816375710153352 10.39297430728584 0 0 0 0 -0.3644439294870645 -3.2258767608441516 0 -3.2258767608441516 9.5208582343709445 0 0 0 0 -23.262194921580885 -5.1726929954256775 0 -5.1726929954256775 10.871695365884079 0 0 0 0 -6.788117947271644 -5.2355458758063378 0 -5.2355458758063378 9.7465803393911301 0 0 0 0 0.42241924361554406 -3.2266237226132115 0 -3.2266237226132115 9.3768869355604672 0 0 0 0 -10.11996460340788 -8.7017288999463744 0 -8.7017288999463744 10.577809792325297 0 0 0 0 -5.9231429847786785 -5.8830545282971798 0 -5.8830545282971798 9.8128749086317839 0 0 0 0 0.70079219818208838 -4.869842969293475 0 -4.869842969293475 9.2629314937185505 0 0 0 0 -4.2049843169820731 -5.2078492419000773 0 -5.2078492419000773 -0.0033207127623837707 0 0 0 0 -6.2342432188786461 -7.6721223543369206 0 -7.6721223543369206 7.7112711194080248 0 0 0 0 -0.25291991397103752 -11.83703604237863 0 -11.83703604237863 22.822100029941975 0 0 0 0 -2.1945506515994566 -6.4701599604463809 0 -6.4701599604463809 9.5965437568502239 0 0 0 0 -5.7220601317289947 -6.0383179139141703 0 -6.0383179139141703 11.348815977741879 0 0 0 0 -9.4433910208092584 -5.804332079996243 0 -5.804332079996243 8.9711088423737237 0 0 0 0 -6.6547045854240423 -6.1152431318712388 0 -6.1152431318712388 5.3606929665506868 0 0 0 0 -4.6128956125335208 -8.555107725822154 0 -8.555107725822154 8.2299589401959565 0 0 0 0 -8.2953921460616584 -7.2797422962298697 0 -7.2797422962298697 10.723269349411567 0 0 0 0 1.576658256662995 -8.218848169642115 0 -8.218848169642115 10.582256881063131 0 0 0 0 -2.7828191518308358 -5.7950288077466894 0 -5.7950288077466894 9.8958984104701813 0 0 0 0 6.4091250315159414 -4.739264486000593 0 -4.739264486000593 10.032599177742441 0 0 0 0 0.78080199230407743 -7.234851693364817 0 -7.234851693364817 11.432860609677391 0 0 0 0 6.6429364322557376 -8.6800138769091291 0 -8.6800138769091291 9.1178550552085653 0 0 0 0 -0.82256902010567501 -3.9242602060153331 0 -3.9242602060153331 11.894076890822419 0 0 0 0 2.3484627664332152 -1.4312245119229487 0 -1.4312245119229487 2.129239865576892 0 0 0 0 -0.56082316676838673 -9.1707682119264291 0 -9.1707682119264291 9.4514299616619155 0 0 0 0 60.11976552956753 108.29164181495082 0 108.29164181495082 -145.87061045418568 0 0 0 0 35.864658335449576 -51.084135151718783 0 -51.084135151718783 -20.076142815240701 0 0 0 0 46.201668421217164 3.5170812865917469 0 3.5170812865917469 -114.52157515082041 0 0 0 0 39.127412227601553 -46.045318404221916 0 -46.045318404221916 -31.244615699985502 0 0 0 0 23.416664549285002 -42.23375068473473 0 -42.23375068473473 -27.583334024158148 0 0 0 0 -2.1241631593633654 -2.1557516769765241 0 -2.1557516769765241 -2.2780226645727049 0 0 0 0 -17.356711260416656 -38.435624204390933 0 -38.435624204390933 -6.1530236363309996 0 0 0 0 12.970401855884347 -36.830014533295753 0 -36.830014533295753 -15.915907680443411 0 0 0 0 -15.343869561872566 -30.873892154159535 0 -30.873892154159535 -15.295577780263329 0 0 0 0 -61.178201060893798 -50.45784907423149 0 -50.45784907423149 -2.2710697178690111 0 0 0 0 -15.058250190686408 -61.405431593300477 0 -61.405431593300477 -3.7813970592828809 0 0 0 0 -41.362004817818828 -30.203955573630878 0 -30.203955573630878 -8.9696503370673781 0 0 0 0 -87.265539195887754 -104.12466947146936 0 -104.12466947146936 19.326572054869757 0 0 0 0 -2.0703257689499113 3.1497746468576908 0 3.1497746468576908 3.7714472577094398 0 0 0 0 1.0853343651249103 -6.9447519414752001 0 -6.9447519414752001 28.101358893081432 0 0 0 0 -72.766933387580536 -29.021071902988069 0 -29.021071902988069 3.4330389969450152 0 0 0 0 106.18676808814234 -124.60677432847297 0 -124.60677432847297 -71.34085338107252 0 0 0 0 616.68260772133726 -65.219807079782186 0 -65.219807079782186 -147.34568360833873 0 0 0 0 -6.8836956202412694 24.111832384201989 0 24.111832384201989 103.54383625491027 0 0 0 0 -49.214088547149686 -5.9924962179106842 0 -5.9924962179106842 20.749788813435316 0 0 0 0 -1.8143571591141088 -2.8643285666005789 0 -2.8643285666005789 18.275919307116716 0 0 0 0 -11.623518882750091 -4.8561650919382373 0 -4.8561650919382373 8.3282316951272151 0 0 0 0 -12.476425346365005 -20.070698814128491 0 -20.070698814128491 31.08718809021957 0 0 0 0 -0.3300537665912201 0.32168284831770899 0 0.32168284831770899 2.4054880607631901 0 0 0 0 -13.029761635354816 173.52403057652191 0 173.52403057652191 45.728268628612568 0 0 0 0 -0.55773261511568695 -3.8058591261791941 0 -3.8058591261791941 13.514946078090937 0 0 0 0 -21.493755763493709 -10.125504545814692 0 -10.125504545814692 87.619377264927607 0 0 0 0 -17.269873566922797 -19.007345079147854 0 -19.007345079147854 65.069140243471338 0 0 0 0 -17.809758282106941 5.9824770291288587 0 5.9824770291288587 84.791172780410307 0 0 0 0 -68.872763659810602 -7.1508176025525927 0 -7.1508176025525927 117.99879993844661 0 0 0 0 -77.798882527895188 28.360949124378976 0 28.360949124378976 -18.568595887313677 0 0 0 0 -109.938278783489 -28.432864922156909 0 -28.432864922156909 87.731529674358171 0 0 0 0 -129.00665745017881 -106.82721703839235 0 -106.82721703839235 30.308961618593457 0 0 0 0 -45.718832993251546 -94.830839889453728 0 -94.830839889453728 -44.12434454006825 0 0 0 0 33.209951066910207 -51.69836395522907 0 -51.69836395522907 55.819871130076081 0 0 0 0 -4.022740229942201 -36.077506808743124 0 -36.077506808743124 50.192785390227527 0 0 0 0 6.6172985208794444 -91.928107355089992 0 -91.928107355089992 17.20881488035684 0 0 0 0 -54.13105467697514 -74.412258398271206 0 -74.412258398271206 40.333038475679132 0 0 0 0 -7.6284697130391805 -38.396603925378372 0 -38.396603925378372 155.88380780505577 0 0 0 0 -5.117347755109563 -13.397923697948499 0 -13.397923697948499 12.509928040421073 0 0 0 0 -8.403609854332899 67.117427758481426 0 67.117427758481426 203.84404755274272 0 0 0 0 43.175122559506235 -91.728399371558453 0 -91.728399371558453 295.44114978164225 0 0 0 0 53.117304235938263 66.280076804276632 0 66.280076804276632 297.90349349295565 0 0 0 0 70.589444682131202 -95.941625871987767 0 -95.941625871987767 43.473322732192628 0 0 0 0 32.510571560062544 -16.718286147297022 0 -16.718286147297022 148.34687515948008 0 0 0 0 188.74598189747121 -92.647720237284602 0 -92.647720237284602 87.412518538534641 0 0 0 0 80.249449775531957 -2.6481660884047926 0 -2.6481660884047926 29.293881411819257 0 0 0 0 102.54180067439904 86.825635451047702 0 86.825635451047702 193.77765733838282 0 0 0 0 86.059839705768127 298.15001242277003 0 298.15001242277003 650.86398720853686 0 0 0 0 20.04731863115353 -35.021954629795459 0 -35.021954629795459 708.91227200417552 0 0 0 0 95.034342661444498 -173.83109233174457 0 -173.83109233174457 -2.3588315205965955 0 0 0 0 0.58839670017650114 -1.5429057145922149 0 -1.5429057145922149 6.1446013331645117 0 0 0 0 352.61432297511101 388.94523401925869 0 388.94523401925869 396.59570854623826 0 0 0 0 177.69498937320645 158.63551613907612 0 158.63551613907612 97.155538941653504 0 0 0 0 23.705288676402233 159.56827075884667 0 159.56827075884667 383.4575445177752 0 0 0 0 70.106340541076179 222.89905837228207 0 222.89905837228207 323.67159997271665 0 0 0 0 13.797016340989103 154.54641388631535 0 154.54641388631535 283.05367410632607 0 0 0 0 13.151966009367698 133.01995668930431 0 133.01995668930431 212.06261304988948 0 0 0 0 -13.759309518098689 60.115522196067559 0 60.115522196067559 396.55303779096948 0 0 0 0 -0.47420832540609581 191.15079887076854 0 191.15079887076854 359.36463365754571 0 0 0 0 -30.42174598431923 96.215231139148955 0 96.215231139148955 294.07353335368589 0 0 0 0 -6.9091174983120709 75.296957185241467 0 75.296957185241467 193.99792519226139 0 0 0 0 -18.553124345926669 191.73184479212887 0 191.73184479212887 286.24148063758639 0 0 0 0 -28.279968820707126 175.06187792025594 0 175.06187792025594 369.38283908386893 0 0 0 0 -23.816855752025049 127.45533078133849 0 127.45533078133849 375.66333505522311 0 0 0 0 180.2934547332444 194.26012412818068 0 194.26012412818068 47.935843126801956 0 0 0 0 9.6888658792748146 20.127490420947652 0 20.127490420947652 472.78964920425682 0 0 0 0 -26.528492038923886 241.47372465079161 0 241.47372465079161 493.94917975181932 0 0 0 0 -36.495928598864879 -55.567355954194227 0 -55.567355954194227 25.746241652158005 0 0 0 0 18.800147544951002 113.27507621876339 0 113.27507621876339 161.18624249107188 0 0 0 0 -24.068818138996903 42.462101674234191 0 42.462101674234191 289.32752146125495 0 0 0 0 -25.866712402756548 27.145147131272665 0 27.145147131272665 180.72046420936817 0 0 0 0 -22.269361593044096 -6.726048554568365 0 -6.726048554568365 128.77385474506923 0 0 0 0 6.9064261152582276 48.943074847811772 0 48.943074847811772 116.55419307674129 0 0 0 0 44.774056952293449 55.06075801983377 0 55.06075801983377 25.420832039668994 0 0 0 0 50.498841994669988 75.505588832827414 0 75.505588832827414 93.84205094631352 0 0 0 0 27.222344535413185 130.80476283111784 0 130.80476283111784 191.62349311147113 0 0 0 0 105.36385894801424 166.71024446030333 0 166.71024446030333 51.482625078624778 0 0 0 0 44.717501256607193 -38.881109576701078 0 -38.881109576701078 71.630320839480873 0 0 0 0 416.50387529273848 -54.765454416397915 0 -54.765454416397915 251.00800428323021 0 0 0 0 84.994714001698867 202.25811509303605 0 202.25811509303605 473.74530504769541 0 0 0 0 22.586132287479359 53.764814721503626 0 53.764814721503626 199.61622309586448 0 0 0 0 -33.151762411146137 -46.453459503666465 0 -46.453459503666465 315.39123545831853 0 0 0 0 -57.094062589276291 -74.596718378442347 0 -74.596718378442347 562.87564818633473 0 0 0 0 96.469716335126577 -215.7836224885051 0 -215.7836224885051 140.25386897793305 0 0 0 0 31.246614208137316 -204.98191976900512 0 -204.98191976900512 408.05793265197099 0 0 0 0 58.196753593835638 -7.7933941857668287 0 -7.7933941857668287 63.182104440940179 0 0 0 0 17.869793133703979 -121.81859064254297 0 -121.81859064254297 263.00877820820733 0 0 0 0 45.048300240030812 -115.33084877471492 0 -115.33084877471492 142.69440696833635 0 0 0 0 -22.254030153093026 -68.2003540249857 0 -68.2003540249857 245.78281995686802 0 0 0 0 2.208346811431511 -81.632508239417461 0 -81.632508239417461 213.06714866789639 0 0 0 0 3.5817569430068943 -81.287682353862806 0 -81.287682353862806 177.52864348566231 0 0 0 0 -32.816835312668445 -36.003637414185846 0 -36.003637414185846 238.39111286923253 0 0 0 0 -29.625454258626633 -51.769473228591664 0 -51.769473228591664 276.04990682415723 0 0 0 0 -30.359244378471431 -36.583139917102358 0 -36.583139917102358 215.24902652955552 0 0 0 0 -49.254035124600705 -22.296527328887237 0 -22.296527328887237 233.02607716806619 0 0 0 0 -37.816651347734478 -42.814123790789267 0 -42.814123790789267 221.46440231537917 0 0 0 0 -27.489447308729723 -53.735460003535877 0 -53.735460003535877 218.43353768468478 0 0 0 0 -3.9707170705651151 -69.619123506054848 0 -69.619123506054848 204.18887078844932 0 0 0 0 -25.46421238510095 -47.537322175378904 0 -47.537322175378904 207.92692210554151 0 0 0 0 -28.633468461634493 -42.966287633647539 0 -42.966287633647539 202.45127734197581 0 0 0 0 -38.885889215437601 -27.030317783409942 0 -27.030317783409942 204.43395920335365 0 0 0 0 -26.904673773988179 -39.869414210119089 0 -39.869414210119089 207.32422700589214 0 0 0 0 -40.061221805040532 -27.879472290871036 0 -27.879472290871036 205.90278898168992 0 0 0 0 -44.185215852610327 -32.554738331209592 0 -32.554738331209592 208.27036682158521 0 0 0 0 -0.7179230265978731 -31.111117908169035 0 -31.111117908169035 194.51461775964606 0 0 0 0 -38.828529988488299 -25.859693849155406 0 -25.859693849155406 209.04211865959411 0 0 0 0 -39.111051290034652 -7.9881202011685843 0 -7.9881202011685843 180.59752481014198 0 0 0 0 -41.033827434202067 -16.70633878558499 0 -16.70633878558499 177.48030153273373 0 0 0 0 -48.510711968960209 -28.701732977058356 0 -28.701732977058356 206.15739518674741 0 0 0 0 -0.54143078177889947 -136.30141619688493 0 -136.30141619688493 8.6506897854492149 0 0 0 0 0.042796642900157167 -120.21049907728334 0 -120.21049907728334 218.03200435871196 0 0 0 0 0.24629227180821545 -25.891339576409905 0 -25.891339576409905 120.43755131975263 0 0 0 0 20.285860567722239 19.846202187451468 0 19.846202187451468 165.61429632398801 0 0 0 0 19.453776882004114 8.3625547994877643 0 8.3625547994877643 20.235001480258006 0 0 0 0 -26.728067886362169 -28.171235252040105 0 -28.171235252040105 221.45299003778865 0 0 0 0 -0.089675167847563131 0.41182416380226439 0 0.41182416380226439 0.94211992104432518 0 0 0 0 -25.439609973192319 57.703197442247586 0 57.703197442247586 -7.5050188454634963 0 0 0 0 -41.354391301939359 -2.7994921158415309 0 -2.7994921158415309 182.16824130773858 0 0 0 0 -18.36192410922331 -6.8806478060321297 0 -6.8806478060321297 72.833281462157174 0 0 0 0 -28.033599787273715 -40.829225977347278 0 -40.829225977347278 159.74382234923195 0 0 0 0 -57.914837699151349 41.753166952037191 0 41.753166952037191 64.435962160853023 0 0 0 0 0.078964690436056806 0.88229422656226753 0 0.88229422656226753 1.5692043288554345 0 0 0 0 -11.346303571601766 -3.5155820010415937 0 -3.5155820010415937 5.8801687862339804 0 0 0 0 -27.546047953742573 10.966995599659413 0 10.966995599659413 25.422945180182751 0 0 0 0 32.817466824184919 84.500298568543428 0 84.500298568543428 -38.135891619687982 0 0 0 0 0.048362663846900134 0.44659071277068829 0 0.44659071277068829 0.80585625608467915 0 0 0 0 -4.9487610447893076 -23.923469326899294 0 -23.923469326899294 132.62234949034814 0 0 0 0 -12.040924850987722 5.9445117071851428 0 5.9445117071851428 88.281832771808354 0 0 0 0 -4.6868697232696093 -24.981643254027311 0 -24.981643254027311 62.840578154831519 0 0 0 0 -26.647082180551138 -20.456035205541468 0 -20.456035205541468 57.078883581283719 0 0 0 0 -14.62698383428976 -15.435819325736848 0 -15.435819325736848 56.593645372382298 0 0 0 0 -7.8952220761937042 -14.154298596680633 0 -14.154298596680633 55.754574792013671 0 0 0 0 -17.770341567474588 -7.666617797269339 0 -7.666617797269339 61.109242804055384 0 0 0 0 -3.4343672635286566 -14.572714450647709 0 -14.572714450647709 50.573632908344962 0 0 0 0 5.1473159606915715 1.0658989905388125 0 1.0658989905388125 17.232212156262221 0 0 0 0 0.31618082834393135 6.557438480196879 0 6.557438480196879 32.329565050919086 0 0 0 0 0.064669017043762267 -0.064697281726912137 0 -0.064697281726912137 -0.27295394866807676 0 0 0 0 -0.18262823666168515 -7.8690038552010719 0 -7.8690038552010719 1.8006385928570694 0 0 0 0 -1.3522702742318984 13.847192114581148 0 13.847192114581148 72.401459847081696 0 0 0 0 -2.0881895518955389 0.78046294101943658 0 0.78046294101943658 26.147691598120844 0 0 0 0 40.048125487569905 8.5187134502890558 0 8.5187134502890558 19.126441451006798 0 0 0 0 18.629063362567763 24.700099060886203 0 24.700099060886203 53.76416118764223 0 0 0 0 22.754516154554949 43.561049248440213 0 43.561049248440213 120.66962404468094 0 0 0 0 4.6341526698500957 8.2098286912889193 0 8.2098286912889193 55.352724999213024 0 0 0 0 10.113236203982297 16.784523389969252 0 16.784523389969252 -4.3221324788252531 0 0 0 0 -0.57704592395376153 14.156620687482423 0 14.156620687482423 -1.3940224549774065 0 0 0 0 -9.0510605042543375 24.276164638433087 0 24.276164638433087 2.8436531825698381 0 0 0 0 4.2687835808086447 8.5449719341006585 0 8.5449719341006585 9.9263327923976874 0 0 0 0 1.5725648148129636 15.194299490303298 0 15.194299490303298 -1.1202297674145427 0 0 0 0 0.017913529174928167 -0.061783753932845409 0 -0.061783753932845409 0.15527051783269424 0 0 0 0 -10.004111888967259 1.2884840225206773 0 1.2884840225206773 7.5379867881642042 0 0 0 0 3.6396477912537364 5.7977241321311226 0 5.7977241321311226 10.512663786819985 0 0 0 0 8.1930178863296987 -12.459460818862112 0 -12.459460818862112 25.826930258711172 0 0 0 0 -3.3174375823373907 -13.449410462092516 0 -13.449410462092516 32.819273648947274 0 0 0 0 1.6456275951829493 2.9278205750445121 0 2.9278205750445121 5.241849220232532 0 0 0 0 -7.1425240626478512 23.448891434328349 0 23.448891434328349 9.3013834250567928 0 0 0 0 4.3632346740419052 -5.8047604852326913 0 -5.8047604852326913 21.797454638510999 0 0 0 0 32.769288622156296 -42.805241908784922 0 -42.805241908784922 46.587850008107011 0 0 0 0 15.094677698574515 -19.72918506669771 0 -19.72918506669771 18.178509478796514 0 0 0 0 10.072189044607285 -32.655877576618309 0 -32.655877576618309 50.484900463340182 0 0 0 0 -15.283741336324169 -24.339104127352389 0 -24.339104127352389 65.178236667113424 0 0 0 0 -2.3147702583366936 -42.124491164385176 0 -42.124491164385176 87.87800350427608 0 0 0 0 5.1937789680780497 -33.343020601954322 0 -33.343020601954322 64.33553991983058 0 0 0 0 19.045197341761536 -78.049557729242565 0 -78.049557729242565 167.55413939184882 0 0 0 0 84.25918931733645 -82.674204132292061 0 -82.674204132292061 38.589560675105702 0 0 0 0 1.1200633954775219 1.9361171330455935 0 1.9361171330455935 3.5995769871470253 0 0 0 0 30.205236546942047 2.3776198441748093 0 2.3776198441748093 -17.428951699467461 0 0 0 0 28.775902784140698 -11.457546827193617 0 -11.457546827193617 16.945414369296259 0 0 0 0 23.291225682505427 17.071100910010458 0 17.071100910010458 -36.450454395447082 0 0 0 0 2.1399026007538282 30.569781239895391 0 30.569781239895391 -20.211910709237202 0 0 0 0 38.462616522763369 -27.055716158019351 0 -27.055716158019351 -0.21511099539463885 0 0 0 0 0.41767701991248174 0.59865604002559314 0 0.59865604002559314 1.4945098804198138 0 0 0 0 144.388184781772 12.807400375767429 0 12.807400375767429 14.777727840149083 0 0 0 0 239.74581712542727 24.722254728982364 0 24.722254728982364 256.26326104386874 0 0 0 0 71.331973339095725 106.59382283770816 0 106.59382283770816 207.04021705287369 0 0 0 0 136.06674315257669 -106.28095507570089 0 -106.28095507570089 194.43080968279355 0 0 0 0 28.381890229262581 -56.259233045378039 0 -56.259233045378039 346.10134679152804 0 0 0 0 122.51561376962354 2.5724145491375339 0 2.5724145491375339 307.40569146015002 0 0 0 0 58.968013354989353 -68.485756605692131 0 -68.485756605692131 214.59543320654325 0 0 0 0 0.36175107469648538 -56.809846461801214 0 -56.809846461801214 321.99705083988908 0 0 0 0 13.33488683503947 95.064184629793999 0 95.064184629793999 291.65464080506081 0 0 0 0 71.369311240742206 -97.797116930715418 0 -97.797116930715418 -1.588254420202162 0 0 0 0 0.69017156892735487 -0.76857334446045356 0 -0.76857334446045356 1.0800798991094229 0 0 0 0 73.486230270081478 -118.21060561891508 0 -118.21060561891508 168.57385021293021 0 0 0 0 127.1244753659912 -96.813674664650591 0 -96.813674664650591 46.405262916160169 0 0 0 0 59.441692239800489 -86.383345889492674 0 -86.383345889492674 194.26495626799965 0 0 0 0 -32.544773242617339 27.112532774514079 0 27.112532774514079 102.47208738938265 0 0 0 0 -23.437411939719141 -3.5507698686993194 0 -3.5507698686993194 198.06780166921283 0 0 0 0 -0.95057057285430346 0.6682497800298961 0 0.6682497800298961 172.18257573597214 0 0 0 0 11.483491551726502 70.794370307563611 0 70.794370307563611 125.81753095633718 0 0 0 0 -23.465905061223538 40.264880148920071 0 40.264880148920071 121.51494854890382 0 0 0 0 -50.392721251715102 33.814710956416803 0 33.814710956416803 129.30552717095961 0 0 0 0 -37.357648887205414 -71.000396602702409 0 -71.000396602702409 51.052618895109731 0 0 0 0 1.0708641192765489 -1.8480117599536825 0 -1.8480117599536825 2.63383752234621 0 0 0 0 -51.395898958284533 -12.175296784332858 0 -12.175296784332858 58.861078471040969 0 0 0 0 72.40474651991417 -9.1772231183741155 0 -9.1772231183741155 35.439666732427874 0 0 0 0 -71.263863466374517 47.262595529986882 0 47.262595529986882 534.70955897874342 0 0 0 0 0.55126737290735051 -0.99038592740143994 0 -0.99038592740143994 1.5671048362431883 0 0 0 0 -59.548285120578043 13.132625415348244 0 13.132625415348244 507.99783026748992 0 0 0 0 38.644765708000364 -32.020837667965708 0 -32.020837667965708 60.3291713295921 0 0 0 0 87.56216666371256 -45.413742139634948 0 -45.413742139634948 21.263501479170678 0 0 0 0 42.942514444601784 -10.970998793718508 0 -10.970998793718508 51.755609659734205 0 0 0 0 -3.1308408167612924 56.824260709367366 0 56.824260709367366 -47.875259813379699 0 0 0 0 8.1267644662350449 63.767641429801159 0 63.767641429801159 171.28158786590268 0 0 0 0 -8.6529271590258645 -63.585222451741231 0 -63.585222451741231 112.56886074778424 0 0 0 0 -26.513118294923004 -73.613629865461235 0 -73.613629865461235 147.99253867161701 0 0 0 0 -57.36941605154675 -54.607637158688064 0 -54.607637158688064 290.0830338706578 0 0 0 0 4.3919441758724815 -100.95542119292651 0 -100.95542119292651 29.608257634045913 0 0 0 0 -56.662071973031061 -152.99537507215143 0 -152.99537507215143 193.99763916803613 0 0 0 0 -6.9146656970370941 -87.572383528738783 0 -87.572383528738783 144.3789230756139 0 0 0 0 -9.6582927617145629 -83.35677821049461 0 -83.35677821049461 140.14395620616006 0 0 0 0 0.64977756462667902 -1.3992667144886135 0 -1.3992667144886135 1.7453367395769996 0 0 0 0 -34.104439394125166 85.925737298051928 0 85.925737298051928 551.5480023912246 0 0 0 0 0.2732630785976653 50.203103323650609 0 50.203103323650609 490.72843116809582 0 0 0 0 -67.766430452685199 -203.98931390360354 0 -203.98931390360354 -37.688785667099182 0 0 0 0 -66.496937663717972 -65.253011125453895 0 -65.253011125453895 29.852557863769846 0 0 0 0 -44.952361747737086 -209.97287309566929 0 -209.97287309566929 -139.74746825768125 0 0 0 0 -52.457251325243988 -73.900422917525248 0 -73.900422917525248 -120.76356890388192 0 0 0 0 -109.03249633741143 -92.580686561794892 0 -92.580686561794892 -58.98331483695938 0 0 0 0 -51.380752200886491 -12.358403669574955 0 -12.358403669574955 -85.629651666730751 0 0 0 0 -14.163853566630905 -53.190691944789023 0 -53.190691944789023 -20.390249835227451 0 0 0 0 -6.5680861998609998 6.8066305448787716 0 6.8066305448787716 25.966695731500067 0 0 0 0 -38.452817521361624 6.8141035128035696 0 6.8141035128035696 37.6629463413542 0 0 0 0 -60.086857841998551 -38.865783325568486 0 -38.865783325568486 2.1639961658070206 0 0 0 0 -16.780083776009633 12.398738677911069 0 12.398738677911069 -1.9025891870452085 0 0 0 0 -6.3546460604775348 -19.282146325064787 0 -19.282146325064787 52.41053879841229 0 0 0 0 -12.411670884015621 -39.140540893523962 0 -39.140540893523962 80.09710075359294 0 0 0 0 -10.489934389389646 24.905783066118374 0 24.905783066118374 98.295240572384046 0 0 0 0 -5.6292052559427646 -27.589470786623437 0 -27.589470786623437 143.36612363008476 0 0 0 0 -24.483001313454679 7.2409660312778215 0 7.2409660312778215 125.48106622642558 0 0 0 0 -20.137016933379087 30.639882114372327 0 30.639882114372327 157.97233389634448 0 0 0 0 -60.111174548422042 54.083205016377406 0 54.083205016377406 148.75550170812949 0 0 0 0 -43.452551128164885 84.798580770291267 0 84.798580770291267 149.67014650027932 0 0 0 0 30.150524607280886 127.78598025215683 0 127.78598025215683 174.05144363912723 0 0 0 0 18.238850095749058 76.453135255202483 0 76.453135255202483 110.50709579039562 0 0 0 0 -20.320363959723181 34.734618894471268 0 34.734618894471268 89.93683898815334 0 0 0 0 -31.355535833950398 18.302504556494569 0 18.302504556494569 73.650330833805128 0 0 0 0 -6.7301922754526231 45.193905534299631 0 45.193905534299631 121.1433941761552 0 0 0 0 7.1961329887253669 54.038970127406401 0 54.038970127406401 72.523892875310978 0 0 0 0 -65.834219480065258 25.763245346518943 0 25.763245346518943 64.882231690964545 0 0 0 0 -16.280329849177917 -2.215144332898717 0 -2.215144332898717 80.615422198880879 0 0 0 0 17.363480912722679 20.994660587418622 0 20.994660587418622 125.01574732501194 0 0 0 0 -28.833472525508569 39.887536979235165 0 39.887536979235165 118.33004878681163 0 0 0 0 62.988808073195059 50.202626540363553 0 50.202626540363553 119.92307624431132 0 0 0 0 270.9612768247664 227.73942377753679 0 227.73942377753679 177.2810340147762 0 0 0 0 5.4431340063871687 66.076360167553446 0 66.076360167553446 210.64490895769586 0 0 0 0 4.6027183984696194 102.87669498916841 0 102.87669498916841 186.28896027027372 0 0 0 0 120.85568348324477 70.744128546816683 0 70.744128546816683 57.186177250479432 0 0 0 0 67.244275052101329 87.797777577689658 0 87.797777577689658 73.149090431137438 0 0 0 0 0.072028471502586733 0.28595339173090251 0 0.28595339173090251 1.6658736969731951 0 0 0 0 -198.33706068746096 2.9979896466376204 0 2.9979896466376204 121.57269143229598 0 0 0 0 -208.76420546515141 98.300602493730821 0 98.300602493730821 41.588099975549994 0 0 0 0 -143.9865544701631 19.346039729800452 0 19.346039729800452 183.31036941704861 0 0 0 0 -124.19149114256032 111.32256498376856 0 111.32256498376856 220.12865025177052 0 0 0 0 -8.7675510624912931 -6.767030498828376 0 -6.767030498828376 45.325758227440986 0 0 0 0 26.454908130825061 52.600543144433516 0 52.600543144433516 76.459269308375212 0 0 0 0 -25.317528792769885 -24.545271096695764 0 -24.545271096695764 8.1564907541210232 0 0 0 0 -11.903045926148764 2.5545858481013681 0 2.5545858481013681 39.332324546556265 0 0 0 0 -1.1221975548038987 0.14641904059295552 0 0.14641904059295552 1.1298817219375494 0 0 0 0 49.158561262958756 72.258986877297048 0 72.258986877297048 40.297876595307372 0 0 0 0 20.228237328551359 108.09982696557188 0 108.09982696557188 190.03540387771909 0 0 0 0 -66.178037265435705 -28.459468875139919 0 -28.459468875139919 37.361429133013566 0 0 0 0 -0.42555308252390445 0.078495781480005355 0 0.078495781480005355 0.56308336433770378 0 0 0 0 38.435697827916556 37.100903588333722 0 37.100903588333722 60.512813889307154 0 0 0 0 -36.830621891139984 -51.345137586883354 0 -51.345137586883354 58.215166447990441 0 0 0 0 -24.774545826735448 -6.1221581026458125 0 -6.1221581026458125 94.623963649467441 0 0 0 0 -47.344705755491248 -39.704431984445961 0 -39.704431984445961 17.188174511870329 0 0 0 0 -25.360866925739629 17.73028418643753 0 17.73028418643753 63.35915639421728 0 0 0 0 -42.787029910454521 -51.765775548309307 0 -51.765775548309307 10.981520213065153 0 0 0 0 -31.080542147235292 -23.134899156141842 0 -23.134899156141842 -6.7708260918209362 0 0 0 0 -22.901427768763597 4.5267329633309146 0 4.5267329633309146 37.81440881707249 0 0 0 0 -2.0349437397756054 -3.7208212991363045 0 -3.7208212991363045 5.9631527716339132 0 0 0 0 -27.917765757674374 -58.033946155300612 0 -58.033946155300612 -44.99179892581742 0 0 0 0 -3.5955710917323813 -7.8198859571824073 0 -7.8198859571824073 10.473420207242413 0 0 0 0 -1.8628337834250246 -3.2941030627228365 0 -3.2941030627228365 5.5899032444269805 0 0 0 0 -4.0235409059239799 3.391938326624004 0 3.391938326624004 10.7746006378228 0 0 0 0 -3.6552580110044346 -0.21189524122580039 0 -0.21189524122580039 14.915367736289681 0 0 0 0 -15.974420062015042 12.989813824798773 0 12.989813824798773 2.6527167525641744 0 0 0 0 -160.85202750910503 -94.161515816146448 0 -94.161515816146448 -35.545930204202591 0 0 0 0 -50.400927274242804 -15.712096989878319 0 -15.712096989878319 -9.4589352475538817 0 0 0 0 -23.419216307836905 -57.744486193619196 0 -57.744486193619196 -70.960485068576077 0 0 0 0 -33.226757435100581 -80.72509865442089 0 -80.72509865442089 -64.321845943524295 0 0 0 0 2.0783409475738859 0.38561383559137452 0 0.38561383559137452 1.9875750956493541 0 0 0 0 -139.86103894007329 -66.598252732328774 0 -66.598252732328774 -19.680035048610762 0 0 0 0 -23.754041038146966 -68.728586968166098 0 -68.728586968166098 -182.79109669745003 0 0 0 0 -0.6853419332025279 -0.32095828121212344 0 -0.32095828121212344 2.5885674191066941 0 0 0 0 1.5689525153063615 -3.0958900208791964 0 -3.0958900208791964 3.8764451762155296 0 0 0 0 46.601167936914635 -15.460822671495919 0 -15.460822671495919 77.660808897245175 0 0 0 0 98.45872472528913 61.178206391317104 0 61.178206391317104 115.65074337298945 0 0 0 0 3.8479780419727376 29.959613708708673 0 29.959613708708673 87.49187848278153 0 0 0 0 -4.9346872470798644 21.435467483718895 0 21.435467483718895 171.48421194000878 0 0 0 0 -43.683227920832302 -6.1077838449314514 0 -6.1077838449314514 341.42403512538783 0 0 0 0 51.576059762697014 99.48398456329798 0 99.48398456329798 192.99790340339348 0 0 0 0 0.46153732747924003 -0.22380839399833952 0 -0.22380839399833952 -0.2005154038744888 0 0 0 0 -14.268150819966763 -12.740055290860454 0 -12.740055290860454 148.7617522977514 0 0 0 0 -1.3103860414253177 -34.708067982894931 0 -34.708067982894931 171.68923934044815 0 0 0 0 -21.370751845487803 -10.572139739319141 0 -10.572139739319141 184.80678036105826 0 0 0 0 -44.123638079021617 -14.281686998320644 0 -14.281686998320644 200.44235655326656 0 0 0 0 -30.645284122158046 -20.011490106519886 0 -20.011490106519886 185.58755828932667 0 0 0 0 -33.198582932062891 -30.486226735108744 0 -30.486226735108744 195.44388390495658 0 0 0 0 -26.650108929600719 -26.836123994047028 0 -26.836123994047028 195.00734021882624 0 0 0 0 -15.940612375833553 -29.321444181304287 0 -29.321444181304287 173.68067871082599 0 0 0 0 -11.940804274824586 -49.387954605717141 0 -49.387954605717141 192.15737683406496 0 0 0 0 -12.819081757786591 -54.793118759132909 0 -54.793118759132909 188.23788624319104 0 0 0 0 -1.3663347259735019 -48.970151783733399 0 -48.970151783733399 176.08032040855051 0 0 0 0 1.5031107604427234 -55.66985772978046 0 -55.66985772978046 181.72488643001316 0 0 0 0 5.4738613214431098 -47.819982437361887 0 -47.819982437361887 167.98170680507474 0 0 0 0 -2.6828633960262778 -44.914287839709345 0 -44.914287839709345 172.71323064002718 0 0 0 0 -10.881673503055936 -41.678549912209064 0 -41.678549912209064 185.83132011319378 0 0 0 0 -0.058003704855764227 -43.209842274897824 0 -43.209842274897824 172.03787050233407 0 0 0 0 -1.626674730902792 -0.76724394900274606 0 -0.76724394900274606 0.32755735676027686 0 0 0 0 3.9131138560437648 -43.537743554018675 0 -43.537743554018675 165.70305183121673 0 0 0 0 17.281670845070039 -52.888093840571855 0 -52.888093840571855 157.90821079249554 0 0 0 0 19.589833800328506 47.776029071799485 0 47.776029071799485 -29.477431714048635 0 0 0 0 0.075287173262522877 0.054343214199622292 0 0.054343214199622292 -0.033346884759983153 0 0 0 0 10.855748967702311 -47.989415067747359 0 -47.989415067747359 167.7054854279761 0 0 0 0 12.627117120729963 -68.338291789291929 0 -68.338291789291929 193.36213906353896 0 0 0 0 16.466731134009024 -50.607060159890352 0 -50.607060159890352 164.97804819913927 0 0 0 0 -0.88111149024825863 -47.015173539680006 0 -47.015173539680006 168.46521067614231 0 0 0 0 13.787519790681017 -62.832626636438306 0 -62.832626636438306 155.5711915204929 0 0 0 0 11.806224301414289 -51.507301996706246 0 -51.507301996706246 156.97019456296584 0 0 0 0 1.0553456177876797 -57.387566186593858 0 -57.387566186593858 175.43911400846946 0 0 0 0 10.190673352906742 -51.43797709636317 0 -51.43797709636317 168.53129318993979 0 0 0 0 11.755919306305259 -51.970169386744374 0 -51.970169386744374 165.78320837622607 0 0 0 0 11.232494033241892 -63.705031219575631 0 -63.705031219575631 174.27167036079481 0 0 0 0 7.6808503178872343 -59.160734674398554 0 -59.160734674398554 168.47973644364052 0 0 0 0 4.1565206742425289 -61.341673060259609 0 -61.341673060259609 180.45400308511944 0 0 0 0 -2.0193994370683868 -67.47530696430681 0 -67.47530696430681 181.79932158165457 0 0 0 0 17.447903638148091 -76.372670289724056 0 -76.372670289724056 179.02904776352807 0 0 0 0 31.456726534006521 -62.630174563374339 0 -62.630174563374339 140.17718666363839 0 0 0 0 38.872830490307933 -81.834797318161918 0 -81.834797318161918 164.52693570526526 0 0 0 0 20.407167180236229 -64.074217392147375 0 -64.074217392147375 141.02803072514428 0 0 0 0 28.216398182536977 -6.4252805722318271 0 -6.4252805722318271 118.32956357898047 0 0 0 0 1.0153407467555233 0.30862674799233236 0 0.30862674799233236 0.18228594951823585 0 0 0 0 29.299679863840538 -3.5769474537275983 0 -3.5769474537275983 115.51563094519884 0 0 0 0 83.556624755830853 -52.072942954699101 0 -52.072942954699101 120.99343636617323 0 0 0 0 5.6485754539780828 -21.93099650021577 0 -21.93099650021577 122.16289486601858 0 0 0 0 -61.868154965849953 -31.52446674528926 0 -31.52446674528926 18.167912265266011 0 0 0 0 28.321306051413217 -22.525369301599113 0 -22.525369301599113 -20.117808985183274 0 0 0 0 23.45080165884815 -41.44391756302889 0 -41.44391756302889 122.15832071989462 0 0 0 0 23.798295458253051 18.271044313506536 0 18.271044313506536 6.5796058589085646 0 0 0 0 2.5044435433190717 1.436612797703646 0 1.436612797703646 0.98134394316563878 0 0 0 0 -6.3140666046567127 -0.80187334499275753 0 -0.80187334499275753 1.856630219988936 0 0 0 0 -26.28781038953214 12.938352421294457 0 12.938352421294457 41.433055254689179 0 0 0 0 25.421223379452613 -60.636335303775184 0 -60.636335303775184 -31.495649278378011 0 0 0 0 -73.22920720967295 93.896433274407173 0 93.896433274407173 46.732609748813957 0 0 0 0 -20.960701375490984 -14.897118079979709 0 -14.897118079979709 -0.95491501765411613 0 0 0 0 -7.4290350053742955 -0.50951080384271508 0 -0.50951080384271508 1.8400928508396448 0 0 0 0 24.423135593535562 19.314035762473964 0 19.314035762473964 12.353085487578937 0 0 0 0 17.348303179621553 -20.822431099111554 0 -20.822431099111554 19.239563794180867 0 0 0 0 0.026458517372885348 0.49566981394526488 0 0.49566981394526488 1.0018060034930936 0 0 0 0 -14.685416931016348 -1.546914441390479 0 -1.546914441390479 38.539573244549842 0 0 0 0 -70.83343411790247 -58.666960247763654 0 -58.666960247763654 37.28899734182778 0 0 0 0 -66.102933586404561 -36.958332881497881 0 -36.958332881497881 81.81779777236261 0 0 0 0 -142.35905817044312 13.642371500859781 0 13.642371500859781 60.970371262803383 0 0 0 0 -48.582713081402289 -18.41600336166357 0 -18.41600336166357 47.268966927531892 0 0 0 0 -80.323373251776616 53.284985655305491 0 53.284985655305491 1028.7076063079812 0 0 0 0 -2.673728374500115 -7.0053188685787973 0 -7.0053188685787973 260.58718245660111 0 0 0 0 -7.9083960388377363 79.369402402798642 0 79.369402402798642 292.13954300992737 0 0 0 0 7.5815910721687487 99.200771273137434 0 99.200771273137434 265.31095746571191 0 0 0 0 -3.9424820349546934 0.50288741232200174 0 0.50288741232200174 3.2319727855649276 0 0 0 0 -67.317412983974691 42.178124497020235 0 42.178124497020235 -15.711456313265444 0 0 0 0 -16.202146800656578 4.9767635721264014 0 4.9767635721264014 10.205723975199362 0 0 0 0 -1.6812160727007583 -4.9712060376458513 0 -4.9712060376458513 13.135023978271972 0 0 0 0 -2.3334704735869112 -3.8230265755021104 0 -3.8230265755021104 12.117274948988218 0 0 0 0 -8.8191108351544472 -3.9386608805302785 0 -3.9386608805302785 8.1307036007324314 0 0 0 0 -4.5131101402625973 -25.157175117409565 0 -25.157175117409565 19.695960637105145 0 0 0 0 41.506933450532415 18.550622696811843 0 18.550622696811843 -35.667038020315886 0 0 0 0 -0.95274327116742796 -8.519700094044973 0 -8.519700094044973 11.453233811828664 0 0 0 0 17.289468780920288 61.1039699795856 0 61.1039699795856 108.43531879533475 0 0 0 0 29.68049830851578 20.045047935082039 0 20.045047935082039 136.81165149719436 0 0 0 0 -0.59295960247072443 -0.017518832254730832 0 -0.017518832254730832 -0.15306382460921952 0 0 0 0 42.781649684216973 36.964707849453589 0 36.964707849453589 77.176883173382521 0 0 0 0 -37.277849208817237 -4.4916924240012293 0 -4.4916924240012293 42.519865353424393 0 0 0 0 -8.4424147273825838 37.800754236295461 0 37.800754236295461 173.11178610381103 0 0 0 0 -25.623172671984321 75.756064150136808 0 75.756064150136808 264.47423376933511 0 0 0 0 77.560179112932929 39.891856271292454 0 39.891856271292454 100.04314731020494 0 0 0 0 51.724094967603378 108.19253681956616 0 108.19253681956616 228.01304962216454 0 0 0 0 0.67815263846218432 -5.7304455091785886 0 -5.7304455091785886 14.380838123161265 0 0 0 0 -148.90660911589657 -47.523249721809748 0 -47.523249721809748 106.09469040100839 0 0 0 0 -24.138366775958275 91.150239181645816 0 91.150239181645816 -42.118596758040468 0 0 0 0 -0.48381669533518235 -1.8449963075044824 0 -1.8449963075044824 3.7016737878036663 0 0 0 0 -23.624907882312982 78.503411709427382 0 78.503411709427382 -60.381902180398242 0 0 0 0 4.3648164923797594 -16.117698842855134 0 -16.117698842855134 -12.880050494239299 0 0 0 0 10.745587504161222 -44.292630188097235 0 -44.292630188097235 13.213200953351134 0 0 0 0 -13.16741293945725 -5.8199047267732595 0 -5.8199047267732595 10.975367700999414 0 0 0 0 -15.608577577655922 -1.7362902531498889 0 -1.7362902531498889 15.636175562866583 0 0 0 0 -17.778235345413556 -17.157254490388169 0 -17.157254490388169 3.2922010437614517 0 0 0 0 -8.9658677236520834 -1.1112996571081024 0 -1.1112996571081024 4.3828496182570609 0 0 0 0 -14.921226753550854 -6.0326916194061369 0 -6.0326916194061369 25.909603165110184 0 0 0 0 -20.074548556827722 -14.011391606738925 0 -14.011391606738925 62.111204964476201 0 0 0 0 -0.11216127966047829 -8.8731587871326099 0 -8.8731587871326099 9.9254948928371007 0 0 0 0 -3.0129841591891235 -1.4842791132266235 0 -1.4842791132266235 13.845425842344939 0 0 0 0 -69.242098457673819 -18.905351449126101 0 -18.905351449126101 30.73130275438325 0 0 0 0 -69.42930279522011 0.12760576557047898 0 0.12760576557047898 21.021923683299974 0 0 0 0 -65.379124777979087 -15.916203620343367 0 -15.916203620343367 24.295667085523519 0 0 0 0 -69.613532959458141 -8.604068402484458 0 -8.604068402484458 45.148216358573336 0 0 0 0 -63.557063102629485 -26.05922843326664 0 -26.05922843326664 48.240492943494246 0 0 0 0 -2.9365464695482641 -1.7256732241145158 0 -1.7256732241145158 4.8751429710577252 0 0 0 0 -57.219313192172194 27.763313386727532 0 27.763313386727532 -5.8959049512704951 0 0 0 0 -77.265024205444661 -102.54069858084586 0 -102.54069858084586 106.13370043151735 0 0 0 0 -49.534068055917487 17.257623109070664 0 17.257623109070664 4.2423026208298324 0 0 0 0 -30.681280278218992 -6.7196964415652474 0 -6.7196964415652474 -35.800851549414801 0 0 0 0 -56.522602638432772 -6.5376111004225095 0 -6.5376111004225095 12.721725155312015 0 0 0 0 -65.02444416574815 4.911387051061638 0 4.911387051061638 0.93693726008132217 0 0 0 0 -18.018190435546558 -25.210754354931851 0 -25.210754354931851 -12.335538360764986 0 0 0 0 16.878216424757852 -34.94767024303269 0 -34.94767024303269 2.2974537895015601 0 0 0 0 -11.230415209828266 -7.248574790607563 0 -7.248574790607563 15.419768904295779 0 0 0 0 -17.962914444321175 -25.813146619443202 0 -25.813146619443202 5.2175866481547928 0 0 0 0 -17.941151982353404 -27.50777460084737 0 -27.50777460084737 24.090826011444733 0 0 0 0 -0.28624274032057473 -3.6595839716789733 0 -3.6595839716789733 14.567286159198776 0 0 0 0 -42.822932576322501 -68.467555788396567 0 -68.467555788396567 10.809143653329556 0 0 0 0 13.002337927169094 18.641000368838377 0 18.641000368838377 2.9197906989538751 0 0 0 0 -43.988115592266638 -66.996877491737678 0 -66.996877491737678 47.518739488787105 0 0 0 0 -14.308619916764201 7.1495316307614303 0 7.1495316307614303 9.2495950861843994 0 0 0 0 -0.50158744471415417 -3.0886691265106156 0 -3.0886691265106156 13.252115233714676 0 0 0 0 12.90937527715414 -7.3465480968334305 0 -7.3465480968334305 10.680080197915231 0 0 0 0 -9.2355207664372756 -11.939879868877597 0 -11.939879868877597 12.164106081259945 0 0 0 0 -10.714764814032137 -2.7286231758550912 0 -2.7286231758550912 8.7903041040963217 0 0 0 0 0.069252521177615184 -2.6980362341861479 0 -2.6980362341861479 8.0458653180507369 0 0 0 0 -33.570087621278844 -0.93480716199474045 0 -0.93480716199474045 24.076939644354752 0 0 0 0 -1.4777056769419894 -2.6955560580191174 0 -2.6955560580191174 12.054470252396225 0 0 0 0 -9.5791994463106889 -3.7514616414558759 0 -3.7514616414558759 12.15767811752778 0 0 0 0 -11.620420550035021 -2.222413800223535 0 -2.222413800223535 11.277242059544733 0 0 0 0 -7.3469732536831884 -0.059692431391340506 0 -0.059692431391340506 10.864254934392193 0 0 0 0 -5.0546687880151957 -0.87670632287688477 0 -0.87670632287688477 5.0295614918231877 0 0 0 0 -4.7764610739484397 0.95138993941095862 0 0.95138993941095862 8.8293891465636989 0 0 0 0 -7.3321208590528926 -2.1263597994202428 0 -2.1263597994202428 4.3570232360930277 0 0 0 0 0.018026836083308864 -3.178680244970491 0 -3.178680244970491 3.8265365772599207 0 0 0 0 -26.757903235583004 -2.5261989379021408 0 -2.5261989379021408 12.879460485440632 0 0 0 0 -13.172326383487871 -8.9936004087874153 0 -8.9936004087874153 5.4318270516321263 0 0 0 0 -8.5711924227514373 -10.650400363368135 0 -10.650400363368135 5.3050322198785125 0 0 0 0 1.2768431667157074 1.949610055700532 0 1.949610055700532 9.5888963253805741 0 0 0 0 -9.2980179818561624 -8.4423789190830121 0 -8.4423789190830121 15.324920135060893 0 0 0 0 -2.2516708020789666 -3.199287282079236 0 -3.199287282079236 7.4666962116655782 0 0 0 0 -38.52565139988792 -24.883611651998081 0 -24.883611651998081 13.230333003483565 0 0 0 0 -39.076676098413827 -23.89773136390977 0 -23.89773136390977 16.832324957115333 0 0 0 0 -4.0424806441099861 -3.8294172689118611 0 -3.8294172689118611 6.0177793494200387 0 0 0 0 0.18987669518628536 -7.5707869284210005 0 -7.5707869284210005 3.0293372483144481 0 0 0 0 -0.49718251458070906 -0.67722339687191813 0 -0.67722339687191813 2.686101235720169 0 0 0 0 6.6220259843651377 4.4064178525715647 0 4.4064178525715647 7.2601150793698253 0 0 0 0 -2.5339653914109022 7.930618578557187 0 7.930618578557187 7.5463281510615161 0 0 0 0 -7.7334700735599995 1.7200567805798528 0 1.7200567805798528 10.75526022291865 0 0 0 0 -8.2901688055779914 1.1324460334568585 0 1.1324460334568585 14.512072898970132 0 0 0 0 -5.6192779689000645 -0.74828375270925562 0 -0.74828375270925562 7.6378185376702277 0 0 0 0 -2.8763019082589381 3.3067865743262246 0 3.3067865743262246 10.879774324962113 0 0 0 0 -2.0353909625308688 1.7829247303877764 0 1.7829247303877764 11.167614003985136 0 0 0 0 -5.7728329715253039 4.0385244789968056 0 4.0385244789968056 13.099916777224735 0 0 0 0 -3.1153846446153866 -0.46543964023742879 0 -0.46543964023742879 3.9960018562214774 0 0 0 0 -5.6559239296089103 -11.42608994892089 0 -11.42608994892089 11.60513364354324 0 0 0 0 -21.428881139100326 -29.159006644655619 0 -29.159006644655619 20.232307687595778 0 0 0 0 -1.8646052460711848 0.72196486651924996 0 0.72196486651924996 -0.39988300028337065 0 0 0 0 -1.0173291720915358 22.08534064848368 0 22.08534064848368 9.3684712543331443 0 0 0 0 -3.1151106681752188 -0.53794119390588691 0 -0.53794119390588691 2.217714519648307 0 0 0 0 9.6781941441686286 18.289250839314263 0 18.289250839314263 13.965963196830216 0 0 0 0 -3.7757246771187951 2.0083485176785865 0 2.0083485176785865 2.5213109165391749 0 0 0 0 -14.473409468624141 2.1543843983736224 0 2.1543843983736224 24.433280438002157 0 0 0 0 -25.068281716281277 11.318878228712336 0 11.318878228712336 23.506178893661399 0 0 0 0 -43.696907556515384 -11.549007066296667 0 -11.549007066296667 17.573310656340027 0 0 0 0 -0.29010403140495761 -1.9636676843537646 0 -1.9636676843537646 13.609313444289024 0 0 0 0 -40.227988383108823 -37.355781719231118 0 -37.355781719231118 -10.444754176124093 0 0 0 0 -0.88595111338417709 0.3500471050405638 0 0.3500471050405638 2.9020295114117225 0 0 0 0 -6.8559715574326674 11.256037196194825 0 11.256037196194825 26.025716414978433 0 0 0 0 -1.9509348101996897 -1.1750447423369348 0 -1.1750447423369348 10.81179212653128 0 0 0 0 -52.077097043217805 -12.978330336345493 0 -12.978330336345493 38.51325227647078 0 0 0 0 -9.7400141303799046 6.3360712185042303 0 6.3360712185042303 16.382947079449082 0 0 0 0 -5.7521338781175473 -0.13888140130995907 0 -0.13888140130995907 26.750387135336496 0 0 0 0 -54.284202813511797 -1.7616891289885075 0 -1.7616891289885075 32.462845669314845 0 0 0 0 -15.592188965482478 12.145624838080181 0 12.145624838080181 14.05720954283322 0 0 0 0 -35.416254219172998 -18.672945480109689 0 -18.672945480109689 22.958290132510228 0 0 0 0 -5.0441434852751854 8.094900442814378 0 8.094900442814378 4.936000890219475 0 0 0 0 0.025593174927621476 25.669337666668412 0 25.669337666668412 30.669955669052342 0 0 0 0 5.2020785387983324 11.766418966371702 0 11.766418966371702 27.23915788510385 0 0 0 0 -11.686215517449682 8.4410294875774525 0 8.4410294875774525 21.341460909570742 0 0 0 0 -2.0831655298052283 19.568946748942608 0 19.568946748942608 19.078480406408744 0 0 0 0 -14.901567249316145 16.029126823325669 0 16.029126823325669 22.256381712867096 0 0 0 0 -0.12364337797066582 11.32064508648682 0 11.32064508648682 16.668809960809995 0 0 0 0 -25.291101590804487 -7.5225400653314409 0 -7.5225400653314409 12.574568563558159 0 0 0 0 -48.623866443401596 1.3984051069844554 0 1.3984051069844554 23.402392656341362 0 0 0 0 0.26660410425674608 -2.084527808797799 0 -2.084527808797799 12.848965776113566 0 0 0 0 -23.615838482661161 5.0912517757662954 0 5.0912517757662954 10.08453921959449 0 0 0 0 -20.752543254392435 -0.49644829602948448 0 -0.49644829602948448 20.803279027768582 0 0 0 0 -25.08429941664059 3.7966277330990579 0 3.7966277330990579 17.31077541014929 0 0 0 0 -0.5376133734980173 -1.9193263486481604 0 -1.9193263486481604 11.272087591252202 0 0 0 0 -33.38273174938422 -15.098128308883815 0 -15.098128308883815 17.603018901653229 0 0 0 0 -41.74987796672869 -8.3818537295497748 0 -8.3818537295497748 13.606929579860207 0 0 0 0 -4.3442687520887393 2.7101994489109176 0 2.7101994489109176 1.2296882097117789 0 0 0 0 -24.291575927054168 13.995383599696133 0 13.995383599696133 24.965965425790337 0 0 0 0 45.296791864183888 91.0589156876663 0 91.0589156876663 54.780791139236584 0 0 0 0 22.193075495753419 -16.690973188877081 0 -16.690973188877081 -2.6040083581765714 0 0 0 0 -2.6408570098268909 0.99329327691838776 0 0.99329327691838776 0.63514808368632103 0 0 0 0 4.8556217213980872 34.81352453249464 0 34.81352453249464 35.446788799487535 0 0 0 0 3.3915542024262777 -1.3760363873574875 0 -1.3760363873574875 -1.1852861038003084 0 0 0 0 -7.9581117906092231 -8.1214055438236983 0 -8.1214055438236983 -8.0458987178576535 0 0 0 0 -4.8694402148883 -17.761724573053243 0 -17.761724573053243 -11.815895923796916 0 0 0 0 1.5313594854406212 -1.295915156946732 0 -1.295915156946732 1.1248538924492628 0 0 0 0 -4.6918529529983175 -12.63019048289118 0 -12.63019048289118 -4.9320114799188559 0 0 0 0 -6.0098503110431238 -12.389816352298453 0 -12.389816352298453 -0.84440002951760107 0 0 0 0 -7.3757803633643562 -13.854308576824451 0 -13.854308576824451 -0.55418822178489791 0 0 0 0 7.3199996494649895 -11.248193254959688 0 -11.248193254959688 12.203275335289618 0 0 0 0 1.8672223402504775 -2.3345944858518166 0 -2.3345944858518166 1.9538883352611318 0 0 0 0 -0.031597523770850844 -0.35228010813389732 0 -0.35228010813389732 0.64500395642789066 0 0 0 0 65.011560465962134 -16.997354076109559 0 -16.997354076109559 -71.958349205012382 0 0 0 0 30.8156157657113 47.702567817491513 0 47.702567817491513 34.650864205198104 0 0 0 0 -3.4956998786621991 -0.58549897440461685 0 -0.58549897440461685 2.772121261004072 0 0 0 0 -43.030831885208954 -47.88274367747556 0 -47.88274367747556 41.339614728603692 0 0 0 0 17.583499959840765 34.983040977616383 0 34.983040977616383 -0.36084774120308793 0 0 0 0 -0.80382263688847311 0.11112796194946917 0 0.11112796194946917 0.19171557324188448 0 0 0 0 16.296657001719268 19.397928496851364 0 19.397928496851364 3.4216219868876578 0 0 0 0 14.966117918968166 19.162368662688323 0 19.162368662688323 17.108418842576611 0 0 0 0 -1.1473823477449514 21.755778483728449 0 21.755778483728449 18.546404943452217 0 0 0 0 20.643015675119614 30.868060758019055 0 30.868060758019055 6.9472476447112967 0 0 0 0 6.7170503797079846 32.727518185342205 0 32.727518185342205 33.689088399019965 0 0 0 0 -10.804923967274192 14.679117938844797 0 14.679117938844797 34.375591129934037 0 0 0 0 -3.4618473970413106 11.121690360224648 0 11.121690360224648 31.560817474398192 0 0 0 0 3.3291296157093484 11.664327323101418 0 11.664327323101418 20.267054545488463 0 0 0 0 -11.305439009394718 -9.480068594141585 0 -9.480068594141585 27.208244503057415 0 0 0 0 30.369889599657284 14.969791692024685 0 14.969791692024685 26.618658429470997 0 0 0 0 27.210269777136773 -9.0979907328808167 0 -9.0979907328808167 36.854621420655349 0 0 0 0 -0.31150840047394013 22.994143230380075 0 22.994143230380075 75.464670713776286 0 0 0 0 13.767545811199852 19.002464568173309 0 19.002464568173309 43.38493758623224 0 0 0 0 -1.7476621359144247 15.727960521101977 0 15.727960521101977 45.674049997081283 0 0 0 0 4.779409918369538 6.4350137198899802 0 6.4350137198899802 38.727586803033773 0 0 0 0 18.998175482919578 -0.27865695656987555 0 -0.27865695656987555 16.724273855200181 0 0 0 0 18.338049032131266 -1.9965127776724785 0 -1.9965127776724785 38.368025358065211 0 0 0 0 -1.3332874225749833 -13.213152998425812 0 -13.213152998425812 74.125263255252776 0 0 0 0 5.1464586430142845 -15.118003981546053 0 -15.118003981546053 26.302117818124771 0 0 0 0 5.6435662943383704 4.6119698365566819 0 4.6119698365566819 42.088028992628551 0 0 0 0 -3.4837948923291862 1.2440419686158606 0 1.2440419686158606 41.635935876747226 0 0 0 0 4.8037841094071609 -34.850890709665236 0 -34.850890709665236 7.3016621280494292 0 0 0 0 56.189804823678287 -4.228982963235012 0 -4.228982963235012 6.9835618255774534 0 0 0 0 58.067783474111707 -31.056494889244959 0 -31.056494889244959 -36.475414235616427 0 0 0 0 7.8422497512522114 -33.068112394566697 0 -33.068112394566697 10.632540610284195 0 0 0 0 16.569141582911243 -38.610506095122219 0 -38.610506095122219 5.5710042353925928 0 0 0 0 28.72113569388523 -22.45343318584537 0 -22.45343318584537 26.086161227236516 0 0 0 0 27.609131648769903 -13.395812410314988 0 -13.395812410314988 -1.1799712968959284 0 0 0 0 34.375381345451615 -1.1111363814015931 0 -1.1111363814015931 14.78895116776971 0 0 0 0 40.258329581977705 13.614791132330765 0 13.614791132330765 12.681428665918247 0 0 0 0 63.723093271030166 -7.0505071447801129 0 -7.0505071447801129 -4.4251718931487858 0 0 0 0 47.220402417373862 6.8300146154938375 0 6.8300146154938375 15.11463577038387 0 0 0 0 26.170888575211166 32.477118931003361 0 32.477118931003361 57.369969910844702 0 0 0 0 -5.0154775662197153 -1.8417759008134453 0 -1.8417759008134453 20.877105024563093 0 0 0 0 5.4018901953419345 20.364584765445215 0 20.364584765445215 14.607074227497833 0 0 0 0 24.305450787688073 12.093781309956626 0 12.093781309956626 5.3591767108400745 0 0 0 0 28.8387584974314 3.7819184129502901 0 3.7819184129502901 7.5620321201886327 0 0 0 0 -20.368097981110282 11.408400333084728 0 11.408400333084728 14.821420270538511 0 0 0 0 -10.069926011037069 -2.1997802158211925 0 -2.1997802158211925 5.6027471777695155 0 0 0 0 5.5482314124046752 -1.6153042357357208 0 -1.6153042357357208 15.620658413200886 0 0 0 0 -46.333723720112175 0.6539413599252839 0 0.6539413599252839 21.940887400053725 0 0 0 0 -10.536821779296361 8.7322193753991542 0 8.7322193753991542 7.175783127489467 0 0 0 0 -95.043405533604258 -89.751545606387495 0 -89.751545606387495 -12.228475996987527 0 0 0 0 -103.44950197065991 -26.28757404570996 0 -26.28757404570996 79.392236396794033 0 0 0 0 -34.033584275211297 35.973227429527924 0 35.973227429527924 135.23206087518156 0 0 0 0 6.7887169637838447 22.212577402666554 0 22.212577402666554 4.1870445648423811 0 0 0 0 13.144379528497666 28.761557563151428 0 28.761557563151428 129.15535564929746 0 0 0 0 6.8166271755131902 35.249925589047052 0 35.249925589047052 130.05907425981195 0 0 0 0 -2.5305132318714207 1.0834960107257263 0 1.0834960107257263 1.919367212632217 0 0 0 0 -1.463753367440404 18.813424719738805 0 18.813424719738805 107.49907375424618 0 0 0 0 3.6386005506323449 1.7591659428107302 0 1.7591659428107302 0.44721982461108745 0 0 0 0 -1.1725606928796424 2.0911684170514491 0 2.0911684170514491 142.56098942382576 0 0 0 0 24.057110889700652 49.927081536884771 0 49.927081536884771 142.30806056056736 0 0 0 0 -6.7213215766444705 3.3684974850167464 0 3.3684974850167464 72.06092981992515 0 0 0 0 75.652706746286299 39.345106092614969 0 39.345106092614969 52.193728817791907 0 0 0 0 99.734104241838168 -11.689634998616953 0 -11.689634998616953 -1.1270371911805341 0 0 0 0 53.489881216842605 25.465060867462398 0 25.465060867462398 63.902556323778754 0 0 0 0 1.5300875840204646 0.21766127610478758 0 0.21766127610478758 0.15175985646567636 0 0 0 0 5.6409884799368513 35.610649557420572 0 35.610649557420572 300.34601398943141 0 0 0 0 156.93332897448568 -14.84070918175712 0 -14.84070918175712 -23.458250857915573 0 0 0 0 122.1039957855271 121.28781860103823 0 121.28781860103823 175.29698166793605 0 0 0 0 19.574685250346761 49.456512877092564 0 49.456512877092564 65.292578646512993 0 0 0 0 212.26948014086133 8.1224467254795627 0 8.1224467254795627 32.662699367861933 0 0 0 0 27.806634366091998 12.361128209189928 0 12.361128209189928 230.31457226403381 0 0 0 0 59.972635515480988 9.5876028405891702 0 9.5876028405891702 58.456337405443264 0 0 0 0 77.567490804962802 -7.6214705248820565 0 -7.6214705248820565 5.8706332823321645 0 0 0 0 56.477425640744059 79.433392783376121 0 79.433392783376121 194.19103318422864 0 0 0 0 1.1358366903666881 -2.1987628969964126 0 -2.1987628969964126 2.6461135494796713 0 0 0 0 52.57133685201461 -98.027127140667744 0 -98.027127140667744 45.730662915110997 0 0 0 0 54.212730766610377 103.59158620240885 0 103.59158620240885 196.52087781429924 0 0 0 0 0.8699679233057247 -0.48062846364264855 0 -0.48062846364264855 0.20341386289463581 0 0 0 0 35.015631193032448 137.58102802684763 0 137.58102802684763 66.32647248515741 0 0 0 0 0.35507065846109898 -0.89046666722954004 0 -0.89046666722954004 1.3403249982729635 0 0 0 0 43.6550669330299 125.010879953165 0 125.010879953165 196.50325757021812 0 0 0 0 73.978793168260268 98.207680365208546 0 98.207680365208546 86.033024648803803 0 0 0 0 0.72294683849617059 63.205883885156112 0 63.205883885156112 137.47390218414307 0 0 0 0 28.816208467492118 -15.495039635769444 0 -15.495039635769444 13.431223699620773 0 0 0 0 114.25820750414346 111.55383342410011 0 111.55383342410011 61.195918305641612 0 0 0 0 -45.092540392682622 -25.865171693201091 0 -25.865171693201091 -0.28562242741668342 0 0 0 0 -27.775889718813772 -14.269636733195256 0 -14.269636733195256 12.17215357899795 0 0 0 0 -45.369182530942396 -2.6484370908531218 0 -2.6484370908531218 6.6364450347236925 0 0 0 0 -34.774267134833678 -20.875841908467919 0 -20.875841908467919 -32.535961144485555 0 0 0 0 -0.99726586381527782 0.47287663364875376 0 0.47287663364875376 3.3474735898810062 0 0 0 0 8.5496619356622432 -37.692556401312686 0 -37.692556401312686 120.44645942374405 0 0 0 0 132.00547946981624 148.77007722057317 0 148.77007722057317 139.23284407682422 0 0 0 0 -1.4513773373329011 0.39278708528808259 0 0.39278708528808259 2.7103860804691227 0 0 0 0 29.774215240202011 218.48043672821677 0 218.48043672821677 324.9544196702177 0 0 0 0 10.034989396522178 32.027273940605937 0 32.027273940605937 545.12952155595121 0 0 0 0 -0.26687686634544283 -1.7749545609930824 0 -1.7749545609930824 2.3742565325824199 0 0 0 0 -24.014252167141535 6.5893931130465262 0 6.5893931130465262 30.174631069926363 0 0 0 0 81.927005805983072 118.74819913811029 0 118.74819913811029 66.29916842023357 0 0 0 0 -30.012389100975653 16.518650100663876 0 16.518650100663876 36.11392447498838 0 0 0 0 177.51969015845782 383.68787311418907 0 383.68787311418907 133.10089313884328 0 0 0 0 176.90309092152165 289.00266925171127 0 289.00266925171127 66.718345988957935 0 0 0 0 34.885034292711453 163.62265568219573 0 163.62265568219573 198.12340938950456 0 0 0 0 -0.18738191420285011 -0.17966131810556885 0 -0.17966131810556885 0.53124520768685635 0 0 0 0 8.4314069919678332 112.89095788973918 0 112.89095788973918 231.60982382703719 0 0 0 0 21.89530175619393 149.38947718398185 0 149.38947718398185 208.08282803493512 0 0 0 0 6.809141088304159 4.1545680042147524 0 4.1545680042147524 -1.1361960014496617 0 0 0 0 -9.629736212584703 5.1151418909062158 0 5.1151418909062158 29.210757540543455 0 0 0 0 -8.0489482947754709 30.919489699404267 0 30.919489699404267 24.800521671233014 0 0 0 0 -2.4591432386799852 18.068068581188527 0 18.068068581188527 21.505038814245836 0 0 0 0 24.131157359574331 27.378055964970827 0 27.378055964970827 33.483716614679906 0 0 0 0 22.814297190441096 34.98499965066776 0 34.98499965066776 22.899616388866434 0 0 0 0 25.044724521858939 36.126104878997694 0 36.126104878997694 21.231092376504648 0 0 0 0 -16.949014235229356 32.272090279752774 0 32.272090279752774 33.778986530647217 0 0 0 0 69.690773916644389 16.3619408090467 0 16.3619408090467 18.564394297915442 0 0 0 0 39.531740452114036 -102.88330417817986 0 -102.88330417817986 -68.509136032295601 0 0 0 0 66.721129932589065 6.0980832424040727 0 6.0980832424040727 48.025518911116023 0 0 0 0 -19.330886869329788 34.026487353248285 0 34.026487353248285 46.97903126597339 0 0 0 0 107.58639686986226 101.21990670872037 0 101.21990670872037 77.397852722641119 0 0 0 0 87.79704087579762 33.933794058676312 0 33.933794058676312 7.7410955082852979 0 0 0 0 -53.459069067564542 193.78350746357194 0 193.78350746357194 437.79812188899677 0 0 0 0 27.80576566029913 148.37566983118313 0 148.37566983118313 87.030679073298415 0 0 0 0 -57.441175716201315 157.31295180485256 0 157.31295180485256 146.089191191694 0 0 0 0 15.08751654621301 -295.16985820035586 0 -295.16985820035586 521.17417829390422 0 0 0 0 -3.8866771785264973 272.61080077619852 0 272.61080077619852 68.310745157053134 0 0 0 0 0.36363674764738141 1.3567573258391983 0 1.3567573258391983 4.5268137019676384 0 0 0 0 139.9862934967191 275.82716449226905 0 275.82716449226905 213.87251560304958 0 0 0 0 374.54069748755091 -221.94271582742812 0 -221.94271582742812 235.73498067453465 0 0 0 0 8.5577633863938445 68.498135568960947 0 68.498135568960947 15.072894764046055 0 0 0 0 -38.114165458208618 -118.0102026493015 0 -118.0102026493015 133.24520058142201 0 0 0 0 -11.95373474934911 73.177672818599547 0 73.177672818599547 242.38180843668169 0 0 0 0 57.21449519465898 -26.731365421006302 0 -26.731365421006302 58.466749417002347 0 0 0 0 55.705449782425831 57.19744025264049 0 57.19744025264049 28.733116912008114 0 0 0 0 69.772330597384553 -2.1481659405926621 0 -2.1481659405926621 -26.139698596761605 0 0 0 0 116.70880017471791 -72.195436644205188 0 -72.195436644205188 -145.33884823529286 0 0 0 0 1.6206914661991858 -0.27279074846729356 0 -0.27279074846729356 -0.14099352445132296 0 0 0 0 33.230187143070452 27.452862119096835 0 27.452862119096835 49.729360259085297 0 0 0 0 -5.0859611648970713 43.532598414424626 0 43.532598414424626 45.71515334670471 0 0 0 0 -28.558309223667948 -6.5835791767550802 0 -6.5835791767550802 30.926719380433497 0 0 0 0 27.327736988789638 41.026189848622437 0 41.026189848622437 31.47275269191843 0 0 0 0 15.501280982681692 40.184234663527093 0 40.184234663527093 45.906660557489204 0 0 0 0 53.434473540779436 88.816155530812551 0 88.816155530812551 79.29812512612493 0 0 0 0 66.27951945296445 90.588839132229054 0 90.588839132229054 62.943235416366605 0 0 0 0 70.735204875531849 38.534604252862763 0 38.534604252862763 147.18512189278653 0 0 0 0 92.529036821902082 133.0868800298112 0 133.0868800298112 116.75034240578887 0 0 0 0 35.150221538315201 64.727235736745627 0 64.727235736745627 162.12728800619618 0 0 0 0 -12.857437868417037 -0.64810885368183335 0 -0.64810885368183335 -14.126140917509701 0 0 0 0 -19.3123823349124 -5.0562102097044317 0 -5.0562102097044317 -16.770821319085712 0 0 0 0 -2.8838666095076428 3.1353584876008402 0 3.1353584876008402 2.0416631240852761 0 0 0 0 -2.3963097932072821 5.212627734364939 0 5.212627734364939 0.79811985532734209 0 0 0 0 -1.7620920090585059 3.3347312481466815 0 3.3347312481466815 3.8054223566242626 0 0 0 0 -1.4108632091771236 5.2124539108625543 0 5.2124539108625543 1.5203004251759422 0 0 0 0 -2.0145231476375742 2.5706920629827943 0 2.5706920629827943 3.6770744112242699 0 0 0 0 -0.99772716632946867 3.2977909507258687 0 3.2977909507258687 6.4717932575193799 0 0 0 0 -10.52179619859271 -0.12617070100884575 0 -0.12617070100884575 -17.488513045248375 0 0 0 0 2.5087439305648331 23.174559851289729 0 23.174559851289729 -3.7413812368411357 0 0 0 0 -2.6842598945049758 -14.599609573543489 0 -14.599609573543489 -23.625423714711587 0 0 0 0 0.062204192394882618 0.027029434071072167 0 0.027029434071072167 -0.36769642237777789 0 0 0 0 -5.9851194678012689 9.7669980185145278 0 9.7669980185145278 15.123393041307523 0 0 0 0 23.339950508359379 45.115739312223042 0 45.115739312223042 19.295205810022182 0 0 0 0 -12.761038903987128 -22.393920746737479 0 -22.393920746737479 -1.8896869541861179 0 0 0 0 -2.2828603402176668 12.494939013363705 0 12.494939013363705 8.2798079474368933 0 0 0 0 -4.3428067809736604 3.1751456929940787 0 3.1751456929940787 -16.078964429920234 0 0 0 0 -13.060409984705984 29.171541227188868 0 29.171541227188868 -46.987931524963528 0 0 0 0 -11.740705302072001 83.556639946908859 0 83.556639946908859 17.94323316405189 0 0 0 0 0.055884699136128368 1.0556157970273479 0 1.0556157970273479 -0.75351984596186516 0 0 0 0 4.8879097867300061 -1.0269224122971536 0 -1.0269224122971536 16.406546019477446 0 0 0 0 -3.3711936492245513 7.9622474152521363 0 7.9622474152521363 10.068470108785732 0 0 0 0 -1.3371741250169289 2.4040964362583006 0 2.4040964362583006 -2.2785260863004524 0 0 0 0 -0.8618669544578097 1.1969859911162075 0 1.1969859911162075 -11.599683317333074 0 0 0 0 19.006289348440873 -63.21915484601692 0 -63.21915484601692 168.18681761213458 0 0 0 0 11.920741199139911 23.799493985074605 0 23.799493985074605 31.551938852569492 0 0 0 0 -202.76531882550125 47.612222952718071 0 47.612222952718071 67.439731759339338 0 0 0 0 7.6312676045361059 45.498682580897878 0 45.498682580897878 218.98722499788846 0 0 0 0 -0.045534398663581221 0.39561690997510635 0 0.39561690997510635 -1.2791814946337245 0 0 0 0 -86.873259692830516 -44.418363468585866 0 -44.418363468585866 201.15229779827149 0 0 0 0 -76.101324043829209 -27.835079528611857 0 -27.835079528611857 226.68030171574284 0 0 0 0 -65.572616720387032 -12.6012613726338 0 -12.6012613726338 222.71628207453816 0 0 0 0 -51.284582928645307 -62.695030748980926 0 -62.695030748980926 237.86990104795711 0 0 0 0 0.30708920239273779 -0.88837927042640241 0 -0.88837927042640241 3.278682062846122 0 0 0 0 91.761149451159994 -177.58730971310533 0 -177.58730971310533 201.86049927758035 0 0 0 0 100.33132870766725 202.75725210965402 0 202.75725210965402 304.61052451363969 0 0 0 0 43.974566905208761 -2.4583611785999864 0 -2.4583611785999864 466.9372853426417 0 0 0 0 8.7019515167938906 17.951612468741985 0 17.951612468741985 52.671671165492 0 0 0 0 37.237874867581951 10.783153588406492 0 10.783153588406492 53.11935882325173 0 0 0 0 0.025206404121293061 -0.54375277035547309 0 -0.54375277035547309 9.1493635489411673 0 0 0 0 14.191329312667991 -12.326067171098639 0 -12.326067171098639 21.077660310967985 0 0 0 0 -28.50147105980804 -2.3804002312310786 0 -2.3804002312310786 45.668349354779025 0 0 0 0 95.123256241545377 51.104962449973385 0 51.104962449973385 183.12512445585958 0 0 0 0 76.025655505725709 137.51601795762497 0 137.51601795762497 257.76934106976006 0 0 0 0 1.3380053962424858 0.58005494554564518 0 0.58005494554564518 0.20207388308860441 0 0 0 0 86.997660433061426 66.892014723537841 0 66.892014723537841 -22.564398782071976 0 0 0 0 4.3088753604617658 95.632315039555223 0 95.632315039555223 326.85631819205742 0 0 0 0 114.59439047826211 198.82678816107716 0 198.82678816107716 128.5668991209875 0 0 0 0 2.2495309516337443 78.310654017488559 0 78.310654017488559 290.56787322239666 0 0 0 0 0.97703251538300151 90.664785427980178 0 90.664785427980178 80.766589997166875 0 0 0 0 -29.080802638981865 103.65759396141107 0 103.65759396141107 63.225963544166461 0 0 0 0 65.415960962800369 66.237688617891536 0 66.237688617891536 37.464395545056504 0 0 0 0 -43.847592221875971 29.669974192398058 0 29.669974192398058 30.968601264441133 0 0 0 0 -28.60459121454619 2.2711137284045435 0 2.2711137284045435 26.023159498804034 0 0 0 0 -10.168193123086269 -4.7832085836744227 0 -4.7832085836744227 2.498005561566174 0 0 0 0 -26.729091695287934 -8.5646641969847224 0 -8.5646641969847224 15.959468728540287 0 0 0 0 -6.5895664392349431 -6.7694553683658114 0 -6.7694553683658114 4.4710280947210777 0 0 0 0 0.07223323686530736 0.064936395316708584 0 0.064936395316708584 0.40260394515464148 0 0 0 0 -23.772826300236176 -25.333024076216361 0 -25.333024076216361 -8.9679140618027304 0 0 0 0 -73.526781212585519 -2.4133417541477229 0 -2.4133417541477229 21.379357854903901 0 0 0 0 -15.423761113729476 9.0393602538849791 0 9.0393602538849791 23.3489864956573 0 0 0 0 -6.9379642826186227 55.859473471604815 0 55.859473471604815 34.985942457865349 0 0 0 0 -113.39358127088204 49.769385194451047 0 49.769385194451047 36.675721395783512 0 0 0 0 -65.252621901138255 6.0435230135071834 0 6.0435230135071834 22.152491874420775 0 0 0 0 -41.33121048278241 82.377043532461812 0 82.377043532461812 -23.220899944518351 0 0 0 0 -3.2076459630073479 19.625680076586931 0 19.625680076586931 6.2429167782697732 0 0 0 0 -2.2777151045655124 4.5679638751401654 0 4.5679638751401654 6.4650159764626283 0 0 0 0 8.8615017767052429 21.249068175061495 0 21.249068175061495 6.3699495667142401 0 0 0 0 -23.797057535363592 13.460916075320938 0 13.460916075320938 6.4162589409195334 0 0 0 0 2.0794700874452627 1.5616560162832687 0 1.5616560162832687 3.1608287466519278 0 0 0 0 -1.2774547052275973 2.8748231511374369 0 2.8748231511374369 6.424584480027411 0 0 0 0 -3.5116486985691608 4.573657594013639 0 4.573657594013639 9.5280023929453819 0 0 0 0 -10.762507492139434 2.0180213500519812 0 2.0180213500519812 11.09884500446924 0 0 0 0 -2.3015170992107334 0.47377965230771535 0 0.47377965230771535 2.6228417140981897 0 0 0 0 -0.73648425322176081 2.1976683796838188 0 2.1976683796838188 5.0108330030466277 0 0 0 0 -1.956760090867756 1.4844230467932431 0 1.4844230467932431 4.8483429033569854 0 0 0 0 -1.2846949529853422 2.1550135651606106 0 2.1550135651606106 2.4573770733869864 0 0 0 0 -0.53273605838396065 3.5336193097950286 0 3.5336193097950286 7.2924136662035721 0 0 0 0 -1.4949659663755028 4.7189164499594654 0 4.7189164499594654 8.4829018788503561 0 0 0 0 -1.7312541143228373 3.6531108811270485 0 3.6531108811270485 6.152931477916411 0 0 0 0 -1.8139622166599887 1.3768841124762994 0 1.3768841124762994 3.7602910325593348 0 0 0 0 0.4746579024173343 4.0496868908050487 0 4.0496868908050487 4.6028532419766179 0 0 0 0 -0.73601116837052594 2.5710356266369283 0 2.5710356266369283 2.3662246367519071 0 0 0 0 -9.3879648326722815 -5.9829301789281999 0 -5.9829301789281999 13.459897181213933 0 0 0 0 10.409018005061933 0.14782693648805889 0 0.14782693648805889 -9.2710366738579069 0 0 0 0 -2.5255605003820278 1.3415095751895763 0 1.3415095751895763 4.7692563141249593 0 0 0 0 -0.89367646482129004 2.6307107538528536 0 2.6307107538528536 4.1660953235179257 0 0 0 0 0.24131093100071696 2.4142052554133566 0 2.4142052554133566 1.8435325992171332 0 0 0 0 -63.965519208398121 10.584992243380839 0 10.584992243380839 24.170156538850506 0 0 0 0 -0.39462969999590314 4.5543054960294285 0 4.5543054960294285 4.5817174405695056 0 0 0 0 11.235562837661137 8.0450012104818143 0 8.0450012104818143 -20.09288569000455 0 0 0 0 -2.2795359576825258 1.3233669123214584 0 1.3233669123214584 3.0078235475621389 0 0 0 0 6.1232893252117719 3.8328244066921116 0 3.8328244066921116 0.9552801220031597 0 0 0 0 -89.992452974575713 20.998230261257959 0 20.998230261257959 -34.557689426022989 0 0 0 0 -99.445959515444585 56.954031160407453 0 56.954031160407453 9.6015682246506913 0 0 0 0 -96.089221057900517 64.925280177697232 0 64.925280177697232 -129.78740289177676 0 0 0 0 -230.73357250465821 22.374450075712957 0 22.374450075712957 20.610603297416901 0 0 0 0 -157.73794700687642 2.2884907382304505 0 2.2884907382304505 -14.205726329796562 0 0 0 0 -113.17780346666967 42.643457823516655 0 42.643457823516655 22.286191934833823 0 0 0 0 -1.0942817192194103 0.053828765141522794 0 0.053828765141522794 0.6264857933326291 0 0 0 0 -58.949628242077978 -47.545629519965587 0 -47.545629519965587 -39.006714956366636 0 0 0 0 -31.289698761499437 47.079705376515449 0 47.079705376515449 -29.221957420821582 0 0 0 0 -150.59491782988385 39.834083633647964 0 39.834083633647964 26.881274872567701 0 0 0 0 -65.250364882496783 2.2302271655030665 0 2.2302271655030665 27.185634216908966 0 0 0 0 -136.26432239366 42.344650583668908 0 42.344650583668908 26.565680120862822 0 0 0 0 -114.11783268305555 45.99867489963458 0 45.99867489963458 39.097076684944568 0 0 0 0 -135.98831711882218 31.973944837684115 0 31.973944837684115 31.910143447106748 0 0 0 0 -221.51040150277976 67.428592052282141 0 67.428592052282141 41.025766508846573 0 0 0 0 -202.03262492245139 -12.045808673965439 0 -12.045808673965439 28.513013928808846 0 0 0 0 -97.797204507050282 -61.319641849733671 0 -61.319641849733671 -28.813438322368256 0 0 0 0 -29.717185694331988 48.228450113383587 0 48.228450113383587 -67.959574295755829 0 0 0 0 -1.8188090280461013 1.5411131133006784 0 1.5411131133006784 0.72665720556521052 0 0 0 0 -153.95981108575478 -60.886579397911248 0 -60.886579397911248 -39.061897776265141 0 0 0 0 -99.547101286920707 116.2261476562478 0 116.2261476562478 -79.702845757833984 0 0 0 0 1.6128436635218293 0.42522829134160345 0 0.42522829134160345 0.14372377385510715 0 0 0 0 57.525731962802638 94.866683484565897 0 94.866683484565897 102.96099668932058 0 0 0 0 60.147050082494616 73.299145021538948 0 73.299145021538948 96.742527646063763 0 0 0 0 -1.5463934445119283 2.3175636948927609 0 2.3175636948927609 3.9176780168650422 0 0 0 0 -1.5480781345962669 2.2659164701070722 0 2.2659164701070722 4.6204509246335874 0 0 0 0 57.289232094181671 54.114418448414654 0 54.114418448414654 55.689161011820488 0 0 0 0 0.020395867900147469 0.081732658365857525 0 0.081732658365857525 0.036877185083850073 0 0 0 0 0.94568187848381058 -3.2181540255623986 0 -3.2181540255623986 4.3134699581942186 0 0 0 0 -0.23841493162015226 2.2461215011646214 0 2.2461215011646214 4.1867009172447114 0 0 0 0 130.07636737402458 51.639435656764306 0 51.639435656764306 23.11320402785077 0 0 0 0 94.725502507797387 92.977679613920373 0 92.977679613920373 62.166321073063045 0 0 0 0 -1.0123590493951031 0.61707493857467899 0 0.61707493857467899 5.1601782109483869 0 0 0 0 49.183374863337463 67.100266512713233 0 67.100266512713233 62.399122219276251 0 0 0 0 74.308163315263755 80.251759496725072 0 80.251759496725072 69.702742320463585 0 0 0 0 61.011648839912141 92.875211706620803 0 92.875211706620803 79.166044239497523 0 0 0 0 72.908323134031264 84.432486784028214 0 84.432486784028214 60.914045757515396 0 0 0 0 62.680602746442403 73.373116748392263 0 73.373116748392263 50.217884134383667 0 0 0 0 4.3005616273760552 61.733226483742214 0 61.733226483742214 56.284501227895134 0 0 0 0 37.97872347509383 94.525811191235448 0 94.525811191235448 96.073198272759839 0 0 0 0 69.333859304751059 60.932008247475437 0 60.932008247475437 110.66198010820165 0 0 0 0 67.527813446330981 48.959903355718609 0 48.959903355718609 5.9785325426685176 0 0 0 0 -8.011095283138232 -10.709245786353492 0 -10.709245786353492 10.224976265130863 0 0 0 0 21.987285977534157 44.361679414767536 0 44.361679414767536 48.717546231465519 0 0 0 0 -1.821819539521818 0.43960418505697518 0 0.43960418505697518 1.2689503258379502 0 0 0 0 38.491562714118231 -9.3119511240000179 0 -9.3119511240000179 -16.950403688185361 0 0 0 0 22.690888040712593 66.504638726024837 0 66.504638726024837 87.436528055590543 0 0 0 0 118.33768531616602 70.781302481770069 0 70.781302481770069 50.471013827631168 0 0 0 0 102.32422962806811 122.79165532655659 0 122.79165532655659 119.49860099200328 0 0 0 0 15.35732250112261 52.688524324803993 0 52.688524324803993 90.684651126207626 0 0 0 0 54.833151166486232 82.172872516443078 0 82.172872516443078 64.005616495120108 0 0 0 0 130.58581412073244 110.39195312733125 0 110.39195312733125 77.551893607401865 0 0 0 0 76.511455361582478 78.346992126319265 0 78.346992126319265 59.724087764309132 0 0 0 0 73.192775726535046 55.105379712594711 0 55.105379712594711 94.154317435374196 0 0 0 0 111.18059547633266 145.87825997279103 0 145.87825997279103 84.972221411204728 0 0 0 0 78.264890293124651 109.65783306833946 0 109.65783306833946 144.77881716930472 0 0 0 0 28.178531970560925 64.394988973416986 0 64.394988973416986 56.656997505276621 0 0 0 0 100.26605964217055 65.215244525995075 0 65.215244525995075 -27.047202680451278 0 0 0 0 19.701647036102486 12.46994767769246 0 12.46994767769246 -5.4581617444798667 0 0 0 0 83.143456583367879 88.853628906106337 0 88.853628906106337 -11.198542525500216 0 0 0 0 -15.604849025811745 -12.453355182991146 0 -12.453355182991146 -17.89490316521551 0 0 0 0 52.749647981470389 109.74834840638698 0 109.74834840638698 180.65216038399231 0 0 0 0 0.82927726094039222 -0.39543862002861369 0 -0.39543862002861369 -0.061220367707773088 0 0 0 0 -1.8857697802782241 6.2362579924721047 0 6.2362579924721047 18.276121311151769 0 0 0 0 4.5588814482784983 6.6650293685178212 0 6.6650293685178212 -1.2005831109794514 0 0 0 0 1.873629646893221 0.7321404477608513 0 0.7321404477608513 0.81735213666167794 0 0 0 0 3.3164021254115141 5.2607742695245179 0 5.2607742695245179 6.8434045108236035 0 0 0 0 6.7815523019648367 -4.0533353940362673 0 -4.0533353940362673 -9.3425079742866046 0 0 0 0 -1.1622509807148163 7.3527582126690731 0 7.3527582126690731 5.9158231160367905 0 0 0 0 61.482033980428241 151.97343226873443 0 151.97343226873443 198.58886152408189 0 0 0 0 0.25182511440193434 -0.035806631676211786 0 -0.035806631676211786 0.15191414808632531 0 0 0 0 7.3749329038620992 -7.0948729016445213 0 -7.0948729016445213 43.421219737672118 0 0 0 0 0.0062445499566357969 -15.717624468663416 0 -15.717624468663416 33.711265540521708 0 0 0 0 11.796878623984476 -17.449349463113322 0 -17.449349463113322 23.591124810445763 0 0 0 0 13.328764450306069 -9.8258375223667827 0 -9.8258375223667827 25.768522225034758 0 0 0 0 -17.731049053490011 -16.264127893101431 0 -16.264127893101431 51.271252485985769 0 0 0 0 -5.5044036591033887 0.31478953467194515 0 0.31478953467194515 20.396750278545369 0 0 0 0 8.9020373404183317 -9.4079608987076426 0 -9.4079608987076426 40.110399083733228 0 0 0 0 5.3604975448074583 -13.811806013987734 0 -13.811806013987734 38.46525536964873 0 0 0 0 19.482043620719953 -13.814237017465985 0 -13.814237017465985 40.524182269413359 0 0 0 0 -0.0092527359578156165 -24.582233204634122 0 -24.582233204634122 36.8616462894297 0 0 0 0 12.229864963746479 -11.44449046120917 0 -11.44449046120917 39.042877538920948 0 0 0 0 7.9541460886375699 -13.560170005968303 0 -13.560170005968303 56.382199855665021 0 0 0 0 15.170909348390044 10.477312285685457 0 10.477312285685457 73.619698438476917 0 0 0 0 0.015738012404349248 -11.758816333905088 0 -11.758816333905088 44.724834355636403 0 0 0 0 0.032070438706399758 -1.4801806132863931 0 -1.4801806132863931 85.021749145857939 0 0 0 0 23.412873963450544 43.271356622810913 0 43.271356622810913 130.24711016277797 0 0 0 0 -0.0015197731386432101 12.17941631116355 0 12.17941631116355 173.21236244748434 0 0 0 0 -7.1386859381696279 31.367990235337857 0 31.367990235337857 200.06621706373426 0 0 0 0 -8.0543457863865626 28.734158913244585 0 28.734158913244585 283.06927161911335 0 0 0 0 -0.066792348550583511 7.0561460153776734 0 7.0561460153776734 234.89915987544737 0 0 0 0 -15.151815780806047 122.64033396873583 0 122.64033396873583 283.62927898088128 0 0 0 0 2.2106145404441442 -12.152998271091747 0 -12.152998271091747 233.95884040473629 0 0 0 0 32.286074875300201 73.49311127508372 0 73.49311127508372 155.98981307899703 0 0 0 0 20.285449321541641 35.351625052409645 0 35.351625052409645 210.10446795006828 0 0 0 0 44.537564541394573 89.277312785717186 0 89.277312785717186 77.516362192865017 0 0 0 0 15.357209370852509 18.395415905882714 0 18.395415905882714 121.0866893608636 0 0 0 0 44.18294616481306 26.347083281160849 0 26.347083281160849 58.406739716155244 0 0 0 0 10.000643002630326 -13.187257727221549 0 -13.187257727221549 45.375984497226455 0 0 0 0 -24.318855012734815 12.192799411257511 0 12.192799411257511 -13.156976035479602 0 0 0 0 -168.43354038315019 55.326015434405235 0 55.326015434405235 20.796570249554861 0 0 0 0 -28.705933530459816 12.50936881784537 0 12.50936881784537 40.646475830972122 0 0 0 0 6.4769589296655568 18.748660525557398 0 18.748660525557398 -16.919200442769579 0 0 0 0 -77.607177980527979 244.35727494720959 0 244.35727494720959 113.30251406140223 0 0 0 0 0.20196053771206768 1.2795654970501396 0 1.2795654970501396 4.1849477377936566 0 0 0 0 84.864174304829788 -265.99988906356111 0 -265.99988906356111 617.10110551051184 0 0 0 0 106.70475900314966 173.20545023395357 0 173.20545023395357 471.10030793523765 0 0 0 0 -27.228724228527518 29.826761687679266 0 29.826761687679266 557.31548300754002 0 0 0 0 -10.716905342266216 -110.97151591021156 0 -110.97151591021156 160.30908153872224 0 0 0 0 -7.3535439747151088 -139.56364875915642 0 -139.56364875915642 390.89128220332373 0 0 0 0 64.455115683568295 -152.5378537912992 0 -152.5378537912992 240.57669939587868 0 0 0 0 22.785306082969782 -59.589943085080904 0 -59.589943085080904 139.29787716341343 0 0 0 0 -33.091699498614048 -172.11080716981269 0 -172.11080716981269 267.4509481138266 0 0 0 0 -9.8880531776517273 -22.39380448451584 0 -22.39380448451584 372.01034473094114 0 0 0 0 -54.624422688831118 -14.069704334715425 0 -14.069704334715425 182.06171579354759 0 0 0 0 0.57321672422276992 3.6309014038410563 0 3.6309014038410563 9.9646109965697036 0 0 0 0 90.516465789635276 3.8879474124000808 0 3.8879474124000808 -34.536332488441076 0 0 0 0 -13.375641002314183 66.204144834427552 0 66.204144834427552 6.320420692614789 0 0 0 0 1.043224148179692 4.7944906463724788 0 4.7944906463724788 12.214467825947267 0 0 0 0 -18.626404916225482 0.15294380325303791 0 0.15294380325303791 6.5983175365552142 0 0 0 0 -110.24178553537078 60.631528782719215 0 60.631528782719215 -6.9646227846278634 0 0 0 0 -25.226949212665033 2.9027582357857682 0 2.9027582357857682 19.701429619447481 0 0 0 0 -51.803103260113545 -9.8161997192978561 0 -9.8161997192978561 16.81939782981317 0 0 0 0 7.6256988803082209 -19.926042809044702 0 -19.926042809044702 23.55481919470958 0 0 0 0 11.559323483006352 -18.783382512482603 0 -18.783382512482603 23.381536942744333 0 0 0 0 -39.473510572331321 -1.1948350458615096 0 -1.1948350458615096 61.555650032307312 0 0 0 0 -0.59812484985658898 -28.989511030761605 0 -28.989511030761605 48.304162236228876 0 0 0 0 -55.394358722257898 17.317772669682199 0 17.317772669682199 22.561354305193163 0 0 0 0 63.037598284867045 -83.284846364133045 0 -83.284846364133045 78.82084183376378 0 0 0 0 -0.19221290428009286 0.066183093432492512 0 0.066183093432492512 0.59412906935371268 0 0 0 0 -59.336745461887205 52.552456821091255 0 52.552456821091255 -28.472486328340892 0 0 0 0 -19.381773032784068 -8.5988508582313443 0 -8.5988508582313443 46.286379013881742 0 0 0 0 -4.9630408953598959 -2.7927294573814834 0 -2.7927294573814834 13.573772215797362 0 0 0 0 -85.951803048865301 52.868925341904287 0 52.868925341904287 13.769274364058219 0 0 0 0 -67.286670635065605 26.607582252071097 0 26.607582252071097 22.036450881495512 0 0 0 0 19.397882409329554 -11.566604533074042 0 -11.566604533074042 19.440126640414803 0 0 0 0 1.5430011966999473 -8.358839082869963 0 -8.358839082869963 19.255982025697136 0 0 0 0 0.75666734258027402 4.7080199792531392 0 4.7080199792531392 13.242383309807881 0 0 0 0 7.422620358329084 -17.253053311631902 0 -17.253053311631902 30.105628356776833 0 0 0 0 23.987006197882351 -28.988571474349101 0 -28.988571474349101 60.661190266224366 0 0 0 0 37.562710497408489 13.953904682121902 0 13.953904682121902 43.282911577916821 0 0 0 0 8.8803556812534907 -12.971706281438742 0 -12.971706281438742 20.659197120247882 0 0 0 0 18.673022008557041 -13.062388432714215 0 -13.062388432714215 20.175683006705185 0 0 0 0 12.273582687424863 -20.478077369233802 0 -20.478077369233802 9.350111559873767 0 0 0 0 5.5971907956734412 -26.761268507314071 0 -26.761268507314071 6.4124313974043616 0 0 0 0 18.422905222297231 -17.897761152955809 0 -17.897761152955809 13.339470383430125 0 0 0 0 0.12691417429904717 0.41008533515984791 0 0.41008533515984791 1.4051281025746718 0 0 0 0 -1.0336422288302742 0.77593911323674547 0 0.77593911323674547 3.0621175009337094 0 0 0 0 0.20494712294992512 0.90049397071797266 0 0.90049397071797266 1.9710097288718593 0 0 0 0 -35.252092359357448 -13.778872169809802 0 -13.778872169809802 10.664738258204125 0 0 0 0 0.078921784887256763 -31.389611835784308 0 -31.389611835784308 6.8721087714729947 0 0 0 0 -5.7666451492443684 -7.4962936125166379 0 -7.4962936125166379 9.6526129453559406 0 0 0 0 -26.108339895243603 -35.084590367445344 0 -35.084590367445344 -1.7516445801429654 0 0 0 0 -16.671398644280544 -25.271286219713147 0 -25.271286219713147 4.9088284176477828 0 0 0 0 2.4363749928108973 -46.695960815231956 0 -46.695960815231956 -6.2609978924010647 0 0 0 0 56.736670850025121 -13.866438273096719 0 -13.866438273096719 -3.8068836734062188 0 0 0 0 28.436648301562343 -25.922333150899703 0 -25.922333150899703 -4.1943598129801103 0 0 0 0 30.039106114703031 -28.819121643761719 0 -28.819121643761719 -4.5234152596694912 0 0 0 0 1.0678824012330732 4.9438058206044388 0 4.9438058206044388 12.978084105108351 0 0 0 0 17.408398699032261 -1.9997711696282749 0 -1.9997711696282749 -7.5231874378077919 0 0 0 0 13.967807664302995 -9.3272021192542525 0 -9.3272021192542525 6.1934771827309305 0 0 0 0 49.768888545467235 -11.687737494027715 0 -11.687737494027715 -8.9240340053860336 0 0 0 0 51.988837827249938 -48.327588667416421 0 -48.327588667416421 87.116761882556602 0 0 0 0 76.509275444602849 14.877856071577298 0 14.877856071577298 15.336982230733156 0 0 0 0 30.841923492747128 9.1274934362108979 0 9.1274934362108979 79.688049474768377 0 0 0 0 28.641279320239164 -38.002787037725284 0 -38.002787037725284 3.8843342047039187 0 0 0 0 72.08026463545697 -33.996125450526279 0 -33.996125450526279 19.3258453725648 0 0 0 0 40.238956693493378 22.290246632357594 0 22.290246632357594 4.8780352421381394 0 0 0 0 -55.632394507179242 52.933415048913048 0 52.933415048913048 341.48970541592098 0 0 0 0 74.762097014572532 -40.891923079589333 0 -40.891923079589333 107.32460864335189 0 0 0 0 125.19416479799384 -132.54836869626797 0 -132.54836869626797 241.48268355505479 0 0 0 0 52.418842140761399 27.360169948995463 0 27.360169948995463 182.08959134311226 0 0 0 0 0.71846700131884766 -1.0482911451523425 0 -1.0482911451523425 1.4686728367367081 0 0 0 0 -15.353833121929824 107.80408855134829 0 107.80408855134829 604.46966461616194 0 0 0 0 10.953937515063643 41.899412704684551 0 41.899412704684551 341.02794403662119 0 0 0 0 66.925773972523189 31.730209595998531 0 31.730209595998531 200.2011560122628 0 0 0 0 -84.167171417904228 -30.68532541411787 0 -30.68532541411787 34.058013306547764 0 0 0 0 1.5040824379247959 -2.7666949953523758 0 -2.7666949953523758 3.5448312951071514 0 0 0 0 -32.499450308181508 -178.8310379437653 0 -178.8310379437653 -49.832845659992017 0 0 0 0 -95.273892197494789 19.409667277368953 0 19.409667277368953 102.48028637838797 0 0 0 0 -30.278133067430872 35.607063884776835 0 35.607063884776835 108.19083516098726 0 0 0 0 -69.144990315641508 66.709720498671231 0 66.709720498671231 232.91094095916696 0 0 0 0 -78.249440950708049 28.973058778169616 0 28.973058778169616 163.54450223854656 0 0 0 0 -51.865256312127215 29.824947184249368 0 29.824947184249368 160.21105495981465 0 0 0 0 3.3543672099381183 24.23425429407871 0 24.23425429407871 199.33110668567315 0 0 0 0 -12.915114654826198 82.527095105807348 0 82.527095105807348 209.55497754978023 0 0 0 0 27.320637787554062 105.12716236159008 0 105.12716236159008 308.43071038807466 0 0 0 0 -24.737303076586159 28.69335461121409 0 28.69335461121409 199.51928006997764 0 0 0 0 -64.323174983556328 23.655913545235308 0 23.655913545235308 282.58874808003702 0 0 0 0 -62.666356030612519 70.195186918106629 0 70.195186918106629 267.5713579873227 0 0 0 0 -83.914859092073129 46.718115531040894 0 46.718115531040894 241.8190956716162 0 0 0 0 -67.197390573744372 43.098480488666837 0 43.098480488666837 183.7978657925687 0 0 0 0 34.336033232663794 -76.886105401204077 0 -76.886105401204077 113.86990092896849 0 0 0 0 -51.870298030707318 13.423965429689815 0 13.423965429689815 240.18955247867962 0 0 0 0 -19.441643482484096 -50.268160136235565 0 -50.268160136235565 245.65786199987269 0 0 0 0 -47.774005608595417 -1.0351928712966583 0 -1.0351928712966583 179.9078736270385 0 0 0 0 -37.002181963055364 3.4494151745602721 0 3.4494151745602721 122.50362980246609 0 0 0 0 -56.166754582196745 73.780307232173413 0 73.780307232173413 97.445169565464312 0 0 0 0 32.971720642631112 -100.40391165803248 0 -100.40391165803248 232.74734655676457 0 0 0 0 -0.19811487322169219 0.35032040245464025 0 0.35032040245464025 1.8947975044142957 0 0 0 0 -45.587917990587357 -17.275084280310693 0 -17.275084280310693 373.55414466172851 0 0 0 0 33.192347887837286 1.3961670161424991 0 1.3961670161424991 -50.171281282593554 0 0 0 0 -64.207581634731469 -48.25877448823303 0 -48.25877448823303 -68.083408173217322 0 0 0 0 -0.080533768020383256 0.18269949662830598 0 0.18269949662830598 0.37636678920656141 0 0 0 0 -175.69450903442612 -8.5679791426009615 0 -8.5679791426009615 49.455694221484009 0 0 0 0 -4.0050634760759749 -58.907640238278873 0 -58.907640238278873 -46.057895145047951 0 0 0 0 25.624646814656444 -29.498820954202529 0 -29.498820954202529 -17.098154743245686 0 0 0 0 0.0095596468309731009 0.71896424601558628 0 0.71896424601558628 0.59248062593220308 0 0 0 0 40.032081794709029 4.1470316640443343 0 4.1470316640443343 -41.064404520737298 0 0 0 0 37.748906356231714 -69.333383728382159 0 -69.333383728382159 60.386955494350332 0 0 0 0 -48.41387822948127 -2.814247128178522 0 -2.814247128178522 47.4181890023292 0 0 0 0 -37.592997371188176 50.653769268408723 0 50.653769268408723 87.136363604927283 0 0 0 0 71.706769659570227 29.117619923325492 0 29.117619923325492 -71.02425466839577 0 0 0 0 1.0055847281081514 0.45710894551016956 0 0.45710894551016956 -0.074613595583645775 0 0 0 0 -1.508976596486491 89.253816403617748 0 89.253816403617748 136.22957442871393 0 0 0 0 -15.75265498171575 40.803387317800571 0 40.803387317800571 128.10101837588445 0 0 0 0 -75.092264438537768 66.809208120373114 0 66.809208120373114 249.47258526804217 0 0 0 0 -72.477388062880379 55.41948591707478 0 55.41948591707478 215.95486387622259 0 0 0 0 -89.740449893663765 58.540914234499041 0 58.540914234499041 255.65366886558513 0 0 0 0 -16.85615451609965 123.57262193089264 0 123.57262193089264 278.67611065822803 0 0 0 0 11.940149321298918 84.674552555806486 0 84.674552555806486 253.17301720400064 0 0 0 0 -62.683936115872598 -10.876339133248166 0 -10.876339133248166 407.97989014296945 0 0 0 0 -61.566200942575051 -29.213918589333389 0 -29.213918589333389 260.22011846494752 0 0 0 0 -92.702022734247294 42.080330107620284 0 42.080330107620284 345.82542650861524 0 0 0 0 -88.327533891048233 42.667455477200747 0 42.667455477200747 238.68981024648565 0 0 0 0 -84.379048805886214 45.651261859312399 0 45.651261859312399 235.83434582964674 0 0 0 0 50.310765788695335 336.19032759201036 0 336.19032759201036 -199.58537716992396 0 0 0 0 -1.0216853055518862 0.45683361994664473 0 0.45683361994664473 0.57246037618852164 0 0 0 0 -176.38840331375968 381.37099124330825 0 381.37099124330825 1047.2489357803552 0 0 0 0 374.29081546022667 -89.02789238372543 0 -89.02789238372543 170.44648902358313 0 0 0 0 -58.561155327698316 -147.38384271745736 0 -147.38384271745736 533.32098984522599 0 0 0 0 -98.519701416724274 -8.7475185869143388 0 -8.7475185869143388 494.39089296196471 0 0 0 0 647.38490108894393 404.9718267523358 0 404.9718267523358 443.1444759950873 0 0 0 0 -43.245971637274351 115.78588904602339 0 115.78588904602339 760.81347660065148 0 0 0 0 167.08732942346273 8.7882838537798307 0 8.7882838537798307 75.467767674462266 0 0 0 0 130.62307829186477 66.02937731905422 0 66.02937731905422 230.02631698712685 0 0 0 0 106.51059258610712 139.62153187103559 0 139.62153187103559 190.427532386655 0 0 0 0 210.63739605148976 234.65144849463741 0 234.65144849463741 357.68734203090526 0 0 0 0 92.472592262950229 -101.98498764635815 0 -101.98498764635815 206.88072803176692 0 0 0 0 307.63675543613635 133.61372929667232 0 133.61372929667232 167.00079158782501 0 0 0 0 55.185344604367401 -8.4952290610644923 0 -8.4952290610644923 49.351156304290271 0 0 0 0 66.450322313161223 -74.227628653756256 0 -74.227628653756256 32.972954109646253 0 0 0 0 60.328340667682369 33.412594618483126 0 33.412594618483126 71.780653486189294 0 0 0 0 111.31354741327448 14.698428361627066 0 14.698428361627066 7.3220127209324346 0 0 0 0 -52.575131454470011 3.5860944530709276 0 3.5860944530709276 7.7377922118430433 0 0 0 0 0.57495402945986207 0.070117072295211358 0 0.070117072295211358 -0.0071769363221183546 0 0 0 0 83.262745022989748 -25.733712085942898 0 -25.733712085942898 -62.53726301511233 0 0 0 0 -4.9097965012533678 10.249219413293758 0 10.249219413293758 36.129517729104919 0 0 0 0 -16.68256213688062 -18.329611205429046 0 -18.329611205429046 -9.1150254081849198 0 0 0 0 -5.0697187160386648 5.1024055721131845 0 5.1024055721131845 12.705002892024822 0 0 0 0 3.9218822865401535 4.784349573763393 0 4.784349573763393 8.0193382745001145 0 0 0 0 3.1373343218193952 7.5070348667740063 0 7.5070348667740063 5.6254254905261405 0 0 0 0 3.6723834001873001 5.2761903582190826 0 5.2761903582190826 8.8607825981146107 0 0 0 0 1.8190247634295247 -0.085064385214536742 0 -0.085064385214536742 2.2580778018109413 0 0 0 0 10.631300702168204 0.3105826811154202 0 0.3105826811154202 -0.86625243845992372 0 0 0 0 0.61546669138397192 3.812801237205349 0 3.812801237205349 3.4936242834016866 0 0 0 0 13.667239134401825 14.340060823112253 0 14.340060823112253 9.9607449939203434 0 0 0 0 -8.2849148625032285 9.1970501890305059 0 9.1970501890305059 21.772283986640105 0 0 0 0 35.959858852050957 15.068535249556589 0 15.068535249556589 4.8685224477421798 0 0 0 0 0.054516466772375427 0.12032961445221524 0 0.12032961445221524 0.5266990019857225 0 0 0 0 24.830966139682005 -27.011286731068594 0 -27.011286731068594 43.626207030246576 0 0 0 0 9.0483931065823526 30.861875612845552 0 30.861875612845552 48.843043302194928 0 0 0 0 -38.500731057324629 -14.987231989960492 0 -14.987231989960492 26.865288634404806 0 0 0 0 0.94981771053619468 -6.9030462170774172 0 -6.9030462170774172 6.2532304609994753 0 0 0 0 0.18169659359501655 -4.3271920338373437 0 -4.3271920338373437 15.408721056499445 0 0 0 0 -5.7808536338342549 2.0292861183529567 0 2.0292861183529567 9.4882940390989461 0 0 0 0 -1.3276360963184288 -13.535922756034779 0 -13.535922756034779 -17.261086248493257 0 0 0 0 -5.7851009506200626 -10.721707896680982 0 -10.721707896680982 -17.870023576728272 0 0 0 0 -6.8364245891084465 -21.128004175198839 0 -21.128004175198839 -12.171873921492988 0 0 0 0 -10.513233010412705 -13.774761886129454 0 -13.774761886129454 9.1767563067201081 0 0 0 0 -10.863770794364655 -22.357744224173075 0 -22.357744224173075 -1.4595110799755275 0 0 0 0 0.49874841112578205 -4.8961046688976486 0 -4.8961046688976486 16.281355610865919 0 0 0 0 -39.587423877500441 -37.008502532209604 0 -37.008502532209604 17.699349585158416 0 0 0 0 -8.6026192940338078 1.2567188196305779 0 1.2567188196305779 24.991771121540296 0 0 0 0 44.499315564925837 9.3963073431596058 0 9.3963073431596058 18.65736492621636 0 0 0 0 44.213946675754414 14.917167129210156 0 14.917167129210156 24.708943136580274 0 0 0 0 11.836682367459844 -2.7955565332867991 0 -2.7955565332867991 19.854938977463462 0 0 0 0 18.923689658036778 -13.253486072128453 0 -13.253486072128453 35.286552411123921 0 0 0 0 8.9172783720186999 -18.357028247018661 0 -18.357028247018661 -2.8927917091777999 0 0 0 0 -34.051395604196841 -19.891406488447274 0 -19.891406488447274 25.110130679438953 0 0 0 0 0.58490593291572979 -5.2658717109340829 0 -5.2658717109340829 16.643823648732432 0 0 0 0 2.3310191615691167 -124.51004813601566 0 -124.51004813601566 2.6067732295832684 0 0 0 0 -24.236380597214065 -36.202147748332663 0 -36.202147748332663 8.3954365231957127 0 0 0 0 24.187935441992806 -2.2530828108588139 0 -2.2530828108588139 4.5446563319055713 0 0 0 0 -10.400674204978259 -9.3359738583417311 0 -9.3359738583417311 9.6118479481337999 0 0 0 0 17.698590330919387 -20.680906740957653 0 -20.680906740957653 1.440667154399307 0 0 0 0 1.1112001754053153 -17.766955680675892 0 -17.766955680675892 3.3642573475785866 0 0 0 0 1.3641151401489822 -13.761089441132043 0 -13.761089441132043 6.5505994092854962 0 0 0 0 -0.19132803005642529 -1.2632542028621412 0 -1.2632542028621412 4.1296165274003691 0 0 0 0 6.7611977934614771 -6.1681365091175167 0 -6.1681365091175167 11.484880673702719 0 0 0 0 5.6887483486466692 -12.381065990554475 0 -12.381065990554475 -0.28844084121192282 0 0 0 0 8.7134180701795003 150.36476264327734 0 150.36476264327734 61.229221928607672 0 0 0 0 0.23161955062440609 -0.37471880975295901 0 -0.37471880975295901 0.45705205085707235 0 0 0 0 -65.735288540718329 -13.532582944313276 0 -13.532582944313276 42.482239731768004 0 0 0 0 53.321198411787407 -44.223848680075662 0 -44.223848680075662 59.896153969330044 0 0 0 0 -7.9621855586008223 -5.2885752028428215 0 -5.2885752028428215 46.642392268306367 0 0 0 0 -1.4327790014087896 42.735401321245263 0 42.735401321245263 73.597229288248855 0 0 0 0 -29.146780462903337 -8.5980057653774224 0 -8.5980057653774224 14.393442960918037 0 0 0 0 5.8728619882929252 -73.028013421187097 0 -73.028013421187097 110.7749757768546 0 0 0 0 -19.091756969860512 -15.586998842516095 0 -15.586998842516095 -17.506268420101151 0 0 0 0 0.49864205813899343 -0.4361143902579423 0 -0.4361143902579423 0.44228837055246828 0 0 0 0 6.6971864526923355 10.441332851899119 0 10.441332851899119 55.671596013359704 0 0 0 0 -7.8588154730973656 19.743178294379504 0 19.743178294379504 145.48286540676418 0 0 0 0 -13.039108833163937 -41.198597171686288 0 -41.198597171686288 46.46836756694529 0 0 0 0 5.5147158218647405 -4.1188524147939916 0 -4.1188524147939916 24.801270941647999 0 0 0 0 -7.447152877623239 -9.4541545143683834 0 -9.4541545143683834 22.61980859950927 0 0 0 0 3.313499464281449 -9.1489369012792849 0 -9.1489369012792849 22.883269773680695 0 0 0 0 0.97622649606131517 2.1805493778150549 0 2.1805493778150549 -5.861802437915685 0 0 0 0 -10.19773225360791 11.408612682968396 0 11.408612682968396 7.4109917294968 0 0 0 0 -3.889596364921772 12.689918589672288 0 12.689918589672288 3.8681188687123722 0 0 0 0 -0.70634692348050976 23.064888038665686 0 23.064888038665686 13.389562256661975 0 0 0 0 4.1071470498669669 9.1475582681874243 0 9.1475582681874243 5.1355156586350859 0 0 0 0 -0.48265752724294453 0.28557043417285755 0 0.28557043417285755 -0.14113870484765645 0 0 0 0 -6.2872248346182005 6.4365225960268617 0 6.4365225960268617 16.962741117168889 0 0 0 0 -117.95737831247561 -88.803544161211107 0 -88.803544161211107 -7.7061502296714934 0 0 0 0 -18.990246200061733 -72.115626058284533 0 -72.115626058284533 -48.872469131028993 0 0 0 0 -78.302484864264898 4.937720182704652 0 4.937720182704652 21.345354743250709 0 0 0 0 -10.187382544314687 1.8953920572421339 0 1.8953920572421339 -42.476672584157683 0 0 0 0 -41.667278135032348 -26.004370864242901 0 -26.004370864242901 3.2320399798059043 0 0 0 0 -37.849118230635668 -46.544786335646904 0 -46.544786335646904 96.733369779399254 0 0 0 0 -70.074111227764675 -22.765268465693623 0 -22.765268465693623 43.253888851379088 0 0 0 0 -3.0981027790019198 9.5181211811895992 0 9.5181211811895992 18.346808132363094 0 0 0 0 -1.4735940730700454 1.8793922645691303 0 1.8793922645691303 2.3275229361408272 0 0 0 0 -68.245752149884737 -13.546644439082314 0 -13.546644439082314 -9.9063509400230032 0 0 0 0 -89.193108937097577 19.28606898937096 0 19.28606898937096 49.548175235199551 0 0 0 0 1.1291659506264162 3.310262043164764 0 3.310262043164764 6.7046731253610474 0 0 0 0 -88.303199511685989 26.975278877506526 0 26.975278877506526 22.250977133086053 0 0 0 0 -32.507407159496154 -11.667665373691761 0 -11.667665373691761 15.761849910959882 0 0 0 0 1.100311638625783 2.6952475012928971 0 2.6952475012928971 21.645096003431718 0 0 0 0 2.2223713792093349 4.4302314232872959 0 4.4302314232872959 13.766718584050977 0 0 0 0 2.0219022532000963 6.9072739347993775 0 6.9072739347993775 7.7438000471456689 0 0 0 0 -0.34624312548412828 0.95989817428401469 0 0.95989817428401469 5.8567947103239177 0 0 0 0 1.3471555112790776 -1.415797023611205 0 -1.415797023611205 7.5637037333660047 0 0 0 0 1.8074364206984797 1.0083894589088231 0 1.0083894589088231 14.506483460237177 0 0 0 0 -0.50794626454389769 0.10822901843386035 0 0.10822901843386035 5.2743352149952081 0 0 0 0 -2.3442929199915028 5.6234324234147266 0 5.6234324234147266 14.29730476423174 0 0 0 0 0.72186654081019697 1.0618804975879357 0 1.0618804975879357 10.111557301034324 0 0 0 0 5.0389561332094672 5.5367705073754223 0 5.5367705073754223 9.9623789094212043 0 0 0 0 0.57692145822063789 2.5926971248088662 0 2.5926971248088662 9.409130411485684 0 0 0 0 -0.63188814716770736 -0.047097054162711594 0 -0.047097054162711594 11.111981072986943 0 0 0 0 6.6349880670273365 3.7425310103590164 0 3.7425310103590164 3.4716507345819991 0 0 0 0 8.0442577099694859 8.5197357699246368 0 8.5197357699246368 18.484095699410318 0 0 0 0 13.745471849613295 -10.685901373596607 0 -10.685901373596607 16.924602836577833 0 0 0 0 -0.37216701601503432 3.3434547233634757 0 3.3434547233634757 17.509667508682657 0 0 0 0 -20.326792684310703 6.5065045147421188 0 6.5065045147421188 11.263232061123745 0 0 0 0 -0.3438682571233127 1.5114583392637426 0 1.5114583392637426 3.8484301564125598 0 0 0 0 -4.6264131497141534 2.7244761845222456 0 2.7244761845222456 12.115898170574837 0 0 0 0 6.5503960835619637 22.110897454633232 0 22.110897454633232 9.0328615662219818 0 0 0 0 -27.509962763687639 -17.346145422224538 0 -17.346145422224538 42.444725760130495 0 0 0 0 -6.4476821602570453 16.153135216689407 0 16.153135216689407 0.63955997192897485 0 0 0 0 0.31167646015963912 -3.7434854828114936 0 -3.7434854828114936 16.475248255313126 0 0 0 0 -2.7005702199654138 7.3564918858919555 0 7.3564918858919555 19.058719870654386 0 0 0 0 -2.0426760615872581 -10.954596969494105 0 -10.954596969494105 10.407604881410634 0 0 0 0 2.3936320245214233 -5.0589556316313065 0 -5.0589556316313065 9.7666001314191817 0 0 0 0 1.9251730086014049 -6.7663854445872857 0 -6.7663854445872857 5.2310904810437933 0 0 0 0 -0.85457314477710611 -8.3533475316557997 0 -8.3533475316557997 13.839254566277305 0 0 0 0 -0.50750499439702379 1.3634510645646394 0 1.3634510645646394 5.1214468453530344 0 0 0 0 -0.30001511951704174 2.0734907360606485 0 2.0734907360606485 19.457687572474242 0 0 0 0 -21.732175182677565 -4.9702043143620358 0 -4.9702043143620358 22.629507712172199 0 0 0 0 -24.797434769999654 12.698965970992504 0 12.698965970992504 42.698032756194152 0 0 0 0 -1.2764817506260897 -9.9361729947986532 0 -9.9361729947986532 8.7814588328474201 0 0 0 0 -0.001555137772485643 -0.55984199269499513 0 -0.55984199269499513 10.802016086077629 0 0 0 0 -10.388640844883867 3.4468177174912853 0 3.4468177174912853 14.935444404046393 0 0 0 0 -10.954961960499872 -4.8225930814587628 0 -4.8225930814587628 11.334334462684637 0 0 0 0 -0.20053587220343011 0.1719241231108608 0 0.1719241231108608 9.5195834215189805 0 0 0 0 -1.0357135532670938 -1.4261532472680845 0 -1.4261532472680845 3.6354802819783139 0 0 0 0 -0.0084339685672535358 0.50540284925391354 0 0.50540284925391354 0.36729576023583377 0 0 0 0 22.117256888260158 -12.325363773819845 0 -12.325363773819845 -20.195767837705716 0 0 0 0 -17.931673198835028 7.8801823018402501 0 7.8801823018402501 6.851808325165166 0 0 0 0 -14.451696381290844 4.327727874957418 0 4.327727874957418 4.82131813092019 0 0 0 0 -14.550996669420442 2.2261210247843337 0 2.2261210247843337 7.3297802571169086 0 0 0 0 -0.56809008314304044 0.46704747843960526 0 0.46704747843960526 5.1100158444578057 0 0 0 0 -13.986882068106752 2.1250161365942404 0 2.1250161365942404 6.262508707217421 0 0 0 0 -0.48573567280660013 2.0577378417228238 0 2.0577378417228238 5.1187676282417129 0 0 0 0 -3.9063308515251265 2.9131484916488262 0 2.9131484916488262 7.7511597365410125 0 0 0 0 -4.4607976610492983 0.23636678394700539 0 0.23636678394700539 7.6999972868907207 0 0 0 0 -0.15736061442521532 1.5557018230074391 0 1.5557018230074391 2.8413797766152129 0 0 0 0 -0.40091713957936781 0.10943082557688477 0 0.10943082557688477 7.0050019882987442 0 0 0 0 -3.3970058646773396 3.5101919506269041 0 3.5101919506269041 8.2627949258167064 0 0 0 0 -6.5582772695277072 -4.8115682986635875 0 -4.8115682986635875 12.864616715562988 0 0 0 0 7.7742697629416853 -11.119553529971199 0 -11.119553529971199 8.5022871725777804 0 0 0 0 8.650981695604969 -6.1604538217325171 0 -6.1604538217325171 7.3310277078253421 0 0 0 0 -9.3659742008379681 1.4395407160391187 0 1.4395407160391187 9.485436844623564 0 0 0 0 -12.051564437336793 -0.70722023536018241 0 -0.70722023536018241 9.3429953657177975 0 0 0 0 -13.56405912665889 4.3459087828696283 0 4.3459087828696283 7.9084770064037002 0 0 0 0 -15.864043185558216 3.1547473940099735 0 3.1547473940099735 11.416194567307684 0 0 0 0 -3.0056282816615099 -10.803958614368469 0 -10.803958614368469 18.311729447381367 0 0 0 0 -3.5558962967778029 -3.108819822849 0 -3.108819822849 10.142066860189516 0 0 0 0 -15.848804203136297 -1.7008192601906558 0 -1.7008192601906558 15.934313771251254 0 0 0 0 -27.370728451674132 6.2559122675292542 0 6.2559122675292542 13.616169545668527 0 0 0 0 -8.9465832600534441 -0.4565583084940954 0 -0.4565583084940954 6.9165203058200859 0 0 0 0 -17.297439238762649 3.7444929000512275 0 3.7444929000512275 8.9472161662470171 0 0 0 0 -26.458663945072971 19.828581888095869 0 19.828581888095869 -3.0548204406195509 0 0 0 0 8.054071959980071 -13.501334153976813 0 -13.501334153976813 16.42354378373966 0 0 0 0 -0.63653796794137996 1.2803627105311222 0 1.2803627105311222 4.2463460607908203 0 0 0 0 -15.313773633622532 -0.49453737413568888 0 -0.49453737413568888 6.9255482258895427 0 0 0 0 -0.70930278503235944 0.93393618381950283 0 0.93393618381950283 3.5861865903409367 0 0 0 0 16.397149697788851 -26.379381843783904 0 -26.379381843783904 27.927131832957457 0 0 0 0 -46.242454128408198 25.508433334990514 0 25.508433334990514 -0.8611298016312503 0 0 0 0 0.27418615629865783 -16.274436381977239 0 -16.274436381977239 32.178117573899726 0 0 0 0 -10.729401188942262 -4.8121219346567159 0 -4.8121219346567159 20.711373070540503 0 0 0 0 -5.0600096754032506 -0.42095949446320446 0 -0.42095949446320446 22.312745349823899 0 0 0 0 -3.8619398308626387 -3.6581507269174836 0 -3.6581507269174836 19.117508505499018 0 0 0 0 13.660611974347475 -11.374665119766973 0 -11.374665119766973 19.446665585914161 0 0 0 0 -3.2004850466023527 -2.8832572424544196 0 -2.8832572424544196 15.922615387617043 0 0 0 0 -12.462336036767056 2.9884051306617039 0 2.9884051306617039 12.703496722694581 0 0 0 0 -0.17366606461771017 0.47409891052978148 0 0.47409891052978148 11.625129351029898 0 0 0 0 28.854259622907989 -3.0317023014176812 0 -3.0317023014176812 1.4195098242344102 0 0 0 0 -8.2960451921203315 21.273108915191244 0 21.273108915191244 3.6072018388185825 0 0 0 0 0.12329234855431119 1.5396867290675931 0 1.5396867290675931 1.0609259559006539 0 0 0 0 0.13513249059195687 3.2633070302448228 0 3.2633070302448228 12.294901315939455 0 0 0 0 -20.97783428018613 8.4705477019861064 0 8.4705477019861064 18.255757576025644 0 0 0 0 36.326960033364571 21.300137887625169 0 21.300137887625169 -8.3935606910790739 0 0 0 0 0.064184069129662596 -0.42040115331202776 0 -0.42040115331202776 0.30566487914165563 0 0 0 0 -6.4188331393092994 -12.091388334138173 0 -12.091388334138173 42.237538073590258 0 0 0 0 52.310424745330238 -14.184953545763165 0 -14.184953545763165 7.3061039443919071 0 0 0 0 16.322019355919224 -3.8076304106989483 0 -3.8076304106989483 28.673906967634139 0 0 0 0 52.838939883006674 0.074533818684813014 0 0.074533818684813014 23.054863175830178 0 0 0 0 0.46924356920367838 4.4330827262030068 0 4.4330827262030068 12.770587641118425 0 0 0 0 13.012295365063352 3.3238370642300197 0 3.3238370642300197 16.933740378752191 0 0 0 0 -22.683231004042881 17.643038747378569 0 17.643038747378569 32.109664678545414 0 0 0 0 0.77383415365666153 -6.8287201675557299 0 -6.8287201675557299 13.777235322372235 0 0 0 0 12.789565524927717 -8.1724694368685959 0 -8.1724694368685959 17.028397077499903 0 0 0 0 -39.053019174594056 21.548087437658978 0 21.548087437658978 12.241856759646907 0 0 0 0 -22.376962543927732 -12.344278812329321 0 -12.344278812329321 31.762903116082271 0 0 0 0 -14.449861633375846 11.200311022586902 0 11.200311022586902 -15.85232478041106 0 0 0 0 22.958900116904125 -39.29071396361087 0 -39.29071396361087 46.872437668184375 0 0 0 0 -3.4812184174491847 -5.6856314382443998 0 -5.6856314382443998 32.990355060961519 0 0 0 0 38.952929415453383 -62.680402990252787 0 -62.680402990252787 60.258229268114519 0 0 0 0 -51.137262566176453 38.156674628211476 0 38.156674628211476 -16.040915163035606 0 0 0 0 -0.5246451274197973 0.28659168532823287 0 0.28659168532823287 1.7036887430884846 0 0 0 0 -28.168018207131823 4.1979657919500823 0 4.1979657919500823 -5.1148849187225096 0 0 0 0 2.1660315432877297 -13.410420971361873 0 -13.410420971361873 -4.8000724520989024 0 0 0 0 -25.491938929182353 7.5389100806437455 0 7.5389100806437455 -1.2897989007979049 0 0 0 0 3.6707671172787286 -14.167455042346319 0 -14.167455042346319 4.5249612941242958 0 0 0 0 -24.881061817917885 10.973930550503155 0 10.973930550503155 3.2624626841425197 0 0 0 0 4.8719008274791982 -5.9800495628360295 0 -5.9800495628360295 2.5544468455664173 0 0 0 0 14.854597308796883 -10.616748308598289 0 -10.616748308598289 1.0220797619858786 0 0 0 0 17.450233937234316 -22.609546626581505 0 -22.609546626581505 18.024287464195368 0 0 0 0 9.2734059598482723 1.339714644953574 0 1.339714644953574 14.210440760070924 0 0 0 0 20.991090822398434 -17.356018607397345 0 -17.356018607397345 25.059950108148769 0 0 0 0 19.260638572966172 -16.033988958542977 0 -16.033988958542977 43.465291430264188 0 0 0 0 46.714611376874302 -26.546973794697806 0 -26.546973794697806 26.359154744986881 0 0 0 0 2.7670506851590062 -1.189889483251136 0 -1.189889483251136 25.392335334072413 0 0 0 0 23.640385768759359 -17.772595785783778 0 -17.772595785783778 20.949973918720843 0 0 0 0 -13.103828893537692 12.986605112348116 0 12.986605112348116 3.8680300914475083 0 0 0 0 3.3357383348270986 -5.646937619883829 0 -5.646937619883829 13.118852891002462 0 0 0 0 -24.332431532331256 12.08600020961785 0 12.08600020961785 10.53051132120504 0 0 0 0 -47.814650539263212 32.164622885416975 0 32.164622885416975 -8.4652193061328944 0 0 0 0 -11.027299341261411 18.039031587675254 0 18.039031587675254 -13.726730152360687 0 0 0 0 -0.67248848033902286 0.60232361506220755 0 0.60232361506220755 2.6941629152629076 0 0 0 0 -17.588206082983135 6.2878624232707807 0 6.2878624232707807 -2.8339119892189046 0 0 0 0 -15.252889125152677 16.582306021684417 0 16.582306021684417 -6.1060827224991954 0 0 0 0 -17.775431618101198 -3.4362837699707711 0 -3.4362837699707711 19.319986112401239 0 0 0 0 4.5602815213849652 0.050496342160840868 0 0.050496342160840868 17.928028256877042 0 0 0 0 -4.1838897359154146 -11.602349338507338 0 -11.602349338507338 26.643434645145135 0 0 0 0 9.3125217527834607 -14.538574313377694 0 -14.538574313377694 37.887731796254229 0 0 0 0 11.658376339219949 -8.4855379013733909 0 -8.4855379013733909 24.012559393282572 0 0 0 0 7.5783415929684139 -21.758010834013476 0 -21.758010834013476 30.66070899432907 0 0 0 0 -12.109368828561003 -3.7078014250878368 0 -3.7078014250878368 20.460277195794333 0 0 0 0 -13.734724762030893 5.0724788004285983 0 5.0724788004285983 17.032181272868911 0 0 0 0 -3.1699548584344939 -10.759822147447267 0 -10.759822147447267 21.347834480091478 0 0 0 0 2.2286156188233406 -9.8538873163306562 0 -9.8538873163306562 13.837607749384915 0 0 0 0 15.771248695119688 -19.164736536795317 0 -19.164736536795317 13.806914160197266 0 0 0 0 2.3876378076025349 -17.173377895735769 0 -17.173377895735769 25.623085066039494 0 0 0 0 1.2229953238521247 -9.0456741897705797 0 -9.0456741897705797 19.83831614931114 0 0 0 0 14.516077066099292 -24.785534662901227 0 -24.785534662901227 23.488165893526457 0 0 0 0 29.439294155069035 -33.075547958673269 0 -33.075547958673269 27.947815388833988 0 0 0 0 12.825211778064968 -16.635200219645412 0 -16.635200219645412 34.43592511037059 0 0 0 0 33.915280989731883 -29.340237721398807 0 -29.340237721398807 11.242847884092157 0 0 0 0 33.218687150367174 -24.009387116877406 0 -24.009387116877406 10.678552764355118 0 0 0 0 13.404935423102955 -21.886351731650393 0 -21.886351731650393 19.334021330063479 0 0 0 0 13.12150900262958 -14.291268609446888 0 -14.291268609446888 9.3118499134689046 0 0 0 0 3.7363310337273674 -4.3346665995450167 0 -4.3346665995450167 -0.52459473910221277 0 0 0 0 -6.4815556437297346 1.8270638732410589 0 1.8270638732410589 10.312266160908621 0 0 0 0 3.090250726798331 -7.660203980886763 0 -7.660203980886763 7.5359422445326345 0 0 0 0 4.1046855771632522 -1.2172104960891375 0 -1.2172104960891375 0.11744963374621875 0 0 0 0 0.72487763525627624 -1.1428813132106015 0 -1.1428813132106015 1.7102722932037366 0 0 0 0 40.824857071506827 -15.01286195848138 0 -15.01286195848138 9.3092408733064076 0 0 0 0 0.0043825574994859062 -0.27598440672323399 0 -0.27598440672323399 0.12465832801053978 0 0 0 0 44.566358510737842 -26.691598752966456 0 -26.691598752966456 11.405185504405381 0 0 0 0 34.021280731087209 -30.68254983997349 0 -30.68254983997349 18.488625883455825 0 0 0 0 37.382467173571598 -29.375010929550626 0 -29.375010929550626 18.457106272046246 0 0 0 0 87.955099077880902 -23.086899696920227 0 -23.086899696920227 -0.79200347690857598 0 0 0 0 45.259223278952547 -45.728470061886583 0 -45.728470061886583 48.375961452180491 0 0 0 0 33.764256185566182 -54.508850527205141 0 -54.508850527205141 62.415083295363729 0 0 0 0 0.2891001478723666 -0.01385413528068824 0 -0.01385413528068824 0.099797410828347921 0 0 0 0 51.008999443714671 -33.981398549550704 0 -33.981398549550704 20.546878388729965 0 0 0 0 0.15239941093489456 0.031598666997007641 0 0.031598666997007641 0.85401966981527266 0 0 0 0 23.962091934903576 -28.195130208300043 0 -28.195130208300043 43.073374686029638 0 0 0 0 45.664195026577772 -41.898672633569731 0 -41.898672633569731 35.624954347833409 0 0 0 0 41.306450898877813 -47.405474541403237 0 -47.405474541403237 50.614051376582211 0 0 0 0 40.007496131633673 -40.354436744917621 0 -40.354436744917621 38.803579034276481 0 0 0 0 70.803298455524839 -46.318597588311604 0 -46.318597588311604 9.8978440362843685 0 0 0 0 117.23643569287253 -94.058351752548333 0 -94.058351752548333 29.191291977309447 0 0 0 0 33.974180867874651 -25.361659377129399 0 -25.361659377129399 33.338069555764378 0 0 0 0 36.222349566862107 -17.413504383695908 0 -17.413504383695908 54.584224139524395 0 0 0 0 70.666070983448037 -26.431657575441932 0 -26.431657575441932 33.711687064555008 0 0 0 0 72.779326512242164 -53.896574386522843 0 -53.896574386522843 39.616658278951945 0 0 0 0 44.558252376268001 -41.117617824027548 0 -41.117617824027548 36.373548279976603 0 0 0 0 37.170021545359276 -20.223617381700024 0 -20.223617381700024 32.70879148506674 0 0 0 0 32.970717716848412 -24.19291569491179 0 -24.19291569491179 32.169020594583344 0 0 0 0 24.504004784693535 -20.254747308201331 0 -20.254747308201331 28.260784824386064 0 0 0 0 3.623079172759704 -13.690290064971407 0 -13.690290064971407 33.791271057903941 0 0 0 0 41.980438842398186 -37.659547968023162 0 -37.659547968023162 71.531096503342269 0 0 0 0 41.704238632674034 -40.563771125979201 0 -40.563771125979201 43.899866424762877 0 0 0 0 20.946425031451653 -22.796624831740701 0 -22.796624831740701 42.912290644977475 0 0 0 0 28.702723365918416 -34.962090237866505 0 -34.962090237866505 55.851908489517882 0 0 0 0 44.562278928723856 -23.703758874988125 0 -23.703758874988125 39.649029217440329 0 0 0 0 35.374836379854862 -46.904251045416459 0 -46.904251045416459 86.952992362632358 0 0 0 0 4.5706404835254091 13.164198893093271 0 13.164198893093271 3.6772862284833536 0 0 0 0 0.04142285252953487 0.047571139240499605 0 0.047571139240499605 0.39899577306315592 0 0 0 0 60.018954020158503 -70.996712513595412 0 -70.996712513595412 84.631772343578632 0 0 0 0 78.226941351852318 -69.679786355064607 0 -69.679786355064607 73.846954296841432 0 0 0 0 -12.482959528004784 9.5526571916307148 0 9.5526571916307148 42.933063843213404 0 0 0 0 14.108660785333939 -35.744918862654231 0 -35.744918862654231 49.443598233950524 0 0 0 0 -8.5832011818635365 2.4151072530526108 0 2.4151072530526108 16.590685283841594 0 0 0 0 -12.338493707746336 4.7612452852179104 0 4.7612452852179104 15.768011020851191 0 0 0 0 -0.054685954851000473 -0.27037060699110782 0 -0.27037060699110782 0.61589711725805074 0 0 0 0 -8.8985854773457049 -8.6199195676226736 0 -8.6199195676226736 5.4185271023463883 0 0 0 0 -0.034325596833811756 -0.010022969072949195 0 -0.010022969072949195 0.20660675517338944 0 0 0 0 0.1054486690399159 0.7227016978431493 0 0.7227016978431493 1.6047496087176114 0 0 0 0 1.3378018671065419 -1.5822300813870243 0 -1.5822300813870243 1.6116173009686463 0 0 0 0 -1.0939658039317806 0.2728705631716366 0 0.2728705631716366 4.6125415753549532 0 0 0 0 -1.3901045698394123 3.4746597480280457 0 3.4746597480280457 8.3546805270816549 0 0 0 0 -2.3318420645394156 -4.0515105602880794 0 -4.0515105602880794 2.0230731715896582 0 0 0 0 1.0127850807249388 -2.7884646414968302 0 -2.7884646414968302 3.2079138411945678 0 0 0 0 -0.01216833709998788 -0.0032118559759197751 0 -0.0032118559759197751 0.18231201301420086 0 0 0 0 -0.87033477829118056 0.96931486993344151 0 0.96931486993344151 -0.66131481354386779 0 0 0 0 0.70228272266008041 -1.6171422010876881 0 -1.6171422010876881 1.364065836712264 0 0 0 0 0.38898400648746251 -0.4853851854955461 0 -0.4853851854955461 -0.022158943868937797 0 0 0 0 -1.0165805056378758 0.91065097651699034 0 0.91065097651699034 3.5369301478021953 0 0 0 0 -0.028607770586467306 -16.837555631768737 0 -16.837555631768737 -18.060813528977178 0 0 0 0 -7.5346494277240978 -6.8716865990390943 0 -6.8716865990390943 -10.761450357185822 0 0 0 0 -2.7049732895657144 -3.9317753223422187 0 -3.9317753223422187 7.9034616519006704 0 0 0 0 -16.00317221424735 -18.774409921993538 0 -18.774409921993538 -0.9121790970039001 0 0 0 0 -0.053571758629386484 -0.23655019592780846 0 -0.23655019592780846 0.43498820128981919 0 0 0 0 -12.766940879672205 -8.8106879393617419 0 -8.8106879393617419 -2.3954489488087347 0 0 0 0 0.020309330902074398 -20.47522412626131 0 -20.47522412626131 4.0055289115070991 0 0 0 0 -15.395721851763895 -12.867297059279736 0 -12.867297059279736 34.823907858250095 0 0 0 0 -15.203153085044463 11.825984517422512 0 11.825984517422512 34.860008858396853 0 0 0 0 -18.796864985316688 7.1060950487926675 0 7.1060950487926675 22.024457746822009 0 0 0 0 -18.42704848138046 1.3450670465830399 0 1.3450670465830399 8.1999273235742294 0 0 0 0 -26.431554231057646 -12.610076826637851 0 -12.610076826637851 18.559446204188589 0 0 0 0 -0.012602540740059551 -0.057029271072968513 0 -0.057029271072968513 0.20257342229630382 0 0 0 0 -0.01420357302797964 -7.4459978223867438 0 -7.4459978223867438 -7.5604406710772309 0 0 0 0 0.037470152538998533 -0.19759195349197789 0 -0.19759195349197789 0.38235412216300801 0 0 0 0 -14.544436473926723 -12.290863134766369 0 -12.290863134766369 -3.932351806675797 0 0 0 0 0.00038418953720616503 -17.092389397173974 0 -17.092389397173974 -2.4134756020989698 0 0 0 0 25.57761296242586 -48.246496969445616 0 -48.246496969445616 3.914675580268522 0 0 0 0 0.037775736551925329 -0.12678126770598297 0 -0.12678126770598297 0.2001894539970337 0 0 0 0 -23.172672551435188 -9.4497217440834902 0 -9.4497217440834902 32.087449518958238 0 0 0 0 -26.760649507330996 -18.548313737800527 0 -18.548313737800527 6.8886981268224758 0 0 0 0 -12.706917010591454 -3.5070297290385497 0 -3.5070297290385497 13.763506306473573 0 0 0 0 27.285794655707576 -33.809551410437052 0 -33.809551410437052 -7.8261399950497434 0 0 0 0 24.728000883442945 -35.906863335476373 0 -35.906863335476373 15.320909417681833 0 0 0 0 31.935825618029469 -13.825515186172197 0 -13.825515186172197 62.678972829966369 0 0 0 0 50.170010820237593 -27.914312879292993 0 -27.914312879292993 22.317526016038755 0 0 0 0 26.061652305370956 -39.838137940671004 0 -39.838137940671004 23.616353779572705 0 0 0 0 40.337401148304082 -26.505641015131914 0 -26.505641015131914 12.211629481047567 0 0 0 0 20.057151932802597 -33.09435910260072 0 -33.09435910260072 14.092938377227256 0 0 0 0 12.170722056845634 -26.513450762727189 0 -26.513450762727189 13.98762242906605 0 0 0 0 15.997709584331375 -37.573619933982627 0 -37.573619933982627 15.422317765448383 0 0 0 0 17.233680430945199 -44.343468314634265 0 -44.343468314634265 34.620572323261513 0 0 0 0 13.810535620205826 -22.288907118402676 0 -22.288907118402676 28.309165143145037 0 0 0 0 19.420424845261831 -22.259529114330235 0 -22.259529114330235 17.649750696178671 0 0 0 0 15.923403814111651 -18.067727881732026 0 -18.067727881732026 4.7821293737652013 0 0 0 0 1.9169307256470454 -12.321532601640001 0 -12.321532601640001 14.493405506480485 0 0 0 0 12.727758268734348 -16.113331393866247 0 -16.113331393866247 10.315430144638412 0 0 0 0 11.860352012661123 -15.876195633557245 0 -15.876195633557245 20.075789962163981 0 0 0 0 -0.0082445591212932882 -21.920848801518332 0 -21.920848801518332 28.55842617013559 0 0 0 0 11.437621960393393 -17.40669498086686 0 -17.40669498086686 30.334059005233939 0 0 0 0 11.380693315524542 -28.078683432810976 0 -28.078683432810976 30.287117488545846 0 0 0 0 -23.269623272611938 -30.364396795182074 0 -30.364396795182074 318.34892420731558 0 0 0 0 -2.5493849733078378 -42.295888610362454 0 -42.295888610362454 143.24410923149117 0 0 0 0 -37.292669758333602 -19.207696964314891 0 -19.207696964314891 250.99612242305102 0 0 0 0 -7.5808583841840402 -68.920107598531104 0 -68.920107598531104 280.15825483375011 0 0 0 0 -0.095255832815303781 -0.023502768320298628 0 -0.023502768320298628 0.20887119736323001 0 0 0 0 0.0018473519686685049 -1.0600171912774385 0 -1.0600171912774385 4.344617334691975 0 0 0 0 -0.57583699888377438 -0.53698165723750435 0 -0.53698165723750435 1.0700095362334245 0 0 0 0 -0.054158624277648393 -1.4744914401026108 0 -1.4744914401026108 5.3573070675392955 0 0 0 0 45.016145154036394 68.059160375363717 0 68.059160375363717 34.886750545269024 0 0 0 0 25.029325128710241 59.575884038310505 0 59.575884038310505 171.57703133234463 0 0 0 0 -0.30772884579214077 -0.21125986870017854 0 -0.21125986870017854 0.038219750254100404 0 0 0 0 23.504421152374789 -16.622936931011282 0 -16.622936931011282 10.346372027261168 0 0 0 0 4.3662737571115144 9.9853624692996164 0 9.9853624692996164 -20.137296127028094 0 0 0 0 9.6316759773164904 -45.766953505306446 0 -45.766953505306446 -17.255273488065541 0 0 0 0 -9.9817907753983945 74.566233663121238 0 74.566233663121238 49.574947182157757 0 0 0 0 0.33868138851627094 0.69846884687757615 0 0.69846884687757615 3.645493795189644 0 0 0 0 192.79436314326381 -287.30306919244731 0 -287.30306919244731 383.54305313149052 0 0 0 0 -11.74368401408492 -15.515524511207332 0 -15.515524511207332 324.34465910908148 0 0 0 0 -13.778202660971942 54.01295381227601 0 54.01295381227601 374.60496592465643 0 0 0 0 -46.30235374290919 -49.245575583326172 0 -49.245575583326172 605.77260063270296 0 0 0 0 160.01920741680271 -222.27839738833882 0 -222.27839738833882 470.10447735731668 0 0 0 0 43.57818972862168 -104.71660123031052 0 -104.71660123031052 370.21977185313517 0 0 0 0 32.886941256211799 -71.548546419355262 0 -71.548546419355262 557.07853739692109 0 0 0 0 238.75280591709543 -13.190715539061785 0 -13.190715539061785 360.63373363957726 0 0 0 0 94.958220496784406 -45.962759056471896 0 -45.962759056471896 289.06595396067678 0 0 0 0 75.725660715080835 -51.741785476856421 0 -51.741785476856421 351.92480755257111 0 0 0 0 2.6147229043716322 -123.41601208159955 0 -123.41601208159955 375.22945246936251 0 0 0 0 113.74243671349649 -96.12887324800613 0 -96.12887324800613 308.7566604686217 0 0 0 0 4.7530683502678528 -118.76758363745739 0 -118.76758363745739 348.16285612704087 0 0 0 0 -24.647609597834474 -106.62641509964396 0 -106.62641509964396 343.16014211590209 0 0 0 0 -46.764185507962679 -60.46196038697849 0 -60.46196038697849 340.30263650588313 0 0 0 0 -26.246236199052646 -103.61070709537671 0 -103.61070709537671 388.386117531747 0 0 0 0 -35.763139779770711 -103.7813536853555 0 -103.7813536853555 449.55733884865185 0 0 0 0 -0.052130594826892203 -88.273995427270165 0 -88.273995427270165 319.43644206821045 0 0 0 0 -31.954985206948152 -80.642664431324192 0 -80.642664431324192 325.27785298877143 0 0 0 0 -0.033977150793220445 -106.08710902973512 0 -106.08710902973512 345.44933494392899 0 0 0 0 -17.304039480221718 -123.04743352516834 0 -123.04743352516834 332.66969960801907 0 0 0 0 0.021131312731367494 -115.55119808134168 0 -115.55119808134168 315.8612300867253 0 0 0 0 23.416264358073533 -112.33431637215654 0 -112.33431637215654 283.95326603386638 0 0 0 0 -17.82196446620128 -70.637586423054927 0 -70.637586423054927 274.20994741288814 0 0 0 0 -14.38923273358202 -6.4759176536654195 0 -6.4759176536654195 100.32055409227178 0 0 0 0 -36.816496865997379 -31.888133804966856 0 -31.888133804966856 393.34490521672706 0 0 0 0 11.888917295400887 7.0743724448693683 0 7.0743724448693683 -15.242908424028428 0 0 0 0 -0.55074169712200327 -26.522699644661504 0 -26.522699644661504 33.645354096748633 0 0 0 0 0.0078660003907558562 -0.055298892814992229 0 -0.055298892814992229 0.0621536041021713 0 0 0 0 0.076964598501552711 -0.36471405004778035 0 -0.36471405004778035 0.81108512078205663 0 0 0 0 -0.033948677777645382 -11.776187122654026 0 -11.776187122654026 -12.394742051626963 0 0 0 0 0.059541285793017831 -13.740820945137784 0 -13.740820945137784 4.2846300897581386 0 0 0 0 -10.356381965868454 -14.100290691089867 0 -14.100290691089867 -1.6306149833435484 0 0 0 0 -4.1210841029835876 -3.7350545490553486 0 -3.7350545490553486 -7.8061077785732778 0 0 0 0 -0.043214768073431609 -0.11639109045357543 0 -0.11639109045357543 0.49121463478320493 0 0 0 0 0.42171228794339571 -0.7527342038336684 0 -0.7527342038336684 1.1511593333711971 0 0 0 0 -10.815080967086644 -1.6262606477930603 0 -1.6262606477930603 16.843588093061044 0 0 0 0 9.7825284016515752 -57.675208966363243 0 -57.675208966363243 59.237283255669354 0 0 0 0 -0.058174652151819828 -1.2137134458535002 0 -1.2137134458535002 1.1566091871063691 0 0 0 0 0.00098042915349288995 -0.11349934915829962 0 -0.11349934915829962 0.28306762730104396 0 0 0 0 0.4309090692627256 -0.621894422269758 0 -0.621894422269758 1.9225077576852421 0 0 0 0 -14.344335881351441 -9.9377087013235723 0 -9.9377087013235723 -5.039943458919879 0 0 0 0 -1.2764905453199127 8.5327069871837011 0 8.5327069871837011 4.0338712154625682 0 0 0 0 -2.4971227697918152 -5.7578493481323676 0 -5.7578493481323676 -12.288725913316739 0 0 0 0 -12.85619885173935 -6.5788041872447138 0 -6.5788041872447138 1.1281586394179612 0 0 0 0 7.5816537575122496 3.7610142960493249 0 3.7610142960493249 5.7320914333067776 0 0 0 0 -10.482736975203835 7.8531556829475448 0 7.8531556829475448 26.116160912759369 0 0 0 0 -0.035340519648043266 -0.082431847966219607 0 -0.082431847966219607 0.18215381200489844 0 0 0 0 2.9152811646395853 18.527340772897332 0 18.527340772897332 17.024190279551476 0 0 0 0 -8.8032711652663025 -5.3191755652151187 0 -5.3191755652151187 22.751498215264292 0 0 0 0 -3.286192877319948 -7.0924660829005006 0 -7.0924660829005006 -5.8308882980672934 0 0 0 0 -0.60950993004797738 -2.575185761067587 0 -2.575185761067587 2.5139169151661918 0 0 0 0 0.14173092857901337 -0.6840608337566505 0 -0.6840608337566505 1.1780913212980053 0 0 0 0 -0.08851454633747835 -1.5523635360068511 0 -1.5523635360068511 0.19117052053479711 0 0 0 0 -1.1507965012509658 -1.6806191725127064 0 -1.6806191725127064 1.4865335453760053 0 0 0 0 -0.31230771303631499 -1.059072838650934 0 -1.059072838650934 1.1727406625795993 0 0 0 0 -0.027162511756280594 -0.51071158727652133 0 -0.51071158727652133 1.2352163813426564 0 0 0 0 0.079267546412211232 -0.82928127441482502 0 -0.82928127441482502 0.84339270339842187 0 0 0 0 -0.49969747170979417 -0.30765902742314211 0 -0.30765902742314211 1.8817364405622357 0 0 0 0 0.26293857250109309 -0.8203992900003918 0 -0.8203992900003918 1.3793130139965797 0 0 0 0 -2.110076704031826 -1.2039017934966978 0 -1.2039017934966978 -2.2351866773460642 0 0 0 0 -0.16863402637102354 -0.6059665111679351 0 -0.6059665111679351 0.67727665850452468 0 0 0 0 -2.5447717884596273 -7.443920637667361 0 -7.443920637667361 -0.2033823989368102 0 0 0 0 0.20894105363673315 -0.63483555829272831 0 -0.63483555829272831 0.8743337816911918 0 0 0 0 16.239960729822364 23.742449924634315 0 23.742449924634315 -7.5342375599084335 0 0 0 0 -0.33278711255860571 -0.9400582288581063 0 -0.9400582288581063 2.0765327874360082 0 0 0 0 -0.016641960117604881 -0.042721249146321583 0 -0.042721249146321583 1.0369405519947286 0 0 0 0 -0.20429012398970739 -0.36993889416114489 0 -0.36993889416114489 2.0778994306902447 0 0 0 0 -2.3459568831084781 -0.13796934181999632 0 -0.13796934181999632 4.1129968020704837 0 0 0 0 -0.062192026905137081 -0.014259393697886147 0 -0.014259393697886147 0.95991583080315479 0 0 0 0 26.507470410040803 53.488548689050759 0 53.488548689050759 107.21815252636952 0 0 0 0 67.036395900672744 -118.91489208986059 0 -118.91489208986059 191.03873950484012 0 0 0 0 61.0201237189425 -52.733544051454373 0 -52.733544051454373 32.066328897462881 0 0 0 0 -8.4122744670773102 -62.771224240428182 0 -62.771224240428182 300.24347375655088 0 0 0 0 -15.239524312876426 -95.104537736873681 0 -95.104537736873681 267.97347078151142 0 0 0 0 -11.037270461480432 -17.858989416956319 0 -17.858989416956319 287.36101461988619 0 0 0 0 -0.1304620478387768 0.42615352707816001 0 0.42615352707816001 0.65082279308622049 0 0 0 0 10.553215483935261 19.570361884149861 0 19.570361884149861 1.7085368053221828 0 0 0 0 -2.1869809852728181 -11.663064555005803 0 -11.663064555005803 24.591555238244837 0 0 0 0 -5.0326689953147365 2.2119499606069439 0 2.2119499606069439 2.2065716475399313 0 0 0 0 -0.45919157255960941 0.37977951204138094 0 0.37977951204138094 1.2503641059373862 0 0 0 0 -8.9315582735704595 -2.3759320941967417 0 -2.3759320941967417 12.931898024340626 0 0 0 0 3.829874110651474 -10.480881809864513 0 -10.480881809864513 5.1136787148952862 0 0 0 0 7.4403512425245779 -7.6774404978505117 0 -7.6774404978505117 -5.4840308301609184 0 0 0 0 1.8730893960514585 -1.3055839186531557 0 -1.3055839186531557 -3.945263323641484 0 0 0 0 33.966847981712817 -27.454801134043919 0 -27.454801134043919 12.730478611646504 0 0 0 0 -0.10364777010880186 -0.08643036992372366 0 -0.08643036992372366 0.076888528624614594 0 0 0 0 2.9692403626765724 -4.4115252347035039 0 -4.4115252347035039 -0.17242392967818887 0 0 0 0 0.4123827027493121 -2.4068741183264137 0 -2.4068741183264137 1.026210943244223 0 0 0 0 0.9013963638354312 -5.3545221217309518 0 -5.3545221217309518 -0.42683671961276559 0 0 0 0 23.832432909540501 -14.869019273000049 0 -14.869019273000049 5.3135260808303428 0 0 0 0 20.138972634941013 -16.725583251924945 0 -16.725583251924945 7.0424732155552192 0 0 0 0 26.453039126224652 -20.425789625787729 0 -20.425789625787729 3.7294221142374226 0 0 0 0 26.545942218403226 -20.684291824228239 0 -20.684291824228239 3.9622116498194373 0 0 0 0 23.733127912866898 -13.606925321759263 0 -13.606925321759263 8.6002642226171702 0 0 0 0 18.027213019593464 -20.791864609170716 0 -20.791864609170716 9.947068348303219 0 0 0 0 22.752561587124518 -16.931963937054206 0 -16.931963937054206 22.685461521501566 0 0 0 0 32.631740397915394 -21.212908388692085 0 -21.212908388692085 7.9316871693008579 0 0 0 0 40.919846713557718 -26.936309427685046 0 -26.936309427685046 26.616835155033186 0 0 0 0 9.4848098425552863 18.987748797499989 0 18.987748797499989 87.819759948524734 0 0 0 0 7.2539036688486505 -4.761268247429598 0 -4.761268247429598 95.216076632985278 0 0 0 0 17.502127940888656 -39.837813879906207 0 -39.837813879906207 182.71741655276855 0 0 0 0 23.851011097918374 -61.844810267627054 0 -61.844810267627054 157.26767521627698 0 0 0 0 -6.7647411697458892 -56.758663081637678 0 -56.758663081637678 228.48120387657036 0 0 0 0 3.055963655846341 -102.43093677605884 0 -102.43093677605884 235.21309671618292 0 0 0 0 10.422448544952061 -114.58424187978835 0 -114.58424187978835 252.67501132279085 0 0 0 0 -19.009173002584504 -101.56002679295216 0 -101.56002679295216 281.23005527516852 0 0 0 0 -2.597104397854693 -35.568566478160392 0 -35.568566478160392 184.03070561086361 0 0 0 0 -16.115297924088338 -52.175237115730852 0 -52.175237115730852 299.27198860621502 0 0 0 0 -2.2212732578866046 -43.37741832017349 0 -43.37741832017349 304.05941921991325 0 0 0 0 -15.381457609213271 -60.83694134056077 0 -60.83694134056077 397.07973782095178 0 0 0 0 20.07777866033922 -121.13030357168918 0 -121.13030357168918 366.00291012424577 0 0 0 0 -31.935887571117519 -104.84386566407375 0 -104.84386566407375 337.40100825371837 0 0 0 0 -19.094870953725604 -153.31671279379782 0 -153.31671279379782 272.05880701947171 0 0 0 0 2.9210396937583027 -190.94660042896612 0 -190.94660042896612 336.47630299047466 0 0 0 0 -6.8880124816791977 -91.399675089879565 0 -91.399675089879565 334.88827236187353 0 0 0 0 -20.493957007332085 -18.520398627806571 0 -18.520398627806571 89.541724731854515 0 0 0 0 99.442269235829315 -124.44909091710861 0 -124.44909091710861 99.66270103095485 0 0 0 0 -9.9478619229142851 -124.56598845969984 0 -124.56598845969984 206.013414954994 0 0 0 0 -51.894295709713276 -105.82024758095758 0 -105.82024758095758 207.31586207208863 0 0 0 0 -25.143391599700237 -120.23535371206344 0 -120.23535371206344 230.5477667167379 0 0 0 0 0.23241008410021635 -121.98067644217099 0 -121.98067644217099 269.8231744575005 0 0 0 0 0.9256977009403613 -127.45475587343935 0 -127.45475587343935 222.40157039450423 0 0 0 0 7.4487703606998963 -125.72777978947852 0 -125.72777978947852 266.32484810848928 0 0 0 0 24.347543297581836 -100.84998866616706 0 -100.84998866616706 289.03472144370971 0 0 0 0 -11.57895008110566 -129.94482943634421 0 -129.94482943634421 270.82874965234259 0 0 0 0 12.659413404141148 -115.68527824681541 0 -115.68527824681541 252.25878202557942 0 0 0 0 -19.55234100723824 -128.48377043262644 0 -128.48377043262644 298.60406935125047 0 0 0 0 68.142741569954183 -138.65484354442106 0 -138.65484354442106 236.86495329104184 0 0 0 0 23.344206904028525 -110.12152657811151 0 -110.12152657811151 315.69426057859346 0 0 0 0 26.663235797698093 -131.53041608757212 0 -131.53041608757212 267.34008186647588 0 0 0 0 61.203561856149463 -72.503362009161719 0 -72.503362009161719 307.00009500179021 0 0 0 0 42.090003671227322 -105.80958354592531 0 -105.80958354592531 283.4902039725348 0 0 0 0 57.141450103257924 -85.075655383440107 0 -85.075655383440107 345.82946700230059 0 0 0 0 92.285585191756411 -36.354189392869557 0 -36.354189392869557 372.83607903460143 0 0 0 0 132.73744178502091 82.780543421098628 0 82.780543421098628 635.47235062758182 0 0 0 0 95.653825301912377 -41.13297917064483 0 -41.13297917064483 379.5847370259271 0 0 0 0 375.69042147206062 -29.006625368440382 0 -29.006625368440382 372.85644293642054 0 0 0 0 91.407394673595945 -207.73668661470947 0 -207.73668661470947 394.94233714712755 0 0 0 0 1.1208473808421053 -1.7378045986771884 0 -1.7378045986771884 3.4755742648094525 0 0 0 0 128.53182020962555 -164.62933279961555 0 -164.62933279961555 -21.634499211793809 0 0 0 0 124.94509708154084 -175.1469404980835 0 -175.1469404980835 155.79451615705148 0 0 0 0 46.320939067853999 -142.62400360208449 0 -142.62400360208449 398.97922440821094 0 0 0 0 73.513861005746776 -55.535671468414876 0 -55.535671468414876 97.354051856327715 0 0 0 0 72.257250143739611 -52.762135515474256 0 -52.762135515474256 104.41673792581787 0 0 0 0 -46.381693756707136 27.278628266390115 0 27.278628266390115 50.929865073228029 0 0 0 0 65.041867087710557 -1.3945284349916847 0 -1.3945284349916847 22.50235573059399 0 0 0 0 -13.505783718726889 25.587605795330546 0 25.587605795330546 59.080623418156392 0 0 0 0 70.999020914610242 -23.571700044753925 0 -23.571700044753925 51.828032670586254 0 0 0 0 46.545839519441984 -47.005767908379312 0 -47.005767908379312 117.00065153266223 0 0 0 0 60.49495403569108 -56.456944002336968 0 -56.456944002336968 110.02437778720878 0 0 0 0 41.979287559285581 -114.16615469289263 0 -114.16615469289263 233.50097802221399 0 0 0 0 104.48529859375745 -97.186879057761871 0 -97.186879057761871 132.99124437047976 0 0 0 0 40.821699633998165 -89.970624932076589 0 -89.970624932076589 179.93094953255695 0 0 0 0 13.752452776691143 -43.593767010278498 0 -43.593767010278498 142.91718311379827 0 0 0 0 29.123341162417077 -86.857681698854776 0 -86.857681698854776 182.29575145865601 0 0 0 0 43.297224506126497 -33.493637424207009 0 -33.493637424207009 81.573905278975872 0 0 0 0 36.215760491392871 -24.575779242084536 0 -24.575779242084536 82.870606838516323 0 0 0 0 28.7645065438237 -20.068712609177965 0 -20.068712609177965 94.830276261618565 0 0 0 0 19.140230289715419 -30.687375480718401 0 -30.687375480718401 85.620877991715133 0 0 0 0 13.114532642321706 0.17497196806289139 0 0.17497196806289139 62.147399202778615 0 0 0 0 28.736785145586055 0.73630447314826597 0 0.73630447314826597 49.695468800789968 0 0 0 0 4.4449856793680738 -30.92023128100027 0 -30.92023128100027 21.040332012396902 0 0 0 0 -19.076060305739361 12.54697370779877 0 12.54697370779877 46.778522961354611 0 0 0 0 23.255104657115595 -21.084390788880228 0 -21.084390788880228 76.899808394430693 0 0 0 0 14.608150614199644 -5.950390078665805 0 -5.950390078665805 60.390816750374142 0 0 0 0 31.181008516873419 -19.744999149570958 0 -19.744999149570958 24.502971977151901 0 0 0 0 29.504777774159393 -6.5527802045171484 0 -6.5527802045171484 2.756764096673578 0 0 0 0 14.957824701359414 -16.534039465901515 0 -16.534039465901515 27.592130459078362 0 0 0 0 15.435321548975391 -1.4446162939133274 0 -1.4446162939133274 -11.663309279418172 0 0 0 0 -23.694264025914322 -1.2376028612870869 0 -1.2376028612870869 7.3168512880583876 0 0 0 0 -3.3518882861196744 4.6141145233159477 0 4.6141145233159477 3.6160565963009503 0 0 0 0 -17.634636754210646 -4.2048253425655275 0 -4.2048253425655275 7.3663671801114106 0 0 0 0 -11.986451279554558 1.2939863628689636 0 1.2939863628689636 7.7832632539866609 0 0 0 0 -5.5159366485736427 -3.6918870952322322 0 -3.6918870952322322 8.5844856963040002 0 0 0 0 8.4411164925158459 -6.7484903906561158 0 -6.7484903906561158 4.8526762320761918 0 0 0 0 -2.743337416877921 -1.3682514200609148 0 -1.3682514200609148 7.2186994013318326 0 0 0 0 12.7752399570129 -2.8976313400562503 0 -2.8976313400562503 5.7026604375078023 0 0 0 0 2.9420092931197814 24.340779142727115 0 24.340779142727115 2.1732331852144853 0 0 0 0 0.2877883541481765 2.5519239086149899 0 2.5519239086149899 -1.8569966158807034 0 0 0 0 2.8181478871892978 3.5847796309953992 0 3.5847796309953992 3.4310130882968224 0 0 0 0 -0.39787714045037398 2.2027267828479227 0 2.2027267828479227 2.9342750328610023 0 0 0 0 -0.69064514394153775 8.7601250391380745 0 8.7601250391380745 2.5425797324169253 0 0 0 0 0.079029598570079074 2.846751933358215 0 2.846751933358215 2.8188781174326927 0 0 0 0 -5.9349890510620815 9.0430233551938137 0 9.0430233551938137 16.671504533981491 0 0 0 0 -0.76657332689046598 2.1342645510512739 0 2.1342645510512739 4.1940428029311079 0 0 0 0 -0.2221777699260441 0.62174806043330832 0 0.62174806043330832 2.7459777390960483 0 0 0 0 -17.872429819859917 -3.170157995311456 0 -3.170157995311456 5.1798564876717137 0 0 0 0 -16.032498049495189 -4.1044957371650526 0 -4.1044957371650526 5.4205592436981078 0 0 0 0 -15.276387779966058 -3.9880960917525954 0 -3.9880960917525954 -1.9104977229144424 0 0 0 0 0.41456500153635467 1.6351469705742119 0 1.6351469705742119 -0.10752421690760627 0 0 0 0 31.030659620621577 20.284478086969557 0 20.284478086969557 5.8636895301442564 0 0 0 0 6.9265470821917461 -3.5766423243230747 0 -3.5766423243230747 -0.5141128971845319 0 0 0 0 0.23025168360711645 -0.13141739392509777 0 -0.13141739392509777 0.088491801650320667 0 0 0 0 -2.6288249240891446 2.6212551381131561 0 2.6212551381131561 0.11476108284659858 0 0 0 0 -22.372841913781272 -16.15300717569005 0 -16.15300717569005 -5.2586396180304291 0 0 0 0 0.27376952555010714 0.42255147848974062 0 0.42255147848974062 -0.11054610752244187 0 0 0 0 0.61053505427013199 -0.17990789218338854 0 -0.17990789218338854 -0.24954452880707834 0 0 0 0 57.326735575593148 44.578510824999739 0 44.578510824999739 25.354251782351639 0 0 0 0 -21.772333968576504 -3.0318220492172259 0 -3.0318220492172259 18.97655930196197 0 0 0 0 70.696042243393492 32.918845036425921 0 32.918845036425921 16.403361794444208 0 0 0 0 0.11528957062749604 -0.16051838832702403 0 -0.16051838832702403 -0.0051783762534398647 0 0 0 0 22.968870695649684 9.0698505884447513 0 9.0698505884447513 9.5838371550380543 0 0 0 0 39.872790388781056 23.894469351052919 0 23.894469351052919 22.34927790734946 0 0 0 0 53.583836240453309 24.040644956415463 0 24.040644956415463 17.179305475241563 0 0 0 0 20.158799530309807 24.560121107715531 0 24.560121107715531 32.517290868574491 0 0 0 0 -2.5671754529689679 12.384233284361926 0 12.384233284361926 39.661593676744815 0 0 0 0 16.78919283762923 30.665301351677044 0 30.665301351677044 29.230779272111249 0 0 0 0 20.947658018678283 17.609461453484073 0 17.609461453484073 25.406650963290303 0 0 0 0 16.135734661047081 28.0200177691313 0 28.0200177691313 47.964859549352695 0 0 0 0 40.374738604092954 43.248870855628411 0 43.248870855628411 40.89249226713946 0 0 0 0 20.601440353575754 24.349788540861482 0 24.349788540861482 38.00470190595297 0 0 0 0 -0.70800608959507372 32.40337605542345 0 32.40337605542345 36.00549719024275 0 0 0 0 23.696432486993444 15.031603180002094 0 15.031603180002094 45.685842571427202 0 0 0 0 25.918617480339435 1.7181435835391312 0 1.7181435835391312 66.444016233101138 0 0 0 0 15.656524561826132 12.357331992966465 0 12.357331992966465 53.630839163162818 0 0 0 0 40.471948738597973 1.2932173570009127 0 1.2932173570009127 52.559186601722104 0 0 0 0 34.192184596671609 7.9259169010115329 0 7.9259169010115329 36.631312526669717 0 0 0 0 11.815784136815864 24.439247011968291 0 24.439247011968291 42.955287335495086 0 0 0 0 -27.87331997812035 8.7979516585756983 0 8.7979516585756983 47.719751857330266 0 0 0 0 -25.566970701862942 0.78126575244209562 0 0.78126575244209562 27.765859726838244 0 0 0 0 -24.237318515786683 5.9802053767198231 0 5.9802053767198231 32.947729874792458 0 0 0 0 -17.212627439466132 9.1881383462268786 0 9.1881383462268786 23.546093523524178 0 0 0 0 -6.788780357962878 20.550156005697318 0 20.550156005697318 34.78429290369786 0 0 0 0 0.91150806296172959 24.16660300370495 0 24.16660300370495 33.681284010501258 0 0 0 0 -2.7682277132585114 12.287473998315363 0 12.287473998315363 -0.27389275220593845 0 0 0 0 -2.5586727750754501 5.6191761621388485 0 5.6191761621388485 18.582191373052936 0 0 0 0 -28.84896065054977 28.018465577652023 0 28.018465577652023 26.770830412336636 0 0 0 0 -9.1228049903767214 6.3067981804938427 0 6.3067981804938427 26.64510165266438 0 0 0 0 0.25780190475842346 -0.13333806105788426 0 -0.13333806105788426 24.276623620934515 0 0 0 0 1.992289765440205 2.53335892779387 0 2.53335892779387 16.039512716368336 0 0 0 0 -4.1610104956234863 2.8472925683345238 0 2.8472925683345238 2.1075376334047178 0 0 0 0 -1.0005570833791353 34.892738959210874 0 34.892738959210874 5.8177074906727739 0 0 0 0 1.3311736616354892 0.012792317009825638 0 0.012792317009825638 19.912219600861135 0 0 0 0 -1.7799677904219875 6.9887441497867755 0 6.9887441497867755 19.069468942868582 0 0 0 0 -41.302559762018632 105.23876189407736 0 105.23876189407736 5.8985319492135204 0 0 0 0 0.36817632649160714 -3.2507129809036996 0 -3.2507129809036996 17.062684486124226 0 0 0 0 15.703482086971832 -23.553416659166601 0 -23.553416659166601 35.254088256093382 0 0 0 0 -19.051552944404648 -3.1196368012879248 0 -3.1196368012879248 53.523944801073412 0 0 0 0 1.2369138599787806 2.3897720271681226 0 2.3897720271681226 4.4309802155051337 0 0 0 0 -26.991957166495922 15.759146621846412 0 15.759146621846412 35.406519546723757 0 0 0 0 69.849781356770663 -102.19202767828051 0 -102.19202767828051 64.833927102627058 0 0 0 0 -2.8556062754337463 3.8820662022499972 0 3.8820662022499972 17.899139308565459 0 0 0 0 -4.3311069907637716 1.3944028929820433 0 1.3944028929820433 15.723301911209091 0 0 0 0 -9.6213070890154313 16.336105661799138 0 16.336105661799138 18.040333558476618 0 0 0 0 -9.6258950249765434 16.040516972666921 0 16.040516972666921 3.8821650450699963 0 0 0 0 -20.792780170598974 -3.1169037074243988 0 -3.1169037074243988 24.440023047262002 0 0 0 0 -35.104060397823787 -12.205461834164453 0 -12.205461834164453 23.222448777905242 0 0 0 0 -2.6190938092788749 1.9317889029647652 0 1.9317889029647652 4.6869663253364138 0 0 0 0 57.197447267538166 146.03459334435274 0 146.03459334435274 217.47446108207805 0 0 0 0 -128.1119666858084 -64.326306351521907 0 -64.326306351521907 -10.595841622412991 0 0 0 0 50.511326228106753 212.75024104076226 0 212.75024104076226 326.27975139346017 0 0 0 0 0.50773583693171531 25.177212334811884 0 25.177212334811884 315.81907710652558 0 0 0 0 1.0166946920384601 -0.81051021458695693 0 -0.81051021458695693 2.9882823404424848 0 0 0 0 74.884846467041143 180.27908831508012 0 180.27908831508012 121.4530616330735 0 0 0 0 89.450723137377281 189.89044817895319 0 189.89044817895319 329.87484357399444 0 0 0 0 57.066163246376306 155.37177176803471 0 155.37177176803471 230.4416116738139 0 0 0 0 163.86640280548488 175.44098763355987 0 175.44098763355987 233.29886322667426 0 0 0 0 99.952959190890283 181.5989530533443 0 181.5989530533443 206.38082348688249 0 0 0 0 3.0999324577249707 -6.7185732221306438 0 -6.7185732221306438 13.006925695146887 0 0 0 0 56.763422145569052 111.6469097206475 0 111.6469097206475 150.81366801026252 0 0 0 0 4.4540226807955392 -12.210426841073286 0 -12.210426841073286 202.4501525913829 0 0 0 0 102.280293270736 194.30186736825516 0 194.30186736825516 244.91608693113631 0 0 0 0 110.76455261156957 156.17407236272368 0 156.17407236272368 255.15578718687721 0 0 0 0 -35.280869877659143 0.2114488222705404 0 0.2114488222705404 30.813166579618155 0 0 0 0 -25.348408811748186 -5.1036109971382757 0 -5.1036109971382757 33.226301471463557 0 0 0 0 -24.08174417720511 -0.64362969326430175 0 -0.64362969326430175 14.411994460971982 0 0 0 0 -82.330903163030598 -67.209497957090207 0 -67.209497957090207 16.237338409166398 0 0 0 0 2.5192908364929267 -5.0526964120498992 0 -5.0526964120498992 8.5612087196546192 0 0 0 0 229.4613316330076 343.23220736426811 0 343.23220736426811 500.23473934476124 0 0 0 0 106.51123623026501 -6.8962158175509103 0 -6.8962158175509103 657.81921769261589 0 0 0 0 111.14498937659971 83.613829323977598 0 83.613829323977598 357.94273978035653 0 0 0 0 104.12297317450287 52.578545081256607 0 52.578545081256607 248.75914338405073 0 0 0 0 45.702168473551637 -2.9592512729313967 0 -2.9592512729313967 293.6674095574208 0 0 0 0 1.0097257468130465 19.968531098615131 0 19.968531098615131 190.41924283464596 0 0 0 0 79.835844108420957 107.40672787506264 0 107.40672787506264 98.458810967935278 0 0 0 0 84.443417081269388 187.91242508300229 0 187.91242508300229 233.48443083154416 0 0 0 0 64.085273734848215 123.71918757323419 0 123.71918757323419 323.58396934591019 0 0 0 0 64.830006546210313 102.36204262874776 0 102.36204262874776 209.16344872498303 0 0 0 0 44.636720700992271 -97.784193302727545 0 -97.784193302727545 262.5958702486023 0 0 0 0 71.358792758951779 -103.05091722685529 0 -103.05091722685529 224.90039892122422 0 0 0 0 34.079414383139323 -71.32348265101291 0 -71.32348265101291 196.84294581191534 0 0 0 0 35.731311373623498 -124.83220090414579 0 -124.83220090414579 221.85373134988185 0 0 0 0 47.607772891958973 -18.188377941424733 0 -18.188377941424733 144.58258218130504 0 0 0 0 27.080045072144742 -85.095126731766868 0 -85.095126731766868 175.82301846199516 0 0 0 0 13.107970699734892 -10.853927757355905 0 -10.853927757355905 178.63976506333165 0 0 0 0 70.284831481958804 -30.533525284458847 0 -30.533525284458847 208.69723629366672 0 0 0 0 65.972239270845989 -36.456485310198332 0 -36.456485310198332 257.22900457607284 0 0 0 0 50.141613059567817 3.7071703784199599 0 3.7071703784199599 245.0316272728578 0 0 0 0 83.068195661023708 -47.89967337340704 0 -47.89967337340704 426.08700788617716 0 0 0 0 71.481085133033332 -13.250461566872218 0 -13.250461566872218 341.02535154415091 0 0 0 0 140.45682749114542 -104.58061835194803 0 -104.58061835194803 358.5158280410551 0 0 0 0 118.08222678156278 -63.882792541647632 0 -63.882792541647632 327.07020992090384 0 0 0 0 205.91877578603521 -16.64029821329018 0 -16.64029821329018 336.319203777246 0 0 0 0 131.60224988843538 -75.629178120438155 0 -75.629178120438155 285.59551044167893 0 0 0 0 64.837138312691195 -94.187997747161717 0 -94.187997747161717 306.73850653661793 0 0 0 0 88.668816893174665 -100.64863183683519 0 -100.64863183683519 256.38792735536572 0 0 0 0 97.840523546580243 -118.3166499182887 0 -118.3166499182887 270.11473817680053 0 0 0 0 45.307745952311279 -131.24895349793997 0 -131.24895349793997 279.92088094539213 0 0 0 0 82.644521183215261 -113.09262808503354 0 -113.09262808503354 285.25608634362561 0 0 0 0 131.09658534765109 -60.085887549409335 0 -60.085887549409335 306.93292488088446 0 0 0 0 114.27930316924147 -69.216789205738678 0 -69.216789205738678 302.64365043500584 0 0 0 0 88.939968468028212 -94.989337712087945 0 -94.989337712087945 235.24429546839019 0 0 0 0 103.95641463957963 -126.66969000037079 0 -126.66969000037079 268.30758602830065 0 0 0 0 90.460247445170012 -149.61412839408331 0 -149.61412839408331 197.71292449000612 0 0 0 0 58.769903660329106 -143.36322430393216 0 -143.36322430393216 240.85664918863949 0 0 0 0 51.944771195978205 -112.87105438720937 0 -112.87105438720937 203.86150733590875 0 0 0 0 48.670421481482208 -157.95503499925988 0 -157.95503499925988 205.1684294376264 0 0 0 0 27.096935333534418 -147.6044072647428 0 -147.6044072647428 231.92912805355081 0 0 0 0 45.270653056274909 -126.29898417911591 0 -126.29898417911591 258.99661813629791 0 0 0 0 61.139965919451072 -139.51298508363379 0 -139.51298508363379 228.49516856162245 0 0 0 0 43.739609857448158 -135.94861426906755 0 -135.94861426906755 204.50206075603273 0 0 0 0 43.732572411367983 -137.15825810495608 0 -137.15825810495608 207.68464160898475 0 0 0 0 56.265967014819921 -161.27375652420233 0 -161.27375652420233 214.35044893991471 0 0 0 0 46.689591337778651 -163.52753727479126 0 -163.52753727479126 216.32925670462191 0 0 0 0 26.481500957448063 -148.29722005865119 0 -148.29722005865119 212.86682394113268 0 0 0 0 52.245612166266454 -179.96860089719075 0 -179.96860089719075 251.79816103914436 0 0 0 0 38.396005689351853 -148.97043203210569 0 -148.97043203210569 178.06940907502394 0 0 0 0 9.0425108676413402 -138.19613765861868 0 -138.19613765861868 200.50111288237281 0 0 0 0 -15.620872008616971 -92.030275841520051 0 -92.030275841520051 184.31119833537014 0 0 0 0 1.4214400417554971 -1.0444149357083816 0 -1.0444149357083816 0.35034992562493861 0 0 0 0 25.476363813745309 -97.066579411372913 0 -97.066579411372913 159.07110693496634 0 0 0 0 19.549273458535538 -77.731101418127537 0 -77.731101418127537 258.45734446110146 0 0 0 0 -46.727543870231102 -49.340830548043868 0 -49.340830548043868 303.44216559434153 0 0 0 0 -2.2255930498199774 -3.3146634888407789 0 -3.3146634888407789 188.95849544406059 0 0 0 0 -48.820677138467424 52.027439669056832 0 52.027439669056832 292.24555451923243 0 0 0 0 -47.75385613613301 42.273597159000815 0 42.273597159000815 355.51521208034865 0 0 0 0 -90.129324760808601 -15.667441244295333 0 -15.667441244295333 500.07582877077675 0 0 0 0 110.31996382831456 -213.93592357244052 0 -213.93592357244052 499.62403510097465 0 0 0 0 253.01761002899954 -281.15521591347897 0 -281.15521591347897 327.62582630702491 0 0 0 0 164.83988895786356 130.86739047558967 0 130.86739047558967 126.20633901448855 0 0 0 0 0.50929332066597466 0.54832275779824258 0 0.54832275779824258 2.9939214307512394 0 0 0 0 -13.177436151979633 221.16863399519116 0 221.16863399519116 499.02454798537792 0 0 0 0 84.664986984238979 5.8098126591055461 0 5.8098126591055461 169.27864739337019 0 0 0 0 18.076762929236185 44.987636899430754 0 44.987636899430754 289.44030235041646 0 0 0 0 39.804192706232016 -44.559582154967757 0 -44.559582154967757 -46.051234772183307 0 0 0 0 0.2601227629246543 -0.21419863410115347 0 -0.21419863410115347 -0.79417789959359553 0 0 0 0 -30.182916951819749 3.7404294988280071 0 3.7404294988280071 48.285169774955648 0 0 0 0 -0.63989331311919384 -1.6985465918575642 0 -1.6985465918575642 -0.71517364700791219 0 0 0 0 -49.199964419928506 -192.11656980306725 0 -192.11656980306725 264.27195440682226 0 0 0 0 187.12273316270998 14.570928584814283 0 14.570928584814283 108.57465912820044 0 0 0 0 91.405521165628045 -114.55497720343737 0 -114.55497720343737 4.0793750170087151 0 0 0 0 77.360401770682813 -82.394292875846531 0 -82.394292875846531 25.732393241047248 0 0 0 0 99.566050645684641 -56.26341303411391 0 -56.26341303411391 -88.168528656070066 0 0 0 0 -9.5865461855414651 -15.053523948053225 0 -15.053523948053225 42.800669803309574 0 0 0 0 0.78801203931060215 -0.46296846120954527 0 -0.46296846120954527 0.14693228153650217 0 0 0 0 39.40537980562533 -108.52075337871247 0 -108.52075337871247 133.11969219102502 0 0 0 0 51.710415378910966 -141.228650184461 0 -141.228650184461 185.52168751073805 0 0 0 0 43.621529666379388 -105.24480629501431 0 -105.24480629501431 134.42926633139177 0 0 0 0 118.87018500867039 -96.49713769653863 0 -96.49713769653863 28.805889302240757 0 0 0 0 58.613787686312321 -61.71020431189163 0 -61.71020431189163 32.381354385510349 0 0 0 0 75.018444827638348 -116.80621280269861 0 -116.80621280269861 117.12382169398188 0 0 0 0 79.401042388868618 -97.769503852212665 0 -97.769503852212665 126.1879765081685 0 0 0 0 1.1751118591369618 7.9161764022164789 0 7.9161764022164789 5.2741599026448966 0 0 0 0 0.29148879043247322 1.6077452885855301 0 1.6077452885855301 5.5696342317158383 0 0 0 0 83.043657240952967 -74.951277081598164 0 -74.951277081598164 72.387332847793687 0 0 0 0 206.39077006636717 -142.12788546796401 0 -142.12788546796401 56.611632202037981 0 0 0 0 -0.6061649845709467 -0.55863108998688382 0 -0.55863108998688382 0.67528337912273884 0 0 0 0 -89.44368403440194 -10.016590665438343 0 -10.016590665438343 66.32736930763997 0 0 0 0 -75.062327696712259 -128.40013685886333 0 -128.40013685886333 224.78625679289598 0 0 0 0 110.40255470268346 60.588234586474243 0 60.588234586474243 -43.645988007865526 0 0 0 0 40.803075582511013 -133.71194642556929 0 -133.71194642556929 20.284906647812022 0 0 0 0 78.590713397212639 -179.87462396003821 0 -179.87462396003821 73.841735775546113 0 0 0 0 0.37525232426457877 2.0529250055742834 0 2.0529250055742834 7.3042388537296077 0 0 0 0 78.713447459190732 -88.458056078197387 0 -88.458056078197387 72.024276866330183 0 0 0 0 82.002589208035374 -84.778540596925268 0 -84.778540596925268 46.05386506310515 0 0 0 0 216.98102454518002 -195.03250091683526 0 -195.03250091683526 182.56180354784556 0 0 0 0 95.766687637352945 -48.880952474347396 0 -48.880952474347396 81.002098202150592 0 0 0 0 97.312419633053466 -81.912027241800246 0 -81.912027241800246 -4.8286100043842453 0 0 0 0 -145.93760276940176 62.03285134255475 0 62.03285134255475 261.09926746143356 0 0 0 0 -66.596790756040946 -105.68004417906923 0 -105.68004417906923 498.79919176512567 0 0 0 0 -17.349833425194639 -63.718713176435358 0 -63.718713176435358 323.24000021721622 0 0 0 0 50.232517624121854 -231.76551667999854 0 -231.76551667999854 189.32758591395486 0 0 0 0 -0.16912717205897873 -0.44862338637749177 0 -0.44862338637749177 1.703367303499796 0 0 0 0 -6.04018460628631 71.908070365852836 0 71.908070365852836 220.44515038010286 0 0 0 0 -140.71583207032484 15.400269377407085 0 15.400269377407085 235.64611618644267 0 0 0 0 -0.12479467101131797 -0.38207224401376338 0 -0.38207224401376338 1.681667083304724 0 0 0 0 78.935832337679514 48.462785186059591 0 48.462785186059591 214.2999710059471 0 0 0 0 27.922162218484122 101.72641976898285 0 101.72641976898285 258.77559363792716 0 0 0 0 46.992519409099543 102.11286974619634 0 102.11286974619634 258.67398193243571 0 0 0 0 54.011688909306166 122.22592530563361 0 122.22592530563361 287.10155321607635 0 0 0 0 25.085372693633342 94.966509113116444 0 94.966509113116444 345.78691757671731 0 0 0 0 164.09931973461511 -15.848730071328646 0 -15.848730071328646 363.57851956631202 0 0 0 0 242.20306088181371 68.020299833201534 0 68.020299833201534 361.24138260694781 0 0 0 0 43.190213242781411 93.469488291671382 0 93.469488291671382 440.14244806455827 0 0 0 0 68.735267481224867 212.88548711166914 0 212.88548711166914 214.55329906229235 0 0 0 0 111.49526682852419 44.987450152018027 0 44.987450152018027 170.97464377771757 0 0 0 0 0.2902038851545804 0.96873439371032788 0 0.96873439371032788 2.1720348357547046 0 0 0 0 68.491066681452665 221.1015855321962 0 221.1015855321962 41.789928864518515 0 0 0 0 78.307973059753806 -184.09605413821828 0 -184.09605413821828 449.61364952032272 0 0 0 0 35.226177737148589 -11.502399830340437 0 -11.502399830340437 -20.27650693693613 0 0 0 0 123.74148246342861 -95.075102336668351 0 -95.075102336668351 341.80285529675939 0 0 0 0 146.36790067620723 -187.10195336217112 0 -187.10195336217112 313.30308244459775 0 0 0 0 111.72392739409861 -104.34902493047139 0 -104.34902493047139 188.00963506743392 0 0 0 0 236.72044012565948 -218.2763782897764 0 -218.2763782897764 212.72276572944975 0 0 0 0 -0.39725871056981432 -0.58300179161811094 0 -0.58300179161811094 0.7294114690674256 0 0 0 0 102.07914907406374 -106.04643402387416 0 -106.04643402387416 341.819127703704 0 0 0 0 121.06931684080166 -71.294397705043593 0 -71.294397705043593 332.34775711174871 0 0 0 0 114.55994044182873 -48.435076756924786 0 -48.435076756924786 431.82558725738818 0 0 0 0 100.86503441019073 -72.867229646715714 0 -72.867229646715714 345.65129744325168 0 0 0 0 174.58570164381163 69.025292074814388 0 69.025292074814388 500.32116162319471 0 0 0 0 106.84298723787498 -51.73871703709483 0 -51.73871703709483 566.97028071024215 0 0 0 0 93.867205775098398 -107.55786219868787 0 -107.55786219868787 376.14554919699185 0 0 0 0 156.85483374838225 21.501947954051502 0 21.501947954051502 389.63954088222681 0 0 0 0 225.53842761664163 17.661595629618205 0 17.661595629618205 355.24964604545903 0 0 0 0 149.31142425310884 1.1189606923790052 0 1.1189606923790052 366.59557025579034 0 0 0 0 171.69698391992586 -26.927757269341782 0 -26.927757269341782 333.34284284129581 0 0 0 0 172.42104275466244 -6.7477230175786644 0 -6.7477230175786644 372.55924774570212 0 0 0 0 208.04503676582291 54.102514648322995 0 54.102514648322995 367.82430533417573 0 0 0 0 93.262078263075125 4.1001326216810412 0 4.1001326216810412 425.97058078535156 0 0 0 0 122.46452737955177 -24.901413179358315 0 -24.901413179358315 324.98304140706023 0 0 0 0 25.164215230662556 -80.75076887090836 0 -80.75076887090836 310.93566869470033 0 0 0 0 56.835869363982887 -39.108898451441746 0 -39.108898451441746 351.20075445795646 0 0 0 0 67.335233058537597 -27.402387820279728 0 -27.402387820279728 257.57242682605465 0 0 0 0 57.812422587198689 13.713653364942274 0 13.713653364942274 309.65987032451449 0 0 0 0 66.14518725514931 33.262646433483042 0 33.262646433483042 354.83450036820614 0 0 0 0 147.68594825214996 -4.4034775993823132 0 -4.4034775993823132 313.84817853478398 0 0 0 0 131.50551152337363 17.015677675177358 0 17.015677675177358 371.00781889951577 0 0 0 0 35.325201555056829 -9.2641629971421935 0 -9.2641629971421935 183.78216401083955 0 0 0 0 25.74600897475495 -30.980841700519704 0 -30.980841700519704 136.64066843478395 0 0 0 0 -0.32899246993380871 84.292837973917813 0 84.292837973917813 190.60154251814765 0 0 0 0 36.18527617315705 -32.584370469039641 0 -32.584370469039641 288.13406212600876 0 0 0 0 51.548668376005672 38.195861806962057 0 38.195861806962057 223.68646780735526 0 0 0 0 34.426913137155445 -77.595388121013457 0 -77.595388121013457 245.86370665097547 0 0 0 0 11.919976536553541 -92.450357793888543 0 -92.450357793888543 239.32151181003064 0 0 0 0 6.5941993617499577 -73.356261619355337 0 -73.356261619355337 173.00185128262456 0 0 0 0 -97.211513229607192 -96.040727448160396 0 -96.040727448160396 108.99332735941789 0 0 0 0 -16.955213614041973 -106.88894816174957 0 -106.88894816174957 148.08233202222982 0 0 0 0 -12.076973036327587 -98.346349902400107 0 -98.346349902400107 141.43204399069691 0 0 0 0 -50.204373509533582 -57.273342636350208 0 -57.273342636350208 139.39040542559655 0 0 0 0 9.34348084550777 -62.067222972756099 0 -62.067222972756099 91.900009304759806 0 0 0 0 -20.522119775670447 21.989476356998239 0 21.989476356998239 14.140402076689497 0 0 0 0 -112.28191658389665 60.66945681433026 0 60.66945681433026 -15.393546609916484 0 0 0 0 -58.590900421633492 -42.289383369738061 0 -42.289383369738061 -17.204131323816 0 0 0 0 -0.542855803738298 0.15455437236561398 0 0.15455437236561398 3.4924407125142736 0 0 0 0 -1.4102591212616815 -0.83392892473747793 0 -0.83392892473747793 2.0550311810625281 0 0 0 0 9.7491568026179607 -17.717162407159776 0 -17.717162407159776 128.1454685853123 0 0 0 0 -13.560712549352218 -75.601218938594684 0 -75.601218938594684 -8.8278986909444939 0 0 0 0 -40.022711437740725 126.66524613055026 0 126.66524613055026 -5.5448234086824186 0 0 0 0 -17.695650145149571 143.05623941050726 0 143.05623941050726 151.45076052219156 0 0 0 0 -8.8431514577286237 51.639937114136046 0 51.639937114136046 123.19403289530965 0 0 0 0 13.601962262551318 -84.974168791365628 0 -84.974168791365628 200.96528455428779 0 0 0 0 0.2164570426776069 0.50444857201568194 0 0.50444857201568194 1.1048274611731799 0 0 0 0 -16.093718464067791 123.03326530258437 0 123.03326530258437 82.534255364021647 0 0 0 0 36.307292338272418 -1.4144715469774383 0 -1.4144715469774383 -14.622020393331695 0 0 0 0 -142.74363940807049 -15.503352564160195 0 -15.503352564160195 32.608016624999436 0 0 0 0 -4.6494174552762644 82.928192840455267 0 82.928192840455267 370.78495698199367 0 0 0 0 35.964820640841424 50.6594741656304 0 50.6594741656304 316.96722861787043 0 0 0 0 -68.115418022235644 139.76764601198374 0 139.76764601198374 343.5532850505715 0 0 0 0 4.9753142903268923 89.510636880156198 0 89.510636880156198 306.96487898972964 0 0 0 0 9.962647371775077 112.46137907703724 0 112.46137907703724 266.51782634284791 0 0 0 0 -17.551817243927303 126.35430431785881 0 126.35430431785881 278.52283152193831 0 0 0 0 20.542754455720633 96.596633168805056 0 96.596633168805056 164.31991699981518 0 0 0 0 17.317634210215914 85.842764877695572 0 85.842764877695572 273.86350307478642 0 0 0 0 18.440481191975799 87.386176808166056 0 87.386176808166056 274.10546789983346 0 0 0 0 26.087734943812496 85.37520883294701 0 85.37520883294701 272.90596135332089 0 0 0 0 24.364689335396317 101.3423179110232 0 101.3423179110232 248.10823795583019 0 0 0 0 24.795816364558341 106.79604134359306 0 106.79604134359306 288.26498416535287 0 0 0 0 -70.634376691562593 -52.839295118112204 0 -52.839295118112204 499.26920968255331 0 0 0 0 10.617942573537551 39.395744568260625 0 39.395744568260625 341.32727481616166 0 0 0 0 27.709389236088079 103.6989331825157 0 103.6989331825157 264.42496367272543 0 0 0 0 26.880961507882645 41.072359898128525 0 41.072359898128525 240.79530562306218 0 0 0 0 -32.160682877545931 43.43343581104682 0 43.43343581104682 352.23969832237117 0 0 0 0 -36.09161699003787 54.472487243751061 0 54.472487243751061 461.67025104497407 0 0 0 0 -2.1322020500938663 87.247147596819104 0 87.247147596819104 309.98853638304263 0 0 0 0 38.383077960711354 103.55908683782908 0 103.55908683782908 295.33583066587016 0 0 0 0 3.4738314029765078 95.352266624908225 0 95.352266624908225 324.14326604382768 0 0 0 0 -1.8102504647633708 158.95586256412298 0 158.95586256412298 348.07778091151386 0 0 0 0 26.004791800002174 142.73349700509971 0 142.73349700509971 281.34992031498041 0 0 0 0 5.5337204745336663 111.51208779009085 0 111.51208779009085 295.23459647983873 0 0 0 0 -46.008854461381674 71.665414914018129 0 71.665414914018129 500.37525650832595 0 0 0 0 -11.716948133915295 61.606545908488442 0 61.606545908488442 207.23999786534387 0 0 0 0 0.95455557563985183 -14.741895292034314 0 -14.741895292034314 597.35126614363526 0 0 0 0 -0.00061469318091146184 -0.38660306242945808 0 -0.38660306242945808 4.3048098484650836 0 0 0 0 165.56489021120601 374.16216201186853 0 374.16216201186853 567.22393897888628 0 0 0 0 -0.004100956029856398 0.30186232866670082 0 0.30186232866670082 2.6143712197967091 0 0 0 0 3.9904666784229548 94.627460932892745 0 94.627460932892745 243.98847721019047 0 0 0 0 -0.34145470135752048 0.18273057410442561 0 0.18273057410442561 5.0791250831025536 0 0 0 0 -0.0002815033312310696 -0.71570568002607615 0 -0.71570568002607615 6.8761848514495796 0 0 0 0 -0.21067509350370717 -0.33164562427715794 0 -0.33164562427715794 5.9914419330762314 0 0 0 0 -0.39315358271731049 -0.66393494549174648 0 -0.66393494549174648 7.0681202839477919 0 0 0 0 -42.739940915009129 -14.605467613962901 0 -14.605467613962901 73.414452795277612 0 0 0 0 -0.20694076244746665 -0.73571907957580063 0 -0.73571907957580063 7.6033199813404977 0 0 0 0 47.089299468003958 132.97640136540758 0 132.97640136540758 209.65831687030322 0 0 0 0 13.716044508703568 23.497003085069991 0 23.497003085069991 23.634404622507645 0 0 0 0 11.300112957316468 70.314729890923445 0 70.314729890923445 176.85518130519813 0 0 0 0 -18.49179076274217 21.598674320707687 0 21.598674320707687 193.52097838053396 0 0 0 0 7.7987273266349035 30.014853307005978 0 30.014853307005978 173.70797792341455 0 0 0 0 25.178065674337006 -38.398038545457894 0 -38.398038545457894 54.175111476364691 0 0 0 0 -0.33834937661381659 -8.2802205596744898 0 -8.2802205596744898 57.392929432864548 0 0 0 0 14.866012732635134 3.7805677400000377 0 3.7805677400000377 46.258289660674563 0 0 0 0 -0.29436974895846646 2.4460544776261486 0 2.4460544776261486 -10.749575236770397 0 0 0 0 24.101933297272879 -9.811082203764272 0 -9.811082203764272 -7.2761144358992169 0 0 0 0 0.054944209617204365 -10.407445731071675 0 -10.407445731071675 -7.1232569384153521 0 0 0 0 14.016549413261444 8.1943570964776882 0 8.1943570964776882 13.508045216543906 0 0 0 0 3.4000362931681209 -7.2784282734560293 0 -7.2784282734560293 -7.7008292040736706 0 0 0 0 -41.654546726877015 -7.0808406118735547 0 -7.0808406118735547 30.877789025129459 0 0 0 0 -0.40218707577036406 1.6311203744933529 0 1.6311203744933529 9.7270446117413627 0 0 0 0 -2.5515734276362472 -5.0556292265390326 0 -5.0556292265390326 -2.9467138964736925 0 0 0 0 8.2739207643665011 3.13342621249285 0 3.13342621249285 -17.498250517634006 0 0 0 0 -1.37567644438979 -4.516701596125003 0 -4.516701596125003 -3.4574068158554994 0 0 0 0 -2.0870975703008838 -9.1765320676358897 0 -9.1765320676358897 -5.6371063778260577 0 0 0 0 -0.44214781421660704 -1.6622163739240676 0 -1.6622163739240676 7.7436103364441422 0 0 0 0 -14.734918632843613 -26.409063343879097 0 -26.409063343879097 0.34069778855155164 0 0 0 0 -0.0095102672718527792 -1.9113911806362012 0 -1.9113911806362012 5.7995210279350431 0 0 0 0 -0.067521610805187954 -1.624714443872449 0 -1.624714443872449 5.9853413547443779 0 0 0 0 -0.1253076423752395 -1.9810297812837234 0 -1.9810297812837234 6.170394973200473 0 0 0 0 -0.0015604956535077634 -0.96835571574091583 0 -0.96835571574091583 7.3025232124909962 0 0 0 0 0.14565453068725015 -0.38157101262207971 0 -0.38157101262207971 -1.2727000071109664 0 0 0 0 45.640902765622172 83.753207339781397 0 83.753207339781397 73.044616054285598 0 0 0 0 7.497138361468842 30.874993903339714 0 30.874993903339714 1.3897819819512733 0 0 0 0 36.59321371817191 109.43005290039082 0 109.43005290039082 63.005360101308725 0 0 0 0 19.098326757830137 99.446323122390822 0 99.446323122390822 124.53704434437896 0 0 0 0 39.255410602391976 63.639397346460555 0 63.639397346460555 79.872846554760144 0 0 0 0 4.3025015729449478 26.976917709808959 0 26.976917709808959 106.32929116048649 0 0 0 0 73.403224481922507 103.94200763729123 0 103.94200763729123 56.238586179122194 0 0 0 0 22.035884383997086 -17.463885445362848 0 -17.463885445362848 -49.195274321438092 0 0 0 0 52.364755729907642 66.649620481235388 0 66.649620481235388 12.796136572878822 0 0 0 0 7.0389171876879573 57.162317481552236 0 57.162317481552236 25.092844405589858 0 0 0 0 13.360196550201408 32.163190022519757 0 32.163190022519757 -94.704465573871857 0 0 0 0 -71.190939373648007 -48.208765215928452 0 -48.208765215928452 -75.033857280524899 0 0 0 0 -65.977959094323069 27.208452708013283 0 27.208452708013283 -41.454664758366562 0 0 0 0 -37.437058976049912 30.491349969296152 0 30.491349969296152 -24.119207661979999 0 0 0 0 -0.66349760260793866 -1.6973085038527884 0 -1.6973085038527884 3.3444926873654675 0 0 0 0 -1.7172375195489167 -1.8607437916789422 0 -1.8607437916789422 1.2462624387258074 0 0 0 0 -189.67848704639891 -65.099936241330397 0 -65.099936241330397 -57.351191942689411 0 0 0 0 -1.1358555802854096 -2.6691506797475499 0 -2.6691506797475499 3.2489789710249282 0 0 0 0 -0.27424675942995558 -0.082557122476145217 0 -0.082557122476145217 0.22678346362506252 0 0 0 0 -335.083822678243 -156.31101161093284 0 -156.31101161093284 -114.24053817228014 0 0 0 0 -0.89444803319494581 -1.4118858776629399 0 -1.4118858776629399 4.6220648117884489 0 0 0 0 0.42291925924885732 -0.48835704420287485 0 -0.48835704420287485 6.317555612271093 0 0 0 0 0.24184790279210233 -0.77466450063441172 0 -0.77466450063441172 6.6269646634437152 0 0 0 0 -19.632405799019068 -68.448449046384468 0 -68.448449046384468 -70.597990315995503 0 0 0 0 2.9429423271878932 -2.0270753252091254 0 -2.0270753252091254 -36.793240647879657 0 0 0 0 -33.269578969057108 39.742099117683551 0 39.742099117683551 -20.147879087055799 0 0 0 0 94.783493433688704 -54.290024615628795 0 -54.290024615628795 -84.278075147096843 0 0 0 0 58.942518086906105 101.89364977575924 0 101.89364977575924 18.714410393229173 0 0 0 0 371.33641877214666 135.99172161597403 0 135.99172161597403 18.456331700015951 0 0 0 0 23.02292297086899 244.68525344547584 0 244.68525344547584 108.78405066352479 0 0 0 0 101.99839207722266 202.99308575752093 0 202.99308575752093 32.249027536156746 0 0 0 0 38.509205223509014 114.40586938806149 0 114.40586938806149 120.78791812574855 0 0 0 0 71.164205838817679 126.79627659217795 0 126.79627659217795 113.11015755829339 0 0 0 0 63.804897934990493 133.15568629676818 0 133.15568629676818 148.86229435488713 0 0 0 0 117.36707205236883 186.97516618638565 0 186.97516618638565 146.34892730051797 0 0 0 0 97.984506849182935 121.75454547551612 0 121.75454547551612 48.348937079334519 0 0 0 0 205.84369641260321 173.99386021106579 0 173.99386021106579 76.681896297504863 0 0 0 0 142.06058996954027 142.52193174883541 0 142.52193174883541 120.52766390553552 0 0 0 0 186.94328783874931 257.08270275315476 0 257.08270275315476 180.95214450861022 0 0 0 0 -388.5727767531888 -338.90078448277836 0 -338.90078448277836 -243.93759967034021 0 0 0 0 -2.5473734267213386 -1.061801855777974 0 -1.061801855777974 5.0066931954952851 0 0 0 0 117.29309439689905 147.31459227280357 0 147.31459227280357 244.74456083327641 0 0 0 0 0.80978924548433895 -3.2176269778308488 0 -3.2176269778308488 4.373952483084862 0 0 0 0 -211.93958416179748 -142.69239652292345 0 -142.69239652292345 -175.57340076498076 0 0 0 0 28.032255224693017 8.2940129050921314 0 8.2940129050921314 70.207456175883181 0 0 0 0 37.682423781299576 43.328207206915067 0 43.328207206915067 95.901003996284999 0 0 0 0 -131.02279746098498 -210.25178578287682 0 -210.25178578287682 -335.73825713547149 0 0 0 0 -0.53639373372136312 -0.37761569521640159 0 -0.37761569521640159 1.4086161608213255 0 0 0 0 -348.86289826853044 -353.16474101956624 0 -353.16474101956624 -209.57971604056524 0 0 0 0 269.98981863821126 293.90328172659395 0 293.90328172659395 225.75973194014 0 0 0 0 -391.26439256227411 -223.61163076052367 0 -223.61163076052367 1.9629501946819801 0 0 0 0 65.71972012219976 74.251958320017366 0 74.251958320017366 165.4731500829887 0 0 0 0 125.08979780285654 168.57448499685029 0 168.57448499685029 126.93480343063538 0 0 0 0 217.4249097744048 111.11358190768715 0 111.11358190768715 164.64261222105142 0 0 0 0 123.21369142367575 157.97927290381153 0 157.97927290381153 171.87013485691523 0 0 0 0 -55.976980891105484 6.7354012582252381 0 6.7354012582252381 38.770699569148292 0 0 0 0 79.66102875733128 6.0466902945682932 0 6.0466902945682932 22.937749147552495 0 0 0 0 24.041598599491408 10.346809508349224 0 10.346809508349224 148.43058074692669 0 0 0 0 -52.994332794495222 -31.806931722965146 0 -31.806931722965146 134.88895258824653 0 0 0 0 83.782822735940329 180.00859924691969 0 180.00859924691969 295.12128306987915 0 0 0 0 -4.7898005259615672 -2.759902245615649 0 -2.759902245615649 2.3209936364073656 0 0 0 0 -4.0973500197742112 1.4025150436813192 0 1.4025150436813192 4.2875270655115401 0 0 0 0 105.69992723480976 15.361720840421071 0 15.361720840421071 -80.864731838072998 0 0 0 0 -2.6224379257687929 -0.97504779465157299 0 -0.97504779465157299 3.744937469774527 0 0 0 0 -2.0537838461607536 0.21220096552220147 0 0.21220096552220147 0.26450127950691399 0 0 0 0 -0.50316298279835958 -0.28721051304666012 0 -0.28721051304666012 1.3458160075508729 0 0 0 0 0.0093964844744505172 0.33076927632782827 0 0.33076927632782827 2.2071278691460066 0 0 0 0 -0.33449006845847085 0.335479443084018 0 0.335479443084018 1.4840240823079032 0 0 0 0 -0.30979450077558113 0.55146801788941957 0 0.55146801788941957 2.7631182133429775 0 0 0 0 -0.047062629729225591 0.88073718073269447 0 0.88073718073269447 2.953038429953466 0 0 0 0 -35.507499078782757 -75.481816820692529 0 -75.481816820692529 -3.5318642901615931 0 0 0 0 -0.22571555717655367 -0.62443184635851412 0 -0.62443184635851412 2.3725942033693981 0 0 0 0 -0.47872360517166612 -0.41179661751897356 0 -0.41179661751897356 2.6726455087881504 0 0 0 0 -41.216446021771162 -1.8597161704960854 0 -1.8597161704960854 -31.092592192162101 0 0 0 0 -0.18252487316683158 -0.13455322803959024 0 -0.13455322803959024 3.4731150163509672 0 0 0 0 0.11976005465714934 -0.47900653222650291 0 -0.47900653222650291 6.5016589728232645 0 0 0 0 0.08658809793337241 -0.40820381738123501 0 -0.40820381738123501 6.4110533087902546 0 0 0 0 0.092515321338396461 1.7620192895076343 0 1.7620192895076343 6.595228507235376 0 0 0 0 -0.12828061564408533 1.139200164032945 0 1.139200164032945 2.8240964034109508 0 0 0 0 -0.24194608982418231 -0.49332707549677934 0 -0.49332707549677934 6.8388752734654679 0 0 0 0 -0.27301835489408033 0.42001533985761763 0 0.42001533985761763 0.35052490896263888 0 0 0 0 0.2208921637087542 1.0697458267794104 0 1.0697458267794104 5.7038797702615227 0 0 0 0 -0.096216559425442938 2.0770215569331043 0 2.0770215569331043 8.7110904300237024 0 0 0 0 -0.2622401474183107 0.64620642766752923 0 0.64620642766752923 6.8277221927516933 0 0 0 0 -0.357148873446826 0.084919079660827346 0 0.084919079660827346 6.6338680308525682 0 0 0 0 -1.4188141098422307 -0.56640767793272317 0 -0.56640767793272317 6.2350906658809322 0 0 0 0 -0.13526351120822255 -0.46880656512091434 0 -0.46880656512091434 6.1851814449992304 0 0 0 0 -0.36329061804916529 -0.68353211179332063 0 -0.68353211179332063 6.5605608214706024 0 0 0 0 -0.14637926633270126 -0.54013992486071061 0 -0.54013992486071061 6.4998150803504302 0 0 0 0 -2.5528330770431209 0.073120201258022099 0 0.073120201258022099 1.4156303645842416 0 0 0 0 -15.462791239666643 -3.3791728665455594 0 -3.3791728665455594 13.192580292232151 0 0 0 0 -2.0895801118717898 -0.1048299335267302 0 -0.1048299335267302 10.358385158360534 0 0 0 0 -0.68382769111752384 0.69511828927179964 0 0.69511828927179964 1.5938969806001606 0 0 0 0 -0.30233256228703453 1.9184838491401734 0 1.9184838491401734 8.5902850460540208 0 0 0 0 -2.0637540778047878 -0.022280159451995019 0 -0.022280159451995019 8.5349601569587996 0 0 0 0 -2.5802096748128633 -0.98026405694666607 0 -0.98026405694666607 7.0918967144194625 0 0 0 0 -0.75247501396310812 -0.030924420415368914 0 -0.030924420415368914 6.6857973796158872 0 0 0 0 -1.4306012484017856 0.054298643896004251 0 0.054298643896004251 5.7022445314387795 0 0 0 0 -1.9308450424402395 0.10005528216731818 0 0.10005528216731818 9.3591265378745447 0 0 0 0 -0.82571796887768789 -1.0636762347379487 0 -1.0636762347379487 1.6885813057703947 0 0 0 0 -1.4247769798463992 -1.0370892421435656 0 -1.0370892421435656 6.0210143913814136 0 0 0 0 -1.6467461830808929 -2.961264379310478 0 -2.961264379310478 12.066863527134956 0 0 0 0 -0.69328466266562894 -0.34761164352958751 0 -0.34761164352958751 0.98941604861926891 0 0 0 0 0.43365520818024095 -3.0386025586871526 0 -3.0386025586871526 4.871192127811355 0 0 0 0 -0.27423370328542784 -0.58300849353121886 0 -0.58300849353121886 -0.09379490391266998 0 0 0 0 -1.5559214275500608 -1.7586228619537678 0 -1.7586228619537678 5.619562726688855 0 0 0 0 -1.298358880257152 -0.52093825624512158 0 -0.52093825624512158 2.1360437153387108 0 0 0 0 -0.84414159006246337 -0.53022085512066042 0 -0.53022085512066042 2.1702677566591504 0 0 0 0 -0.33115822360181291 -0.83277879673155586 0 -0.83277879673155586 3.1801206552757555 0 0 0 0 -2.1654891775804188 -0.48345503966227099 0 -0.48345503966227099 5.3494971049369155 0 0 0 0 -1.2040191227288233 0.26761024893546903 0 0.26761024893546903 4.3965558428382678 0 0 0 0 2.6387104726397865 -3.0009806396266185 0 -3.0009806396266185 3.3822313913387347 0 0 0 0 -1.1026344347462924 0.67092945634351331 0 0.67092945634351331 3.0450217546718648 0 0 0 0 -0.68984343132923343 -0.15901861708671522 0 -0.15901861708671522 1.8011273012826705 0 0 0 0 -0.093745027490172106 -0.43566534482937413 0 -0.43566534482937413 2.2954223863256402 0 0 0 0 -0.35709401593544499 0.20816337054267819 0 0.20816337054267819 2.0525585304280298 0 0 0 0 -0.20905976637612156 0.2010004042886786 0 0.2010004042886786 2.9539797560855154 0 0 0 0 -0.65256429976102837 0.40197660275284064 0 0.40197660275284064 2.0412918851941333 0 0 0 0 -2.0051818170173874 1.2031102699678513 0 1.2031102699678513 4.4920830208902771 0 0 0 0 -1.3282864468326352 -0.28734622623295536 0 -0.28734622623295536 4.1631391145048724 0 0 0 0 -0.30133291593931943 -0.27453719288370482 0 -0.27453719288370482 2.0781755030178806 0 0 0 0 -0.37804561239136092 0.094299930040278923 0 0.094299930040278923 0.98284226048599521 0 0 0 0 -0.45868622381655921 0.14610951449961895 0 0.14610951449961895 1.9468982663547398 0 0 0 0 0.66323184142345326 -1.8626312348549163 0 -1.8626312348549163 2.6925718711423201 0 0 0 0 0.82512830431232942 2.2728948283250929 0 2.2728948283250929 1.313707521174706 0 0 0 0 3.264994309364738 -3.6081954513119143 0 -3.6081954513119143 3.7011725024315183 0 0 0 0 -0.14297208517419946 0.17532963345875996 0 0.17532963345875996 0.053944903049933934 0 0 0 0 -0.78766352877628065 0.23220978028857964 0 0.23220978028857964 1.9847542007095202 0 0 0 0 -0.27478039374227592 -2.129799519628591 0 -2.129799519628591 6.4741628480303461 0 0 0 0 -0.7221569990318395 -0.690518268001591 0 -0.690518268001591 2.4302045081303651 0 0 0 0 -0.56352763126636773 -0.26737886201258476 0 -0.26737886201258476 7.140546852350532 0 0 0 0 -0.86785945366540318 0.17665045129378143 0 0.17665045129378143 6.568406022751919 0 0 0 0 -1.4780314476738567 1.9504070850082371 0 1.9504070850082371 6.7638909567597238 0 0 0 0 -2.0151597059158566 -1.43330188222376 0 -1.43330188222376 3.9076302951338566 0 0 0 0 -1.0565228001957649 -0.26778744814001865 0 -0.26778744814001865 4.5510453671195563 0 0 0 0 -0.62283449890207976 0.35981710540000478 0 0.35981710540000478 5.1351752463035396 0 0 0 0 -0.78960685559763988 2.0869883019511803 0 2.0869883019511803 5.1105457191969776 0 0 0 0 -1.3563361392646356 -0.60961263542914368 0 -0.60961263542914368 1.500316715432197 0 0 0 0 -1.2258984177327719 0.32500814410280032 0 0.32500814410280032 4.5456857695702553 0 0 0 0 -0.14423225962551367 1.1379127296773688 0 1.1379127296773688 1.9102272325191003 0 0 0 0 0.39465441798836309 -0.7271710067041397 0 -0.7271710067041397 3.5817062447854369 0 0 0 0 -84.442556130340563 -105.94558352559034 0 -105.94558352559034 -3.5236531313730666 0 0 0 0 -2.5965150530149432 1.0682697766758791 0 1.0682697766758791 3.9267865749688227 0 0 0 0 20.780263668516227 30.034710253873413 0 30.034710253873413 28.41390125261637 0 0 0 0 3.040601252617364 1.6944230468863881 0 1.6944230468863881 0.77232258608466298 0 0 0 0 20.411795681396512 39.523926405501228 0 39.523926405501228 280.55522462891184 0 0 0 0 84.669968613187393 99.524821305867903 0 99.524821305867903 -12.152097038453313 0 0 0 0 1.4552526932211722 0.97475086711055547 0 0.97475086711055547 0.89248071712997112 0 0 0 0 0.17295415885905641 1.1874287943561832 0 1.1874287943561832 3.0634357371716634 0 0 0 0 0.085713185727854579 0.97081884626828696 0 0.97081884626828696 2.7472057255846742 0 0 0 0 0.070003232465751353 0.85619301485462529 0 0.85619301485462529 3.0277049143059571 0 0 0 0 0.2706424048748306 0.61818189782571009 0 0.61818189782571009 1.7291637447904993 0 0 0 0 -8.144179374975522 -58.53367129208624 0 -58.53367129208624 13.450063848046625 0 0 0 0 64.878987507972397 118.95274189915071 0 118.95274189915071 86.660806346259193 0 0 0 0 51.985448162557304 11.072827348724104 0 11.072827348724104 -23.267291343850843 0 0 0 0 33.913234844974284 33.144165738977108 0 33.144165738977108 216.82628443440296 0 0 0 0 -14.244855827329516 32.617057734872766 0 32.617057734872766 35.995158369580849 0 0 0 0 1.0057020846375468 0.45052033573302919 0 0.45052033573302919 0.27819246123179764 0 0 0 0 0.32139238863568531 -0.12618123161347228 0 -0.12618123161347228 -0.057237751249548774 0 0 0 0 -0.066401129848998153 -37.510731763478837 0 -37.510731763478837 9.8568144501510915 0 0 0 0 0.15616030973243711 0.11578749132479582 0 0.11578749132479582 1.2320524428443347 0 0 0 0 201.69045326905598 137.64410504657224 0 137.64410504657224 59.795728483082172 0 0 0 0 100.52960601906807 210.60199832895353 0 210.60199832895353 120.24929217540819 0 0 0 0 41.390798249686441 206.34579438477596 0 206.34579438477596 288.8457165350531 0 0 0 0 59.255481530865836 174.91136696232456 0 174.91136696232456 89.794278770019787 0 0 0 0 59.929529498415832 181.83745183358405 0 181.83745183358405 155.59571631111498 0 0 0 0 113.8884917277361 176.12505676931741 0 176.12505676931741 57.628852371830646 0 0 0 0 43.564898662883252 130.00086701063236 0 130.00086701063236 160.69137425126462 0 0 0 0 43.652979722089185 127.69735847129988 0 127.69735847129988 130.72471538627155 0 0 0 0 0.77778524413440664 -0.83218439558936552 0 -0.83218439558936552 -0.38955396455583013 0 0 0 0 1.1949193784922834 -0.21077026098776308 0 -0.21077026098776308 2.0227555876998622 0 0 0 0 -0.78547863044764199 0.89832455519785981 0 0.89832455519785981 3.8585164268911285 0 0 0 0 1.2041966010742726 0.10357326980135895 0 0.10357326980135895 1.8575572556167685 0 0 0 0 0.76949683965904114 0.352602811163365 0 0.352602811163365 1.8798759383748802 0 0 0 0 0.88549077988557201 0.14158484157042039 0 0.14158484157042039 1.970614088552793 0 0 0 0 0.63234628055406494 -0.68787620345220368 0 -0.68787620345220368 1.2138059477641836 0 0 0 0 4.4212725454634665 -3.5635398720664 0 -3.5635398720664 8.281206902739882 0 0 0 0 1.3254032206865873 0.51027450847531897 0 0.51027450847531897 0.31667907717531341 0 0 0 0 1.0325566147158725 0.26163868355769182 0 0.26163868355769182 1.8821778246710608 0 0 0 0 0.99546605115597231 0.19890639891185913 0 0.19890639891185913 1.820807749069445 0 0 0 0 -30.726432235139555 -73.142486541269136 0 -73.142486541269136 52.528641415485936 0 0 0 0 0.3095082347390703 0.22381100990571001 0 0.22381100990571001 0.0013124050353585659 0 0 0 0 12.241508577893342 5.191918725267783 0 5.191918725267783 15.660870367508664 0 0 0 0 -1.4446254102734688 19.748455633089279 0 19.748455633089279 85.897522415261392 0 0 0 0 -3.540091390958132 -18.019746529652114 0 -18.019746529652114 82.653720856279051 0 0 0 0 17.441268489087065 18.94879630715775 0 18.94879630715775 94.342230224037962 0 0 0 0 -0.003809856472599904 11.189984394125247 0 11.189984394125247 162.34840423610262 0 0 0 0 29.323341592658437 37.190963911622703 0 37.190963911622703 141.83008453822413 0 0 0 0 -16.537043000280164 -15.286718333951285 0 -15.286718333951285 119.96132566685628 0 0 0 0 -52.783734910805435 -13.460397908755908 0 -13.460397908755908 131.18275892602082 0 0 0 0 23.004103854251838 36.144875723155451 0 36.144875723155451 143.02140135259538 0 0 0 0 -3.7298990507958933 54.57047816253737 0 54.57047816253737 141.96407443218618 0 0 0 0 17.566584247227524 34.719675098136236 0 34.719675098136236 160.46305969994251 0 0 0 0 77.681680987510731 71.872073184737133 0 71.872073184737133 158.53431771776886 0 0 0 0 4.3808058875969778 37.826319311088298 0 37.826319311088298 167.92515933696495 0 0 0 0 64.324909201128605 56.012362983802802 0 56.012362983802802 166.63177847252541 0 0 0 0 23.262331143196519 83.989473863666433 0 83.989473863666433 223.82203637208789 0 0 0 0 40.250805553384083 82.493152680161529 0 82.493152680161529 217.61013446113054 0 0 0 0 11.194958479152973 24.016460682361185 0 24.016460682361185 196.05972429574672 0 0 0 0 16.478703266833662 52.414597515745584 0 52.414597515745584 199.57032985624357 0 0 0 0 38.725815096115035 35.83661545580069 0 35.83661545580069 156.6964108542179 0 0 0 0 213.71579048888719 4.4668345958272653 0 4.4668345958272653 -80.632717651761368 0 0 0 0 -3.0439138052234966 94.147936280292782 0 94.147936280292782 53.003820607542536 0 0 0 0 86.680844230260334 189.86749179123754 0 189.86749179123754 11.238890388819186 0 0 0 0 161.77235504576987 84.663001019699493 0 84.663001019699493 158.27592209052659 0 0 0 0 230.07932558349768 115.01768504065387 0 115.01768504065387 71.360671839898941 0 0 0 0 182.69333975389833 129.92223022004708 0 129.92223022004708 172.30699353154455 0 0 0 0 87.653649566055947 101.03441689876513 0 101.03441689876513 215.22799851321054 0 0 0 0 79.464900541732618 72.795095100026288 0 72.795095100026288 140.73354459466634 0 0 0 0 68.713053239385275 47.917097251237038 0 47.917097251237038 168.907547268494 0 0 0 0 182.12306737565655 48.220831970260747 0 48.220831970260747 145.00404940587555 0 0 0 0 182.72407853069762 45.002335657079811 0 45.002335657079811 64.376233337411279 0 0 0 0 199.99938895411219 12.423460900326177 0 12.423460900326177 107.16091750606643 0 0 0 0 14.497180012901495 75.537292865618582 0 75.537292865618582 288.26139437391623 0 0 0 0 154.55589026607888 8.1302548413074049 0 8.1302548413074049 109.9829517392601 0 0 0 0 149.62244820071129 -25.423481096334342 0 -25.423481096334342 228.12473007935773 0 0 0 0 -58.288490428043929 33.800243349304964 0 33.800243349304964 528.9444383922588 0 0 0 0 233.98118384227641 -132.7247588547329 0 -132.7247588547329 257.26943043415912 0 0 0 0 -60.691057988308103 17.514292883797566 0 17.514292883797566 141.71186335377143 0 0 0 0 274.25909521031355 106.56465320772365 0 106.56465320772365 163.29537212376397 0 0 0 0 -62.37919218400782 -8.1692334392911334 0 -8.1692334392911334 204.21373544799189 0 0 0 0 -33.792219381926316 62.775194337411165 0 62.775194337411165 222.60086272846931 0 0 0 0 -51.288271792167848 1.4273232934044771 0 1.4273232934044771 137.46500351400636 0 0 0 0 -58.435838743142881 -14.203518910761282 0 -14.203518910761282 133.26400080264122 0 0 0 0 0.68531821949156235 3.5855647098509644 0 3.5855647098509644 12.090144083163137 0 0 0 0 -35.140014793762703 20.371756908025617 0 20.371756908025617 19.059205898810433 0 0 0 0 24.020618658365947 33.867866981639281 0 33.867866981639281 3.6732172115716821 0 0 0 0 29.998757563073923 149.74364536915928 0 149.74364536915928 -31.462605911213473 0 0 0 0 12.357428868233455 2.501500262045397 0 2.501500262045397 -62.004591589753119 0 0 0 0 0.065366431882231346 0.74072169616334138 0 0.74072169616334138 -1.371287805501763 0 0 0 0 109.55473023569948 212.25579299365509 0 212.25579299365509 125.23958514245027 0 0 0 0 187.47184795675116 312.37667834614393 0 312.37667834614393 137.98455647801941 0 0 0 0 533.19081465044849 -41.695966334143613 0 -41.695966334143613 -116.67386114483382 0 0 0 0 -1.7779693922546473 4.4165142484687987 0 4.4165142484687987 0.34735255482671823 0 0 0 0 29.95508991884094 -119.32302465028624 0 -119.32302465028624 -11.970808980726446 0 0 0 0 -0.61301725274702901 5.1250036305266278 0 5.1250036305266278 17.217096747262392 0 0 0 0 -251.39371810281023 66.584377292496015 0 66.584377292496015 30.349560301835481 0 0 0 0 -161.83749506651566 -38.543953252701158 0 -38.543953252701158 -13.761350906183907 0 0 0 0 -14.557252648854274 27.192328363669048 0 27.192328363669048 5.5296754827378436 0 0 0 0 -3.6612142030771295 -0.029082846754640013 0 -0.029082846754640013 9.5294656785159439 0 0 0 0 3.6532444140050302 32.562825865327 0 32.562825865327 388.81980134980085 0 0 0 0 3.5946687736152967 52.618938838930319 0 52.618938838930319 238.17639538682533 0 0 0 0 -348.24013415375521 -174.24883889603007 0 -174.24883889603007 172.6785620519704 0 0 0 0 62.232119689055708 195.25828995404709 0 195.25828995404709 170.45374503094627 0 0 0 0 12.163720971122956 254.03001267908854 0 254.03001267908854 345.25709919928158 0 0 0 0 116.12872538482736 -64.987436137844725 0 -64.987436137844725 123.05112579678962 0 0 0 0 212.37851009511411 292.50464586909692 0 292.50464586909692 279.15677233130577 0 0 0 0 209.62522009381041 311.33111850432317 0 311.33111850432317 174.19776748679351 0 0 0 0 -0.9612007156536253 0.41675376862149838 0 0.41675376862149838 2.4203869549979533 0 0 0 0 -6.7396264281483127 -33.793260984025437 0 -33.793260984025437 149.16896755449216 0 0 0 0 15.472243485848594 1.1316778828950191 0 1.1316778828950191 197.94407753301493 0 0 0 0 14.649110284926337 8.2230782107292271 0 8.2230782107292271 150.76334878931266 0 0 0 0 38.00321436167053 60.131231330741912 0 60.131231330741912 161.21615458185261 0 0 0 0 2.6989372581913358 119.48184854489477 0 119.48184854489477 290.31560882064605 0 0 0 0 -0.26233922059490489 -1.0372626827041849 0 -1.0372626827041849 1.5851652489777575 0 0 0 0 -287.78418960924728 -264.61998104319446 0 -264.61998104319446 -307.98712323257678 0 0 0 0 -99.747479390557601 10.04628146954974 0 10.04628146954974 298.0871414555051 0 0 0 0 -212.36944443997277 1.6563453488490723 0 1.6563453488490723 76.119370235951465 0 0 0 0 -115.49747679863867 45.32447682067459 0 45.32447682067459 77.974981220728296 0 0 0 0 -144.15822820045673 -89.922585985372962 0 -89.922585985372962 129.45731753429573 0 0 0 0 -38.508186205103129 -25.399711433046377 0 -25.399711433046377 73.453772236656732 0 0 0 0 -22.072289421966502 7.9938483817795714 0 7.9938483817795714 141.01703093629112 0 0 0 0 34.260809011763058 -38.619520855480232 0 -38.619520855480232 122.40266747843089 0 0 0 0 17.12853351070487 76.470774244529139 0 76.470774244529139 144.9984114934623 0 0 0 0 -16.077496162108446 13.688161982058205 0 13.688161982058205 34.222221259954495 0 0 0 0 -118.49938185748852 48.794095810482759 0 48.794095810482759 -26.776866508076637 0 0 0 0 -280.24505183531983 159.4432322512655 0 159.4432322512655 53.786691530640724 0 0 0 0 -120.72702562961422 54.554036949379224 0 54.554036949379224 106.87413390646759 0 0 0 0 -82.967201015994078 39.346616506357577 0 39.346616506357577 -70.185799795282492 0 0 0 0 4.7195891544325832 181.02671183645884 0 181.02671183645884 89.678838391133468 0 0 0 0 39.726586266751042 141.6896848931973 0 141.6896848931973 88.438446082295741 0 0 0 0 106.57534784677864 233.24045230332536 0 233.24045230332536 202.80652229114412 0 0 0 0 280.78182674302707 90.67799325497117 0 90.67799325497117 164.0781329591282 0 0 0 0 67.934032709410303 7.0877800612352075 0 7.0877800612352075 233.10896204207796 0 0 0 0 20.899711011759223 92.865607672709075 0 92.865607672709075 310.95067795925434 0 0 0 0 70.02686009444966 182.84145304218544 0 182.84145304218544 448.50755196285309 0 0 0 0 2.3862131967732703 0.58534323062597249 0 0.58534323062597249 0.31141819386885894 0 0 0 0 206.11059478828145 65.530481104088778 0 65.530481104088778 -73.548123841589586 0 0 0 0 21.673693711043569 8.7818996149037503 0 8.7818996149037503 2.0071665560740257 0 0 0 0 -8.2194510677078938 27.261228706189968 0 27.261228706189968 -5.6230841690539819 0 0 0 0 6.1513978529427025 2.0465076906153046 0 2.0465076906153046 0.7397089138081725 0 0 0 0 9.9189347305796218 19.635549362851407 0 19.635549362851407 -41.144828922429042 0 0 0 0 -0.77108826554925258 19.281798508355678 0 19.281798508355678 57.322021931396193 0 0 0 0 20.049493829035555 68.14134011467695 0 68.14134011467695 125.38866971986988 0 0 0 0 13.206166795888066 56.723513360417428 0 56.723513360417428 155.82286214390206 0 0 0 0 54.581706403000908 132.91985997107076 0 132.91985997107076 193.90402082404717 0 0 0 0 9.1403829763256681 119.88636425288564 0 119.88636425288564 217.40665793905373 0 0 0 0 30.509812247735852 89.905899010906978 0 89.905899010906978 122.79204902972742 0 0 0 0 4.3838916569820867 110.48570134150145 0 110.48570134150145 198.86221755607858 0 0 0 0 11.941968445294151 145.286357699478 0 145.286357699478 231.23156549349551 0 0 0 0 7.1588315813305599 131.23315183830118 0 131.23315183830118 200.02285736210848 0 0 0 0 22.295527153858473 115.81454273120539 0 115.81454273120539 186.35112168556589 0 0 0 0 -4.9039471760856941 80.50279735481945 0 80.50279735481945 194.15332904136312 0 0 0 0 61.998146096801293 78.207639157143149 0 78.207639157143149 149.27784270737584 0 0 0 0 47.876722934876057 81.03501173483528 0 81.03501173483528 150.73627072311501 0 0 0 0 22.102067250101754 52.923760888739707 0 52.923760888739707 139.28942514875098 0 0 0 0 33.517495324073252 45.888635014019201 0 45.888635014019201 127.58481865425802 0 0 0 0 18.657841179344814 21.15774531281204 0 21.15774531281204 161.50828817091269 0 0 0 0 24.591180982846026 44.559017735443831 0 44.559017735443831 136.04323542596194 0 0 0 0 104.32353318912237 59.329548936766969 0 59.329548936766969 138.63730736325829 0 0 0 0 88.31390930134819 29.79347057092582 0 29.79347057092582 148.75729173035688 0 0 0 0 84.815362852429644 27.558229009757724 0 27.558229009757724 156.87922488951915 0 0 0 0 45.448402713439691 5.7866129291846846 0 5.7866129291846846 138.89715615784962 0 0 0 0 188.75061486891934 107.72472959569018 0 107.72472959569018 151.84748263728306 0 0 0 0 56.317796502050214 83.882474050504243 0 83.882474050504243 148.24479283760593 0 0 0 0 25.042397488174174 -9.082824977180735 0 -9.082824977180735 -33.952519315948166 0 0 0 0 81.75912506048337 1.1828377294468737 0 1.1828377294468737 -52.292125423488869 0 0 0 0 100.59301079366077 73.516282872961483 0 73.516282872961483 -8.3328636258993356 0 0 0 0 175.15507271959177 87.702836682531597 0 87.702836682531597 -5.6399338546589206 0 0 0 0 113.59851440159991 46.106464430327151 0 46.106464430327151 26.358210902026258 0 0 0 0 7.5718820705724994 8.5918883788863241 0 8.5918883788863241 13.33871519068407 0 0 0 0 18.217118205472921 -87.33825624253268 0 -87.33825624253268 -124.07984737941206 0 0 0 0 -0.45769802528133696 -0.18809724931177652 0 -0.18809724931177652 0.20010928802624584 0 0 0 0 121.49478128806192 40.457911029113347 0 40.457911029113347 -89.8164574981447 0 0 0 0 18.906099296794196 63.391674861278261 0 63.391674861278261 86.415779996204947 0 0 0 0 68.79361698501873 34.51151306496331 0 34.51151306496331 -19.416865499530559 0 0 0 0 -19.319209544957005 21.816800444143894 0 21.816800444143894 -3.0379766868036313 0 0 0 0 0.60814452977465017 1.5540024014314655 0 1.5540024014314655 0.47000459114887505 0 0 0 0 26.429307234668272 -8.1527653491993988 0 -8.1527653491993988 -68.741050756310869 0 0 0 0 6.6436743497166049 13.200669035580063 0 13.200669035580063 3.0385604424673147 0 0 0 0 33.7213702979343 36.383009028672404 0 36.383009028672404 -10.887002399409539 0 0 0 0 4.7711052134918646 21.108893840389214 0 21.108893840389214 22.927287266493295 0 0 0 0 8.6833753615937628 3.350299739225993 0 3.350299739225993 0.68547187233493334 0 0 0 0 16.01896879168271 84.459824158756874 0 84.459824158756874 127.12019118906755 0 0 0 0 41.888440890802713 49.107059524647411 0 49.107059524647411 12.732655764305264 0 0 0 0 53.934936710099237 134.91019227055131 0 134.91019227055131 167.53575546743696 0 0 0 0 32.753663046858499 93.530177054296473 0 93.530177054296473 198.06363565494939 0 0 0 0 208.46913259368387 139.50341207682777 0 139.50341207682777 209.35911444352632 0 0 0 0 81.238114749243493 127.11473821428899 0 127.11473821428899 95.507974848903359 0 0 0 0 95.792225343993621 35.222784916906676 0 35.222784916906676 62.64479471786035 0 0 0 0 8.8178467395041764 47.177184941891483 0 47.177184941891483 61.253069451658121 0 0 0 0 64.363602718352197 34.771902594678977 0 34.771902594678977 252.60996519614025 0 0 0 0 44.627125605702645 109.5133968919472 0 109.5133968919472 231.60246490985173 0 0 0 0 111.26580147188781 175.10515211603433 0 175.10515211603433 187.89633085125161 0 0 0 0 109.54572083366196 76.741248360969621 0 76.741248360969621 -8.0005939625334577 0 0 0 0 0.86159916101201928 0.9804182922479332 0 0.9804182922479332 1.2978562223511041 0 0 0 0 78.889564206405112 142.48691328161635 0 142.48691328161635 226.10520051890398 0 0 0 0 35.827252688791361 102.34534469789105 0 102.34534469789105 221.21137377723403 0 0 0 0 133.95329578388191 94.283276287242643 0 94.283276287242643 302.59432496033151 0 0 0 0 78.198980027086321 118.82329935622283 0 118.82329935622283 331.51227673208996 0 0 0 0 28.782676415747428 134.36010030230045 0 134.36010030230045 294.53983807946076 0 0 0 0 12.772282582914841 123.74976153335501 0 123.74976153335501 212.91215624477809 0 0 0 0 52.698950211162682 114.39953049659084 0 114.39953049659084 212.25445912813484 0 0 0 0 148.86574068348375 95.939114626864011 0 95.939114626864011 80.139680453448818 0 0 0 0 121.52577713983474 116.66316175479528 0 116.66316175479528 84.380902928241994 0 0 0 0 46.388703582756079 175.50986228645297 0 175.50986228645297 414.59368477667522 0 0 0 0 62.491166990965439 8.6890868549296556 0 8.6890868549296556 368.99479489292662 0 0 0 0 -10.350150414837117 116.63094095768611 0 116.63094095768611 403.49823041026093 0 0 0 0 0.44819654982468005 1.1966422274797903 0 1.1966422274797903 3.1047781409755757 0 0 0 0 39.268245130260539 -28.879968280097728 0 -28.879968280097728 -9.2482047957264513 0 0 0 0 33.774871206488911 -69.759537515803913 0 -69.759537515803913 218.77959572383156 0 0 0 0 1.306508598125629 -0.61417892821087072 0 -0.61417892821087072 1.8269223009757765 0 0 0 0 -0.11470192540087965 -2.711674399016033 0 -2.711674399016033 6.1183116778083786 0 0 0 0 -1.831491444548945 0.1988879185123551 0 0.1988879185123551 8.5808342112750324 0 0 0 0 -1.5609054288572211 0.57230097573292404 0 0.57230097573292404 5.5892486774351795 0 0 0 0 -11.350714767053574 -0.043482382904130645 0 -0.043482382904130645 18.322840611634092 0 0 0 0 -1.865098271190095 -0.40628541531842544 0 -0.40628541531842544 10.977275488812442 0 0 0 0 -13.877629934594069 4.2675619942633602 0 4.2675619942633602 14.49094616484399 0 0 0 0 -1.2629773801639317 11.458229647164444 0 11.458229647164444 -0.19605178646997956 0 0 0 0 -2.2569346010767957 1.1119978209248114 0 1.1119978209248114 1.7104481955064648 0 0 0 0 -1.0099777944180772 1.2513834272340318 0 1.2513834272340318 9.1272278076085058 0 0 0 0 -5.8902071595249481 21.168109973356877 0 21.168109973356877 16.2343266856833 0 0 0 0 -2.212827989154845 -0.99481862819976996 0 -0.99481862819976996 2.4971795550972438 0 0 0 0 61.903161587641534 -51.654287205101355 0 -51.654287205101355 -53.280460376423434 0 0 0 0 93.262704769626453 4.4294812207490395 0 4.4294812207490395 -31.363222136287732 0 0 0 0 -42.585413841978436 9.9534858993074522 0 9.9534858993074522 47.017105331329731 0 0 0 0 42.261805049493987 42.029897844868174 0 42.029897844868174 21.976643797221186 0 0 0 0 -1.2322427673556391 -1.3219036719257957 0 -1.3219036719257957 1.1711167286970774 0 0 0 0 16.936607230086473 108.72147158571715 0 108.72147158571715 101.91585401024531 0 0 0 0 31.839157293675825 72.439748091998808 0 72.439748091998808 126.42705261537594 0 0 0 0 52.469739994436196 124.67225925838329 0 124.67225925838329 145.10368939830551 0 0 0 0 -1.815308978252915 0.64300287390324229 0 0.64300287390324229 11.726404879200345 0 0 0 0 -2.8104635276084764 17.016045088521423 0 17.016045088521423 28.360977058209755 0 0 0 0 -14.482971932298327 2.3322779258580795 0 2.3322779258580795 19.059163470126805 0 0 0 0 -31.277719361837455 -1.1654834985311027 0 -1.1654834985311027 73.158555288899151 0 0 0 0 31.898284619892422 23.71738292540158 0 23.71738292540158 -57.318638380724224 0 0 0 0 -0.40341735418032276 1.6341669447252585 0 1.6341669447252585 -0.25122016059341212 0 0 0 0 22.820877163440741 39.914845817946116 0 39.914845817946116 -16.743453602341106 0 0 0 0 -1.8654649306450892 -8.111632835191358 0 -8.111632835191358 -57.133110729171676 0 0 0 0 -10.316353394948727 64.002286759375352 0 64.002286759375352 96.181780625676765 0 0 0 0 -0.35921062489271727 -0.021318372535088059 0 -0.021318372535088059 0.68307463532872514 0 0 0 0 8.196672855974839 111.17354222774384 0 111.17354222774384 188.1165951726789 0 0 0 0 94.363462040100785 141.84319072483595 0 141.84319072483595 183.44758445299158 0 0 0 0 -2.9317416450983842 49.063628159883592 0 49.063628159883592 153.49600960875432 0 0 0 0 39.418007059342301 94.000563526209589 0 94.000563526209589 173.67176668631021 0 0 0 0 17.904994297200346 -2.0523213972119265 0 -2.0523213972119265 91.30242262756019 0 0 0 0 3.2098923879476673 -5.1923691739416089 0 -5.1923691739416089 6.4558369222655614 0 0 0 0 58.088437614403347 -53.357368828455947 0 -53.357368828455947 -12.669271502388028 0 0 0 0 -8.9282143061466286 -12.46022615196398 0 -12.46022615196398 -15.454154124794968 0 0 0 0 0.35034020933531096 -0.36297505681848286 0 -0.36297505681848286 0.22982785596528466 0 0 0 0 45.119192794355058 9.5049861043626152 0 9.5049861043626152 95.872313662077431 0 0 0 0 -14.610599485875582 6.9324108559376327 0 6.9324108559376327 116.26862295276942 0 0 0 0 -59.971144851822601 -70.725506410501907 0 -70.725506410501907 -23.939984770541741 0 0 0 0 -56.720589119001488 -78.935099739005182 0 -78.935099739005182 -7.9915775512636174 0 0 0 0 -329.47951656676378 -144.92572605900841 0 -144.92572605900841 83.263248552980258 0 0 0 0 -115.05392724985722 -153.13208544652753 0 -153.13208544652753 -116.48198310889802 0 0 0 0 -212.13017298851355 -218.79929305303131 0 -218.79929305303131 -160.85771382254643 0 0 0 0 70.672044076934753 20.739440750628546 0 20.739440750628546 54.799708626227584 0 0 0 0 25.482669712269399 95.926197159721596 0 95.926197159721596 -45.161646263683906 0 0 0 0 -12.466246158321155 0.28884983789430407 0 0.28884983789430407 78.427025541010153 0 0 0 0 12.210707078544772 59.244037138971521 0 59.244037138971521 77.228688735993273 0 0 0 0 -45.080423359060205 53.350334638076674 0 53.350334638076674 83.907788193650049 0 0 0 0 4.44703762395784 28.802388566861737 0 28.802388566861737 91.93353306123754 0 0 0 0 11.190154857296989 46.498368534377732 0 46.498368534377732 102.16432943441396 0 0 0 0 28.835480004132819 59.827251032293475 0 59.827251032293475 115.97481170037645 0 0 0 0 20.28055473826771 32.573530826051865 0 32.573530826051865 118.54325305905377 0 0 0 0 26.404829340291826 48.104534708151732 0 48.104534708151732 122.73211267587885 0 0 0 0 28.86354206441365 41.123088181596358 0 41.123088181596358 95.326833553910546 0 0 0 0 30.481335498789349 48.032278857986853 0 48.032278857986853 120.85426983756588 0 0 0 0 13.690490530330862 18.183725502346533 0 18.183725502346533 97.751669527291597 0 0 0 0 19.364351827551218 33.509389120476271 0 33.509389120476271 130.89323540975602 0 0 0 0 31.428292613471001 72.44786313337454 0 72.44786313337454 153.24607012889101 0 0 0 0 -21.71951001607124 61.10593016904113 0 61.10593016904113 173.54115697150428 0 0 0 0 5.7663881795629095 53.9119040601704 0 53.9119040601704 149.38948759867708 0 0 0 0 0.5542741958474835 42.461476704379493 0 42.461476704379493 129.47223400202529 0 0 0 0 -13.842803167890224 95.108010376134189 0 95.108010376134189 245.63846055709564 0 0 0 0 -22.838946084740272 56.235222224203028 0 56.235222224203028 191.58144001906021 0 0 0 0 -36.427409731237617 12.061530848419352 0 12.061530848419352 216.10675674901381 0 0 0 0 1.1285828693852396 -0.6735689913967704 0 -0.6735689913967704 0.26136588835935992 0 0 0 0 -5.5620968610462569 -3.2758476549743136 0 -3.2758476549743136 66.260226533949208 0 0 0 0 -10.909726468546523 29.700589815089188 0 29.700589815089188 144.11128011747826 0 0 0 0 -1.9703471526795511 -2.2650577360659554 0 -2.2650577360659554 -1.1441343841461276 0 0 0 0 1.3856797499312279 -2.869474004771746 0 -2.869474004771746 -1.0587601245133555 0 0 0 0 3.8554946846227809 -7.6727453562000827 0 -7.6727453562000827 7.698551541886439 0 0 0 0 2.315401432883391 -4.5707090902346863 0 -4.5707090902346863 -1.5599310676025198 0 0 0 0 0.84463714851665372 -4.412633137775174 0 -4.412633137775174 -1.2674978495524556 0 0 0 0 -1.1194905981479906 -4.4632660690986086 0 -4.4632660690986086 11.356568837524719 0 0 0 0 -4.4721299689199387 -3.1766858810866418 0 -3.1766858810866418 10.757057572584909 0 0 0 0 -1.6261367575163983 -1.7452588424524258 0 -1.7452588424524258 4.91354175002399 0 0 0 0 -2.9620664337367657 -0.99051877678539313 0 -0.99051877678539313 12.542264201969232 0 0 0 0 -12.001290627786517 -5.2311770769427994 0 -5.2311770769427994 20.152117413706993 0 0 0 0 -10.543314558184427 -0.10328725279034234 0 -0.10328725279034234 2.6065272103983315 0 0 0 0 -27.716603200110512 -21.807680355357888 0 -21.807680355357888 34.044951363904367 0 0 0 0 -2.1894905973929326 -12.445657364497151 0 -12.445657364497151 -21.265181141079211 0 0 0 0 -32.429660485945988 22.476314373850755 0 22.476314373850755 35.418125695232121 0 0 0 0 14.359496142136436 64.860910522333654 0 64.860910522333654 73.752739883033883 0 0 0 0 -224.87766383133567 -76.694577925013164 0 -76.694577925013164 127.15765511009431 0 0 0 0 -5.6791158247238656 -1.7138735368246216 0 -1.7138735368246216 10.721224704975555 0 0 0 0 -6.0830213078116913 0.31112069516756202 0 0.31112069516756202 -0.27031661718342059 0 0 0 0 -2.6908077038177822 -4.7317535979059357 0 -4.7317535979059357 6.9353707289565136 0 0 0 0 -8.0078624769023889 -7.5477275078687853 0 -7.5477275078687853 9.0953687196679311 0 0 0 0 -2.2532201217394885 -15.9098088938199 0 -15.9098088938199 12.876350632812319 0 0 0 0 -1.9004497905996445 -15.565694141895221 0 -15.565694141895221 7.5889792155703617 0 0 0 0 -12.089606959960634 -18.497704791992646 0 -18.497704791992646 15.369852649058885 0 0 0 0 3.3106973616418998 -21.596989932034376 0 -21.596989932034376 7.58588675207106 0 0 0 0 -4.1085672669898621 -23.708179894889724 0 -23.708179894889724 18.635132616414467 0 0 0 0 -3.7727865633739803 -20.436561354824065 0 -20.436561354824065 16.110279529027139 0 0 0 0 -13.816723276299207 -13.029562080074726 0 -13.029562080074726 18.92097062024186 0 0 0 0 -8.0364332787484081 -6.75310125788946 0 -6.75310125788946 18.640585291558409 0 0 0 0 -12.798397236302606 -3.4021600443933266 0 -3.4021600443933266 22.452406517036934 0 0 0 0 -9.7644526154734734 0.39753792812607003 0 0.39753792812607003 24.455857027763386 0 0 0 0 -0.79961316013086803 3.0864190923498454 0 3.0864190923498454 21.687135243462834 0 0 0 0 -23.199823260501631 -14.957996518406844 0 -14.957996518406844 25.317966732751756 0 0 0 0 -23.387264522657972 2.3485077602754245 0 2.3485077602754245 21.920676161655365 0 0 0 0 -50.294881201731982 1.2348732224979813 0 1.2348732224979813 26.894355412602977 0 0 0 0 -0.22809946230461986 2.9207162149158226 0 2.9207162149158226 19.50272789297739 0 0 0 0 18.349633520255182 -8.9621588430160273 0 -8.9621588430160273 49.505953893507467 0 0 0 0 114.07218827207561 -99.663035811989175 0 -99.663035811989175 80.221801390949395 0 0 0 0 -36.978971697507845 -12.087267088637248 0 -12.087267088637248 24.562834880266109 0 0 0 0 -96.469529322650033 17.543544701459609 0 17.543544701459609 27.597814004456367 0 0 0 0 -40.535227224276269 -3.9390372910347651 0 -3.9390372910347651 46.114542289825295 0 0 0 0 -2.4803497195527946 -20.279649542030711 0 -20.279649542030711 24.645115550859259 0 0 0 0 -1.6138644585860433 -12.716989212408279 0 -12.716989212408279 50.771547864141212 0 0 0 0 -4.0120431393419871 -20.343845534893944 0 -20.343845534893944 19.174501811017308 0 0 0 0 -3.9935061589410807 -20.791955766291572 0 -20.791955766291572 27.937819906195728 0 0 0 0 8.1004396220765216 -28.857128878278672 0 -28.857128878278672 33.208246678755799 0 0 0 0 4.4841212281562264 -26.36410208553707 0 -26.36410208553707 18.967600126146408 0 0 0 0 -30.876783111011207 -8.7539413137805013 0 -8.7539413137805013 21.98771253712448 0 0 0 0 -23.364834231223593 -27.36324227467324 0 -27.36324227467324 32.500832504111031 0 0 0 0 17.586579267821719 -79.667300046042328 0 -79.667300046042328 148.48183434553994 0 0 0 0 24.562248472525766 -106.28035827745634 0 -106.28035827745634 191.04302227626249 0 0 0 0 37.955857163422422 -101.60835398491145 0 -101.60835398491145 154.32888169803141 0 0 0 0 9.1952741437002032 -55.722256611505145 0 -55.722256611505145 156.74034461793968 0 0 0 0 19.784694062124117 -34.797156946140149 0 -34.797156946140149 92.655045435081774 0 0 0 0 -15.31509615485561 -16.464292358829425 0 -16.464292358829425 121.0202392801948 0 0 0 0 18.465428800728773 -62.625602995424742 0 -62.625602995424742 118.84913618111204 0 0 0 0 5.5146527672964112 -16.705930527979945 0 -16.705930527979945 64.935184720054167 0 0 0 0 -12.554104609188926 -3.5232737754299706 0 -3.5232737754299706 75.205905166296361 0 0 0 0 3.0924418636565179 -8.9262749130411976 0 -8.9262749130411976 47.72773562794373 0 0 0 0 14.008624772846247 -41.247328527563695 0 -41.247328527563695 85.72948679072897 0 0 0 0 -0.0061897109607116363 -37.853570026705256 0 -37.853570026705256 110.0424918342851 0 0 0 0 29.608027455098352 -84.892804167123359 0 -84.892804167123359 126.68841653536219 0 0 0 0 19.015819335477147 -50.104291226755777 0 -50.104291226755777 89.803045154319079 0 0 0 0 17.758765725883315 -27.297698143454852 0 -27.297698143454852 31.762116157933633 0 0 0 0 13.117991096089327 -52.051058334693153 0 -52.051058334693153 89.480274257814017 0 0 0 0 2.8739923687514022 -16.086049480268457 0 -16.086049480268457 59.676254076628538 0 0 0 0 15.357317743588851 -19.707443270661315 0 -19.707443270661315 47.340931229929993 0 0 0 0 -4.8064070139262185 3.0390230492112096 0 3.0390230492112096 25.755321145817106 0 0 0 0 -3.9098211136841741 10.467539698983501 0 10.467539698983501 36.675387615421641 0 0 0 0 -6.1274599675058425 10.402958863371168 0 10.402958863371168 17.234948219162561 0 0 0 0 -4.5684565563998945 7.8035917290908401 0 7.8035917290908401 22.479231217199413 0 0 0 0 -10.729785451534894 10.431042762733341 0 10.431042762733341 25.757412347701575 0 0 0 0 -25.939001441815208 7.9596942951511664 0 7.9596942951511664 30.459477819073982 0 0 0 0 -24.379800002963634 -6.606894856499423 0 -6.606894856499423 15.016833377487274 0 0 0 0 -1.6248813066492116 1.5176443746051493 0 1.5176443746051493 5.3798079395149223 0 0 0 0 7.41581015661626 -45.870766933680898 0 -45.870766933680898 80.131144503194264 0 0 0 0 5.2023643524485692 13.318681448645293 0 13.318681448645293 19.987730772470059 0 0 0 0 55.190584450249162 -51.012570744252571 0 -51.012570744252571 54.860916141542248 0 0 0 0 32.702960359143276 -79.005521514076236 0 -79.005521514076236 125.70300863965713 0 0 0 0 53.517738860655243 -115.09205763596538 0 -115.09205763596538 194.33567818335905 0 0 0 0 78.295430012940699 -82.733598194723527 0 -82.733598194723527 109.39645174613543 0 0 0 0 39.196525396437124 -46.855349067422139 0 -46.855349067422139 66.793046618302469 0 0 0 0 44.367991055873546 -94.941387886444716 0 -94.941387886444716 125.67935243941247 0 0 0 0 26.661279985243908 -91.787185387899171 0 -91.787185387899171 150.64577575157728 0 0 0 0 57.252749517915646 -118.34042159902538 0 -118.34042159902538 156.2549508127795 0 0 0 0 86.072827180874128 -130.63375351917375 0 -130.63375351917375 154.43531292442628 0 0 0 0 59.068822812244377 -138.63683805608525 0 -138.63683805608525 185.4648438500808 0 0 0 0 49.847272802809599 -153.34850839167984 0 -153.34850839167984 209.7711131562146 0 0 0 0 31.981546979870302 -125.65869319874309 0 -125.65869319874309 192.25626246230013 0 0 0 0 52.307686842984708 -135.02977412757491 0 -135.02977412757491 186.5517103789789 0 0 0 0 0.63170294156955165 -0.5177856972559205 0 -0.5177856972559205 0.43870447679016439 0 0 0 0 16.326853775391406 -156.76067933347508 0 -156.76067933347508 488.06229944279767 0 0 0 0 87.577146293860579 -134.12504554461248 0 -134.12504554461248 218.73856244318813 0 0 0 0 101.14024042446688 -204.02979212594482 0 -204.02979212594482 282.13655538641251 0 0 0 0 75.069784359077858 -202.73034854856587 0 -202.73034854856587 313.53028417912356 0 0 0 0 84.822012647755443 -141.56749981499149 0 -141.56749981499149 250.74126757713566 0 0 0 0 76.52750803755427 -172.26579674126469 0 -172.26579674126469 217.10877362858264 0 0 0 0 102.08503254916243 -140.36259940564423 0 -140.36259940564423 151.30402801588434 0 0 0 0 73.667183277567403 -110.23389053642563 0 -110.23389053642563 152.03439778726897 0 0 0 0 67.930028611757137 -190.21197469227775 0 -190.21197469227775 315.41778539372626 0 0 0 0 159.33371147322853 -210.03117674769874 0 -210.03117674769874 207.85982812576208 0 0 0 0 85.577726984749191 -230.86083674841871 0 -230.86083674841871 334.44434983933161 0 0 0 0 28.145813412735166 -229.26201050140116 0 -229.26201050140116 499.87448204354996 0 0 0 0 47.387140996338715 -177.7405401773899 0 -177.7405401773899 361.32467432516478 0 0 0 0 -12.198118515407934 -151.70534735376691 0 -151.70534735376691 353.05085272123233 0 0 0 0 -68.24173822363754 -125.40152867511915 0 -125.40152867511915 499.87623097773979 0 0 0 0 -80.728667367809948 -55.154272295034843 0 -55.154272295034843 338.88297308882193 0 0 0 0 -52.161411275256533 -23.904893319175869 0 -23.904893319175869 336.92375744379387 0 0 0 0 31.405588977117208 -105.85713700570568 0 -105.85713700570568 105.99548917283391 0 0 0 0 -116.7165231717558 69.757764283451934 0 69.757764283451934 66.570334246682705 0 0 0 0 23.607518083539247 9.4465852744108361 0 9.4465852744108361 74.729411954926036 0 0 0 0 5.3876614297817085 -13.756657520571139 0 -13.756657520571139 41.250501302507928 0 0 0 0 -26.03699900050762 25.464613698321273 0 25.464613698321273 76.196585822086263 0 0 0 0 -27.3878695293796 11.930322472612659 0 11.930322472612659 -0.066534048704852466 0 0 0 0 -52.153621598537427 -24.484338942874956 0 -24.484338942874956 29.15401034024103 0 0 0 0 -0.42299113063075833 2.176351496338143 0 2.176351496338143 16.852394631008131 0 0 0 0 72.016783288668563 -72.710287829117533 0 -72.710287829117533 119.56624529933106 0 0 0 0 159.52975648134034 -115.69199937019221 0 -115.69199937019221 95.729027866877004 0 0 0 0 217.32885310191347 -205.93006478303505 0 -205.93006478303505 222.57005264676536 0 0 0 0 -0.10030334351553649 1.52872302192117 0 1.52872302192117 12.333920833241839 0 0 0 0 253.34701639350664 -218.42479285687568 0 -218.42479285687568 218.53703485289088 0 0 0 0 136.53705099361349 -322.84986077450696 0 -322.84986077450696 500.15959354805045 0 0 0 0 472.66514532759533 -473.06798700487911 0 -473.06798700487911 498.97860788076304 0 0 0 0 249.18151624013436 320.21212385644475 0 320.21212385644475 159.71791482211847 0 0 0 0 0.60215301906191898 0.45836633521636738 0 0.45836633521636738 4.7984139049292587 0 0 0 0 -3.8225852564254623 33.814108673190731 0 33.814108673190731 25.469742416539702 0 0 0 0 63.763592452510821 126.62780574621047 0 126.62780574621047 130.30839385069066 0 0 0 0 -144.99160058935072 201.87133653737908 0 201.87133653737908 395.1325485670568 0 0 0 0 -96.078949456656943 332.05937805684289 0 332.05937805684289 498.23067224895658 0 0 0 0 -127.10011789410567 173.2002727810634 0 173.2002727810634 433.06478649957717 0 0 0 0 -77.15245659481775 106.55125484952487 0 106.55125484952487 506.96555678552841 0 0 0 0 -0.865501234617434 0.13700033729892436 0 0.13700033729892436 1.0744178923064425 0 0 0 0 -6.7853030749325853 76.975626102047954 0 76.975626102047954 401.13457431528786 0 0 0 0 22.134154558553433 108.58081098871025 0 108.58081098871025 500.02326478678941 0 0 0 0 78.351466075127973 121.13473486625327 0 121.13473486625327 364.447501504088 0 0 0 0 63.646975620235935 46.684721846137336 0 46.684721846137336 396.60389531166311 0 0 0 0 21.834499400937318 66.714212238919345 0 66.714212238919345 333.6645573976175 0 0 0 0 30.001582788613689 74.083520925565381 0 74.083520925565381 362.14668337669355 0 0 0 0 32.351088692711869 66.057829566624832 0 66.057829566624832 265.54457442022175 0 0 0 0 53.624644751134724 92.675554397999804 0 92.675554397999804 269.63358752679778 0 0 0 0 8.7248835307029537 118.80939418087837 0 118.80939418087837 308.11191413017264 0 0 0 0 11.880823645497401 112.31963424342189 0 112.31963424342189 245.84663521630546 0 0 0 0 -62.597731555761243 152.11032335159507 0 152.11032335159507 300.00362000254381 0 0 0 0 10.422635898980047 99.119938379508312 0 99.119938379508312 348.56580831811334 0 0 0 0 -0.82022807263490316 0.24251911627294609 0 0.24251911627294609 0.65394752139412482 0 0 0 0 -106.21517809260388 16.74794697168204 0 16.74794697168204 435.0147410897564 0 0 0 0 -1.6299968648531937 0.41797909851809134 0 0.41797909851809134 0.96508010506612241 0 0 0 0 24.475255114514191 110.60920139993095 0 110.60920139993095 499.93520662867832 0 0 0 0 12.697513604264486 119.77619033380552 0 119.77619033380552 460.20092547336446 0 0 0 0 22.91551722663857 109.75405627532405 0 109.75405627532405 501.45956364784479 0 0 0 0 29.293589130411419 52.641653610243793 0 52.641653610243793 392.3046337322005 0 0 0 0 54.68460931146538 89.969231636061295 0 89.969231636061295 289.49320807503909 0 0 0 0 24.163223274123197 70.337717546261956 0 70.337717546261956 290.34719310999105 0 0 0 0 -92.733144282222867 90.378541263802617 0 90.378541263802617 388.44761559267772 0 0 0 0 53.82995076172395 96.858753061418099 0 96.858753061418099 325.25942569313338 0 0 0 0 -35.164133700966261 135.59046498244334 0 135.59046498244334 416.68069656386069 0 0 0 0 -7.1174210664067914 65.094936645172311 0 65.094936645172311 309.58195470162514 0 0 0 0 0.20813557615349509 87.340785028496839 0 87.340785028496839 304.6934119482039 0 0 0 0 -46.278507323176143 62.362490716821583 0 62.362490716821583 293.64276548366342 0 0 0 0 3.3600762088212832 58.483371119313915 0 58.483371119313915 231.21572796752571 0 0 0 0 -2.0014518688756198 45.048852558974431 0 45.048852558974431 232.17504821024113 0 0 0 0 22.563113357794577 57.928571623241623 0 57.928571623241623 224.58507781243179 0 0 0 0 38.340578806909235 57.116832173967964 0 57.116832173967964 223.65268945050821 0 0 0 0 14.617124810504265 84.170324392751354 0 84.170324392751354 284.11310446265043 0 0 0 0 45.800475138086369 45.864793828434017 0 45.864793828434017 163.15893653008743 0 0 0 0 29.28250522196231 34.829680430136705 0 34.829680430136705 167.08612924377167 0 0 0 0 35.476096274725478 27.085879045090905 0 27.085879045090905 123.02959179576794 0 0 0 0 21.73978496279517 23.448007937740385 0 23.448007937740385 126.05715794129821 0 0 0 0 21.629040486082147 33.087650053486641 0 33.087650053486641 168.81899999974303 0 0 0 0 15.462873276436767 35.351044717628156 0 35.351044717628156 168.01432422308972 0 0 0 0 16.775197877353776 20.013897204276418 0 20.013897204276418 128.16135634075408 0 0 0 0 -0.12955067661494013 4.6080545889780069 0 4.6080545889780069 139.84454166026103 0 0 0 0 2.3714724826311055 31.080889963171046 0 31.080889963171046 166.65572113229882 0 0 0 0 -8.4691110344091953 19.181655570462112 0 19.181655570462112 174.96455057311982 0 0 0 0 35.641909931543694 60.521177909237281 0 60.521177909237281 182.86881624389116 0 0 0 0 50.291554953369541 59.25031006367908 0 59.25031006367908 182.38013998576207 0 0 0 0 64.097958136971215 55.906625227259383 0 55.906625227259383 99.529948760567208 0 0 0 0 57.015928923179047 68.688904409114343 0 68.688904409114343 206.29402203110158 0 0 0 0 31.079273903755279 40.902778611868371 0 40.902778611868371 202.22512028734877 0 0 0 0 50.715460374377869 54.206641488117612 0 54.206641488117612 156.47024980218293 0 0 0 0 47.27243215358925 26.91847068284892 0 26.91847068284892 126.08742592897852 0 0 0 0 37.150451258262365 20.287318352031434 0 20.287318352031434 130.40953649531934 0 0 0 0 45.376921410280033 31.33411140687258 0 31.33411140687258 119.03133548152891 0 0 0 0 38.241930958423268 10.072919529431147 0 10.072919529431147 86.601301033595519 0 0 0 0 30.654039510825328 21.793009401814743 0 21.793009401814743 121.71352980724964 0 0 0 0 40.515142837966778 29.422876195042591 0 29.422876195042591 115.54426143196679 0 0 0 0 43.899767304688467 12.160287038521034 0 12.160287038521034 83.405113383903881 0 0 0 0 29.124462363969997 4.8198428573541605 0 4.8198428573541605 86.348728981981139 0 0 0 0 18.236273869729878 13.595335906511934 0 13.595335906511934 69.945319043780273 0 0 0 0 40.272627602117439 33.407667959601667 0 33.407667959601667 120.91526542030238 0 0 0 0 38.849666665523955 -2.1202299387364292 0 -2.1202299387364292 81.883160439540575 0 0 0 0 20.232314640945248 -19.723637801072528 0 -19.723637801072528 52.499529205225485 0 0 0 0 35.825480725221951 6.8294239589070003 0 6.8294239589070003 66.046519573431397 0 0 0 0 39.803443459177856 -0.50106260876600572 0 -0.50106260876600572 54.457617369610034 0 0 0 0 16.659899498721956 -12.015471636197958 0 -12.015471636197958 54.534589325911838 0 0 0 0 13.63457199593222 -24.193646856406758 0 -24.193646856406758 32.902533635671716 0 0 0 0 23.605581624540179 -12.978622587102222 0 -12.978622587102222 36.953110757665399 0 0 0 0 4.6748199109586892 -18.798164785767085 0 -18.798164785767085 37.28140621919124 0 0 0 0 19.001890815775482 -17.070777705325099 0 -17.070777705325099 24.494708544400964 0 0 0 0 4.7153085386972293 -19.358442997699512 0 -19.358442997699512 24.9961888875265 0 0 0 0 9.7007208781780747 -18.987363871499781 0 -18.987363871499781 13.955221328380048 0 0 0 0 8.2576127636378942 -12.299058998809414 0 -12.299058998809414 25.1868051598953 0 0 0 0 24.19950669825181 -9.4894843511845011 0 -9.4894843511845011 24.725891911777296 0 0 0 0 13.47117725244388 -15.298153330907553 0 -15.298153330907553 41.096301722829139 0 0 0 0 16.261557680385238 -6.0392051706689927 0 -6.0392051706689927 44.631933403078619 0 0 0 0 27.405036736664897 -7.5511111369401078 0 -7.5511111369401078 44.30697066276889 0 0 0 0 25.365502405910547 2.9604087289237668 0 2.9604087289237668 64.609193705691268 0 0 0 0 30.781270629518076 -10.461475917173175 0 -10.461475917173175 41.12727676776386 0 0 0 0 30.636747302011656 -5.5056282707039372 0 -5.5056282707039372 70.868318981593802 0 0 0 0 31.604698499370354 12.198252381864435 0 12.198252381864435 86.021790290842546 0 0 0 0 33.205086007889008 -0.57348533126605616 0 -0.57348533126605616 65.900497364475314 0 0 0 0 36.415871141566186 12.015363799193665 0 12.015363799193665 90.25926124816533 0 0 0 0 28.560370155048304 16.935389986232195 0 16.935389986232195 87.571495312924071 0 0 0 0 28.134500527489365 14.084138041388542 0 14.084138041388542 88.455929319080496 0 0 0 0 29.481972542632263 8.6080878337999707 0 8.6080878337999707 55.556034357593489 0 0 0 0 13.012906076180798 6.804803110453804 0 6.804803110453804 90.656130345547012 0 0 0 0 23.921116774204961 -1.7653308591457062 0 -1.7653308591457062 71.697221019537437 0 0 0 0 26.220174103353472 7.1868998952443235 0 7.1868998952443235 55.609268689766395 0 0 0 0 18.275816711710718 13.952599282586334 0 13.952599282586334 94.360845804666496 0 0 0 0 10.88186716971245 17.02986315635917 0 17.02986315635917 129.80204938476356 0 0 0 0 20.866017408393077 14.674882337705185 0 14.674882337705185 62.387819882097119 0 0 0 0 6.5923920551626907 8.9690332953384768 0 8.9690332953384768 94.265756736949641 0 0 0 0 9.4827842930970974 0.4221526853193609 0 0.4221526853193609 57.066024794313535 0 0 0 0 5.9319410480038357 17.730952791770051 0 17.730952791770051 60.238113332837656 0 0 0 0 16.391905270584683 12.96042206395903 0 12.96042206395903 37.642638163991705 0 0 0 0 -0.10973971207874911 -1.1292402873748415 0 -1.1292402873748415 31.228740033976578 0 0 0 0 11.331058947076599 17.46652896849389 0 17.46652896849389 14.05707205825729 0 0 0 0 19.203057269355554 -6.9413997688611744 0 -6.9413997688611744 42.098241306127875 0 0 0 0 16.882626618281442 -5.9156533309469523 0 -5.9156533309469523 31.26858552876638 0 0 0 0 16.523864535235361 8.6008243085693721 0 8.6008243085693721 55.881557030870965 0 0 0 0 9.4834326137425933 -0.14356225187452765 0 -0.14356225187452765 29.388396778119272 0 0 0 0 11.809448702648865 -7.6502311338740583 0 -7.6502311338740583 25.521535498003288 0 0 0 0 23.183795020118907 0.086747718665719731 0 0.086747718665719731 27.224112074814911 0 0 0 0 19.584926802466867 1.2426842346047238 0 1.2426842346047238 5.082156936679894 0 0 0 0 5.8114443757316394 -0.42804650877587846 0 -0.42804650877587846 5.2937619581103945 0 0 0 0 12.6586122983216 -0.48119563128670961 0 -0.48119563128670961 -16.891749985016759 0 0 0 0 14.448327074135534 1.3436822763837881 0 1.3436822763837881 -14.401327451515044 0 0 0 0 -15.250689074324129 9.7455118596271859 0 9.7455118596271859 11.863674091486928 0 0 0 0 13.513074684384662 5.6333957601802922 0 5.6333957601802922 2.1371303873497709 0 0 0 0 4.2454865938539115 4.1295364958748451 0 4.1295364958748451 1.9115300428447881 0 0 0 0 8.2550314128029072 1.6669976096092114 0 1.6669976096092114 -32.026899304632479 0 0 0 0 0.15277002942070839 0.92634320266994319 0 0.92634320266994319 0.57957342013615309 0 0 0 0 -0.11022501585245692 1.2780828824534041 0 1.2780828824534041 2.2248752949330992 0 0 0 0 3.4555098407740843 10.707704068785119 0 10.707704068785119 -23.028528843738513 0 0 0 0 0.34055907656600315 0.9177475484506461 0 0.9177475484506461 -0.59145186733491961 0 0 0 0 -14.985617540155999 21.328814387499278 0 21.328814387499278 -24.145794024311726 0 0 0 0 0.23210332034305858 0.78655881619075085 0 0.78655881619075085 0.2096811177974538 0 0 0 0 2.3811121748238939 -2.5540942326362135 0 -2.5540942326362135 -14.96081562434847 0 0 0 0 9.971956237810673 -1.9661269431574055 0 -1.9661269431574055 -27.691822136003793 0 0 0 0 2.8708335976023136 10.923102022367857 0 10.923102022367857 -21.943308598495264 0 0 0 0 6.6210149736144785 0.067947648670724448 0 0.067947648670724448 -28.749415761684759 0 0 0 0 1.0345080467320713 -4.3039715389966204 0 -4.3039715389966204 -10.000614852840499 0 0 0 0 4.2183961591210846 -0.17012563630623845 0 -0.17012563630623845 -26.978468984897518 0 0 0 0 -7.1681768337076051 -3.934844339741062 0 -3.934844339741062 -7.4980872978894695 0 0 0 0 -1.5000416231610103 -1.7599244623570485 0 -1.7599244623570485 -0.52092968118085992 0 0 0 0 -3.3747242630809637 5.3548839976679119 0 5.3548839976679119 -6.0451344458701897 0 0 0 0 -0.023353240308237044 -0.052798844051602067 0 -0.052798844051602067 0.29284346652776994 0 0 0 0 -8.4959494361128236 -11.417464387182008 0 -11.417464387182008 -29.68097055735393 0 0 0 0 -0.14984808183518905 0.1927486408345529 0 0.1927486408345529 0.33708926318802579 0 0 0 0 -1.6076773509657585 -1.943071399419523 0 -1.943071399419523 -17.1152705880545 0 0 0 0 -0.56642066127773205 -8.9662442182891482 0 -8.9662442182891482 0.75387199628448798 0 0 0 0 -2.2237812787842515 -4.4437979972840935 0 -4.4437979972840935 -2.5472964362334096 0 0 0 0 3.458396306016823 -14.765312651843715 0 -14.765312651843715 -3.4167535576002592 0 0 0 0 1.2647651956925188 -15.769830642566376 0 -15.769830642566376 -9.6399771976549573 0 0 0 0 -0.9175533494278767 -12.316096304864914 0 -12.316096304864914 1.8445481951098373 0 0 0 0 8.4718581012478467 -19.327125934497644 0 -19.327125934497644 2.6754335393526674 0 0 0 0 1.326697167390563 -18.811032425128985 0 -18.811032425128985 13.951508408473728 0 0 0 0 16.170986057990575 -16.600428067228904 0 -16.600428067228904 10.741688648909985 0 0 0 0 1.5256255944213137 -11.699364324012549 0 -11.699364324012549 9.2223349871919709 0 0 0 0 18.557422613607741 -4.9370636289137337 0 -4.9370636289137337 5.3348912982455658 0 0 0 0 6.580341529157181 -7.426175355908299 0 -7.426175355908299 5.0016939495058068 0 0 0 0 7.4975625236262431 -1.0395248637730674 0 -1.0395248637730674 -9.5445661010994627 0 0 0 0 6.9709265288319671 -15.645150038936663 0 -15.645150038936663 -0.56513853266687875 0 0 0 0 -13.203312254687091 16.6542388392985 0 16.6542388392985 5.9778887348545595 0 0 0 0 -0.49231582024393872 1.8329912353384308 0 1.8329912353384308 12.72274806731542 0 0 0 0 -8.4412036964329786 -3.0599408537711952 0 -3.0599408537711952 11.666500690414523 0 0 0 0 -15.128467846477292 -2.1515946820761656 0 -2.1515946820761656 17.317582543390245 0 0 0 0 -19.02920120467428 -5.1317053212288783 0 -5.1317053212288783 15.868555218772599 0 0 0 0 -12.068999855417701 -6.4587523956292898 0 -6.4587523956292898 9.8218280478358793 0 0 0 0 -0.27594205852176401 4.255456044362063 0 4.255456044362063 8.9482649784322348 0 0 0 0 -0.20397872522587956 0.58994717768285643 0 0.58994717768285643 3.0007523908578402 0 0 0 0 0.071834789318898307 3.1820872262837452 0 3.1820872262837452 2.7127660814083079 0 0 0 0 -0.53978056206310465 1.5972864952754988 0 1.5972864952754988 7.5754921396018302 0 0 0 0 -0.66528143368850579 1.832589130920681 0 1.832589130920681 8.8434778853416205 0 0 0 0 -0.47049910606830281 1.9952752520023722 0 1.9952752520023722 8.9793050949002975 0 0 0 0 -0.46267324772645679 11.120912097748601 0 11.120912097748601 4.8900983069025443 0 0 0 0 0.052141367798539395 2.8176937027199349 0 2.8176937027199349 0.58388268435212254 0 0 0 0 4.9432015011625481 6.1130430898490431 0 6.1130430898490431 -7.7226723159195103 0 0 0 0 -0.5416799327034596 1.0227017293185838 0 1.0227017293185838 7.4776354944703272 0 0 0 0 1.3455873393221793 -3.7562245500553786 0 -3.7562245500553786 -21.664542522015381 0 0 0 0 5.8475814132008495 21.743006200410662 0 21.743006200410662 4.4219119274132481 0 0 0 0 8.2260149573894523 18.118630079063223 0 18.118630079063223 -19.959492901982941 0 0 0 0 -0.42070283759778704 9.378120745090655 0 9.378120745090655 -8.9565940520246841 0 0 0 0 -4.0902770548681531 12.672439448857403 0 12.672439448857403 35.208285799751593 0 0 0 0 6.5864500933834051 7.5719748899516617 0 7.5719748899516617 9.8832640665138456 0 0 0 0 4.5990406773803443 10.556082324581666 0 10.556082324581666 31.325214407936301 0 0 0 0 7.1037399912420369 2.3883792988957566 0 2.3883792988957566 36.90022438307733 0 0 0 0 4.4530322264894835 21.026539823356984 0 21.026539823356984 37.674391971817158 0 0 0 0 4.2806147397888594 -3.4799069800992584 0 -3.4799069800992584 57.145034304709952 0 0 0 0 13.649079334128061 9.0460266644063267 0 9.0460266644063267 62.973426708983425 0 0 0 0 -0.74478812223026125 5.2314298868566311 0 5.2314298868566311 100.95717813310875 0 0 0 0 4.779075916660446 11.606852576806091 0 11.606852576806091 74.722400678892427 0 0 0 0 -4.1448056407427885 -8.5385878940269322 0 -8.5385878940269322 88.755801914257631 0 0 0 0 3.9603059095493904 5.6688735243476458 0 5.6688735243476458 100.96973282691839 0 0 0 0 -4.133737587024882 -16.303466720779625 0 -16.303466720779625 75.884191265902018 0 0 0 0 -12.607544222974553 -4.4281599711081867 0 -4.4281599711081867 119.85644539812847 0 0 0 0 -9.6552330944686275 11.926814401430761 0 11.926814401430761 40.739678237879616 0 0 0 0 10.821469033246897 25.903098415150467 0 25.903098415150467 -2.4533346982248077 0 0 0 0 13.409437779258838 -36.309954391739439 0 -36.309954391739439 26.380282674366754 0 0 0 0 0.60275690418208983 1.1656542186450687 0 1.1656542186450687 -0.053048813625909297 0 0 0 0 -42.674905394351867 -2.4717973446955739 0 -2.4717973446955739 50.213648986779845 0 0 0 0 -6.260251578926848 3.2432525191389061 0 3.2432525191389061 -2.1696241228885356 0 0 0 0 0.98386124262093877 3.5792977380047493 0 3.5792977380047493 10.910076648321613 0 0 0 0 -29.112832112343597 10.075888621585818 0 10.075888621585818 21.730988214471154 0 0 0 0 -23.368881691161505 8.9649963979886707 0 8.9649963979886707 0.86488712870823292 0 0 0 0 -33.011709345789882 24.787932790632112 0 24.787932790632112 -9.2776809632692903 0 0 0 0 -4.1483360919408572 0.96604514130359753 0 0.96604514130359753 86.08564633498645 0 0 0 0 -74.422193146542668 30.197591350811308 0 30.197591350811308 18.306630399985806 0 0 0 0 -3.601350526077558 -42.81892698014277 0 -42.81892698014277 82.286379463995218 0 0 0 0 0.75272281657410489 2.9750984171769121 0 2.9750984171769121 8.4981753774332489 0 0 0 0 60.363996330623287 -16.621590417488257 0 -16.621590417488257 47.264884286532833 0 0 0 0 10.602038015202027 -28.692351810854348 0 -28.692351810854348 95.018768976898627 0 0 0 0 51.220027901739279 -84.389197949726736 0 -84.389197949726736 154.03002283704313 0 0 0 0 -19.648798289648909 -23.34070765766171 0 -23.34070765766171 99.826495212111695 0 0 0 0 8.1570115040478584 -70.45583128052408 0 -70.45583128052408 135.03465779397368 0 0 0 0 -6.411056320900812 -57.828578630037242 0 -57.828578630037242 97.220927946754273 0 0 0 0 -9.7270480616817423 -78.1633652023 0 -78.1633652023 186.53838693561374 0 0 0 0 -13.387055789828025 -50.409767884155258 0 -50.409767884155258 173.25524931993436 0 0 0 0 16.96853717093262 -111.64700446886445 0 -111.64700446886445 222.55137672828482 0 0 0 0 -46.671404825858858 -71.819698358535533 0 -71.819698358535533 323.67939060610593 0 0 0 0 51.760215145405034 -193.70172185005788 0 -193.70172185005788 313.68823942637528 0 0 0 0 101.48929229794443 -128.47530023410781 0 -128.47530023410781 115.29250544576212 0 0 0 0 10.927813638835271 -80.521606713334478 0 -80.521606713334478 177.00374721280309 0 0 0 0 -24.715214541725345 25.46430062265398 0 25.46430062265398 243.33683663269221 0 0 0 0 -18.65062940416118 -21.892536843133939 0 -21.892536843133939 168.09083638397465 0 0 0 0 -5.6873409853648127 5.2846681420312507 0 5.2846681420312507 144.10602351303078 0 0 0 0 -30.249165606316524 5.3335003929848881 0 5.3335003929848881 188.78565125925729 0 0 0 0 -37.593716338306876 -32.996502435968523 0 -32.996502435968523 194.06940048777685 0 0 0 0 -11.89742695180081 -20.943215820741841 0 -20.943215820741841 123.35954495183182 0 0 0 0 -23.834324813878254 -44.052776227478375 0 -44.052776227478375 194.02485481032136 0 0 0 0 -18.870784963118069 -27.018257818607935 0 -27.018257818607935 139.33652154953393 0 0 0 0 -43.515373449000549 -45.898680520147764 0 -45.898680520147764 256.5277769363762 0 0 0 0 -42.38180084545786 -74.263728221386117 0 -74.263728221386117 272.08098525719583 0 0 0 0 -84.831581751246063 -33.889724173801483 0 -33.889724173801483 353.19873237717695 0 0 0 0 -85.915216304038154 -28.090719843116403 0 -28.090719843116403 323.17640313079755 0 0 0 0 -47.337755446262065 -31.468367494598738 0 -31.468367494598738 256.32861900072976 0 0 0 0 -61.732807771514047 1.5329263770706802 0 1.5329263770706802 280.67885890057823 0 0 0 0 -46.834105402391216 60.857819009217934 0 60.857819009217934 320.40134786673752 0 0 0 0 -62.381401808891951 8.7923961721567139 0 8.7923961721567139 257.43810101906899 0 0 0 0 -132.02590994272862 5.1815193179294283 0 5.1815193179294283 367.37514310085135 0 0 0 0 -139.88622026640397 40.027999674031889 0 40.027999674031889 349.17568661640428 0 0 0 0 -93.201832340818413 -35.613046615159647 0 -35.613046615159647 355.37614773359473 0 0 0 0 -120.7339039069665 -23.861307413583006 0 -23.861307413583006 412.58815791883069 0 0 0 0 -125.84432562670089 22.458788189292648 0 22.458788189292648 408.18185177380087 0 0 0 0 -190.8580464046729 48.20726220021379 0 48.20726220021379 499.93914634674348 0 0 0 0 0.7515972894236711 -97.350568514999495 0 -97.350568514999495 457.62917405664786 0 0 0 0 -35.957762272549076 -76.308903600394103 0 -76.308903600394103 446.63985984850774 0 0 0 0 -35.266707948760867 -96.585795468075958 0 -96.585795468075958 344.24958534603439 0 0 0 0 -91.846769832168789 -49.29417721717023 0 -49.29417721717023 463.52322597403816 0 0 0 0 -32.332275877337899 -37.439731245496162 0 -37.439731245496162 441.82064215930859 0 0 0 0 -106.78634116556267 -21.021547036189819 0 -21.021547036189819 500.01941157430031 0 0 0 0 4.5040199722552217 29.638153182794952 0 29.638153182794952 549.98344914006077 0 0 0 0 197.77671048139646 31.618354957494688 0 31.618354957494688 522.36046799237624 0 0 0 0 86.585476301208871 -26.500402614727307 0 -26.500402614727307 499.91908752831262 0 0 0 0 24.270998819011609 -25.661176787571094 0 -25.661176787571094 671.63985219636595 0 0 0 0 -63.636547508067565 -15.686905607393498 0 -15.686905607393498 583.9651470612846 0 0 0 0 133.57569390394025 -98.944144896736944 0 -98.944144896736944 485.1797325194616 0 0 0 0 -35.657982402934891 -24.90238675804153 0 -24.90238675804153 500.02062336409352 0 0 0 0 -64.725485998249411 -53.492012030801845 0 -53.492012030801845 473.43178068157692 0 0 0 0 -92.875647748802692 -15.708092983704773 0 -15.708092983704773 477.22829341006502 0 0 0 0 -47.264267996170034 54.208504083233109 0 54.208504083233109 318.91864565418473 0 0 0 0 -32.507831799422888 -23.500999359415005 0 -23.500999359415005 265.74783181566522 0 0 0 0 -24.611160021376211 14.993899504561654 0 14.993899504561654 171.61899090075804 0 0 0 0 0.44234178981120942 -0.10203623378208659 0 -0.10203623378208659 0.49173792052397092 0 0 0 0 19.243111579745573 4.2204724392026947 0 4.2204724392026947 29.904393133103895 0 0 0 0 -9.326135508670319 -28.577189873745624 0 -28.577189873745624 160.73343407397374 0 0 0 0 -26.669808695319574 50.110518775352034 0 50.110518775352034 199.37207553874157 0 0 0 0 0.74127317716975338 -0.37633289452529306 0 -0.37633289452529306 0.14081088799799002 0 0 0 0 3.4015969135900264 2.948806495731219 0 2.948806495731219 4.4790387130090608 0 0 0 0 37.514754356946327 28.143147990092302 0 28.143147990092302 52.555828609418541 0 0 0 0 4.1362622893443017 -0.78351558719623426 0 -0.78351558719623426 -1.4785627673181807 0 0 0 0 0.32439189355802123 -0.32981239550132591 0 -0.32981239550132591 0.11226213871548452 0 0 0 0 63.553339656062576 25.163873044306797 0 25.163873044306797 -25.773580376481561 0 0 0 0 -18.877976480817097 -3.4142919640435139 0 -3.4142919640435139 7.836641027419148 0 0 0 0 -40.555084925698253 12.346171164650912 0 12.346171164650912 4.1735254545046701 0 0 0 0 -89.381756721058991 -59.18148518564692 0 -59.18148518564692 72.403947859923846 0 0 0 0 0.42530091417099669 1.0446130042689068 0 1.0446130042689068 3.7217630620159614 0 0 0 0 173.42826884142573 -289.1568378034392 0 -289.1568378034392 468.05822964385555 0 0 0 0 24.478117178861339 -43.026881276488268 0 -43.026881276488268 -122.05143726095946 0 0 0 0 44.909632572329485 128.24190919208564 0 128.24190919208564 66.184635004910206 0 0 0 0 -38.789430133171948 17.409643217439964 0 17.409643217439964 202.80264589674618 0 0 0 0 34.14768765889022 212.47081052731073 0 212.47081052731073 237.58085313465153 0 0 0 0 0.51992083365753905 -0.46382340979512238 0 -0.46382340979512238 1.719088126951009 0 0 0 0 30.79571318437921 -105.51747209856649 0 -105.51747209856649 474.64616698489476 0 0 0 0 12.996301086216452 23.781501879888765 0 23.781501879888765 508.90408335756604 0 0 0 0 96.994134433104449 -171.46180108153931 0 -171.46180108153931 536.48640724840982 0 0 0 0 22.038918331773043 -139.89671796581092 0 -139.89671796581092 500.09968442746026 0 0 0 0 38.759592730448418 -116.53210721267862 0 -116.53210721267862 485.49437001940896 0 0 0 0 106.92430806769995 -139.18028300287006 0 -139.18028300287006 464.17106149868914 0 0 0 0 166.91097653086294 -93.164133934722827 0 -93.164133934722827 451.11839837043954 0 0 0 0 68.24880215109539 -81.222506621967909 0 -81.222506621967909 453.1124350053492 0 0 0 0 32.109568766812778 -94.883626895078237 0 -94.883626895078237 499.88817612809112 0 0 0 0 57.919460250634508 -45.186919214801151 0 -45.186919214801151 492.26225557326643 0 0 0 0 12.256804941128806 -112.58252560572532 0 -112.58252560572532 431.81425669840837 0 0 0 0 121.50236163324067 -88.858625974926326 0 -88.858625974926326 462.59872382722097 0 0 0 0 41.425111733829723 -166.94525873994917 0 -166.94525873994917 413.12259204321424 0 0 0 0 -19.728102203897876 -89.019087303497827 0 -89.019087303497827 416.68345536530887 0 0 0 0 -19.983249218269535 -71.802876609978966 0 -71.802876609978966 288.20153318483699 0 0 0 0 -59.214316241995036 -56.936255531377583 0 -56.936255531377583 488.4309206858062 0 0 0 0 -56.276141227829648 -59.399995152752467 0 -59.399995152752467 437.97026794302178 0 0 0 0 -100.5599466308027 -49.121012959329164 0 -49.121012959329164 500.0054927696637 0 0 0 0 -57.618276302446134 -26.748210291278099 0 -26.748210291278099 317.48804851405112 0 0 0 0 -65.980150914460978 -43.321578837442075 0 -43.321578837442075 429.11883260141701 0 0 0 0 1.7258408900458093 -51.973904575722656 0 -51.973904575722656 134.55879509130682 0 0 0 0 -35.597322498599112 -40.860694103732385 0 -40.860694103732385 319.1699216121749 0 0 0 0 34.583999371058226 -1.5640627588497864 0 -1.5640627588497864 2.2154173436115343 0 0 0 0 0.55390744581606466 0.64288992303065307 0 0.64288992303065307 0.92895893781278671 0 0 0 0 1.2612257137559357 10.002807779597205 0 10.002807779597205 107.6179804909118 0 0 0 0 30.024691864028824 -16.910026784453521 0 -16.910026784453521 12.600254320832789 0 0 0 0 31.062615495222573 -22.730632439075634 0 -22.730632439075634 26.650164067803416 0 0 0 0 0.16613861777023142 0.27143885496854914 0 0.27143885496854914 0.58508605253117052 0 0 0 0 -0.44505934968832861 -94.497693082600904 0 -94.497693082600904 288.40090787304007 0 0 0 0 19.515574798164682 -68.976700613960929 0 -68.976700613960929 220.39180682590086 0 0 0 0 70.990372245224918 -65.469495820007296 0 -65.469495820007296 21.841290543056402 0 0 0 0 60.461158054028431 -203.11367183973431 0 -203.11367183973431 130.08623880149298 0 0 0 0 77.666602468933874 32.248799029719819 0 32.248799029719819 -40.088948371808328 0 0 0 0 52.830622015742108 -148.55507545061437 0 -148.55507545061437 262.00353910365948 0 0 0 0 -60.225663992718125 33.54002840033445 0 33.54002840033445 0.079175226820780154 0 0 0 0 43.059746708708204 -7.5953977006446394 0 -7.5953977006446394 -2.4532927236500655 0 0 0 0 24.456880900704761 19.717598729067163 0 19.717598729067163 -6.3278980246836909 0 0 0 0 22.227966601249079 23.385025826208221 0 23.385025826208221 6.0764206831795491 0 0 0 0 0.16707290702066113 -0.79680521076825173 0 -0.79680521076825173 1.8863014987913758 0 0 0 0 -94.000861177522481 -21.563825295510981 0 -21.563825295510981 10.662833062930531 0 0 0 0 -32.4198942383195 -10.111898580031948 0 -10.111898580031948 -10.59945631833989 0 0 0 0 -46.968032869840613 19.791787552436517 0 19.791787552436517 10.337776581408207 0 0 0 0 0.23707616607743387 -0.49263861879691162 0 -0.49263861879691162 0.83878966506658337 0 0 0 0 15.671742442009567 -19.861363536030751 0 -19.861363536030751 -1.0224050437650476 0 0 0 0 -12.445072644057603 5.186594145254503 0 5.186594145254503 11.754353944166724 0 0 0 0 -5.5877783073123908 18.767285028233914 0 18.767285028233914 20.194946214706761 0 0 0 0 2.4528406613897005 13.853809591662639 0 13.853809591662639 9.0294651657791292 0 0 0 0 -22.548526435212011 9.7708740204629976 0 9.7708740204629976 12.024277082797084 0 0 0 0 -14.707631573064333 0.2600648314208911 0 0.2600648314208911 -1.0907808107490382 0 0 0 0 -34.884491850483869 5.0895131358859089 0 5.0895131358859089 0.43202565251453962 0 0 0 0 -3.5791293637029185 15.329659698309342 0 15.329659698309342 6.8242862299230183 0 0 0 0 -27.71066404391766 10.013048233803943 0 10.013048233803943 11.55963867058972 0 0 0 0 2.5725869416014575 15.082012427076506 0 15.082012427076506 0.30330260014943633 0 0 0 0 3.2739947672756458 11.631588799290938 0 11.631588799290938 14.969764056932036 0 0 0 0 -0.33710796752728101 18.692787314292673 0 18.692787314292673 15.049613388376656 0 0 0 0 17.255045589210283 9.4847923785516741 0 9.4847923785516741 9.3475976880260987 0 0 0 0 8.8610892583366763 18.77592399211153 0 18.77592399211153 12.862235249989453 0 0 0 0 -0.41445159440945645 18.309610421594698 0 18.309610421594698 11.871067117151085 0 0 0 0 -3.3237912082201433 13.015453026677505 0 13.015453026677505 13.142137012538569 0 0 0 0 -0.16002510749227383 17.159560390256729 0 17.159560390256729 16.419325784113425 0 0 0 0 1.1797703156850048 16.307755574640396 0 16.307755574640396 16.72248523335702 0 0 0 0 2.8592144185591337 12.860283470579361 0 12.860283470579361 13.909775997381388 0 0 0 0 5.4012404454348655 3.3189848305303258 0 3.3189848305303258 13.223297845692969 0 0 0 0 8.0194698717511983 5.5488777062777217 0 5.5488777062777217 19.236272040475342 0 0 0 0 14.751991135269861 9.6405287424997823 0 9.6405287424997823 14.316412140467122 0 0 0 0 36.680601868963933 1.3084847536074449 0 1.3084847536074449 15.212250087315169 0 0 0 0 16.592328558367569 9.6488116414184333 0 9.6488116414184333 29.051573983943399 0 0 0 0 5.7752702477883702 -13.663525914313368 0 -13.663525914313368 48.560918851318434 0 0 0 0 20.528143230572596 -20.07616834457076 0 -20.07616834457076 33.734431637698435 0 0 0 0 0.28291014814393389 0.14814491796565266 0 0.14814491796565266 0.44592322212499047 0 0 0 0 4.4249654715047768 -7.5827724926332394 0 -7.5827724926332394 27.234800123450896 0 0 0 0 12.11235669596789 6.1945506968073687 0 6.1945506968073687 14.426690069286678 0 0 0 0 1.668793220964119 -8.7896504696434477 0 -8.7896504696434477 26.713317949810062 0 0 0 0 3.2029602768498933 -4.4040488330134622 0 -4.4040488330134622 17.294732248275523 0 0 0 0 -0.12218204497158214 0.031588364544387737 0 0.031588364544387737 0.011125488853470866 0 0 0 0 -3.6174635188510607 12.197382035401546 0 12.197382035401546 7.8201479299523271 0 0 0 0 -11.927285679267314 -7.5819979951487539 0 -7.5819979951487539 17.222847491737411 0 0 0 0 -10.481186305636783 4.8368315617022972 0 4.8368315617022972 5.3985924375383547 0 0 0 0 -6.6454133266472084 -0.70089514001256248 0 -0.70089514001256248 4.4581710568718336 0 0 0 0 -4.2526147479498491 4.2449420823288619 0 4.2449420823288619 5.4509107313306231 0 0 0 0 -4.9438001194349397 1.8781495614246069 0 1.8781495614246069 3.6260786514319534 0 0 0 0 -0.32608699505833266 0.29422881297096648 0 0.29422881297096648 0.8364216382975167 0 0 0 0 -0.18550387034428217 1.9279725151425424 0 1.9279725151425424 4.4326598149150414 0 0 0 0 0.024204971644735451 0.68049400732297727 0 0.68049400732297727 3.715478912125036 0 0 0 0 -0.6942170880108165 2.5896867999108508 0 2.5896867999108508 3.6039478110610617 0 0 0 0 1.8824241271618121 2.2218842346251222 0 2.2218842346251222 -2.0587497521105433 0 0 0 0 2.2460755518180857 8.2955991199336125 0 8.2955991199336125 9.3075140518935768 0 0 0 0 4.5219014956786339 13.473142465781621 0 13.473142465781621 13.217130328640451 0 0 0 0 -1.388784257704458 7.8635008219944211 0 7.8635008219944211 12.142004263675574 0 0 0 0 -2.3684320472864897 15.494978193900124 0 15.494978193900124 18.732361146220228 0 0 0 0 -0.93870692977287717 2.2116988266664066 0 2.2116988266664066 15.095243137536386 0 0 0 0 0.30385831329718371 3.8792917995469907 0 3.8792917995469907 16.856798435026576 0 0 0 0 0.048727499912558869 11.587839633156364 0 11.587839633156364 21.628403066085639 0 0 0 0 -2.4578850409956785 2.4702761218838685 0 2.4702761218838685 -0.028790804797064862 0 0 0 0 2.3229071246472586 2.6507882986361437 0 2.6507882986361437 3.7524801125159684 0 0 0 0 -0.93360127025504225 2.5248093477636275 0 2.5248093477636275 1.6781496126540989 0 0 0 0 1.2698703449048956 1.1997520974641009 0 1.1997520974641009 -0.054013660066506208 0 0 0 0 -0.74332815629892934 2.5704902161146492 0 2.5704902161146492 7.0690375047163343 0 0 0 0 -1.7770930914361998 8.1537051666682601 0 8.1537051666682601 0.60868767048577865 0 0 0 0 0.37040839613423771 1.3151928989429962 0 1.3151928989429962 -4.5358556284677434 0 0 0 0 4.4064906128996881 7.5025224911191799 0 7.5025224911191799 -9.9940132529804941 0 0 0 0 -7.0788011605841348 -3.9057933095543831 0 -3.9057933095543831 87.019053043871736 0 0 0 0 0.63741693615916595 0.19354287362847167 0 0.19354287362847167 0.038240072132729175 0 0 0 0 3.5571106392495437 -5.0198110340711537 0 -5.0198110340711537 33.042255348906565 0 0 0 0 -3.7882777332827118 23.114199785249639 0 23.114199785249639 44.295769426575134 0 0 0 0 -1.8664783768805364 14.221619585098779 0 14.221619585098779 21.169411362108406 0 0 0 0 9.8850185996670632 13.039000473033525 0 13.039000473033525 10.691054540487585 0 0 0 0 4.7121342680287732 -0.49484055541014982 0 -0.49484055541014982 0.24941978680362809 0 0 0 0 7.5402223054241517 5.4445026083225798 0 5.4445026083225798 1.524543544182734 0 0 0 0 -14.969041432374524 14.858984789814144 0 14.858984789814144 30.458923518976064 0 0 0 0 -24.967050000889003 0.64710722965310197 0 0.64710722965310197 10.264442534757563 0 0 0 0 -33.202729278528636 14.593210186298847 0 14.593210186298847 8.9048632940438921 0 0 0 0 -11.969934573850651 3.3765754072824166 0 3.3765754072824166 3.379013144387045 0 0 0 0 -12.791296880133956 1.6132164826892677 0 1.6132164826892677 1.1896428903660308 0 0 0 0 0.6909092812829698 -0.60614606468107013 0 -0.60614606468107013 1.0404634130800332 0 0 0 0 5.452653413382496 -15.746215292069408 0 -15.746215292069408 35.615652259078388 0 0 0 0 0.82969128858900998 0.60321684320099234 0 0.60321684320099234 0.60580680606672122 0 0 0 0 1.1586798131509966 1.6322565206770605 0 1.6322565206770605 1.9492796460058912 0 0 0 0 3.1207090933111203 -12.979515811762667 0 -12.979515811762667 35.711742299345651 0 0 0 0 5.431512118710824 -15.385856507470265 0 -15.385856507470265 29.457206140089511 0 0 0 0 -2.6203304706010613 -8.4388520916868401 0 -8.4388520916868401 32.459925416481951 0 0 0 0 0.33328221927761315 0.16864779177751332 0 0.16864779177751332 0.13737723887976738 0 0 0 0 16.870597063573143 -31.750581686842224 0 -31.750581686842224 47.632969114368734 0 0 0 0 -0.60374540677344157 -8.5504512784771123 0 -8.5504512784771123 51.820543415975663 0 0 0 0 0.95275601849976965 5.14371831834967 0 5.14371831834967 -3.3671888060691799 0 0 0 0 0.58291955865325917 -2.1297147034283626 0 -2.1297147034283626 17.50798923389641 0 0 0 0 8.9769828953075859 -4.9762893647927058 0 -4.9762893647927058 13.939124997617455 0 0 0 0 2.1310467082270463 8.2548186615229042 0 8.2548186615229042 3.9919682264528547 0 0 0 0 2.449910802226583 -7.1676216916729345 0 -7.1676216916729345 11.327535713765883 0 0 0 0 13.0407570561743 10.121716271079208 0 10.121716271079208 19.098524498627739 0 0 0 0 -18.050361347438717 1.1321712688191212 0 1.1321712688191212 16.913311813029168 0 0 0 0 6.2794353910254017 -21.619287502387465 0 -21.619287502387465 37.198155255160032 0 0 0 0 -0.56986492059962757 -12.926321047153351 0 -12.926321047153351 12.974316162612951 0 0 0 0 -2.0201430033801913 -0.4812484713130516 0 -0.4812484713130516 11.917702995590389 0 0 0 0 -1.557286208972916 -0.03270400920587857 0 -0.03270400920587857 -0.35585792747085626 0 0 0 0 8.4192623582194344 -1.7852025009603665 0 -1.7852025009603665 -3.0630791667060748 0 0 0 0 -2.0875693699941849 -0.2380185387498841 0 -0.2380185387498841 11.634153446643268 0 0 0 0 -2.2887016385569723 -1.0978624517720164 0 -1.0978624517720164 11.1816239501685 0 0 0 0 -1.8788069135170815 -1.0464663012014626 0 -1.0464663012014626 10.294648396615003 0 0 0 0 -2.0228898827688973 -0.52383433793403356 0 -0.52383433793403356 10.705698441257027 0 0 0 0 -1.5477306709711058 1.025074033716237 0 1.025074033716237 9.0389215104958112 0 0 0 0 -1.2956158937594751 -0.20085681164073321 0 -0.20085681164073321 9.8725413144620688 0 0 0 0 -1.1337203915071532 -0.86992905251685881 0 -0.86992905251685881 1.1945995787662973 0 0 0 0 0.039417148866732532 -2.7253413324579014 0 -2.7253413324579014 2.7211832993098142 0 0 0 0 -1.4734836281643733 -1.309993536059247 0 -1.309993536059247 1.2283341543511863 0 0 0 0 0.17559540397810736 -3.4915122635603666 0 -3.4915122635603666 6.8703267453092849 0 0 0 0 -0.71151217018893931 -4.183009581251639 0 -4.183009581251639 1.3576714576656741 0 0 0 0 7.8587584639466286 -1.2106184597570291 0 -1.2106184597570291 -0.1242552286580576 0 0 0 0 2.1937329990073522 -3.1998318579074123 0 -3.1998318579074123 1.245589834245493 0 0 0 0 1.0271051308047277 -1.4350495342231397 0 -1.4350495342231397 2.3490422098543604 0 0 0 0 -0.20549880224689332 -2.1589741478375117 0 -2.1589741478375117 3.8863449650052644 0 0 0 0 -0.16928313734024414 -2.1395439071786768 0 -2.1395439071786768 2.0431850918697592 0 0 0 0 -0.72583541470754653 -0.7448681469014673 0 -0.7448681469014673 2.8698985022576835 0 0 0 0 -15.159305434052328 -16.073411771476287 0 -16.073411771476287 5.4353456879800888 0 0 0 0 12.347695385786437 -9.4815817524547015 0 -9.4815817524547015 -2.1333581799579164 0 0 0 0 3.1982088477377033 -7.7341366285942854 0 -7.7341366285942854 1.5137029083397238 0 0 0 0 -0.031503414086940573 -6.0164502267896323 0 -6.0164502267896323 1.0398661988658162 0 0 0 0 0.52169975601646001 -10.873812962486795 0 -10.873812962486795 -1.8924301889934299 0 0 0 0 -0.38170168863510145 -5.3971601502966067 0 -5.3971601502966067 1.8856644563511442 0 0 0 0 -5.414185129374232 -7.751676246442571 0 -7.751676246442571 9.4667929870253147 0 0 0 0 31.348244402453929 -18.623212258526337 0 -18.623212258526337 3.7681092442981026 0 0 0 0 7.3465872834021866 -14.661839660298028 0 -14.661839660298028 14.001090834151455 0 0 0 0 -17.99281916326413 -20.562807490497562 0 -20.562807490497562 18.580221907335726 0 0 0 0 13.858108379489863 -29.178722923527857 0 -29.178722923527857 9.939702708027653 0 0 0 0 -1.9421254299187929 -0.54431375921859626 0 -0.54431375921859626 11.768794774191974 0 0 0 0 -7.3459981278995201 -0.7842259774320155 0 -0.7842259774320155 24.622929374653495 0 0 0 0 -2.3983078433722707 2.8304575816055153 0 2.8304575816055153 4.8174381833072513 0 0 0 0 -0.90562923344413093 -0.24634053440126991 0 -0.24634053440126991 11.70851926377668 0 0 0 0 48.052474548887403 18.445379127657361 0 18.445379127657361 37.210160866296064 0 0 0 0 -2.38156509750356 3.3182433903789601 0 3.3182433903789601 3.2186332508871165 0 0 0 0 1.1087877877332772 4.641912856013505 0 4.641912856013505 -1.9829475679653115 0 0 0 0 -0.69443171963051931 -0.15367349159364752 0 -0.15367349159364752 1.2052146054166499 0 0 0 0 0.0052018464787124685 -1.7334484364888283 0 -1.7334484364888283 13.285680656531667 0 0 0 0 -33.347155556139569 5.8667312059606047 0 5.8667312059606047 63.335300367500167 0 0 0 0 -28.119578004012737 -14.13563159189016 0 -14.13563159189016 21.15913659443504 0 0 0 0 -1.8598052366412594 1.3675648142751644 0 1.3675648142751644 1.9374560001638765 0 0 0 0 -5.4589924720455656 -11.683878406001895 0 -11.683878406001895 5.8015833634519822 0 0 0 0 -1.4276682907587315 0.95995457376966442 0 0.95995457376966442 8.8962279747738648 0 0 0 0 -1.1381942907425997 2.1870140119050547 0 2.1870140119050547 1.8986085387070766 0 0 0 0 8.2230882144131101 -5.1032204238217673 0 -5.1032204238217673 8.0080382544074382 0 0 0 0 16.218896033937654 10.966593215672901 0 10.966593215672901 -7.4342229030335147 0 0 0 0 -11.854674332858806 3.6920160991206217 0 3.6920160991206217 33.21937778553729 0 0 0 0 -11.559042042991095 2.5567528916803894 0 2.5567528916803894 5.099292120528844 0 0 0 0 -2.4517291290816416 8.8793073078242912 0 8.8793073078242912 2.5549563011409191 0 0 0 0 -1.9948418017222593 13.664195969458888 0 13.664195969458888 14.980406553416287 0 0 0 0 -10.742294245890292 15.610476529247421 0 15.610476529247421 23.572216127835418 0 0 0 0 -10.391410834842418 17.09990726547403 0 17.09990726547403 16.282132242688022 0 0 0 0 -15.131777599886163 21.017925310040482 0 21.017925310040482 18.813947717841984 0 0 0 0 -14.519924769143245 17.793104012463118 0 17.793104012463118 17.67607501434577 0 0 0 0 0.40758482222320086 -1.2036788974763 0 -1.2036788974763 0.014601454736752117 0 0 0 0 -9.3099681607179718 26.33285646209697 0 26.33285646209697 28.04103780125206 0 0 0 0 29.332204386510398 24.933045058987318 0 24.933045058987318 18.545802831809851 0 0 0 0 8.1113014692939487 17.028811514372137 0 17.028811514372137 17.20144786226092 0 0 0 0 13.272043848181454 -3.9378502415943331 0 -3.9378502415943331 6.4084332650418219 0 0 0 0 -30.819637145446904 11.003125518256638 0 11.003125518256638 16.81426922659648 0 0 0 0 1.7544174807003401 33.670679401921916 0 33.670679401921916 49.285267714363727 0 0 0 0 -18.403255494281211 16.309607892398162 0 16.309607892398162 35.118649038295189 0 0 0 0 -16.442030883606094 14.339272712908041 0 14.339272712908041 24.560332743966683 0 0 0 0 -2.5748354372660671 3.1273251255979631 0 3.1273251255979631 14.407086753567455 0 0 0 0 -1.7660070352080766 4.551919155921496 0 4.551919155921496 11.04075526392262 0 0 0 0 -1.8018283040315572 1.9798880493449253 0 1.9798880493449253 2.0074378376748454 0 0 0 0 1.5287262461913542 2.3878435422766415 0 2.3878435422766415 4.1605173650359575 0 0 0 0 4.9186938639209075 5.5206024894860093 0 5.5206024894860093 5.8453286710109751 0 0 0 0 -2.0348735544259311 1.7852113774186806 0 1.7852113774186806 -0.058907715115598114 0 0 0 0 -2.7718372932951212 2.8759906779666835 0 2.8759906779666835 9.5381017415002134 0 0 0 0 -0.038633786620636101 0.11361275672277316 0 0.11361275672277316 23.018387864398392 0 0 0 0 -44.39986801294981 19.371372833022178 0 19.371372833022178 27.258516216529642 0 0 0 0 -0.19515287844320772 0.12893484695368596 0 0.12893484695368596 -0.055465059470950706 0 0 0 0 -31.35915185772501 -2.8446821942170573 0 -2.8446821942170573 11.619031460348197 0 0 0 0 -36.961224789976768 69.873363735404382 0 69.873363735404382 -15.418451023965645 0 0 0 0 -14.621828770617412 -10.107986646908103 0 -10.107986646908103 -3.1453560545132859 0 0 0 0 8.3030867171148657 19.06483132117819 0 19.06483132117819 10.920006701900547 0 0 0 0 4.4496212176372865 4.5478505865121406 0 4.5478505865121406 -2.407540139030516 0 0 0 0 -13.323013048620396 9.4786962046050576 0 9.4786962046050576 7.2123845639998763 0 0 0 0 -10.581374696165199 -1.2094932610111755 0 -1.2094932610111755 4.690527320441106 0 0 0 0 -8.8816664197170212 0.54336311047154595 0 0.54336311047154595 3.0491114703891071 0 0 0 0 -2.9508533484271311 0.42807975710366009 0 0.42807975710366009 2.0314467394273379 0 0 0 0 -4.6548379421776644 2.0340879050618241 0 2.0340879050618241 5.6314948048529914 0 0 0 0 -2.9868758673405864 -2.5707078532368541 0 -2.5707078532368541 -2.1525473348096966 0 0 0 0 -0.478264467184772 0.7957830421937615 0 0.7957830421937615 1.747031343067647 0 0 0 0 -1.192387155282546 0.25789563826310768 0 0.25789563826310768 2.522102884369815 0 0 0 0 -1.3895347760454797 -1.3108755695807304 0 -1.3108755695807304 4.0837620662136942 0 0 0 0 -1.4215200551898306 2.1120967468702929 0 2.1120967468702929 2.4429800846346552 0 0 0 0 -0.67726655698495986 0.54036526832693266 0 0.54036526832693266 0.62820208248312781 0 0 0 0 0.15431305231523673 0.17948680751632207 0 0.17948680751632207 0.67782770219264066 0 0 0 0 -2.2547807583947588 1.6296370955033126 0 1.6296370955033126 2.4126559945170811 0 0 0 0 0.097366401338149444 2.4559375620519859 0 2.4559375620519859 4.1597833006426299 0 0 0 0 -0.22106926767085611 4.5489450017539639 0 4.5489450017539639 2.5756201963122294 0 0 0 0 -0.19875299012677727 -0.23880546941363745 0 -0.23880546941363745 0.88094242443440862 0 0 0 0 2.9495198445615642 -2.3435368732161805 0 -2.3435368732161805 3.5999190299467045 0 0 0 0 21.932517148186207 28.386720937032351 0 28.386720937032351 24.503174139966177 0 0 0 0 11.246237730800658 20.535018700227283 0 20.535018700227283 32.365521590776552 0 0 0 0 0.19047641713825758 0.04204157178649659 0 0.04204157178649659 -0.0036836592627125242 0 0 0 0 5.1407046364496409 12.457091354703607 0 12.457091354703607 40.002477998742506 0 0 0 0 -10.325205278052408 3.03934877277743 0 3.03934877277743 38.556649794341411 0 0 0 0 -1.0624797104203481 10.65267227487459 0 10.65267227487459 27.523334155106568 0 0 0 0 8.6854339321632779 -12.165619106092436 0 -12.165619106092436 47.289777751247811 0 0 0 0 1.3582970120033906 19.955322183789121 0 19.955322183789121 61.962870981280503 0 0 0 0 0.058231436964446881 0.12658361664372442 0 0.12658361664372442 0.22344737918504265 0 0 0 0 -36.850939052216404 -2.6288290834240797 0 -2.6288290834240797 20.168961540749933 0 0 0 0 -27.698884801937766 9.2034949753924593 0 9.2034949753924593 -3.5829622145174653 0 0 0 0 -0.095299982210404366 -0.42351692441840516 0 -0.42351692441840516 1.7280882891844764 0 0 0 0 -12.313235610476568 -15.108643420113367 0 -15.108643420113367 6.9346479371142777 0 0 0 0 -21.368280832984283 2.8236149011099769 0 2.8236149011099769 1.8497982069420686 0 0 0 0 -16.400640960032433 25.686813123650609 0 25.686813123650609 6.323617402706077 0 0 0 0 -19.360774666613679 12.968248576359315 0 12.968248576359315 25.023558962486277 0 0 0 0 -8.1919386135807599 19.697018976698018 0 19.697018976698018 12.722123229059434 0 0 0 0 -7.051503654944554 17.384133729008681 0 17.384133729008681 16.255905049290732 0 0 0 0 -2.7396473760041999 25.177844535383883 0 25.177844535383883 29.040460502369569 0 0 0 0 -7.1534692626075866 2.0160096392469313 0 2.0160096392469313 35.233012543207678 0 0 0 0 -8.9347183184479491 7.7279745402811386 0 7.7279745402811386 18.423004668763951 0 0 0 0 -8.8592890096243764 -1.4610407758859765 0 -1.4610407758859765 10.572214219384932 0 0 0 0 -30.522014314040348 7.5215508301012051 0 7.5215508301012051 25.545668169077544 0 0 0 0 -0.4429912729446972 -1.363967494861499 0 -1.363967494861499 12.138222781188924 0 0 0 0 -36.507524019155994 -13.034847472822776 0 -13.034847472822776 21.297854560471251 0 0 0 0 -60.950732074205945 -31.035478903402421 0 -31.035478903402421 23.674699080234404 0 0 0 0 -0.13097964250557803 -0.7268282512644042 0 -0.7268282512644042 12.308504257760735 0 0 0 0 -8.4672858038973686 -4.1618986368264359 0 -4.1618986368264359 8.58711933066661 0 0 0 0 8.3303857752956674 -10.631386466614458 0 -10.631386466614458 28.043447495319015 0 0 0 0 23.803984301035939 2.2637670726253418 0 2.2637670726253418 30.307872731662428 0 0 0 0 -4.0037215080470787 -13.175542537645697 0 -13.175542537645697 23.548154958782618 0 0 0 0 3.6567514432016424 -0.16492092178668827 0 -0.16492092178668827 20.656608481109288 0 0 0 0 8.8885386958313006 -3.823628266765013 0 -3.823628266765013 12.973809247467671 0 0 0 0 6.661558910893973 -12.3147133389391 0 -12.3147133389391 9.1750313572642881 0 0 0 0 -1.7101227312925857 -8.0961810149460689 0 -8.0961810149460689 7.1663060527221205 0 0 0 0 2.3365708585925518 -9.1584704692843388 0 -9.1584704692843388 5.6715920933525013 0 0 0 0 8.0540933683671483 -3.2374935880146722 0 -3.2374935880146722 -0.64189689712975451 0 0 0 0 -79.024775235231715 -19.410887307236678 0 -19.410887307236678 38.409210092971307 0 0 0 0 -0.2672919149749246 -0.51207976180891102 0 -0.51207976180891102 11.474308157858278 0 0 0 0 -18.999974699479594 -13.576174367168051 0 -13.576174367168051 11.026726812743277 0 0 0 0 -1.9130508877681791 -6.1979202290002462 0 -6.1979202290002462 6.7320599463728286 0 0 0 0 9.8073595720887852 29.699225596399515 0 29.699225596399515 4.7448158192809728 0 0 0 0 23.56832741934727 38.918508987256587 0 38.918508987256587 36.462031530773629 0 0 0 0 3.3324449904148423 34.711323623441729 0 34.711323623441729 51.85189200927698 0 0 0 0 -14.557920732855564 27.142086897175147 0 27.142086897175147 45.77163633764701 0 0 0 0 0.011541262617413395 -13.755020204977825 0 -13.755020204977825 99.760723789037286 0 0 0 0 42.352825002656914 -0.41499811385790508 0 -0.41499811385790508 33.383706322363196 0 0 0 0 35.565269606684765 -12.874359104441339 0 -12.874359104441339 83.158132197477016 0 0 0 0 18.226716374293801 16.024773691618577 0 16.024773691618577 67.071267874405294 0 0 0 0 29.669220228377867 24.579766990853329 0 24.579766990853329 70.128314549193192 0 0 0 0 11.353177102734662 23.380402855150123 0 23.380402855150123 130.83854622547108 0 0 0 0 -3.1621922577554642 16.828496685078733 0 16.828496685078733 146.85770323866177 0 0 0 0 22.429283851121596 31.542072477941929 0 31.542072477941929 131.89148873091881 0 0 0 0 9.1163052075612825 2.4590515239077035 0 2.4590515239077035 91.178199708696638 0 0 0 0 1.4955507958933367 16.763149273778424 0 16.763149273778424 79.01852789037838 0 0 0 0 1.0627933820068798 -0.6234361221031488 0 -0.6234361221031488 0.54108706844179011 0 0 0 0 9.9303303423366174 -15.990259412551154 0 -15.990259412551154 30.943042099262129 0 0 0 0 1.2632732251031049 0.10400923949067842 0 0.10400923949067842 0.40294726611143072 0 0 0 0 13.143331005012556 8.7506094555910749 0 8.7506094555910749 16.151300200132596 0 0 0 0 0.11741108011131018 -1.2504608546782379 0 -1.2504608546782379 1.8585787683779245 0 0 0 0 0.75262320522869253 -0.70280800564631241 0 -0.70280800564631241 0.64236869576242261 0 0 0 0 0.081984482861003016 -1.1330658938156262 0 -1.1330658938156262 2.2619825269777891 0 0 0 0 6.7725805987078047 -5.7690451429893983 0 -5.7690451429893983 4.864832522113204 0 0 0 0 2.6450832978161998 0.094390536000105385 0 0.094390536000105385 -0.10928144343392887 0 0 0 0 0.18242238687378398 -0.15092238230417721 0 -0.15092238230417721 0.25220011599508085 0 0 0 0 -2.6755397743603453 -17.151187893363613 0 -17.151187893363613 0.74072763762603699 0 0 0 0 -3.890154228263782 -12.049466044943699 0 -12.049466044943699 -4.0736615330476411 0 0 0 0 -4.6472895222303805 -46.075545440216729 0 -46.075545440216729 16.67540535884595 0 0 0 0 43.735143925842067 -16.336244376972502 0 -16.336244376972502 -7.2722688543760796 0 0 0 0 0.32096791831221738 -0.32166537821992458 0 -0.32166537821992458 0.29966845766166195 0 0 0 0 29.75285003745455 11.321480340131984 0 11.321480340131984 -0.74955963607015974 0 0 0 0 2.7357115326127257 14.346973241218166 0 14.346973241218166 34.693934791273477 0 0 0 0 7.6409145904949742 16.203472876054377 0 16.203472876054377 31.899812935551381 0 0 0 0 0.21791211583166614 8.2663048135768804 0 8.2663048135768804 31.050423928351734 0 0 0 0 6.1472156705095244 11.107268869730433 0 11.107268869730433 30.108471535328817 0 0 0 0 -4.0381673917007106 13.190264094740314 0 13.190264094740314 35.520595485315653 0 0 0 0 -0.66212009430100205 -6.3933610816922357 0 -6.3933610816922357 6.9141877600798214 0 0 0 0 3.5853663865021765 -13.257851463217321 0 -13.257851463217321 -3.089571024696852 0 0 0 0 6.5022564587372784 -1.1646515750344406 0 -1.1646515750344406 -0.83936860634094046 0 0 0 0 2.9479020470086681 0.59053091968735316 0 0.59053091968735316 10.354877540012239 0 0 0 0 6.5807723485550866 -7.7311085459659807 0 -7.7311085459659807 -0.67709301649483677 0 0 0 0 -15.606758332497179 -9.5668582516752849 0 -9.5668582516752849 22.610377738906209 0 0 0 0 -11.422902914428306 -11.157027669351464 0 -11.157027669351464 23.018287300566953 0 0 0 0 0.26917479938462441 -6.950142075598702 0 -6.950142075598702 7.4398414704156277 0 0 0 0 10.658048848583025 -27.377886684525947 0 -27.377886684525947 20.383386831506868 0 0 0 0 -37.81738682229188 -31.041161618745718 0 -31.041161618745718 20.322939736719036 0 0 0 0 18.898822712837585 9.3067970003362461 0 9.3067970003362461 14.640379228907477 0 0 0 0 34.82502412025287 20.734677848275169 0 20.734677848275169 25.384752667788689 0 0 0 0 28.287826078976373 20.766094158085593 0 20.766094158085593 25.631559137988916 0 0 0 0 9.8059214429423633 19.143476898149856 0 19.143476898149856 70.913772838680416 0 0 0 0 86.748932828098404 93.058004351477393 0 93.058004351477393 125.30380095311557 0 0 0 0 0.6914738066084567 -6.4733399657725386 0 -6.4733399657725386 127.00388049805588 0 0 0 0 21.190691147119505 3.8460481139057947 0 3.8460481139057947 66.159766699041938 0 0 0 0 18.309003752595544 -2.4743043451444464 0 -2.4743043451444464 26.485869428677688 0 0 0 0 5.14622752550315 -24.654396202118733 0 -24.654396202118733 73.348783114044636 0 0 0 0 19.197425771416945 -5.6266872167184374 0 -5.6266872167184374 50.158805827104516 0 0 0 0 23.282579944532984 -16.971375894804623 0 -16.971375894804623 43.412098640086697 0 0 0 0 20.465064960529332 -4.0589689031651801 0 -4.0589689031651801 38.84701844645133 0 0 0 0 16.775036347657846 -10.927092644224103 0 -10.927092644224103 41.411539575279676 0 0 0 0 -1.6604653850751936 -0.53602622625013829 0 -0.53602622625013829 4.5150975761216579 0 0 0 0 24.092532599892365 19.4359188887247 0 19.4359188887247 13.476560516804966 0 0 0 0 -194.66728621244522 -61.604738283010192 0 -61.604738283010192 197.86428197749956 0 0 0 0 255.01885963263919 -72.806621461315444 0 -72.806621461315444 -119.09157093235626 0 0 0 0 8.2554559126218123 -20.774911130376495 0 -20.774911130376495 12.297738675828441 0 0 0 0 5.5383618321725052 -23.095584792380123 0 -23.095584792380123 51.329098270682152 0 0 0 0 18.000067037364573 -15.876140040176324 0 -15.876140040176324 19.032110196470967 0 0 0 0 0.70755438777054402 -0.85773710401801484 0 -0.85773710401801484 1.5917000929688996 0 0 0 0 11.360200004610874 72.453582824494333 0 72.453582824494333 95.853064538860963 0 0 0 0 14.006178931828686 -1.3452923037966684 0 -1.3452923037966684 -5.4715380641669924 0 0 0 0 11.410446300655167 5.3664272330861422 0 5.3664272330861422 -5.5507208343451566 0 0 0 0 20.077249193405805 0.16737870348242723 0 0.16737870348242723 3.5789212583795234 0 0 0 0 12.361663159686145 1.9772173037490575 0 1.9772173037490575 4.3737645594775074 0 0 0 0 16.878649385384335 -6.6539557275646075 0 -6.6539557275646075 4.2381006373088894 0 0 0 0 17.876953100594335 -2.0511818866370959 0 -2.0511818866370959 15.136861314374983 0 0 0 0 7.749400069173987 6.3763996268453411 0 6.3763996268453411 5.2271353344056024 0 0 0 0 15.517173158192037 1.7078433243077598 0 1.7078433243077598 6.123569729816154 0 0 0 0 5.3555437107377202 1.1723718483344783 0 1.1723718483344783 6.1564410216583383 0 0 0 0 -17.332676328496063 5.3680142992020592 0 5.3680142992020592 5.3814499440804866 0 0 0 0 14.278766509198277 -1.1727952832279698 0 -1.1727952832279698 20.183778587947018 0 0 0 0 17.390106662713709 -7.0278127577682881 0 -7.0278127577682881 17.95740251267307 0 0 0 0 24.849589989026533 -7.2220385256969166 0 -7.2220385256969166 11.56089133752721 0 0 0 0 16.233879794641069 -0.29348284127809166 0 -0.29348284127809166 11.434080707629704 0 0 0 0 21.107021631194215 -0.76380522924091565 0 -0.76380522924091565 6.6033949835236854 0 0 0 0 14.950082094952961 0.051275576805892342 0 0.051275576805892342 8.0506484829611509 0 0 0 0 13.781158450067522 -0.74352792521312949 0 -0.74352792521312949 10.416666597806852 0 0 0 0 15.394895201164111 -3.2899199837329434 0 -3.2899199837329434 9.1425093085822482 0 0 0 0 13.937887430997705 -3.4115234703049282 0 -3.4115234703049282 8.4586455990761351 0 0 0 0 4.7308700018048739 1.6243975044808394 0 1.6243975044808394 17.86647775535539 0 0 0 0 11.571259278025678 -6.7417473534080727 0 -6.7417473534080727 26.317218137264717 0 0 0 0 8.7146460972091582 12.037499973971478 0 12.037499973971478 31.872478559630508 0 0 0 0 1.958836296597525 6.532820672903199 0 6.532820672903199 39.743296714241751 0 0 0 0 2.3947067730852041 7.9020551938935455 0 7.9020551938935455 17.279607464807668 0 0 0 0 -7.8411500644850776 12.056550568896455 0 12.056550568896455 30.621512035458181 0 0 0 0 -6.0248838457455065 2.3229735465920385 0 2.3229735465920385 13.249195462728494 0 0 0 0 2.6945355742457764 -3.9619909973017116 0 -3.9619909973017116 17.594878739340857 0 0 0 0 -5.7325083171315327 -2.5932526194574166 0 -2.5932526194574166 -9.9439065053320519 0 0 0 0 -24.204894575933793 13.615383307995899 0 13.615383307995899 15.395865944307388 0 0 0 0 -8.9545799432513604 -0.16925535792779556 0 -0.16925535792779556 17.452581445682654 0 0 0 0 -33.992892908773285 -8.8350046163736806 0 -8.8350046163736806 15.838069963885573 0 0 0 0 -6.9264747252608743 5.9509347748301593 0 5.9509347748301593 18.794715997282765 0 0 0 0 -4.2717250359065133 -8.4093215974853592 0 -8.4093215974853592 4.0734310183577804 0 0 0 0 0.10640244330390836 -0.20828271647278029 0 -0.20828271647278029 -0.32833247942882871 0 0 0 0 -4.0006717380571786 -10.67581231177337 0 -10.67581231177337 -17.158153612044316 0 0 0 0 8.4733763990956277 -4.8010822252197158 0 -4.8010822252197158 4.923775755933093 0 0 0 0 -1.2638870534673288 -9.0659245280924097 0 -9.0659245280924097 16.963148060962794 0 0 0 0 -6.1340601686252256 5.6184541239197188 0 5.6184541239197188 27.152337914875716 0 0 0 0 2.6641243235426373 12.561971621936209 0 12.561971621936209 45.455503414722443 0 0 0 0 -10.632637129961608 -0.040361235390037109 0 -0.040361235390037109 33.584436386424841 0 0 0 0 11.311818923886449 3.4857672545081186 0 3.4857672545081186 26.664033085409756 0 0 0 0 11.74399980728208 -5.3802120296059002 0 -5.3802120296059002 35.028000132858779 0 0 0 0 -20.824592272683617 4.514402540987021 0 4.514402540987021 33.079108278829608 0 0 0 0 -12.140812728089088 7.6451216333555294 0 7.6451216333555294 33.999062765375356 0 0 0 0 -2.8594031076612225 3.7301548835575886 0 3.7301548835575886 35.325199547110515 0 0 0 0 -3.4957411049613913 -5.2382246039470965 0 -5.2382246039470965 6.3117754034599596 0 0 0 0 -11.303956003298765 2.6215400698908411 0 2.6215400698908411 25.697648387752452 0 0 0 0 -12.622031036006433 -2.0815122411231641 0 -2.0815122411231641 32.738437340627343 0 0 0 0 -6.1441350632410376 -3.4467040090084993 0 -3.4467040090084993 18.367020599380339 0 0 0 0 -7.6052290126491471 -4.8559622650705023 0 -4.8559622650705023 17.344525975216129 0 0 0 0 8.7419952458944294 5.2642732485981014 0 5.2642732485981014 58.496004909811745 0 0 0 0 -8.2758833377921803 -8.4019902257282411 0 -8.4019902257282411 63.881177188958645 0 0 0 0 -9.3696604741032843 -8.8008194862386517 0 -8.8008194862386517 55.514049271331714 0 0 0 0 -4.952226313254755 4.4790604124727906 0 4.4790604124727906 18.806295138057976 0 0 0 0 10.251483897107278 -16.777153111693906 0 -16.777153111693906 1.8627245249595035 0 0 0 0 8.0916119954634382 -20.018620838709467 0 -20.018620838709467 17.803354595789642 0 0 0 0 -4.4974880193653526 -3.8616185457309768 0 -3.8616185457309768 7.0432169243697995 0 0 0 0 3.9120568596911198 6.0237329225390113 0 6.0237329225390113 13.04589550847777 0 0 0 0 -0.62624074952265663 -1.0407551557643566 0 -1.0407551557643566 0.27959807157258254 0 0 0 0 -3.8665018932636737 -0.48648967619055838 0 -0.48648967619055838 6.2695278329738358 0 0 0 0 -1.8668971259310396 0.14590755758235097 0 0.14590755758235097 8.2828240511182152 0 0 0 0 1.7851175920825426 0.25895888971626846 0 0.25895888971626846 11.691905290676004 0 0 0 0 -2.273874876785158 0.11133180087963268 0 0.11133180087963268 6.3569331012879076 0 0 0 0 -0.90214568530070149 0.74231053331896035 0 0.74231053331896035 4.0356078103047253 0 0 0 0 -1.0395141211421906 -0.06460828066536628 0 -0.06460828066536628 3.9843795906234121 0 0 0 0 -1.1719991590362042 -0.25014707312038809 0 -0.25014707312038809 2.2384603517330106 0 0 0 0 -0.17116613134498748 0.2693621354285991 0 0.2693621354285991 2.5706948637534524 0 0 0 0 1.2444236401035482 -3.5617827685445036 0 -3.5617827685445036 1.7192285676701431 0 0 0 0 -0.95873511407520762 -0.075868960455100165 0 -0.075868960455100165 3.8904414077066285 0 0 0 0 -1.8131342143765252 -0.74229550201403072 0 -0.74229550201403072 4.4458647531464521 0 0 0 0 -5.2719426241401379 2.8419227174135813 0 2.8419227174135813 12.747888878562549 0 0 0 0 -1.029277390542461 -1.028122302290285 0 -1.028122302290285 13.46871527879739 0 0 0 0 0.20092243250753405 0.6799430551977661 0 0.6799430551977661 1.9678365984751061 0 0 0 0 -7.1677923156616998 -10.347025284907431 0 -10.347025284907431 23.335611422847251 0 0 0 0 -1.1392660434389654 4.3063389857506991 0 4.3063389857506991 6.2303604154731147 0 0 0 0 -8.6983251975716485 1.310981755676039 0 1.310981755676039 26.963436258472939 0 0 0 0 -0.26009605538132519 3.0077429506800399 0 3.0077429506800399 13.869689358586584 0 0 0 0 1.0099619846085892 3.8255251327031656 0 3.8255251327031656 7.03241568180988 0 0 0 0 6.8929759192012625 -0.2158404183383027 0 -0.2158404183383027 16.739757438775996 0 0 0 0 2.5445949751192529 10.692862175026676 0 10.692862175026676 15.788719291105735 0 0 0 0 -1.2469450252750169 3.2251143469662793 0 3.2251143469662793 3.6054466049899929 0 0 0 0 0.23111117243953627 0.88259259779174748 0 0.88259259779174748 3.0324785651298498 0 0 0 0 -13.868269300573502 -4.9914585918977536 0 -4.9914585918977536 10.300528282858977 0 0 0 0 -0.649446520964716 1.9468376498316502 0 1.9468376498316502 5.2870475681102107 0 0 0 0 -0.98528861378704358 3.6273841601501911 0 3.6273841601501911 12.395682745933568 0 0 0 0 -0.93026585272231221 0.48796122358022909 0 0.48796122358022909 8.3604641134240012 0 0 0 0 -0.082482945179615977 2.1665165463828355 0 2.1665165463828355 7.5933266564464965 0 0 0 0 -0.083814175596794271 1.4826721385534256 0 1.4826721385534256 4.8438533573462337 0 0 0 0 -2.0853879079833697 3.6782455651675243 0 3.6782455651675243 5.5270896828960154 0 0 0 0 -3.0026926610136044 4.0735013898620309 0 4.0735013898620309 6.5398448103906048 0 0 0 0 -2.4681034171526335 2.0784720198321338 0 2.0784720198321338 7.0646867453797313 0 0 0 0 -2.451592974166374 3.2786211612014995 0 3.2786211612014995 9.9248616333770769 0 0 0 0 -0.3601607225870852 2.0318477555756376 0 2.0318477555756376 4.8664208617627054 0 0 0 0 -11.336091845334522 -0.53854235688868357 0 -0.53854235688868357 16.756620772112001 0 0 0 0 -10.010418074739846 -4.3111900416167828 0 -4.3111900416167828 22.000254779628449 0 0 0 0 -2.4383172211556143 1.974032916536089 0 1.974032916536089 14.715719818816069 0 0 0 0 -9.8667534384744613 2.7886474991501018 0 2.7886474991501018 14.873849393629825 0 0 0 0 -8.2899819138079067 -0.68567289112661456 0 -0.68567289112661456 11.424882796502061 0 0 0 0 -8.909956841894541 11.84232431111559 0 11.84232431111559 -7.3416971578590164 0 0 0 0 -15.344991841231035 7.7662307205355319 0 7.7662307205355319 9.2684987154171949 0 0 0 0 -5.292242800296755 2.1167616368819324 0 2.1167616368819324 7.6931041299048957 0 0 0 0 -9.5047999651276314 6.3327812269303649 0 6.3327812269303649 14.203661319229013 0 0 0 0 -12.110335651619152 0.84811466905011912 0 0.84811466905011912 4.2923792501451317 0 0 0 0 -8.4581382011946857 2.7181821621134077 0 2.7181821621134077 24.723844723270304 0 0 0 0 -2.7786694444348541 2.4865422538823623 0 2.4865422538823623 31.761726887011719 0 0 0 0 2.9337351907633433 15.362835861031272 0 15.362835861031272 36.365695856467937 0 0 0 0 3.1149444279141676 16.103885211474335 0 16.103885211474335 27.872706513996491 0 0 0 0 1.6152633737539759 -2.4561614633075806 0 -2.4561614633075806 32.062513452645362 0 0 0 0 -0.14193354331321473 7.7520510477206699 0 7.7520510477206699 41.07059192448105 0 0 0 0 -2.1545969500540139 -7.0183903793686113 0 -7.0183903793686113 36.601441845870795 0 0 0 0 -3.6732320382249668 5.3839931327029262 0 5.3839931327029262 23.441902353775731 0 0 0 0 -7.3948811464182995 -6.5760442128294017 0 -6.5760442128294017 27.977742215962735 0 0 0 0 -7.4672054401040242 -5.3857138123414643 0 -5.3857138123414643 19.366441010828567 0 0 0 0 -7.7383564938228631 -4.4073014760997467 0 -4.4073014760997467 18.504114076734368 0 0 0 0 -3.2351712176504748 -2.9374463313602064 0 -2.9374463313602064 23.127268162306791 0 0 0 0 1.2717099735959323 -11.472006194938331 0 -11.472006194938331 16.244954005998807 0 0 0 0 -7.4046688261902887 -10.259424661724097 0 -10.259424661724097 16.738518030031628 0 0 0 0 -3.4496788085847356 -12.925642405634335 0 -12.925642405634335 3.4305565247368577 0 0 0 0 -2.0666184640050296 -5.7995791013421929 0 -5.7995791013421929 6.7572025919546164 0 0 0 0 8.2326198482562489 -1.8675242235490259 0 -1.8675242235490259 9.1632156160794693 0 0 0 0 10.239443886875378 -8.4515081496774656 0 -8.4515081496774656 11.347859802703169 0 0 0 0 1.1538930016405935 -2.5117740883720217 0 -2.5117740883720217 8.0129129083397856 0 0 0 0 -0.14890940196859859 -9.0040593201256343 0 -9.0040593201256343 25.01701547630546 0 0 0 0 3.6280358998311044 -5.396511846375688 0 -5.396511846375688 23.672243513638023 0 0 0 0 8.8038491647393151 -8.6992365133762632 0 -8.6992365133762632 22.040496946528947 0 0 0 0 21.794326654418867 4.2039666863747698 0 4.2039666863747698 11.824664635712907 0 0 0 0 16.247758039990892 -4.8106010793007954 0 -4.8106010793007954 22.779084517912452 0 0 0 0 29.32772099163962 3.9594645362573146 0 3.9594645362573146 26.826292313908198 0 0 0 0 105.15799602592324 -14.33092919705814 0 -14.33092919705814 -28.528492231562268 0 0 0 0 27.257414514206289 -11.271918154572631 0 -11.271918154572631 60.534992971995962 0 0 0 0 19.239205239746205 -6.9899083134478133 0 -6.9899083134478133 41.170664194934943 0 0 0 0 25.072290258688483 -18.301989638127225 0 -18.301989638127225 42.319024415912281 0 0 0 0 5.2736720969353144 -2.5083310420968701 0 -2.5083310420968701 62.786146258587905 0 0 0 0 28.36748871757726 -22.892362356056765 0 -22.892362356056765 63.21752923033273 0 0 0 0 7.9871141420691565 -1.6001785287867278 0 -1.6001785287867278 58.799069575081376 0 0 0 0 7.6827143642134956 -0.15554112675908982 0 -0.15554112675908982 71.207831559131591 0 0 0 0 12.659491165783493 -1.4441769967525033 0 -1.4441769967525033 69.681119075485185 0 0 0 0 15.673892589714427 -18.761317776421492 0 -18.761317776421492 98.660357990635021 0 0 0 0 7.9855529816627788 -5.8054519483228546 0 -5.8054519483228546 83.558564366823703 0 0 0 0 10.963679601839321 -73.582868795567435 0 -73.582868795567435 119.48684475521441 0 0 0 0 82.963237827161734 -28.806494481248706 0 -28.806494481248706 65.235226187200169 0 0 0 0 -1.1217019220378741 1.5734060587445633 0 1.5734060587445633 3.0291760064165256 0 0 0 0 88.372194134728687 -82.485540617807374 0 -82.485540617807374 85.612635288074671 0 0 0 0 2.3559423803366712 1.3212485764333906 0 1.3212485764333906 42.541068566193644 0 0 0 0 6.471730634390525 -12.531070332298441 0 -12.531070332298441 40.497937572983574 0 0 0 0 5.4271901533550242 -3.3106265137716377 0 -3.3106265137716377 48.396173723791435 0 0 0 0 0.88521504929414618 7.3015407509838042 0 7.3015407509838042 40.662750949508336 0 0 0 0 4.3831040551174567 12.929532193890736 0 12.929532193890736 49.713650359797612 0 0 0 0 4.4365791687485006 11.176403041043159 0 11.176403041043159 58.377680686495296 0 0 0 0 9.4569504780421312 22.163440806758445 0 22.163440806758445 36.994156741577171 0 0 0 0 13.269778751098162 30.107852034145253 0 30.107852034145253 52.761382964773475 0 0 0 0 8.3155141452517114 21.119395937397712 0 21.119395937397712 42.443715620516514 0 0 0 0 -25.118196717269939 4.3507925463491119 0 4.3507925463491119 122.89947163222678 0 0 0 0 -2.3997992275690194 1.902660094505336 0 1.902660094505336 86.662927023455268 0 0 0 0 8.5225947659262147 26.286943070508642 0 26.286943070508642 73.55966191991638 0 0 0 0 4.6321268657098535 9.9525590227312932 0 9.9525590227312932 74.304809882905829 0 0 0 0 3.6880061688593004 13.571903840491359 0 13.571903840491359 69.948765615932643 0 0 0 0 4.2232910109376114 12.295654955043574 0 12.295654955043574 62.765753995845444 0 0 0 0 11.468278017082106 32.738877172213506 0 32.738877172213506 56.198795648475425 0 0 0 0 8.0903663069040306 21.129827621845834 0 21.129827621845834 48.393375048530288 0 0 0 0 2.1597216474453376 38.508066356362178 0 38.508066356362178 57.965736699828994 0 0 0 0 -0.80743573667811575 52.874325530326132 0 52.874325530326132 110.63316411531196 0 0 0 0 22.962699140065638 46.44308258162755 0 46.44308258162755 35.147132930564112 0 0 0 0 35.648051522751814 27.560733588428775 0 27.560733588428775 31.276986166390088 0 0 0 0 25.624130377374762 32.503163358737766 0 32.503163358737766 29.506032673089976 0 0 0 0 29.413289619096908 35.351389642632057 0 35.351389642632057 33.736679402757773 0 0 0 0 24.73516610334492 28.800179526693682 0 28.800179526693682 36.628138034152471 0 0 0 0 17.096658697383717 24.619385564115419 0 24.619385564115419 31.89936272561863 0 0 0 0 24.357235613587108 30.42655939850556 0 30.42655939850556 32.383669939978063 0 0 0 0 23.289739006487558 25.963720642353223 0 25.963720642353223 31.856528894659277 0 0 0 0 13.591551082945784 26.290829736055457 0 26.290829736055457 38.583364280184469 0 0 0 0 13.29927115435766 21.844054670342359 0 21.844054670342359 31.711822436511284 0 0 0 0 -0.6765380392462248 15.818075969860729 0 15.818075969860729 31.949535043608194 0 0 0 0 4.6760802593593098 19.981920297689612 0 19.981920297689612 27.9596240511828 0 0 0 0 -12.146211910039185 17.38708167040312 0 17.38708167040312 31.633489654486766 0 0 0 0 5.1499111155481501 18.132664588677471 0 18.132664588677471 31.46802104759081 0 0 0 0 -4.2932361852439271 31.562486280304256 0 31.562486280304256 30.439254866926603 0 0 0 0 0.015434914577099335 15.901401261804494 0 15.901401261804494 7.5378002586430739 0 0 0 0 -11.230744010418107 24.452150600272034 0 24.452150600272034 50.791916506888811 0 0 0 0 -9.8605715861425551 13.07080206910905 0 13.07080206910905 47.298771865733897 0 0 0 0 25.890390905424567 20.923972475754908 0 20.923972475754908 2.20810201893255 0 0 0 0 15.985995148125909 26.44763119939762 0 26.44763119939762 29.468648780900139 0 0 0 0 10.095400322207411 17.816043016550793 0 17.816043016550793 26.891842345153691 0 0 0 0 -4.5773841151913572 -0.75124323044917674 0 -0.75124323044917674 7.2179076647389593 0 0 0 0 -0.12252639921225417 0.0052675217732964796 0 0.0052675217732964796 0.3075995400663345 0 0 0 0 3.8192598585865198 26.691881211781947 0 26.691881211781947 10.797793910269831 0 0 0 0 10.993638984438476 -1.3978875014125833 0 -1.3978875014125833 12.6912232505465 0 0 0 0 -0.48688375608016687 0.044821581513293296 0 0.044821581513293296 -0.246421653512229 0 0 0 0 15.208568565107171 43.806859541531594 0 43.806859541531594 42.357829817651691 0 0 0 0 30.057158487615027 24.030847581808302 0 24.030847581808302 12.131263824199777 0 0 0 0 36.180426252824788 21.4034478757535 0 21.4034478757535 11.455365451227806 0 0 0 0 -0.29348803653115396 0.22555865911633965 0 0.22555865911633965 0.030775193484831931 0 0 0 0 30.725893641627842 15.473842922599488 0 15.473842922599488 -2.7314750844507216 0 0 0 0 31.229855706660032 12.124903591031853 0 12.124903591031853 9.2781818577914237 0 0 0 0 19.741187744816649 28.584932066856709 0 28.584932066856709 4.1664319761330262 0 0 0 0 -0.54887436804449219 0.50709772454166036 0 0.50709772454166036 -0.14647736849004289 0 0 0 0 36.745513634553035 50.320753363360211 0 50.320753363360211 20.689549416052614 0 0 0 0 22.354598705752139 20.374393632915599 0 20.374393632915599 24.981758739105317 0 0 0 0 18.025570202873016 25.857696985393147 0 25.857696985393147 28.640180490057901 0 0 0 0 28.772018410072995 27.998472431827395 0 27.998472431827395 27.308144465591795 0 0 0 0 -14.012842749863388 10.301162266532003 0 10.301162266532003 -6.9134950826355634 0 0 0 0 -0.15755107223777798 0.87886994456360412 0 0.87886994456360412 10.391535827541269 0 0 0 0 0.13274813122467094 2.8548371092330385 0 2.8548371092330385 9.892760439360174 0 0 0 0 -64.688598658832021 56.475709482278944 0 56.475709482278944 81.336911674107341 0 0 0 0 15.968602150795448 41.364565454857257 0 41.364565454857257 60.152306026296401 0 0 0 0 63.672904432652103 -26.035789195552752 0 -26.035789195552752 -41.973348024789857 0 0 0 0 54.926604035951186 -10.414500979946752 0 -10.414500979946752 -48.663777801404649 0 0 0 0 -1.3364354274107499 2.1713165443858244 0 2.1713165443858244 2.1707771493294641 0 0 0 0 -2.2911877189869756 7.402146582811838 0 7.402146582811838 9.1159083001855379 0 0 0 0 4.2457366411709749 8.4002891092494565 0 8.4002891092494565 -2.474985309506792 0 0 0 0 -3.4099882880357768 11.850202166717509 0 11.850202166717509 -3.6389184366416885 0 0 0 0 -0.65629464806405546 1.6833784292959217 0 1.6833784292959217 9.4051347627537396 0 0 0 0 -0.77385903287842517 1.2832534608735422 0 1.2832534608735422 9.7961567745368061 0 0 0 0 -3.9101941145011097 1.0118027411112962 0 1.0118027411112962 3.8506225889286725 0 0 0 0 -17.497113535281585 -3.5445725379241821 0 -3.5445725379241821 17.193911477399524 0 0 0 0 -4.9446033983126654 -1.8202082130601411 0 -1.8202082130601411 16.264047835179554 0 0 0 0 -0.082728390692523135 1.6525292793203334 0 1.6525292793203334 15.592709338196073 0 0 0 0 -13.555449926888286 -6.5302749719166968 0 -6.5302749719166968 15.934845340081665 0 0 0 0 -16.946160320635499 -4.8045550029310107 0 -4.8045550029310107 19.664910655097628 0 0 0 0 -23.122169732448469 4.7157943605120636 0 4.7157943605120636 23.069275971254683 0 0 0 0 -5.110696277596162 -0.80067209559729235 0 -0.80067209559729235 9.7875873170905834 0 0 0 0 -6.2273513719339917 -1.8776436824382472 0 -1.8776436824382472 26.238265572574164 0 0 0 0 3.5159143740348782 0.14246061261655996 0 0.14246061261655996 24.040027292024206 0 0 0 0 2.2700574494641756 -15.904652510610163 0 -15.904652510610163 36.878245790466281 0 0 0 0 0.58036361375472989 0.37020160964515547 0 0.37020160964515547 0.20310028986484951 0 0 0 0 0.21278133426734747 0.12770774587108313 0 0.12770774587108313 0.10436711782908681 0 0 0 0 -3.7384975911354701 32.049476243027357 0 32.049476243027357 -21.711482763179447 0 0 0 0 5.5856403625522262 -15.439461446318546 0 -15.439461446318546 74.611747589083734 0 0 0 0 14.78656712795248 26.353129923704728 0 26.353129923704728 32.057410394592807 0 0 0 0 14.757082845074024 0.39873644487943238 0 0.39873644487943238 5.253396940875632 0 0 0 0 5.7959940518878739 7.3886846131008497 0 7.3886846131008497 21.254372698157113 0 0 0 0 7.2790879816466258 21.538242013304625 0 21.538242013304625 11.073898453536572 0 0 0 0 0.14372271203207543 -0.32235860367928559 0 -0.32235860367928559 0.13334701046829167 0 0 0 0 -0.63036382364731036 1.5813869252590642 0 1.5813869252590642 1.1176484616751967 0 0 0 0 0.65662628851782756 11.210425920224679 0 11.210425920224679 8.5036231515998679 0 0 0 0 7.9426452844183757 10.380503792983745 0 10.380503792983745 7.1686268164121429 0 0 0 0 -2.0292930329846968 15.357037803787534 0 15.357037803787534 20.509517810646685 0 0 0 0 0.45773784071631191 2.3095681981728902 0 2.3095681981728902 9.97390208688293 0 0 0 0 -15.679836926165478 -11.854510581940531 0 -11.854510581940531 50.0663688482623 0 0 0 0 -7.0095672852781377 5.2539583832533481 0 5.2539583832533481 9.5692223012501927 0 0 0 0 -1.3959672424433052 -1.8361457771577534 0 -1.8361457771577534 6.4591425912540217 0 0 0 0 -17.446764269479104 16.014417646863876 0 16.014417646863876 11.681579514599889 0 0 0 0 0.6363187961240595 2.1626622006265457 0 2.1626622006265457 9.9349885632277779 0 0 0 0 4.073483920751471 -0.99826278453588202 0 -0.99826278453588202 6.2736297453689076 0 0 0 0 0.48263171456790133 12.130634488807118 0 12.130634488807118 4.4301224264729626 0 0 0 0 -4.5790713395105627 15.334838800764601 0 15.334838800764601 11.259491215677372 0 0 0 0 -41.456839612551391 -10.315633305798428 0 -10.315633305798428 6.7853677174302902 0 0 0 0 -3.2767721864768191 1.326087396251296 0 1.326087396251296 10.370373282171386 0 0 0 0 0.1670498935820095 0.50277102706168075 0 0.50277102706168075 3.1120308873388343 0 0 0 0 -0.048142098346265212 0.27110766983004009 0 0.27110766983004009 6.6981420427182616 0 0 0 0 -34.851963374184649 -11.125936964683319 0 -11.125936964683319 2.8935970303543854 0 0 0 0 -11.769163840263758 -5.8964213671570747 0 -5.8964213671570747 -3.1937749260014243 0 0 0 0 -0.16426611620708598 0.39307167748807037 0 0.39307167748807037 9.3982308789379729 0 0 0 0 -3.6494840630982708 0.1144148698299432 0 0.1144148698299432 38.525027703929482 0 0 0 0 -57.118261271893829 -24.916791154711532 0 -24.916791154711532 14.215161857579005 0 0 0 0 -0.19511209298519794 1.6221760009209634 0 1.6221760009209634 1.8865913487307857 0 0 0 0 -6.3802790829592482 3.6568567771032576 0 3.6568567771032576 1.4922745339890753 0 0 0 0 -8.506135747173289 22.040136210281617 0 22.040136210281617 21.381711909587921 0 0 0 0 0.21062098771625398 0.55572248468031482 0 0.55572248468031482 6.1055478437904789 0 0 0 0 0.65782269147319639 3.7281846061823529 0 3.7281846061823529 8.9181792589738507 0 0 0 0 -28.85145626414095 4.4459933177562334 0 4.4459933177562334 24.07667917601475 0 0 0 0 13.936117983450281 -17.194543995606978 0 -17.194543995606978 -6.1176428818116619 0 0 0 0 1.5976643781207458 4.5723551167502219 0 4.5723551167502219 9.1443730715805387 0 0 0 0 1.9556586622446304 3.4511624728788775 0 3.4511624728788775 15.351903685233879 0 0 0 0 5.7153411030115535 11.153378776564978 0 11.153378776564978 14.019973630578079 0 0 0 0 -0.20710832663447989 1.993630911230051 0 1.993630911230051 1.8364567314932883 0 0 0 0 1.9914454568559461 0.77608284242975589 0 0.77608284242975589 1.6000306860979832 0 0 0 0 84.110784943428825 -25.079415879270528 0 -25.079415879270528 -63.309916919676425 0 0 0 0 137.17804942107648 164.62585227943873 0 164.62585227943873 40.669965604614845 0 0 0 0 5.1867868093061134 2.1006309171443718 0 2.1006309171443718 13.877778316075819 0 0 0 0 4.9448670751011718 10.802787321501114 0 10.802787321501114 11.993960812354999 0 0 0 0 0.83423167080009186 0.61371429593626026 0 0.61371429593626026 2.2805200757834996 0 0 0 0 31.152790198255332 62.101017441119438 0 62.101017441119438 47.927671602594273 0 0 0 0 38.844789511934096 37.413676822151956 0 37.413676822151956 4.234976083879701 0 0 0 0 16.667885494977554 54.181325065846067 0 54.181325065846067 121.46475281683706 0 0 0 0 22.405200784131466 41.637089126517367 0 41.637089126517367 84.265593890868331 0 0 0 0 58.622019335438608 62.999126202180378 0 62.999126202180378 82.231474844193372 0 0 0 0 31.553275355238128 92.130091859321965 0 92.130091859321965 163.70086660739435 0 0 0 0 -29.180267531457901 -1.6102273598589818 0 -1.6102273598589818 393.0274851256454 0 0 0 0 1.1281055565078186 0.80971661658617222 0 0.80971661658617222 0.49470895026019956 0 0 0 0 388.45044763884107 243.75798149892034 0 243.75798149892034 -225.79687739832843 0 0 0 0 19.393863542402471 -28.360126558975935 0 -28.360126558975935 201.55522168559037 0 0 0 0 144.15141443192707 375.26388533632689 0 375.26388533632689 499.03463404983449 0 0 0 0 -192.98992111095575 -38.786857701928056 0 -38.786857701928056 52.209067348906501 0 0 0 0 0.89541263374200908 0.96552534980137983 0 0.96552534980137983 3.7080393074926477 0 0 0 0 436.47195237276304 202.95381131338468 0 202.95381131338468 -171.83157894112992 0 0 0 0 237.27522582485886 -290.91095764523459 0 -290.91095764523459 249.95615513759913 0 0 0 0 0.68186203616955077 2.7960767348046183 0 2.7960767348046183 9.3160030802820764 0 0 0 0 -34.053575551278982 31.854457300150898 0 31.854457300150898 424.97381091140414 0 0 0 0 -12.06502808950076 10.904246525569761 0 10.904246525569761 110.91985530612419 0 0 0 0 -18.984560281345239 -3.8607460850362258 0 -3.8607460850362258 -240.49707382941233 0 0 0 0 50.37625461759535 173.96102607782404 0 173.96102607782404 296.51254336686816 0 0 0 0 6.1290243734664145 -17.921771226753663 0 -17.921771226753663 131.04778511033965 0 0 0 0 -114.63124474989608 -66.488247784550822 0 -66.488247784550822 359.43095241374704 0 0 0 0 61.035640289226556 -84.481074338676933 0 -84.481074338676933 145.05262055404273 0 0 0 0 45.412039199638471 -32.866556710929672 0 -32.866556710929672 50.511655983808396 0 0 0 0 -21.65171121484201 -222.81500909140868 0 -222.81500909140868 499.32940530108135 0 0 0 0 -38.590234931472352 -157.32066245688566 0 -157.32066245688566 359.81569215997166 0 0 0 0 -45.452301108462741 -183.38531990678302 0 -183.38531990678302 472.13769825147961 0 0 0 0 10.797504145219019 -100.30229029393877 0 -100.30229029393877 408.24748257585497 0 0 0 0 0.53861112311825721 -0.027673458379985749 0 -0.027673458379985749 0.33224632435846857 0 0 0 0 72.183580431149068 113.31059544682108 0 113.31059544682108 173.06218796007852 0 0 0 0 0.3560703672130483 71.768644001229177 0 71.768644001229177 375.07467860616271 0 0 0 0 37.487290847357578 -130.05224937406993 0 -130.05224937406993 437.53042458656 0 0 0 0 -70.190035856493324 -170.80626465795422 0 -170.80626465795422 378.20596666056917 0 0 0 0 0.66111243898311045 14.576207061716104 0 14.576207061716104 48.69963470894163 0 0 0 0 18.306753221171888 -12.796932441779973 0 -12.796932441779973 85.076421426202089 0 0 0 0 2.4401638047733627 -18.65440573226806 0 -18.65440573226806 78.941398576227812 0 0 0 0 23.078468361777325 1.9569879017153653 0 1.9569879017153653 32.482723925384562 0 0 0 0 20.027648020867133 1.8166721117986526 0 1.8166721117986526 3.6664045937268384 0 0 0 0 19.119975222641752 13.024071392321275 0 13.024071392321275 33.267333902866085 0 0 0 0 13.518594127963325 29.605322771185456 0 29.605322771185456 12.753350607333118 0 0 0 0 22.907968942808978 4.1289701178693576 0 4.1289701178693576 44.01477863916989 0 0 0 0 4.0042627918405316 23.337354697003775 0 23.337354697003775 58.146540706235101 0 0 0 0 33.754168728568729 37.408333554722617 0 37.408333554722617 48.352398183911646 0 0 0 0 -4.2623865266099088 38.072440372839765 0 38.072440372839765 126.32675771194408 0 0 0 0 15.732870551035774 45.486313831394 0 45.486313831394 49.498260180585874 0 0 0 0 -10.139228104403287 19.72872291116937 0 19.72872291116937 96.871217314889691 0 0 0 0 2.3336165957655908 14.836621890859533 0 14.836621890859533 59.665845921624395 0 0 0 0 -7.1127270451689242 22.839047827944796 0 22.839047827944796 79.632505161082918 0 0 0 0 -0.38899338608978695 8.8315967486555564 0 8.8315967486555564 78.22591381672828 0 0 0 0 -25.666701444947819 3.2120839218405308 0 3.2120839218405308 109.88343103199259 0 0 0 0 -16.833009692700955 4.9137111320796976 0 4.9137111320796976 105.13082419115017 0 0 0 0 -43.568515580975941 1.2456926267368544 0 1.2456926267368544 105.02314894662902 0 0 0 0 -18.75225910688232 4.791538175027199 0 4.791538175027199 116.88100442386485 0 0 0 0 6.5745788721015685 8.4434328415954951 0 8.4434328415954951 96.591546611629383 0 0 0 0 -129.76881333708803 140.18093789009151 0 140.18093789009151 288.27368452305109 0 0 0 0 -43.567253524054287 -123.50316893668696 0 -123.50316893668696 499.90946655494611 0 0 0 0 -17.156650121527491 16.516225462443799 0 16.516225462443799 93.943850226985433 0 0 0 0 1.4260052733771391 1.8877455077823058 0 1.8877455077823058 1.4484564878944912 0 0 0 0 -43.73164721521065 -123.90660493125915 0 -123.90660493125915 499.90252049628361 0 0 0 0 -30.879695501666959 -16.691404065511506 0 -16.691404065511506 92.16556977948494 0 0 0 0 22.718727310822985 69.691467706070398 0 69.691467706070398 -20.169469808591657 0 0 0 0 0.53698339658611238 0.75151061832365329 0 0.75151061832365329 0.96931518835101649 0 0 0 0 43.324216696147936 142.64758066999434 0 142.64758066999434 221.8361460867618 0 0 0 0 -11.085567684053018 -6.5485793467742042 0 -6.5485793467742042 96.00593228231628 0 0 0 0 -1.1122525208843115 -12.100646048582348 0 -12.100646048582348 131.64185190923672 0 0 0 0 -4.1621661235065233 4.3814728952979749 0 4.3814728952979749 85.108585523187713 0 0 0 0 21.928357688752698 4.5110466564510716 0 4.5110466564510716 116.77718813892625 0 0 0 0 33.378250324939174 8.4939350269789884 0 8.4939350269789884 88.570946947071207 0 0 0 0 18.998401430572564 61.836296558746 0 61.836296558746 263.07877719729186 0 0 0 0 -13.599886412461416 -36.874957128818096 0 -36.874957128818096 149.18437201795496 0 0 0 0 -88.620749953279898 100.51944030488812 0 100.51944030488812 498.83476304668966 0 0 0 0 -95.575972684327439 -15.526410969883727 0 -15.526410969883727 328.03840895821395 0 0 0 0 -62.213841366020802 -120.65912021129498 0 -120.65912021129498 285.50965448763691 0 0 0 0 -97.874451047536354 -19.753150998885644 0 -19.753150998885644 386.65219284752493 0 0 0 0 -132.39445193413286 -95.400702260746584 0 -95.400702260746584 500.44389588597375 0 0 0 0 41.245993531010434 -20.85122187865619 0 -20.85122187865619 516.19493528397106 0 0 0 0 -49.489160247528389 -120.16865239790104 0 -120.16865239790104 178.31441533990073 0 0 0 0 -83.610395484461478 -171.83095491313907 0 -171.83095491313907 428.53642317424146 0 0 0 0 -38.193384245371078 -177.14480650459768 0 -177.14480650459768 163.39859453843201 0 0 0 0 -21.888138587245617 -111.97524615988561 0 -111.97524615988561 180.63506059035717 0 0 0 0 -98.109420237045342 60.8894034347054 0 60.8894034347054 -25.163701949033566 0 0 0 0 -9.3249415800598197 -59.80935674337104 0 -59.80935674337104 -57.309687565097192 0 0 0 0 9.5159678586981329 -63.705074426365627 0 -63.705074426365627 55.021957613290397 0 0 0 0 -18.032233505201219 -18.675645761727537 0 -18.675645761727537 192.96474657614272 0 0 0 0 19.382551403139566 2.7637232669192144 0 2.7637232669192144 22.102272817473931 0 0 0 0 -32.457318497556855 1.4486329409310201 0 1.4486329409310201 28.392319304220109 0 0 0 0 -39.067943733984919 -12.665077143089547 0 -12.665077143089547 67.703193232628337 0 0 0 0 -28.495610004529695 -8.4503252053200413 0 -8.4503252053200413 3.3619464589191921 0 0 0 0 -79.1727569971805 33.075989676312929 0 33.075989676312929 13.511258960731084 0 0 0 0 -26.01687147709211 6.0981259331974798 0 6.0981259331974798 1.3183562778613123 0 0 0 0 -73.146246551338933 23.528345383100032 0 23.528345383100032 12.79195478015572 0 0 0 0 -74.159171751533165 18.897090597956435 0 18.897090597956435 -7.8908483008308394 0 0 0 0 -36.49423174423822 5.4370132052190456 0 5.4370132052190456 8.3627472263591471 0 0 0 0 -10.445860531805295 22.858269040360028 0 22.858269040360028 16.045008741717538 0 0 0 0 39.883869180328787 12.074215611674504 0 12.074215611674504 1.21472993430325 0 0 0 0 37.630279469120296 -0.44956199628268223 0 -0.44956199628268223 3.9262274233669814 0 0 0 0 -106.72485430758687 24.627872752095755 0 24.627872752095755 12.803667796923492 0 0 0 0 19.436252436663267 4.402806645707642 0 4.402806645707642 6.5934662980498615 0 0 0 0 -0.68707207495618194 1.8463131378225426 0 1.8463131378225426 5.1311568492043911 0 0 0 0 -172.11755472700045 4.3930253382459341 0 4.3930253382459341 32.336293401017429 0 0 0 0 -4.4630977858801053 18.151023870486824 0 18.151023870486824 -65.362193322500389 0 0 0 0 0.03234122742868728 1.2208819217840361 0 1.2208819217840361 4.9366476239117745 0 0 0 0 -0.19672742673487745 0.4401804759379786 0 0.4401804759379786 3.3117679201709684 0 0 0 0 -103.76901971655572 -8.7447760251263844 0 -8.7447760251263844 -2.9178609763494023 0 0 0 0 37.920062150263504 9.8290098574780131 0 9.8290098574780131 16.040152683523047 0 0 0 0 35.370082942424808 9.1641414107775745 0 9.1641414107775745 27.359464622310043 0 0 0 0 211.25021773852893 84.80127722496627 0 84.80127722496627 -36.315150629955497 0 0 0 0 -0.066350129745397224 0.19019713599339561 0 0.19019713599339561 0.087772487509230501 0 0 0 0 23.642788078164699 27.091356066691333 0 27.091356066691333 163.12574038905586 0 0 0 0 87.500790911603588 11.365521344450826 0 11.365521344450826 -71.101121159430477 0 0 0 0 6.8944161239852235 -10.031887451235889 0 -10.031887451235889 12.286869456987915 0 0 0 0 0.043044879181623009 -0.45454506475333911 0 -0.45454506475333911 1.3609930775123154 0 0 0 0 -40.512243269359764 -63.970119123165205 0 -63.970119123165205 499.00351705300091 0 0 0 0 24.028438600614471 -117.40338576235195 0 -117.40338576235195 393.87186366887727 0 0 0 0 2.5050907167413854 -72.604966877937841 0 -72.604966877937841 496.36549291246411 0 0 0 0 46.433830544219745 -125.43392733695299 0 -125.43392733695299 538.17544000175076 0 0 0 0 0.50716697881650119 0.71396029264459759 0 0.71396029264459759 2.0559916645974887 0 0 0 0 167.67724145794881 65.324632538780861 0 65.324632538780861 149.05659919512982 0 0 0 0 204.95061354268896 185.08496578001495 0 185.08496578001495 157.45433725063594 0 0 0 0 -56.868883231168873 31.973442298365171 0 31.973442298365171 497.77955417538669 0 0 0 0 -60.961371132643478 -159.34941561384994 0 -159.34941561384994 171.01330769648757 0 0 0 0 -0.13024671989952125 -0.20638324909155337 0 -0.20638324909155337 1.1663625531234949 0 0 0 0 -30.132484092896235 37.366691531532524 0 37.366691531532524 28.500677404367707 0 0 0 0 53.533704711091765 -19.871895569895969 0 -19.871895569895969 145.10128620076512 0 0 0 0 46.580013472210162 57.916133377924325 0 57.916133377924325 25.59640742868396 0 0 0 0 0.29534959079474149 0.44757723010931105 0 0.44757723010931105 2.3868024810915713 0 0 0 0 238.3701060534666 292.76665869506706 0 292.76665869506706 498.11267842165762 0 0 0 0 38.838831762629567 -53.401058735590141 0 -53.401058735590141 62.46767010941312 0 0 0 0 -48.613416045205597 73.634527448346262 0 73.634527448346262 497.61743977687365 0 0 0 0 -58.225880963950992 -24.893322931325656 0 -24.893322931325656 3.7213767389694112 0 0 0 0 -0.23206410738032945 -0.32637219470270651 0 -0.32637219470270651 1.610198403115664 0 0 0 0 20.922503029622188 18.627950940816845 0 18.627950940816845 -7.3611297922079757 0 0 0 0 204.56745931735006 64.709138133398369 0 64.709138133398369 -27.116998268653333 0 0 0 0 -0.6274033370675437 0.41136699388514275 0 0.41136699388514275 6.3546973864551006 0 0 0 0 -0.73326734672035121 1.1532954977569627 0 1.1532954977569627 1.648386564048085 0 0 0 0 -15.164043819560504 6.6669141123034024 0 6.6669141123034024 16.48457192746173 0 0 0 0 31.496966182228341 6.1123310142538685 0 6.1123310142538685 -8.021056199691202 0 0 0 0 12.47226895842573 32.652764692091296 0 32.652764692091296 24.355033797386568 0 0 0 0 -24.762460669979202 -4.692026644032012 0 -4.692026644032012 36.447855791224356 0 0 0 0 -0.27098836546579752 0.16765009623281912 0 0.16765009623281912 0.027240915700907919 0 0 0 0 39.644504594370872 99.713924283788401 0 99.713924283788401 41.004348374521214 0 0 0 0 56.195198822865457 24.395107613649543 0 24.395107613649543 2.275949289595701 0 0 0 0 50.12968069173651 0.42159817704668967 0 0.42159817704668967 14.354340149691325 0 0 0 0 -0.096970085373396853 0.3016438160349022 0 0.3016438160349022 -0.20667580497302396 0 0 0 0 27.729701167822796 67.361466583352922 0 67.361466583352922 17.418983107594613 0 0 0 0 30.316754262403862 19.521812835861056 0 19.521812835861056 1.3645037213827891 0 0 0 0 42.836921623228761 30.171575717420637 0 30.171575717420637 0.42895578204570484 0 0 0 0 41.221236095245203 22.406639290652265 0 22.406639290652265 -8.6516169107908354 0 0 0 0 46.714884195900737 16.312110143688187 0 16.312110143688187 -28.440253017617579 0 0 0 0 17.74522590022076 8.3334573615384215 0 8.3334573615384215 -4.2533449941929575 0 0 0 0 36.857141129990339 23.059595209013423 0 23.059595209013423 -6.1452498098333308 0 0 0 0 105.26136351092912 31.255654657668856 0 31.255654657668856 -12.645493476479714 0 0 0 0 38.932856499136449 46.637027185972698 0 46.637027185972698 34.906051291949552 0 0 0 0 38.921093467053723 46.110648008202588 0 46.110648008202588 24.253187052802787 0 0 0 0 21.913909821201742 25.741492012470189 0 25.741492012470189 6.65457378555584 0 0 0 0 -2.4225766723331503 -0.036164731604458211 0 -0.036164731604458211 -23.804953514838417 0 0 0 0 -10.467137762968378 -2.5253196345584001 0 -2.5253196345584001 1.1916264416104241 0 0 0 0 -0.69613374109475568 -0.5996798803152199 0 -0.5996798803152199 3.1974325231236307 0 0 0 0 50.106008551087143 66.775773567807846 0 66.775773567807846 89.626635643180634 0 0 0 0 -2.1269823359872428 1.8008764513043225 0 1.8008764513043225 6.599565541841649 0 0 0 0 -1.0427810354540747 -0.12831221895015699 0 -0.12831221895015699 0.06329541916689152 0 0 0 0 -8.0526214905072209 -6.54015969250122 0 -6.54015969250122 -6.0227550114832411 0 0 0 0 25.477451832966679 -11.273067918749575 0 -11.273067918749575 -39.035561719307225 0 0 0 0 5.0836416164339653 21.130437940630145 0 21.130437940630145 -31.100281824455578 0 0 0 0 59.90958372507356 4.8691226093505975 0 4.8691226093505975 -29.354766128926713 0 0 0 0 35.996657415115564 1.1354493829194325 0 1.1354493829194325 9.6197794446743501 0 0 0 0 -16.294431179757453 -14.775719132618178 0 -14.775719132618178 4.4814326746109145 0 0 0 0 60.466344269107992 -20.742726265472811 0 -20.742726265472811 2.4596273921106331 0 0 0 0 -0.02777249365649051 -0.032849173799772924 0 -0.032849173799772924 2.8122705271007717 0 0 0 0 -0.62770209616218786 0.85674789645670024 0 0.85674789645670024 8.8795282712392236 0 0 0 0 -12.741273275804815 0.029494112556676555 0 0.029494112556676555 3.1836255484217872 0 0 0 0 -65.60529068771632 -46.01073580157481 0 -46.01073580157481 33.189943804336508 0 0 0 0 -36.784905730863557 3.8366639725854839 0 3.8366639725854839 1.1163717544932297 0 0 0 0 -34.285199670685301 -37.401483354184165 0 -37.401483354184165 32.810909150080988 0 0 0 0 -29.204997789981562 -51.328445284624195 0 -51.328445284624195 34.130426267140137 0 0 0 0 -33.488699228721202 -69.097575129379038 0 -69.097575129379038 -11.731292461052362 0 0 0 0 13.598772067545951 -12.178901164939816 0 -12.178901164939816 -65.668785696496343 0 0 0 0 -24.102372092966448 69.207287785795415 0 69.207287785795415 28.006891710778291 0 0 0 0 48.382390329405439 78.661377830701895 0 78.661377830701895 74.088335835571797 0 0 0 0 38.087287062009864 -22.301895385571697 0 -22.301895385571697 101.06047715619934 0 0 0 0 24.140745558797448 15.453650704174834 0 15.453650704174834 0.76301904756473959 0 0 0 0 202.25403450073827 -2.1216901976013105 0 -2.1216901976013105 3.3052677501673315 0 0 0 0 137.10182477270899 17.890787242902434 0 17.890787242902434 71.339314088545507 0 0 0 0 33.655382335403765 97.882860070576498 0 97.882860070576498 111.64259413490072 0 0 0 0 47.3545815160237 80.117830041481284 0 80.117830041481284 74.197452668921869 0 0 0 0 50.234135459861776 84.754420408073202 0 84.754420408073202 19.87724449416055 0 0 0 0 11.863306589808985 17.087730553529582 0 17.087730553529582 51.976584271829779 0 0 0 0 0.077638736419223281 1.0847378005869177 0 1.0847378005869177 7.0191680080533274 0 0 0 0 -65.852620303485537 27.801527600477584 0 27.801527600477584 74.61138515456696 0 0 0 0 -4.1751597247908876 25.453866738987813 0 25.453866738987813 140.70856162071868 0 0 0 0 -0.091243747706820033 0.40047220712641307 0 0.40047220712641307 1.9532120836900191 0 0 0 0 12.825989669503883 46.181341775874898 0 46.181341775874898 -49.754672098376432 0 0 0 0 12.390849773327488 8.9638094897818519 0 8.9638094897818519 -11.775317605417513 0 0 0 0 0.46583991523687018 -3.9785126874012349 0 -3.9785126874012349 23.491886149794482 0 0 0 0 10.20224854690845 21.917077740701643 0 21.917077740701643 45.526640130243322 0 0 0 0 1.1269142068238758 -0.032289907417858643 0 -0.032289907417858643 -0.14372485824903158 0 0 0 0 20.151786969286249 40.992422963751778 0 40.992422963751778 121.91405730208589 0 0 0 0 109.63128400535486 88.238938706639601 0 88.238938706639601 46.760642289153111 0 0 0 0 164.82027147473792 98.942170062208788 0 98.942170062208788 158.53322356240096 0 0 0 0 0.76051983521492494 0.55488409375585235 0 0.55488409375585235 0.45895522875503758 0 0 0 0 -92.073374676856247 -193.80858263818845 0 -193.80858263818845 379.25387649668755 0 0 0 0 0.97475340209593142 0.20541327130769815 0 0.20541327130769815 1.5689679868304864 0 0 0 0 3.3736512975076494 4.933756159688528 0 4.933756159688528 12.421786158042778 0 0 0 0 126.56520147520155 38.877465006346029 0 38.877465006346029 229.96705628613836 0 0 0 0 -6.0263914264493508 5.7486996563352477 0 5.7486996563352477 6.8409405891543429 0 0 0 0 -0.4837927138887313 0.97340896182747638 0 0.97340896182747638 7.0856866945622805 0 0 0 0 1.6447780148329798 2.4102698807996603 0 2.4102698807996603 7.0789686047210125 0 0 0 0 -5.0482570886091764 -2.196926599114704 0 -2.196926599114704 15.965737737013114 0 0 0 0 -10.393261950015813 5.4762785078819434 0 5.4762785078819434 16.893270948372447 0 0 0 0 -3.2667058388032046 -2.560294938676634 0 -2.560294938676634 7.4177397061394004 0 0 0 0 -5.2463929069363076 -6.5270777941732376 0 -6.5270777941732376 22.466062247041918 0 0 0 0 -10.224373533076118 4.9451653706337311 0 4.9451653706337311 8.4737455336744461 0 0 0 0 -11.64685225572839 13.826591808202465 0 13.826591808202465 0.65045295415515625 0 0 0 0 -6.4134823829327843 5.9269260165851847 0 5.9269260165851847 8.4094500324408727 0 0 0 0 -7.9322493956402695 12.051329300527868 0 12.051329300527868 0.70028208225267008 0 0 0 0 -22.396021851012847 10.148364842659248 0 10.148364842659248 6.6892932500340976 0 0 0 0 36.055030025959752 -21.230318109891414 0 -21.230318109891414 -26.831364341152948 0 0 0 0 -38.866864582083053 56.903283215273404 0 56.903283215273404 -8.464638396166265 0 0 0 0 0.060464437683688255 0.29258040013317332 0 0.29258040013317332 0.87411061561269676 0 0 0 0 -7.1093257991930159 7.7590842295526272 0 7.7590842295526272 25.610218316343889 0 0 0 0 -32.862221068318945 67.096255766567083 0 67.096255766567083 7.0933840882344157 0 0 0 0 12.92187365050836 87.386249861307078 0 87.386249861307078 -11.849422637244061 0 0 0 0 35.8198124096226 41.165515419630296 0 41.165515419630296 5.2081387433136115 0 0 0 0 -0.46102969101870866 0.31560731664075092 0 0.31560731664075092 0.062260759095433826 0 0 0 0 24.766026351375167 53.388504085238537 0 53.388504085238537 48.06411105035113 0 0 0 0 -55.906808742536811 -10.440787596983228 0 -10.440787596983228 25.907553229685732 0 0 0 0 -46.615063526680331 19.13139003038691 0 19.13139003038691 -24.941201300091052 0 0 0 0 -110.52599119900049 43.322858235372223 0 43.322858235372223 23.885713941364884 0 0 0 0 -0.040074261960879098 0.45193232101156955 0 0.45193232101156955 2.5998474232707949 0 0 0 0 39.153050190692973 21.959549422051083 0 21.959549422051083 -4.3102424766057084 0 0 0 0 -13.188463509607686 0.62103445687080239 0 0.62103445687080239 3.3599927140287491 0 0 0 0 -5.9897034022865512 13.110723261746898 0 13.110723261746898 9.7961688078953557 0 0 0 0 -43.832332823313521 27.489639133698347 0 27.489639133698347 -1.5647765292469558 0 0 0 0 -9.2822225930061109 -0.81363357088457633 0 -0.81363357088457633 -1.7548720541526563 0 0 0 0 -73.798612518422402 -6.0664243125963822 0 -6.0664243125963822 -3.205777219396623 0 0 0 0 -52.686422567226771 23.702686757989795 0 23.702686757989795 6.072841100839014 0 0 0 0 -6.1717285175346319 -0.29418889665680581 0 -0.29418889665680581 3.0481655912590213 0 0 0 0 -0.63914657001135478 -0.057268957416938715 0 -0.057268957416938715 4.0065824156799508 0 0 0 0 35.23654088124934 10.907660361581293 0 10.907660361581293 0.92832716943507876 0 0 0 0 30.508746102954603 13.991091521663748 0 13.991091521663748 5.6789407444048265 0 0 0 0 22.317228551181159 23.247507590373289 0 23.247507590373289 16.887708298439975 0 0 0 0 10.546537434228071 10.498520842945709 0 10.498520842945709 7.8985955093194207 0 0 0 0 -0.80713633817476316 0.88459384498720794 0 0.88459384498720794 5.9701165129327727 0 0 0 0 -8.4354562913785287 -4.4790026347593539 0 -4.4790026347593539 9.7643790345391608 0 0 0 0 -1.969924841241891 1.8964447196476613 0 1.8964447196476613 4.0384513674348455 0 0 0 0 4.8046871422117761 -7.6563890916963828 0 -7.6563890916963828 8.7063183527170622 0 0 0 0 -0.12220151132323748 0.8013966619349091 0 0.8013966619349091 4.6461036025139393 0 0 0 0 -1.8485314067815135 0.31125575396345084 0 0.31125575396345084 4.9632104062875442 0 0 0 0 -0.85593045954932234 -0.02663799836045655 0 -0.02663799836045655 4.1518739144153187 0 0 0 0 -0.0020995432652473585 0.59301838637475157 0 0.59301838637475157 4.2378807548739132 0 0 0 0 0.41637025870613797 1.8605576875588667 0 1.8605576875588667 5.6586779516419483 0 0 0 0 -0.55671616287480674 1.1742097011201622 0 1.1742097011201622 5.2134969293229005 0 0 0 0 -1.0315199094858691 0.6094577538771091 0 0.6094577538771091 6.0596674351781985 0 0 0 0 -1.6899046670420808 0.70290033265609964 0 0.70290033265609964 7.6885281857485097 0 0 0 0 -0.50983983512008879 0.28184714211084128 0 0.28184714211084128 4.9797986254815072 0 0 0 0 0.001633254430687783 -0.014591587889299262 0 -0.014591587889299262 4.1449536944230658 0 0 0 0 -0.16625071979187339 0.1998082112597892 0 0.1998082112597892 1.3612857299566734 0 0 0 0 81.109392904745533 1.8780819935227555 0 1.8780819935227555 -135.3254659188533 0 0 0 0 0.080333020994089885 20.098640795217761 0 20.098640795217761 196.66859917787588 0 0 0 0 -20.698783833056041 78.221210318653903 0 78.221210318653903 497.69256724030674 0 0 0 0 75.278894722862375 86.452017183263251 0 86.452017183263251 221.67371123035446 0 0 0 0 0.033941094312823716 -0.30418732459971576 0 -0.30418732459971576 2.2407524097456815 0 0 0 0 -0.54676779876939463 0.87360512580562499 0 0.87360512580562499 6.2033836763748695 0 0 0 0 109.51687956657754 -109.48236841015751 0 -109.48236841015751 111.95717729354328 0 0 0 0 -1.1181202248047184 -0.033115553428768152 0 -0.033115553428768152 1.4739147107190949 0 0 0 0 -81.439579955152311 -18.91885983595057 0 -18.91885983595057 498.98131112605552 0 0 0 0 -82.683705424614175 -1.9642993168481553 0 -1.9642993168481553 343.12631706739012 0 0 0 0 -96.639336611432057 123.29308652231339 0 123.29308652231339 499.36287106544296 0 0 0 0 -18.934885650687264 0.92369693202363123 0 0.92369693202363123 7.0836425531806526 0 0 0 0 -10.028607841459305 -3.7101180936288074 0 -3.7101180936288074 2.1580424970529748 0 0 0 0 -0.24532678994604706 -0.31514166226498475 0 -0.31514166226498475 0.34611824550514569 0 0 0 0 -2.9351713318590384 -2.9827087654684874 0 -2.9827087654684874 2.122942725838584 0 0 0 0 -9.3854423471198629 4.1350985041385684 0 4.1350985041385684 7.6990404172356648 0 0 0 0 -0.57576231458579485 3.3467735951753639 0 3.3467735951753639 7.4400387723653694 0 0 0 0 -3.3852558699976498 0.3976176927508277 0 0.3976176927508277 9.6967040443469159 0 0 0 0 0.089361677976285137 0.27814883344944974 0 0.27814883344944974 5.6070284137804265 0 0 0 0 -1.5750122590167166 -0.069776463851667359 0 -0.069776463851667359 5.8651779922993228 0 0 0 0 -0.61451977800782487 1.2382660992209367 0 1.2382660992209367 7.4996732903709926 0 0 0 0 -1.0824623780007698 2.5897233121504541 0 2.5897233121504541 5.943219332899389 0 0 0 0 1.475976166243953 3.9138311443293787 0 3.9138311443293787 5.0982083913422684 0 0 0 0 -0.69822216925422254 3.8807004081036212 0 3.8807004081036212 9.5103846726117354 0 0 0 0 4.6019660271893628 9.6537373689952801 0 9.6537373689952801 12.494203943978164 0 0 0 0 -0.64801381965550198 0.36233242897498208 0 0.36233242897498208 0.16170144372378559 0 0 0 0 -60.297683323574262 -16.641780349993041 0 -16.641780349993041 12.488336503289247 0 0 0 0 -50.075397090063774 -15.788622783786195 0 -15.788622783786195 -13.914068475875411 0 0 0 0 -52.048064414312165 -10.919035283119229 0 -10.919035283119229 66.604927294880326 0 0 0 0 4.67792021673481 39.745510259568618 0 39.745510259568618 19.915928999129392 0 0 0 0 -0.33641277248711754 0.14828241891528648 0 0.14828241891528648 0.16991027421268967 0 0 0 0 -109.8927480149213 -58.858332574795895 0 -58.858332574795895 7.7427387469988389 0 0 0 0 -91.502107656805734 -16.021391331122459 0 -16.021391331122459 1.1378459376173851 0 0 0 0 -63.641149391881648 -14.717548590947644 0 -14.717548590947644 -19.689001127075244 0 0 0 0 0.27952521765432692 1.5473337292667892 0 1.5473337292667892 3.0829362217917691 0 0 0 0 -0.12243149193230352 1.6270795302143597 0 1.6270795302143597 12.808073063072783 0 0 0 0 11.932144603428606 11.128486280010293 0 11.128486280010293 0.7923177045340708 0 0 0 0 -15.714065713089546 16.70127683213741 0 16.70127683213741 11.066168084995297 0 0 0 0 -8.3014866613461642 15.012947809861089 0 15.012947809861089 -41.057769398001255 0 0 0 0 -13.078670884073119 17.142435092366213 0 17.142435092366213 0.92449058075146695 0 0 0 0 -62.500981141570961 117.45418608702857 0 117.45418608702857 198.59637650873083 0 0 0 0 0.021255672828563874 0.63251297180083199 0 0.63251297180083199 2.005737438962143 0 0 0 0 -56.108202505705137 111.60308519374166 0 111.60308519374166 34.728358682565158 0 0 0 0 -95.743387716950025 -96.692075893524816 0 -96.692075893524816 499.01841306247854 0 0 0 0 -22.06854299208581 -170.73464587901253 0 -170.73464587901253 401.69354084898896 0 0 0 0 -124.78993575075253 -23.084866105767105 0 -23.084866105767105 344.68508659831787 0 0 0 0 -24.066422549873316 -143.63543891971193 0 -143.63543891971193 226.28722882580223 0 0 0 0 -62.542721810954717 1.0074707178791869 0 1.0074707178791869 14.563845317174128 0 0 0 0 -24.131792167198032 -34.381293764590168 0 -34.381293764590168 94.421562898702177 0 0 0 0 -2.0957229247619011 59.011319089458084 0 59.011319089458084 -53.452456257923586 0 0 0 0 -0.71367515339645138 76.425296990257266 0 76.425296990257266 272.23035227148557 0 0 0 0 -142.35356932316142 -12.939979156681829 0 -12.939979156681829 500.64923777144486 0 0 0 0 25.301375934944204 10.844654784526938 0 10.844654784526938 126.38042303454949 0 0 0 0 51.971410410397667 76.004898623677036 0 76.004898623677036 128.04724476155369 0 0 0 0 -3.4199774992385983 -33.086552368662524 0 -33.086552368662524 -70.350817912507409 0 0 0 0 -112.56273762601975 144.62330585702603 0 144.62330585702603 12.913860023731559 0 0 0 0 -139.95594727853072 70.432862112435942 0 70.432862112435942 81.812596988490782 0 0 0 0 18.099091767944778 -43.991202036393588 0 -43.991202036393588 119.2739690966373 0 0 0 0 29.464828745211797 11.263147764234418 0 11.263147764234418 5.8778091108770241 0 0 0 0 0.50989507977597925 0.82141420984369518 0 0.82141420984369518 1.0790890043354153 0 0 0 0 21.409980845560426 75.349773032479789 0 75.349773032479789 94.576203713128052 0 0 0 0 21.608180287264005 159.3941780451496 0 159.3941780451496 -49.784963862591098 0 0 0 0 0.6646209221528725 42.613034844043796 0 42.613034844043796 189.19610229482896 0 0 0 0 47.622923151773335 59.278184920840431 0 59.278184920840431 35.057653351108456 0 0 0 0 125.81744128550008 150.4866493693371 0 150.4866493693371 129.76935029992455 0 0 0 0 53.432683895032028 86.180133972287877 0 86.180133972287877 99.250008721115591 0 0 0 0 42.408960213585637 55.692689379998512 0 55.692689379998512 112.16327595852636 0 0 0 0 158.21755066497769 25.075697790227423 0 25.075697790227423 -18.086515575941121 0 0 0 0 212.31730858367155 77.686470889610064 0 77.686470889610064 -13.969505808748181 0 0 0 0 0.83529710974337945 5.9992268833875642 0 5.9992268833875642 83.42622795531679 0 0 0 0 -21.074993064045145 35.494570463781201 0 35.494570463781201 44.680816211073761 0 0 0 0 -8.4001748970176546 66.535508228429535 0 66.535508228429535 82.212205570657773 0 0 0 0 -2.2013558473922998 95.989912916172784 0 95.989912916172784 3.1542043967529025 0 0 0 0 13.69433104983316 69.468276339868908 0 69.468276339868908 35.929569255880779 0 0 0 0 18.046663860573645 80.747820890604089 0 80.747820890604089 -14.759841228198638 0 0 0 0 -24.599030612780098 29.837868040136527 0 29.837868040136527 27.894416238050326 0 0 0 0 25.16102927971005 82.983132983117684 0 82.983132983117684 7.7314705394364864 0 0 0 0 -13.16575176908529 19.367217916327718 0 19.367217916327718 16.568516461280524 0 0 0 0 44.488616857922509 26.263695260769055 0 26.263695260769055 8.1538311593230901 0 0 0 0 -1.0980420349205224 2.0777272454295161 0 2.0777272454295161 -0.71226471266141544 0 0 0 0 -13.066156238433948 19.224592337938475 0 19.224592337938475 16.100535154546378 0 0 0 0 5.5464121001356261 -8.3886720470800356 0 -8.3886720470800356 22.153901299674999 0 0 0 0 0.65096141724416157 6.4383593830498285 0 6.4383593830498285 -22.732153111675871 0 0 0 0 -7.6329773785356938 35.388189376489208 0 35.388189376489208 5.8931591464825033 0 0 0 0 -3.7327293259145335 -16.918198321669479 0 -16.918198321669479 -0.83244378681047237 0 0 0 0 -58.717737024255001 20.262240010774804 0 20.262240010774804 19.387341838830253 0 0 0 0 40.315955354437278 25.822109713723876 0 25.822109713723876 -10.98485634107783 0 0 0 0 -34.448957724684689 63.457383644920128 0 63.457383644920128 80.585272521313527 0 0 0 0 -0.7864695984830754 0.74474986394343645 0 0.74474986394343645 -0.33927959560826082 0 0 0 0 7.2185640184576219 -35.173580944025161 0 -35.173580944025161 39.616800594212691 0 0 0 0 3.9552171301791752 65.865852362074293 0 65.865852362074293 2.4397695427651342 0 0 0 0 -20.983340362778094 -13.759112770624597 0 -13.759112770624597 149.42329771881487 0 0 0 0 0.42695777663152823 0.33204860597861341 0 0.33204860597861341 0.16982733933918936 0 0 0 0 -7.8588773759042567 2.6612829935884292 0 2.6612829935884292 -0.50435317213123199 0 0 0 0 8.574700947449017 32.93754674952379 0 32.93754674952379 56.389855773575619 0 0 0 0 -13.417364007469246 42.344386060884972 0 42.344386060884972 53.378826487525657 0 0 0 0 -9.2781510577385404 21.4859397950313 0 21.4859397950313 50.384525686378765 0 0 0 0 -24.37641354451398 17.059363205411501 0 17.059363205411501 -6.5823929302478064 0 0 0 0 0.98144915131235866 1.1194886915759135 0 1.1194886915759135 0.80182633701462613 0 0 0 0 -40.591338404039845 20.601281946172094 0 20.601281946172094 -7.4123825640836003 0 0 0 0 9.2706888944728973 80.559704787250666 0 80.559704787250666 -83.818793610450484 0 0 0 0 -33.572597386994701 43.586292642331045 0 43.586292642331045 54.275000099776662 0 0 0 0 -37.979482525241849 12.328523542035327 0 12.328523542035327 18.641709002231437 0 0 0 0 -0.67068896492749996 1.07796995381592 0 1.07796995381592 0.59814617368002843 0 0 0 0 0.53221899985089749 3.4456333887392248 0 3.4456333887392248 5.0376172551291347 0 0 0 0 0.83241107159693684 3.5133920076295908 0 3.5133920076295908 2.5888455724580126 0 0 0 0 -0.1035930513655785 2.204795471727266 0 2.204795471727266 5.4378103301487499 0 0 0 0 0.42970124404866483 2.1248434096341171 0 2.1248434096341171 1.4214203180091438 0 0 0 0 -0.65607902656297767 1.1847727611520895 0 1.1847727611520895 4.1048622182452164 0 0 0 0 6.2371041816266484 17.819294658725084 0 17.819294658725084 48.730335249603741 0 0 0 0 8.4498539880087193 19.396491529119203 0 19.396491529119203 40.953052504895822 0 0 0 0 7.3212847651204385 26.700792679881033 0 26.700792679881033 38.204845851059872 0 0 0 0 31.150861676704778 44.417293893282476 0 44.417293893282476 50.763413249183941 0 0 0 0 -6.0255562128584259 3.5674497448717375 0 3.5674497448717375 3.0478911128975597 0 0 0 0 -0.0046761172563100362 0.014078002107236642 0 0.014078002107236642 1.5166416180740185 0 0 0 0 -1.2204035521865428 7.317729914917436 0 7.317729914917436 1.1914503167590738 0 0 0 0 -4.0152006152729722 10.69777984083612 0 10.69777984083612 -1.9586913434795861 0 0 0 0 -0.020768727827440159 -0.12327542033358974 0 -0.12327542033358974 0.43920490784504551 0 0 0 0 -16.958136176616868 -13.421354485237316 0 -13.421354485237316 8.4764070392832309 0 0 0 0 -5.6411735169699533 16.599908761056213 0 16.599908761056213 18.989935427701312 0 0 0 0 -16.628803958178004 -9.9734424848365961 0 -9.9734424848365961 41.929858567462361 0 0 0 0 0.024983534627909879 13.39288377772391 0 13.39288377772391 -2.2236684557610715 0 0 0 0 0.24755393337998888 0.34567220865440129 0 0.34567220865440129 -0.012372524092008064 0 0 0 0 -8.6308530470190838 10.331654942590831 0 10.331654942590831 -1.7729355840756398 0 0 0 0 7.1390807546526425 5.5913357093495506 0 5.5913357093495506 -1.2439097570477315 0 0 0 0 -2.5095826510724564 5.1171979846376416 0 5.1171979846376416 2.0641417897495558 0 0 0 0 4.3934407292134949 7.0023266621847142 0 7.0023266621847142 -0.73166266862972407 0 0 0 0 3.5972330492181577 2.5413066092669396 0 2.5413066092669396 2.5920775503745972 0 0 0 0 0.98388691609382317 2.1971683887381737 0 2.1971683887381737 1.8293655791002834 0 0 0 0 -0.13818296239031724 2.0713096873091672 0 2.0713096873091672 5.6257312714296859 0 0 0 0 -0.028584871065959444 1.2454387726929781 0 1.2454387726929781 -0.70678335581396823 0 0 0 0 -1.241782811578882 0.97801454977980029 0 0.97801454977980029 5.0056447173301422 0 0 0 0 -0.17593885320750449 0.1000025421040398 0 0.1000025421040398 0.98509071282353133 0 0 0 0 -0.00070619949086246983 17.397011853208824 0 17.397011853208824 92.279326860762012 0 0 0 0 -1.1846804511080364 14.217414276525233 0 14.217414276525233 82.730532649914494 0 0 0 0 11.618584530493479 32.598172913820235 0 32.598172913820235 114.55835347640823 0 0 0 0 11.126094547563511 25.01945445696947 0 25.01945445696947 86.711456820899912 0 0 0 0 16.091933149691833 13.066703715632684 0 13.066703715632684 98.569500160177995 0 0 0 0 6.4953599739356349 15.974681260768193 0 15.974681260768193 101.89970757119954 0 0 0 0 6.5606521895296481 16.537700168580159 0 16.537700168580159 103.813545729623 0 0 0 0 4.4409501903277198 22.482305245394173 0 22.482305245394173 96.660132095506924 0 0 0 0 0.018023441526517178 19.979520922181109 0 19.979520922181109 101.10581671763794 0 0 0 0 14.549155914667338 24.331634202064379 0 24.331634202064379 98.803093341832209 0 0 0 0 -0.039382381586379286 29.854662426383584 0 29.854662426383584 97.235250605615875 0 0 0 0 13.505442780998784 17.863433288877786 0 17.863433288877786 105.87062957062881 0 0 0 0 14.271124747463675 14.42767256252327 0 14.42767256252327 97.765888148376689 0 0 0 0 15.395958253510393 10.604595492861336 0 10.604595492861336 89.883343999350473 0 0 0 0 16.113448746516042 19.659231554408507 0 19.659231554408507 96.316582441205355 0 0 0 0 37.867773400958811 63.996407609067774 0 63.996407609067774 100.93461130579635 0 0 0 0 1.1126576378954383 17.244464819370478 0 17.244464819370478 79.634269348145608 0 0 0 0 15.313793952992562 15.025300373123628 0 15.025300373123628 72.39155571874835 0 0 0 0 -10.579324180310508 12.534756018142161 0 12.534756018142161 97.738143724844122 0 0 0 0 -2.8579956008675538 2.9384679309423518 0 2.9384679309423518 91.21645564069695 0 0 0 0 1.7748323946532309 15.679319483569998 0 15.679319483569998 98.258499859763106 0 0 0 0 6.427075577087237 9.7577602715900866 0 9.7577602715900866 112.99303839993445 0 0 0 0 -0.72231026197388815 4.1169165195778987 0 4.1169165195778987 108.96648450521207 0 0 0 0 9.3977195181105628 6.2151681191553507 0 6.2151681191553507 91.765354028363618 0 0 0 0 8.6273468003339566 9.1124528693117099 0 9.1124528693117099 110.90368510508415 0 0 0 0 10.817087320733719 9.5476064594695345 0 9.5476064594695345 110.91936027381678 0 0 0 0 11.849977580519777 14.687087320107821 0 14.687087320107821 104.40750509897043 0 0 0 0 -7.8401317121041814 10.892461779962105 0 10.892461779962105 160.88096039897937 0 0 0 0 3.2491283104290147 29.622700427131349 0 29.622700427131349 -1.6870353092226651 0 0 0 0 0.078996608109115213 0.26430192041828349 0 0.26430192041828349 0.13824289658116495 0 0 0 0 6.5559357691020352 33.848360374206095 0 33.848360374206095 136.72249610278595 0 0 0 0 8.5129336558463677 17.170898208090875 0 17.170898208090875 130.81494644720806 0 0 0 0 19.526062826828536 -4.0384255411227059 0 -4.0384255411227059 -13.428011364312624 0 0 0 0 36.841814551714492 -36.91112237109337 0 -36.91112237109337 23.14434299057757 0 0 0 0 13.034021676447324 -5.8398255539132151 0 -5.8398255539132151 122.23759103618067 0 0 0 0 4.1394109765208214 -9.7495013117186318 0 -9.7495013117186318 139.04231900942614 0 0 0 0 1.9449445983922544 3.1853997770558635 0 3.1853997770558635 135.15185763253976 0 0 0 0 -0.1958198133404716 0.58625614453530162 0 0.58625614453530162 0.26250046040638275 0 0 0 0 -6.9927236234933048 1.7239696412452759 0 1.7239696412452759 142.03236592158839 0 0 0 0 -13.205244453687214 13.079899326296982 0 13.079899326296982 115.16274627547682 0 0 0 0 5.8176648837247029 7.9765197944839201 0 7.9765197944839201 112.97859406998759 0 0 0 0 -23.286883055869936 10.135790894218189 0 10.135790894218189 115.83442401829234 0 0 0 0 -18.595119521607899 25.717821096749049 0 25.717821096749049 111.52428364903608 0 0 0 0 -34.422004849336673 2.9851390616249773 0 2.9851390616249773 100.43148251513367 0 0 0 0 -41.33222636905338 22.486963101280708 0 22.486963101280708 111.0715963433322 0 0 0 0 -13.467155124674889 13.737855839144686 0 13.737855839144686 104.38062365514998 0 0 0 0 -13.741297405190693 15.032194562385484 0 15.032194562385484 114.59657545830964 0 0 0 0 -8.0727746956805433 10.963495459556043 0 10.963495459556043 72.722018613736509 0 0 0 0 -46.738342914427037 18.533880370315273 0 18.533880370315273 74.781149386693869 0 0 0 0 1.0828243812446829 18.340272372321323 0 18.340272372321323 40.28002731626475 0 0 0 0 -87.484293319223198 -43.066927046752426 0 -43.066927046752426 29.976561617955213 0 0 0 0 -0.26485394279121421 0.22460151165406117 0 0.22460151165406117 0.075325721678225932 0 0 0 0 -44.36937578638998 21.418712125750972 0 21.418712125750972 114.87161721281609 0 0 0 0 -11.489338551195488 -2.1580209970170472 0 -2.1580209970170472 101.11773372633888 0 0 0 0 47.835703725367154 37.540406453603737 0 37.540406453603737 53.040152342873625 0 0 0 0 15.86957444589973 2.2052695033162308 0 2.2052695033162308 16.011173107986906 0 0 0 0 -6.7784667641704459 37.095373599147933 0 37.095373599147933 -23.365452741478293 0 0 0 0 11.998806004275821 -41.490605405097995 0 -41.490605405097995 0.9639897891174769 0 0 0 0 -12.156887120689731 -54.773917518909457 0 -54.773917518909457 49.970283765171189 0 0 0 0 -25.885393364461493 -53.314197498265912 0 -53.314197498265912 126.11727072625581 0 0 0 0 -8.918969349662035 -23.543714247955336 0 -23.543714247955336 70.723068396458984 0 0 0 0 -22.952330073038524 -53.915359699594774 0 -53.915359699594774 153.47683920916461 0 0 0 0 -44.501160733135919 6.7305583449742699 0 6.7305583449742699 159.48239315256069 0 0 0 0 -52.89553764633439 5.7360841491677093 0 5.7360841491677093 310.01587183384618 0 0 0 0 194.88621836244982 129.18717895537793 0 129.18717895537793 124.9117843138356 0 0 0 0 -39.364067524401378 9.6318725375331269 0 9.6318725375331269 141.20413325229674 0 0 0 0 -0.27312000150852911 0.25863211302798916 0 0.25863211302798916 0.16254276233295573 0 0 0 0 -6.5462319911699751 117.15437769204527 0 117.15437769204527 158.63539331940456 0 0 0 0 -6.1417979115141463 59.294775291675705 0 59.294775291675705 18.921239420849815 0 0 0 0 -49.278790753641943 8.163496634690091 0 8.163496634690091 164.27979721177388 0 0 0 0 12.771824625566353 38.571443707067374 0 38.571443707067374 32.472068598077385 0 0 0 0 14.846151891411029 6.9314875511196306 0 6.9314875511196306 41.987498679516648 0 0 0 0 -1.8609980189488624 6.8202946309731942 0 6.8202946309731942 -9.6953610318851133 0 0 0 0 0.36031674236203082 0.093140471588135654 0 0.093140471588135654 -0.067732237559527064 0 0 0 0 48.321052512698714 22.611612464469545 0 22.611612464469545 -52.550244877709702 0 0 0 0 1.3511824153356997 0.26338766179651429 0 0.26338766179651429 1.4125291310647299 0 0 0 0 0.43471269898231357 0.36636620029471345 0 0.36636620029471345 0.29328720005640996 0 0 0 0 0.3789671975690645 0.54616715940436222 0 0.54616715940436222 0.13649360169411118 0 0 0 0 18.112865640988161 23.239424942343248 0 23.239424942343248 -7.2026181042456301 0 0 0 0 -15.544843708168074 63.306013066168362 0 63.306013066168362 85.495167290566314 0 0 0 0 7.2439568577796436 11.488854667157284 0 11.488854667157284 -16.408901330554727 0 0 0 0 -8.0462557143337392 7.7753516796110489 0 7.7753516796110489 3.9942451677143254 0 0 0 0 -1.5643691602770105 -0.4245828204384452 0 -0.4245828204384452 2.0438869674053421 0 0 0 0 6.1369297733123176 8.0313533533862937 0 8.0313533533862937 -7.983205020575042 0 0 0 0 -0.25178512726735214 0.1373989715149655 0 0.1373989715149655 -0.019218939805915269 0 0 0 0 0.0099621520755590609 -2.2745438267047575 0 -2.2745438267047575 22.353146840028785 0 0 0 0 -13.791116113564158 -5.2408206717736903 0 -5.2408206717736903 25.93454195135746 0 0 0 0 -14.256958214202996 0.95026642644734238 0 0.95026642644734238 28.967610714221792 0 0 0 0 -10.871512092157779 -0.31082035668134722 0 -0.31082035668134722 21.146289598818839 0 0 0 0 -1.7814138919124503 -7.0621810133688996 0 -7.0621810133688996 16.795095878877873 0 0 0 0 -10.853600958745588 -0.60726554004770605 0 -0.60726554004770605 26.051969796757476 0 0 0 0 -10.519685932685888 1.0886419967173424 0 1.0886419967173424 19.66328427794906 0 0 0 0 -32.591828303662567 8.2624424354653456 0 8.2624424354653456 -21.873533676873194 0 0 0 0 -1.7161429267662811 -6.225136626197127 0 -6.225136626197127 27.160528012621285 0 0 0 0 -0.10490819183708 0.044706255438093478 0 0.044706255438093478 0.13044381999825561 0 0 0 0 0.18783739786266551 2.6681447630508046 0 2.6681447630508046 27.883021346775422 0 0 0 0 2.0134337885230593 5.83091121245252 0 5.83091121245252 31.39541547972658 0 0 0 0 -4.785577514438728 5.8093699730525259 0 5.8093699730525259 39.276056356206027 0 0 0 0 -0.65111571556830483 0.27003674952340262 0 0.27003674952340262 -0.01084716951418585 0 0 0 0 4.5861807743458485 11.188766428635518 0 11.188766428635518 15.892331467746772 0 0 0 0 -8.4943380926492864 1.1501819351615268 0 1.1501819351615268 36.172018594421388 0 0 0 0 -9.9190038007152168 28.99462259517577 0 28.99462259517577 -17.783575993980776 0 0 0 0 -3.9718940734202874 14.294328777357805 0 14.294328777357805 15.598575040122114 0 0 0 0 2.4528574421509006 14.575064640476739 0 14.575064640476739 -5.9255439058688353 0 0 0 0 -4.3504337160842823 15.514544538255905 0 15.514544538255905 22.274050326581346 0 0 0 0 -9.3417012520675016 6.4676618002449686 0 6.4676618002449686 39.139654430611699 0 0 0 0 -0.64361695722669676 0.25451620303859102 0 0.25451620303859102 -0.0028301695677157568 0 0 0 0 -1.1660904594753667 -2.6037110923170985 0 -2.6037110923170985 1.0146136093098903 0 0 0 0 -9.835527938553092 10.162101036650256 0 10.162101036650256 7.1190913309255848 0 0 0 0 -1.1404442813289961 16.060124059686132 0 16.060124059686132 -9.8824008594456245 0 0 0 0 -4.9368023350811683 0.37419594706261705 0 0.37419594706261705 -12.268745383749774 0 0 0 0 -4.9315882226544119 -8.3621080502471159 0 -8.3621080502471159 19.101873867581162 0 0 0 0 -6.9245777805083861 20.625384094702895 0 20.625384094702895 19.01216666484197 0 0 0 0 6.5446391533120192 4.6312657783205395 0 4.6312657783205395 -0.37638338154647499 0 0 0 0 -12.822780925713886 15.133615544667919 0 15.133615544667919 -4.1661940109552233 0 0 0 0 -4.4005024425095485 2.4972416422133392 0 2.4972416422133392 -27.910111943094307 0 0 0 0 -2.5433869562092326 23.849925919425004 0 23.849925919425004 -53.97193458253787 0 0 0 0 0.86336476784046945 0.88930208465878025 0 0.88930208465878025 0.45811954762615592 0 0 0 0 -5.9066303766850226 13.808924662126174 0 13.808924662126174 -47.061134296440287 0 0 0 0 1.0165926406309027 1.0720385743352523 0 1.0720385743352523 0.55914233066464902 0 0 0 0 20.142786005978337 -5.1929921119526625 0 -5.1929921119526625 23.104900913167512 0 0 0 0 -6.6027958481103042 -42.537968583088514 0 -42.537968583088514 91.115179093267216 0 0 0 0 27.098594085743471 32.318837954431956 0 32.318837954431956 69.931829791024938 0 0 0 0 0.33412870401325606 0.39618888143129638 0 0.39618888143129638 0.24462879330698506 0 0 0 0 -31.713556633056101 39.11605788457382 0 39.11605788457382 207.08691550533695 0 0 0 0 11.9200433090883 43.103922970882195 0 43.103922970882195 -64.764913469092789 0 0 0 0 -6.2980225447387213 0.22841202228391921 0 0.22841202228391921 -28.825193900873273 0 0 0 0 -21.62774592660881 17.304623304193228 0 17.304623304193228 -18.412933283729217 0 0 0 0 13.27079695238352 22.005429381064459 0 22.005429381064459 16.63614677138321 0 0 0 0 10.728916902364858 14.494822612972712 0 14.494822612972712 -1.9376263778649445 0 0 0 0 8.527446625261291 52.929601728890702 0 52.929601728890702 19.592433238369267 0 0 0 0 0.40743090523054093 34.901347336531217 0 34.901347336531217 40.663618589642283 0 0 0 0 8.0114151562373905 11.77781793010945 0 11.77781793010945 110.57603778327029 0 0 0 0 -5.0608563428396209 24.457854098280222 0 24.457854098280222 60.256243517369512 0 0 0 0 -0.015422217244739522 0.089553443476646066 0 0.089553443476646066 0.034334214422555576 0 0 0 0 5.3447204747439194 16.182908312831387 0 16.182908312831387 27.448773651663942 0 0 0 0 1.5901386787979348 9.5968573528643901 0 9.5968573528643901 49.077805229138903 0 0 0 0 4.7835071650858509 16.967093048600873 0 16.967093048600873 42.354203309370405 0 0 0 0 0.98940737532629441 9.5759867208089418 0 9.5759867208089418 27.402098983213094 0 0 0 0 6.147975146012012 5.0442572449178442 0 5.0442572449178442 18.847996497646818 0 0 0 0 6.5301107947080936 5.6141539172767807 0 5.6141539172767807 19.630323777077137 0 0 0 0 6.577421711563054 5.4672975781642208 0 5.4672975781642208 5.9050267194397748 0 0 0 0 0.12627486413899192 8.7600815659861837 0 8.7600815659861837 10.511609731020144 0 0 0 0 -2.5358544521822068 3.7170315256262256 0 3.7170315256262256 16.028563422004709 0 0 0 0 6.3894706385543074 1.810200502657608 0 1.810200502657608 15.935803566932464 0 0 0 0 3.6479272218700061 -0.50688074698609853 0 -0.50688074698609853 21.971529831543194 0 0 0 0 -0.20831157103727094 10.544848299996374 0 10.544848299996374 8.959542752836569 0 0 0 0 -0.23162984597274772 9.1064990387812941 0 9.1064990387812941 11.757331794604397 0 0 0 0 -7.3894467704588536 21.641246719858827 0 21.641246719858827 -6.6410830660061038 0 0 0 0 -4.9970964238635815 4.4935537278761331 0 4.4935537278761331 29.583554614603599 0 0 0 0 -0.24600430693486458 0.11746960212624558 0 0.11746960212624558 -0.0039991482185186555 0 0 0 0 2.7296698598652114 25.426087683139485 0 25.426087683139485 2.8130399174356171 0 0 0 0 -13.90738454043502 19.34441647384574 0 19.34441647384574 22.932389153791519 0 0 0 0 -14.127370614982219 13.792770392931061 0 13.792770392931061 31.053943862596498 0 0 0 0 11.501282321351145 13.27453443403283 0 13.27453443403283 -0.85154620233060996 0 0 0 0 -0.0042037881204310401 8.6689850573138756 0 8.6689850573138756 27.234250825133131 0 0 0 0 11.338190372977941 8.7548447399827865 0 8.7548447399827865 9.3981841424847516 0 0 0 0 4.2703409718753278 19.626508272220235 0 19.626508272220235 15.003316718441056 0 0 0 0 0.014370745829766801 16.243350250108961 0 16.243350250108961 20.576729109086045 0 0 0 0 7.0514725503411313 9.6900303486881967 0 9.6900303486881967 28.89709347533244 0 0 0 0 5.6804077557337163 16.586700175255373 0 16.586700175255373 20.255231731967797 0 0 0 0 2.5116647365233713 18.661374586075226 0 18.661374586075226 22.871201885942355 0 0 0 0 -0.0043910012890132633 0.12204700866427487 0 0.12204700866427487 0.071393459803461568 0 0 0 0 6.4526777134150057 18.236131453714279 0 18.236131453714279 82.470968041565357 0 0 0 0 -3.9334719817993573 -40.048864134044379 0 -40.048864134044379 114.44274720419298 0 0 0 0 -16.61991025725581 -2.1486732558673793 0 -2.1486732558673793 27.779240997280795 0 0 0 0 -19.258939178472588 53.12551468475931 0 53.12551468475931 161.26054543054124 0 0 0 0 0.50390014448919596 -0.77099941401833405 0 -0.77099941401833405 1.2818898277553856 0 0 0 0 13.491487248219016 -23.596452256175553 0 -23.596452256175553 4.8959443199037196 0 0 0 0 5.3218820116314873 -1.7367785731476033 0 -1.7367785731476033 -2.684870843580029 0 0 0 0 -2.6040216473888904 -20.753583801977129 0 -20.753583801977129 30.253158557017741 0 0 0 0 13.433412976127897 -12.243054294253398 0 -12.243054294253398 6.7652149257337442 0 0 0 0 -12.429732688236982 -10.12025558870846 0 -10.12025558870846 18.757324194437388 0 0 0 0 -30.561720816139996 -8.3097070400599478 0 -8.3097070400599478 21.756623532439562 0 0 0 0 -1.10345210017602 2.3431783816502763 0 2.3431783816502763 12.558987888397866 0 0 0 0 15.020305431223193 5.024243067063253 0 5.024243067063253 10.133581463460359 0 0 0 0 -0.88023328194806272 2.4448616265876533 0 2.4448616265876533 12.995871882374296 0 0 0 0 24.705620152291658 -2.4329529392543918 0 -2.4329529392543918 18.413126166470192 0 0 0 0 -20.95471969291907 11.223456116136276 0 11.223456116136276 19.276891048568359 0 0 0 0 -21.025618906015552 -3.1773694390462879 0 -3.1773694390462879 40.701723217474864 0 0 0 0 -25.587972975925368 7.3029004433965383 0 7.3029004433965383 16.782885938178424 0 0 0 0 -28.899168484258098 32.699444854877584 0 32.699444854877584 34.781356105157101 0 0 0 0 6.0124082438781166 6.7751865241944653 0 6.7751865241944653 4.3426740028119575 0 0 0 0 -20.941073809656473 31.133996969698273 0 31.133996969698273 -6.0675288528318561 0 0 0 0 85.04483120492408 46.394007493318895 0 46.394007493318895 491.89923807640844 0 0 0 0 0.48140584447632495 2.9187191109267219 0 2.9187191109267219 0.79121955024636037 0 0 0 0 132.0618763483036 -102.67828759639451 0 -102.67828759639451 93.792145990615609 0 0 0 0 -185.17638876264127 -274.80902879589166 0 -274.80902879589166 142.20801883111926 0 0 0 0 -107.81004872827532 30.515921587432445 0 30.515921587432445 405.19292128958841 0 0 0 0 -101.24099385070247 -32.719709039522058 0 -32.719709039522058 124.62915740103927 0 0 0 0 -32.896486708473844 134.90969316381961 0 134.90969316381961 138.9139753641648 0 0 0 0 -33.785826082657145 126.31263660971445 0 126.31263660971445 78.20313610161611 0 0 0 0 -20.73479498512549 89.549902746723546 0 89.549902746723546 80.274568433944296 0 0 0 0 -32.796076547702569 114.359934267065 0 114.359934267065 50.59818763344083 0 0 0 0 -2.6311855330325216 58.427996906261797 0 58.427996906261797 95.696583557153645 0 0 0 0 -13.049594240607462 99.321403716374334 0 99.321403716374334 50.473804581866716 0 0 0 0 -12.944550305328903 -58.874375822749244 0 -58.874375822749244 -50.131742447510987 0 0 0 0 0.97352331540881298 1.111576663887881 0 1.111576663887881 1.1003901077034381 0 0 0 0 91.529680483546144 126.30404659627311 0 126.30404659627311 33.165165856251406 0 0 0 0 -5.2187653118502908 -168.65087252673766 0 -168.65087252673766 477.17084426382485 0 0 0 0 2.6239212723117573 3.1498773430018989 0 3.1498773430018989 2.7788222072125048 0 0 0 0 66.139991078355962 -146.09857190439016 0 -146.09857190439016 384.8111736053379 0 0 0 0 4.4351077089602198 5.075341056404433 0 5.075341056404433 2.9435584855941865 0 0 0 0 28.67336128206739 77.242611106892582 0 77.242611106892582 -83.824639401861532 0 0 0 0 73.433528359976094 -65.975310699193869 0 -65.975310699193869 364.91450188281306 0 0 0 0 -12.189002794917542 24.325431793504322 0 24.325431793504322 -34.388236786791822 0 0 0 0 7.9665959690373711 80.119814991488965 0 80.119814991488965 88.448738637900306 0 0 0 0 16.975386040891294 -41.813326849953228 0 -41.813326849953228 60.637236231006682 0 0 0 0 86.213825358420536 40.739452164742033 0 40.739452164742033 -26.142368476128468 0 0 0 0 -40.409239714770592 44.483059301013782 0 44.483059301013782 -24.838560144942676 0 0 0 0 -23.31717570493106 30.414049375346622 0 30.414049375346622 -9.4427738294543815 0 0 0 0 2.2959377981368871 2.8634093825645408 0 2.8634093825645408 1.8016450488898066 0 0 0 0 2.1181047907839456 57.01155654341801 0 57.01155654341801 -142.64988714588435 0 0 0 0 -57.026778110029682 -158.57681625177065 0 -158.57681625177065 376.19820917129255 0 0 0 0 8.7964162323014534 -17.547227275921614 0 -17.547227275921614 -80.364921249027248 0 0 0 0 -67.693606028316481 50.557146174123773 0 50.557146174123773 -29.137145953934152 0 0 0 0 -4.6551446216020622 52.894410751513533 0 52.894410751513533 -14.333910005488178 0 0 0 0 -34.138412114091949 -8.5516305337641825 0 -8.5516305337641825 -64.431069789532557 0 0 0 0 39.398593433446194 114.96618911771111 0 114.96618911771111 -173.08236660814237 0 0 0 0 -45.057027894209341 -3.6184890571203141 0 -3.6184890571203141 73.122503151614183 0 0 0 0 -49.031369792313626 21.235668242626161 0 21.235668242626161 72.770167463650068 0 0 0 0 -14.352408187897026 -5.4887594359897776 0 -5.4887594359897776 -27.428109444942152 0 0 0 0 0.068846719622007474 0.67593281182906928 0 0.67593281182906928 0.72841082016024927 0 0 0 0 163.81768763060995 108.24904292131214 0 108.24904292131214 29.382566429787403 0 0 0 0 153.99491646708123 -70.208636528725037 0 -70.208636528725037 -240.04303471457752 0 0 0 0 116.79117019812463 59.040022904988291 0 59.040022904988291 -4.5515308865178667 0 0 0 0 0.078799950620999759 31.716771706325972 0 31.716771706325972 27.485963612671185 0 0 0 0 83.250318774824692 112.24418072556955 0 112.24418072556955 42.82645532481547 0 0 0 0 69.793088616415389 95.399303606787726 0 95.399303606787726 21.853920617024869 0 0 0 0 67.231179500823316 107.26852989419967 0 107.26852989419967 -29.243191143028525 0 0 0 0 21.539790197313955 136.42171121624961 0 136.42171121624961 12.733333363525162 0 0 0 0 -13.15371857070069 -2.7016105900947878 0 -2.7016105900947878 131.29663798303955 0 0 0 0 71.171637728815028 63.373642290589487 0 63.373642290589487 53.02784248026569 0 0 0 0 38.161603999454485 83.50353124268986 0 83.50353124268986 96.854304744983892 0 0 0 0 192.17815705999652 120.10649495039252 0 120.10649495039252 198.67168214121193 0 0 0 0 0.11379770175586196 0.53446394627948912 0 0.53446394627948912 2.8086222622534507 0 0 0 0 80.778021305440348 97.754043666028565 0 97.754043666028565 154.21284858956278 0 0 0 0 199.11255049052306 82.181260495412062 0 82.181260495412062 133.25644924739208 0 0 0 0 28.531664963482683 44.091514705653481 0 44.091514705653481 293.89463811294991 0 0 0 0 83.873674386139953 -59.993725679274576 0 -59.993725679274576 135.75933876162526 0 0 0 0 41.15775085812912 24.94943411996087 0 24.94943411996087 107.39230437840524 0 0 0 0 -43.059169538243765 -47.883176535832774 0 -47.883176535832774 86.884903209580443 0 0 0 0 -40.349063906369679 -6.2461496705236641 0 -6.2461496705236641 146.17788574630595 0 0 0 0 3.2853507858627893 -47.987199335555488 0 -47.987199335555488 -13.53025560221613 0 0 0 0 61.260904173500535 -4.8366561885977717 0 -4.8366561885977717 3.6955878996413958 0 0 0 0 -7.6077326775089205 13.572552512514449 0 13.572552512514449 70.72952218010505 0 0 0 0 -22.716375284699211 -3.1233692058767701 0 -3.1233692058767701 76.230443444255798 0 0 0 0 -33.066608560417876 3.0129720114455267 0 3.0129720114455267 76.775789638471906 0 0 0 0 -29.338790691587462 15.409799136953097 0 15.409799136953097 117.41415407085697 0 0 0 0 -12.548358211847543 -25.614962780433586 0 -25.614962780433586 46.796973493352198 0 0 0 0 -13.488858680565954 -36.282107831528265 0 -36.282107831528265 11.679198010649998 0 0 0 0 0.44158420779308472 2.6027533841643162 0 2.6027533841643162 33.448087123029836 0 0 0 0 -8.7292994921965033 -1.3960435239509934 0 -1.3960435239509934 6.718086958369895 0 0 0 0 -7.6585099653930797 -7.8480914038938749 0 -7.8480914038938749 4.3509637200604629 0 0 0 0 1.3827144951957577 -2.577197645833504 0 -2.577197645833504 3.1650611201098364 0 0 0 0 3.5155218959358194 -4.693973167317381 0 -4.693973167317381 -0.45386471118536065 0 0 0 0 -1.2761827788626761 -3.8764642908517999 0 -3.8764642908517999 3.4157399233272372 0 0 0 0 0.50948695920665932 -0.93754524692764107 0 -0.93754524692764107 0.19970648656134671 0 0 0 0 -0.68954497746091581 -1.33091051985466 0 -1.33091051985466 2.1911904828555251 0 0 0 0 -0.65532047466716392 -1.3123777853325009 0 -1.3123777853325009 1.747839563467096 0 0 0 0 -2.0564060832045827 -0.80592430125065917 0 -0.80592430125065917 2.4010819112801514 0 0 0 0 -0.82718630228345091 -1.4503645905515441 0 -1.4503645905515441 3.2096418611290574 0 0 0 0 -1.2996593679669346 0.47486522331137238 0 0.47486522331137238 0.52605714225432187 0 0 0 0 -1.3795323726030664 -0.58369569349930117 0 -0.58369569349930117 1.3845679345378716 0 0 0 0 -2.6196242016639895 -0.51947972258175668 0 -0.51947972258175668 0.52113518118309266 0 0 0 0 -5.3666583500508978 -2.9117425464341977 0 -2.9117425464341977 9.9070413083527455 0 0 0 0 -2.4988025209565183 1.1431728753747379 0 1.1431728753747379 2.1142418751012357 0 0 0 0 -2.8179885612879616 -0.5032657277852195 0 -0.5032657277852195 7.0500621876453806 0 0 0 0 86.562737512795508 2.3015321523603234 0 2.3015321523603234 -26.214035459159277 0 0 0 0 -12.996375801757381 -9.870688365353999 0 -9.870688365353999 -27.450585226263684 0 0 0 0 -6.8654234904989835 -5.8921268569938547 0 -5.8921268569938547 0.88002004775717069 0 0 0 0 -41.318639942883429 -17.86997577889997 0 -17.86997577889997 -1.6436373167562124 0 0 0 0 2.0048246718170617 -15.000192212825823 0 -15.000192212825823 -28.123238476171537 0 0 0 0 -1.6484978291286367 -0.8633923386942115 0 -0.8633923386942115 3.7013043984898104 0 0 0 0 -0.32593232061407035 -0.19559693208254814 0 -0.19559693208254814 0.3326500607180467 0 0 0 0 -1.0850481314811589 -0.27718241494676477 0 -0.27718241494676477 2.407384818441642 0 0 0 0 -0.32996971695900162 -0.62133547226635599 0 -0.62133547226635599 1.3675068033380811 0 0 0 0 -0.35744780018939304 -0.011130314484759651 0 -0.011130314484759651 0.52351622130528597 0 0 0 0 -0.45866965038206708 0.32457435840784044 0 0.32457435840784044 0.39128639280489352 0 0 0 0 0.6654746405242804 0.015488993951294105 0 0.015488993951294105 1.8458648330488359 0 0 0 0 -27.793468793001011 -0.82950787716254126 0 -0.82950787716254126 0.93024688731202332 0 0 0 0 26.287870581601055 2.5091551629811875 0 2.5091551629811875 0.071534720271756669 0 0 0 0 -16.342240471322896 4.8732963523971193 0 4.8732963523971193 22.038824294580991 0 0 0 0 -27.172372065207469 2.1960297969326348 0 2.1960297969326348 28.904514732865209 0 0 0 0 -22.946790503953224 22.000559577130161 0 22.000559577130161 25.183251595277397 0 0 0 0 5.5724317526409095 12.9040993157505 0 12.9040993157505 21.733109877826791 0 0 0 0 -8.8257495978496081 11.180715005622915 0 11.180715005622915 21.526861980639296 0 0 0 0 2.2268778444745294 4.1824407459043869 0 4.1824407459043869 17.588359010856948 0 0 0 0 -1.9976593896478505 -2.6809998977764735 0 -2.6809998977764735 19.924471986481876 0 0 0 0 -3.006631705244331 -1.3717778980244475 0 -1.3717778980244475 19.627606798246234 0 0 0 0 -1.3146036643462935 -0.33197542087418697 0 -0.33197542087418697 27.06550538418378 0 0 0 0 9.2433971195268754 -2.5247712742989279 0 -2.5247712742989279 19.721940547129634 0 0 0 0 -3.5799493325775416 -0.48454616284288932 0 -0.48454616284288932 14.580830310133024 0 0 0 0 -10.001465331155828 -0.65038805354015494 0 -0.65038805354015494 14.616173251841019 0 0 0 0 -4.1217507873481027 0.55118419768389382 0 0.55118419768389382 17.214924229796452 0 0 0 0 -9.8622567611982959 3.0012072307399649 0 3.0012072307399649 17.4833102625621 0 0 0 0 -10.594565217945842 -0.14451575577732001 0 -0.14451575577732001 16.576829890716908 0 0 0 0 -9.4200529696923354 4.5593665945229986 0 4.5593665945229986 21.169268018675211 0 0 0 0 -2.6710579054308283 -6.2956874758274353 0 -6.2956874758274353 23.253345137280121 0 0 0 0 -1.6929411158787471 0.23241717733505141 0 0.23241717733505141 0.83710253229949139 0 0 0 0 -3.2849119360856704 0.88757298099335458 0 0.88757298099335458 3.5436761315486365 0 0 0 0 -0.49796839688150385 -2.8250141220223668 0 -2.8250141220223668 19.651269159816366 0 0 0 0 -2.3042302382673938 -2.4016672205716532 0 -2.4016672205716532 14.139379719779754 0 0 0 0 -4.12387889979634 -5.7248298638242918 0 -5.7248298638242918 17.751795726902856 0 0 0 0 -2.2196038409100538 -7.4601446740425672 0 -7.4601446740425672 13.00158188664318 0 0 0 0 1.0578940800650685 -3.1314524567733315 0 -3.1314524567733315 17.421703146775144 0 0 0 0 12.506106291499577 12.849956889271198 0 12.849956889271198 17.084685104445725 0 0 0 0 -0.34763156114493032 0.58000128828362563 0 0.58000128828362563 -0.25937618646143079 0 0 0 0 2.1909105707212575 -21.829832922320747 0 -21.829832922320747 23.73497245619501 0 0 0 0 -21.023379507598975 -4.3504112669088499 0 -4.3504112669088499 37.396264413497192 0 0 0 0 -3.6978181899502118 0.21439064919013617 0 0.21439064919013617 14.915400656978818 0 0 0 0 -0.73381717358926613 -1.2763170818810234 0 -1.2763170818810234 12.381514039069579 0 0 0 0 -4.9030679751614343 6.2168551378608754 0 6.2168551378608754 2.6803715431597084 0 0 0 0 -3.6820758633621153 -0.88014660578392068 0 -0.88014660578392068 7.5549731199207599 0 0 0 0 -2.9704297396383481 -1.4003405248367926 0 -1.4003405248367926 7.39284766567107 0 0 0 0 -3.7084433754116826 1.2841161808969197 0 1.2841161808969197 4.4822595632133115 0 0 0 0 -3.2260008454147737 -0.84734614927401708 0 -0.84734614927401708 6.5877844358728908 0 0 0 0 -4.8697658601613796 5.7444211730564803 0 5.7444211730564803 -2.9522957310291531 0 0 0 0 -2.3604275902520158 -0.48925676422823017 0 -0.48925676422823017 6.1542194270018626 0 0 0 0 -3.8586102668266973 1.2053869921981573 0 1.2053869921981573 2.0866680507990587 0 0 0 0 -2.8485529109026428 -0.22110208623176675 0 -0.22110208623176675 1.1394653746283652 0 0 0 0 -2.8744267486081299 -5.3950391601365482 0 -5.3950391601365482 14.071452276670243 0 0 0 0 -3.5761648559399646 -1.3032131432100869 0 -1.3032131432100869 8.0115888740729133 0 0 0 0 3.085759244855879 -5.9520122670310798 0 -5.9520122670310798 3.9704266040025686 0 0 0 0 3.3738899608274124 -10.400775222376751 0 -10.400775222376751 7.6313179729258991 0 0 0 0 -0.26988295819319319 -2.1511912223195395 0 -2.1511912223195395 6.412017952046881 0 0 0 0 -0.19730195438796727 -3.2852627786860467 0 -3.2852627786860467 10.086575472071672 0 0 0 0 4.5315159201150266 -3.0983594292365524 0 -3.0983594292365524 11.498746534060501 0 0 0 0 -5.1959400634220856 -10.722314971459127 0 -10.722314971459127 9.5954792508312039 0 0 0 0 -13.733220282574393 -0.33366628230487549 0 -0.33366628230487549 7.5810556473043107 0 0 0 0 -19.788410008900655 -6.8808155522337984 0 -6.8808155522337984 19.161776012584596 0 0 0 0 -5.2009678176482339 -10.579742250086383 0 -10.579742250086383 11.079094157579675 0 0 0 0 -4.3227963757317411 -3.500740508785384 0 -3.500740508785384 22.178946196196193 0 0 0 0 -0.086961315316974597 -1.3084805835319737 0 -1.3084805835319737 -0.72429391724607228 0 0 0 0 -1.1449083195091134 -11.303000286572569 0 -11.303000286572569 9.2144587733200751 0 0 0 0 -4.7307432731745376 -4.3453232293808739 0 -4.3453232293808739 4.9137308265819231 0 0 0 0 -0.18559618302103592 -1.8415755207355797 0 -1.8415755207355797 15.364962721979737 0 0 0 0 7.34536260296926 -3.6751131294536208 0 -3.6751131294536208 3.303695344235166 0 0 0 0 -1.6223186174727418 0.8722638821258295 0 0.8722638821258295 11.527038134508409 0 0 0 0 -3.8459559212013374 -1.0944450709030207 0 -1.0944450709030207 9.3544906104227721 0 0 0 0 19.338721714444091 21.992816155381661 0 21.992816155381661 12.86318723006525 0 0 0 0 8.6862607690654841 29.87249839022752 0 29.87249839022752 48.512159210316895 0 0 0 0 13.215075320310007 60.374428707293191 0 60.374428707293191 10.027143106729454 0 0 0 0 -12.432300491048863 -2.5740952488140465 0 -2.5740952488140465 -5.8834650925600727 0 0 0 0 -28.190385266446356 -55.337247368792305 0 -55.337247368792305 -101.35435622229488 0 0 0 0 -0.55229298816811934 -1.399902569490223 0 -1.399902569490223 6.627411424427919 0 0 0 0 -1.7609117915600749 -2.4112416964397756 0 -2.4112416964397756 9.9055964647842973 0 0 0 0 -1.9257741288205501 -5.806262077654857 0 -5.806262077654857 4.5136557090134097 0 0 0 0 -1.5386883497621966 8.9525071984735405 0 8.9525071984735405 -80.997641927770474 0 0 0 0 -30.555399235547839 26.00969702438033 0 26.00969702438033 118.13123853138586 0 0 0 0 -0.077848417084851462 77.81437254798584 0 77.81437254798584 20.937554787348745 0 0 0 0 1.2017038232736468 42.149203480158576 0 42.149203480158576 50.517213587167589 0 0 0 0 23.624674179014846 19.268935605330967 0 19.268935605330967 73.722324762804419 0 0 0 0 -2.1081202881944701 1.0744098631276131 0 1.0744098631276131 16.934907777560881 0 0 0 0 -7.7570112236095667 -1.0067025388511865 0 -1.0067025388511865 16.730080740049743 0 0 0 0 -4.561937897696339 0.61975880798036087 0 0.61975880798036087 14.684270265446685 0 0 0 0 -8.1536535206251415 -17.996105584629049 0 -17.996105584629049 178.49380693679632 0 0 0 0 -2.2620328800174088 -0.36134438207581177 0 -0.36134438207581177 8.6241412159658921 0 0 0 0 -4.2762986012471629 -2.9725152987211914 0 -2.9725152987211914 10.151348246090038 0 0 0 0 -5.7305104210752233 -0.15732551096516545 0 -0.15732551096516545 20.585469870264205 0 0 0 0 -0.62003340884371028 -4.3450421686138725 0 -4.3450421686138725 8.1443842033477267 0 0 0 0 -0.62459059572303455 0.2461322870814886 0 0.2461322870814886 3.2000216900197174 0 0 0 0 -5.6208564205945777 0.63928647922875825 0 0.63928647922875825 12.680372668462951 0 0 0 0 -4.0962399523680801 1.5026259065598424 0 1.5026259065598424 15.423076678488087 0 0 0 0 -7.9513940189543177 -3.0911310039155069 0 -3.0911310039155069 15.04308790048799 0 0 0 0 -8.8510940496114472 3.5546690599294379 0 3.5546690599294379 11.576360440179997 0 0 0 0 -0.5143718716430703 0.52890295354695027 0 0.52890295354695027 2.4991941407508662 0 0 0 0 -4.9341827454672966 0.91378958345376304 0 0.91378958345376304 13.280629867895186 0 0 0 0 -6.2016560488044661 2.0308175970731099 0 2.0308175970731099 14.593972941307584 0 0 0 0 -4.7183335528222869 0.39085422968491912 0 0.39085422968491912 14.546572182600357 0 0 0 0 -5.9306693095329024 1.4774787323312921 0 1.4774787323312921 15.695326622013454 0 0 0 0 0.37514750948412257 28.253399846665616 0 28.253399846665616 13.702232961072696 0 0 0 0 10.432030786375549 -12.624801195004693 0 -12.624801195004693 23.948584519164797 0 0 0 0 1.5532130651103127 -1.6349998993859609 0 -1.6349998993859609 4.6711098378887321 0 0 0 0 11.636924566952985 -26.181215652311039 0 -26.181215652311039 97.180271665095006 0 0 0 0 1.7632253434679068 0.14088451816448977 0 0.14088451816448977 0.00079947522451107034 0 0 0 0 50.960772826249354 -43.190356232745899 0 -43.190356232745899 -43.894694996108228 0 0 0 0 1.8308256960716545 -0.76842837783203777 0 -0.76842837783203777 6.8898833449211452 0 0 0 0 -0.65213440377222476 2.7822923415542959 0 2.7822923415542959 10.890254282907335 0 0 0 0 -0.35327608574749192 1.2689845726609459 0 1.2689845726609459 4.9864928019314547 0 0 0 0 0.023530156103582556 -0.70437683636669135 0 -0.70437683636669135 10.153820602419728 0 0 0 0 12.407736281370489 12.184120526613697 0 12.184120526613697 13.448846387393132 0 0 0 0 1.4295618021518863 1.8883704925277733 0 1.8883704925277733 2.2228253444422705 0 0 0 0 1.6364289574874376 2.4694986045515464 0 2.4694986045515464 5.2960241652991584 0 0 0 0 1.5110208274572869 0.50499143148681469 0 0.50499143148681469 8.164571247179083 0 0 0 0 1.8374115083609652 6.4652405127922066 0 6.4652405127922066 9.083257067219165 0 0 0 0 -0.13002583225684836 1.3821682975758738 0 1.3821682975758738 0.53103600315494148 0 0 0 0 -0.36857357663392343 3.0225426992289428 0 3.0225426992289428 8.3472259751293123 0 0 0 0 6.8706605092436348 11.039706328891043 0 11.039706328891043 12.340657805451883 0 0 0 0 -4.6591045792386296 0.6357538785637189 0 0.6357538785637189 14.975729186671742 0 0 0 0 -0.46639180266415536 3.6874722351845541 0 3.6874722351845541 15.095019402100164 0 0 0 0 2.1453421646133393 5.925671724718427 0 5.925671724718427 18.527282748204016 0 0 0 0 1.1191794564806603 0.16617199633331481 0 0.16617199633331481 5.1069337834399597 0 0 0 0 -2.4160624770902359 -1.5582015689942637 0 -1.5582015689942637 6.2816453386985813 0 0 0 0 -2.8415649671073879 -0.56989029283431591 0 -0.56989029283431591 5.4010252421576297 0 0 0 0 2.2891884102700244 0.10167863634088725 0 0.10167863634088725 10.349635853495005 0 0 0 0 -0.58810738155596398 4.1947682069398855 0 4.1947682069398855 9.7628844868745084 0 0 0 0 -2.3928725175492218 3.9886438798348536 0 3.9886438798348536 6.7963118930128985 0 0 0 0 -2.2647163773207404 3.4540825585234916 0 3.4540825585234916 13.835911082098058 0 0 0 0 3.3136876642861672 4.3298169972970229 0 4.3298169972970229 12.935487122661673 0 0 0 0 -5.2222553480495293 9.4510583461692477 0 9.4510583461692477 16.312606931791379 0 0 0 0 -0.37241639319886538 -1.9280339734094483 0 -1.9280339734094483 7.2044862510921917 0 0 0 0 5.8834039040409749 3.824835374213535 0 3.824835374213535 9.6160406386734394 0 0 0 0 -6.0078419769998561 -7.9613411225884647 0 -7.9613411225884647 3.2128549491299054 0 0 0 0 3.247437133812582 2.7735699111908616 0 2.7735699111908616 9.746510835531808 0 0 0 0 2.57617450739059 3.7631871578878417 0 3.7631871578878417 10.161154690660624 0 0 0 0 9.8793105933672081 7.9766763804341281 0 7.9766763804341281 13.737099235979258 0 0 0 0 0.48332007180488251 -1.2639416456842083 0 -1.2639416456842083 -0.43484029965112114 0 0 0 0 0.6169259828997784 -2.2027711471633475 0 -2.2027711471633475 3.7851318593361114 0 0 0 0 7.5164532029008484 1.2717068974725407 0 1.2717068974725407 1.1587772931288782 0 0 0 0 0.61951227727070091 1.1392304478540609 0 1.1392304478540609 11.378151899571094 0 0 0 0 1.3553679435574395 2.5289177369450044 0 2.5289177369450044 11.473886531473909 0 0 0 0 -2.8867672499713706 2.4716783434842 0 2.4716783434842 8.5326147865780513 0 0 0 0 -1.3993950525258469 -0.53367923067992251 0 -0.53367923067992251 8.6534170705399447 0 0 0 0 -1.4848955765998255 5.5387352165812445 0 5.5387352165812445 2.1817566465051641 0 0 0 0 -0.25402650104596852 0.30747173468347899 0 0.30747173468347899 7.8073506322287223 0 0 0 0 19.28339505899919 -0.85868618860138213 0 -0.85868618860138213 -17.791099794838374 0 0 0 0 4.9168436982171499 6.5968700309103951 0 6.5968700309103951 -9.5243324993825809 0 0 0 0 5.7582690437724224 -7.9219736465883557 0 -7.9219736465883557 -13.110490210061471 0 0 0 0 16.259920912122304 12.492485267511256 0 12.492485267511256 -7.3037809459556229 0 0 0 0 -9.3196823133139475 58.715468339637937 0 58.715468339637937 80.351318754224849 0 0 0 0 54.713744864733414 10.933967951336399 0 10.933967951336399 -14.332438161041864 0 0 0 0 -47.049251174565327 7.2522179161342137 0 7.2522179161342137 33.62624230534675 0 0 0 0 -0.25927756642388328 -0.36791399382298939 0 -0.36791399382298939 9.6678286385860837 0 0 0 0 -1.2028174685149473 -0.29543651395511006 0 -0.29543651395511006 10.038427793359006 0 0 0 0 3.420048257783094 3.2412349555875153 0 3.2412349555875153 12.794904868223057 0 0 0 0 -0.95185172558684716 -2.1722612748742041 0 -2.1722612748742041 7.047678686619669 0 0 0 0 11.701094404627611 23.032589524207651 0 23.032589524207651 22.972657197063654 0 0 0 0 -12.026165983246983 -33.37740720612419 0 -33.37740720612419 33.149261659003628 0 0 0 0 10.179304882350493 5.6151643885004887 0 5.6151643885004887 5.6127986471074109 0 0 0 0 -17.096888761715604 12.716282620799575 0 12.716282620799575 45.554822468360726 0 0 0 0 64.527999092871369 -61.163125865336042 0 -61.163125865336042 85.107535220173304 0 0 0 0 1.3549743942944588 -23.985266849556865 0 -23.985266849556865 49.742889540604665 0 0 0 0 -0.24332216592930433 -2.9254247655891241 0 -2.9254247655891241 6.2073113816413183 0 0 0 0 31.651122991680666 -16.65980028170361 0 -16.65980028170361 8.202890262238725 0 0 0 0 6.5186056455811467 -1.4058331685118901 0 -1.4058331685118901 2.3044994717010923 0 0 0 0 9.7420610227205202 -7.4407324738390344 0 -7.4407324738390344 7.7217628391663311 0 0 0 0 1.21051868983551 0.46019044963395572 0 0.46019044963395572 18.51633179340206 0 0 0 0 -0.57435302829661339 -10.629995694905574 0 -10.629995694905574 51.730099590851751 0 0 0 0 1.1069852294277496 -6.9380424696664704 0 -6.9380424696664704 20.270148402283667 0 0 0 0 0.41110155105778423 -2.0329891965963611 0 -2.0329891965963611 8.3971514854260079 0 0 0 0 0.073721276976478234 -0.09101391752943222 0 -0.09101391752943222 0.6492364517498217 0 0 0 0 59.18485057786711 121.21759817486782 0 121.21759817486782 -98.875001683789378 0 0 0 0 -0.13019178733419257 0.44498286132262432 0 0.44498286132262432 2.596280835939865 0 0 0 0 0.88256075922197397 -1.134794111361316 0 -1.134794111361316 7.4471977747198252 0 0 0 0 8.5241152294133116 13.904065200966215 0 13.904065200966215 17.092433022524347 0 0 0 0 -0.087774777737730236 -0.31204241213190897 0 -0.31204241213190897 1.6673385160013936 0 0 0 0 2.4809487884544978 -1.5810543485113158 0 -1.5810543485113158 7.4939420532518852 0 0 0 0 -1.6602099468441907 -4.1622230333787229 0 -4.1622230333787229 8.9087980769872956 0 0 0 0 -4.5329003182575889 -6.2268431767533912 0 -6.2268431767533912 12.182204633041692 0 0 0 0 -0.76698662835127607 -6.3941518407686999 0 -6.3941518407686999 11.559076077788632 0 0 0 0 -10.853480381302575 -4.9131414408502678 0 -4.9131414408502678 13.738883788007115 0 0 0 0 -3.9431179628077757 -6.0968323755132587 0 -6.0968323755132587 9.6112369646252773 0 0 0 0 -12.421305385385267 2.7995682679502352 0 2.7995682679502352 12.098909483761872 0 0 0 0 -9.7936002924005834 -5.6454268832267189 0 -5.6454268832267189 20.439908514683793 0 0 0 0 -0.36173586942857128 -12.415857662581402 0 -12.415857662581402 18.482591436390067 0 0 0 0 -13.373953204686472 1.8665090226713801 0 1.8665090226713801 8.8956871305081222 0 0 0 0 -7.8009711369326169 3.3534855085154049 0 3.3534855085154049 9.237977107264669 0 0 0 0 -7.9834520722800164 2.3485376054316021 0 2.3485376054316021 7.4713385015420499 0 0 0 0 -8.9537346092500911 -1.5496292476245799 0 -1.5496292476245799 2.3680276639433941 0 0 0 0 -21.745317698916097 19.552445674192313 0 19.552445674192313 -6.3198692508290151 0 0 0 0 -10.639861318245778 -11.982868985700406 0 -11.982868985700406 30.976321436695798 0 0 0 0 -0.06319400915864426 0.050810506823310675 0 0.050810506823310675 0.11907108018004919 0 0 0 0 -19.558278583242043 2.306492247766073 0 2.306492247766073 23.890885055014678 0 0 0 0 -7.5443514353466412 -3.1984408945136238 0 -3.1984408945136238 19.471357649337733 0 0 0 0 -12.431764973052793 5.7579221354744732 0 5.7579221354744732 23.882294493820154 0 0 0 0 -18.474938218082464 1.74903474632913 0 1.74903474632913 18.89786970912246 0 0 0 0 -13.162554356732926 2.9285451005953291 0 2.9285451005953291 15.032364992588555 0 0 0 0 -12.006542560499213 -5.089396171788394 0 -5.089396171788394 7.7085131670091869 0 0 0 0 -3.8326317887104437 -0.74513267919519421 0 -0.74513267919519421 -2.9995996832751644 0 0 0 0 -9.682279549835215 16.119999441887558 0 16.119999441887558 1.0979122798889875 0 0 0 0 -0.97138160372397819 -1.9401106055409407 0 -1.9401106055409407 5.4330815519617488 0 0 0 0 -4.6852480160093819 14.030862028530464 0 14.030862028530464 13.955822838310269 0 0 0 0 13.259399200031567 -0.6424069179338403 0 -0.6424069179338403 6.8924471818609163 0 0 0 0 -3.9813853244595165 -4.0236555443802757 0 -4.0236555443802757 3.0893603070562676 0 0 0 0 -1.2966476319622871 0.30718762460583093 0 0.30718762460583093 3.1804510069123353 0 0 0 0 7.5034625426901584 6.8834920099143346 0 6.8834920099143346 10.276505832029216 0 0 0 0 -1.7007730586842631 -0.79365430884186594 0 -0.79365430884186594 4.4407708070245064 0 0 0 0 -5.4251524797098796 -2.8769657559614643 0 -2.8769657559614643 3.6351851149656795 0 0 0 0 -0.74741025498690306 10.977305811988117 0 10.977305811988117 18.50766625714914 0 0 0 0 0.046589156423347156 0.31592189069443322 0 0.31592189069443322 1.0624680396883335 0 0 0 0 11.83845487364249 -10.927591302735891 0 -10.927591302735891 3.1963321575899499 0 0 0 0 -1.2476168930615776 -0.81867765554407868 0 -0.81867765554407868 6.8231735764583128 0 0 0 0 0.66424342352041776 4.1355144286389987 0 4.1355144286389987 12.350416982409115 0 0 0 0 -58.032121621631177 -5.9421824964301777 0 -5.9421824964301777 16.066424051443391 0 0 0 0 -22.603897223507204 -3.8833140097276555 0 -3.8833140097276555 15.540262502863698 0 0 0 0 -12.799543830628096 -16.87696686298068 0 -16.87696686298068 -12.994796682380183 0 0 0 0 -0.63910453863144845 0.02112839941324296 0 0.02112839941324296 0.7362008501525672 0 0 0 0 -59.897275481272061 0.63301788216858768 0 0.63301788216858768 16.531341318721388 0 0 0 0 0.28877539134063879 -0.18159234192088292 0 -0.18159234192088292 1.6266401088475959 0 0 0 0 -9.6155931932245267 10.211396429615888 0 10.211396429615888 -7.5461735740118456 0 0 0 0 5.8342666820150271 16.884453081736865 0 16.884453081736865 31.550495138262477 0 0 0 0 3.9560084080142133 -1.5042164683836745 0 -1.5042164683836745 10.874544735866948 0 0 0 0 2.6101922933526112 4.3533374334874679 0 4.3533374334874679 3.7536251799028832 0 0 0 0 0.0066451917859731147 0.28076255112858206 0 0.28076255112858206 0.73045163617238984 0 0 0 0 3.3963617100403098 4.6783137933398393 0 4.6783137933398393 30.121826801883799 0 0 0 0 -3.340479605008241 12.603863342885688 0 12.603863342885688 39.750078550605394 0 0 0 0 33.383127565700306 17.634194508204928 0 17.634194508204928 30.916944349319238 0 0 0 0 9.3807189112682181 7.9616399137175904 0 7.9616399137175904 33.395855766870227 0 0 0 0 -0.0087852515501236628 -0.20602908273436071 0 -0.20602908273436071 0.27800672506745627 0 0 0 0 -58.56192221278593 -33.396774358179755 0 -33.396774358179755 -2.7714371666943407 0 0 0 0 -10.676725740109305 16.159034715625239 0 16.159034715625239 10.03292363003311 0 0 0 0 -52.262435267017736 -14.084631754900329 0 -14.084631754900329 -11.697125404889448 0 0 0 0 2.4814620160855094 4.5735010495243031 0 4.5735010495243031 1.8395286299387141 0 0 0 0 4.1169642226934684 0.76822056395758409 0 0.76822056395758409 23.857352831822936 0 0 0 0 8.3418954363517059 13.685844400386486 0 13.685844400386486 29.592517545817827 0 0 0 0 0.428280081661228 6.3167261706826139 0 6.3167261706826139 37.932732884273719 0 0 0 0 6.6959195691893001 3.3058439277338039 0 3.3058439277338039 7.4581699972568458 0 0 0 0 1.6291837614709457 2.4688854471655013 0 2.4688854471655013 3.1976895497887767 0 0 0 0 1.4081353507620125 1.4771439342971817 0 1.4771439342971817 4.1450403325286 0 0 0 0 0.2197239245507383 1.3381471099985305 0 1.3381471099985305 1.9258159342954073 0 0 0 0 -0.24214721584053223 3.689330798741139 0 3.689330798741139 11.890369432511761 0 0 0 0 -2.5478119439408147 7.99038706263309 0 7.99038706263309 16.044284603782216 0 0 0 0 -0.046585779773208991 -0.015284517899022632 0 -0.015284517899022632 -0.34711184864092171 0 0 0 0 0.033242521907027367 11.997716125393708 0 11.997716125393708 41.213478755895267 0 0 0 0 -3.3291170955060849 12.454222939284932 0 12.454222939284932 26.67896360751547 0 0 0 0 -2.3493067228844211 1.7384819762446568 0 1.7384819762446568 18.213427230074558 0 0 0 0 -1.0795577302533275 0.66098433754632424 0 0.66098433754632424 18.073299373168993 0 0 0 0 -1.1089725822095318 0.58876108982462938 0 0.58876108982462938 18.607295468395023 0 0 0 0 -0.1143942272545373 0.055239756998552991 0 0.055239756998552991 2.4693117460173064 0 0 0 0 -0.42926290406330736 -0.11678402760662721 0 -0.11678402760662721 18.093874867812701 0 0 0 0 -0.69342731720985284 0.63154993276475579 0 0.63154993276475579 18.603228229828119 0 0 0 0 -0.28369342379818363 0.35440763121823693 0 0.35440763121823693 17.572313985213441 0 0 0 0 0.46756766503549363 3.646987427877395 0 3.646987427877395 3.6433523272702271 0 0 0 0 4.0327114865569911 4.3413905737543246 0 4.3413905737543246 7.7139347058432577 0 0 0 0 0.60592607996767356 1.5829735484735465 0 1.5829735484735465 29.210468176773247 0 0 0 0 7.2706832482241435 -2.850678897079888 0 -2.850678897079888 2.6448341004033864 0 0 0 0 0.35688699081879349 -0.47219081973526045 0 -0.47219081973526045 27.293325553194336 0 0 0 0 -2.0216751717221126 0.4776832562793909 0 0.4776832562793909 13.655918818068798 0 0 0 0 -1.381683063362805 -0.79723100774307554 0 -0.79723100774307554 12.838769600327055 0 0 0 0 -3.0190815201469832 -1.252747011394149 0 -1.252747011394149 13.365483501761219 0 0 0 0 -2.0781457115412598 -0.28877913898605456 0 -0.28877913898605456 10.918158346072042 0 0 0 0 -1.7052537233219951 0.3399737900197124 0 0.3399737900197124 16.835620454863601 0 0 0 0 -21.65385941094803 -12.836625207049565 0 -12.836625207049565 21.916200291893801 0 0 0 0 -0.32747082976402453 -1.9325769304250571 0 -1.9325769304250571 18.911707692951836 0 0 0 0 -1.1237886784500755 -0.61535967227335231 0 -0.61535967227335231 14.025742551373838 0 0 0 0 -1.3146484207905789 -1.845853143429582 0 -1.845853143429582 8.9470522994437971 0 0 0 0 -0.45473335606151938 0.84246490681401198 0 0.84246490681401198 4.0581455413529124 0 0 0 0 -3.7117261021267467 -12.509991257727506 0 -12.509991257727506 11.298593825214084 0 0 0 0 -0.6385494738764298 -3.3241769259489917 0 -3.3241769259489917 3.3006738131976077 0 0 0 0 4.2969381877488786 -18.510598791160078 0 -18.510598791160078 -31.234976188326982 0 0 0 0 3.6380163887738348 -19.500817563674445 0 -19.500817563674445 14.068254890233902 0 0 0 0 -0.25854911714696449 -1.5497550936929656 0 -1.5497550936929656 14.829903154071872 0 0 0 0 0.72781958946076486 -0.81210358663111037 0 -0.81210358663111037 12.477866089271629 0 0 0 0 -0.41959796590170118 -0.88202239449220521 0 -0.88202239449220521 11.39713738941267 0 0 0 0 -7.546973158087237 -7.4061240404657838 0 -7.4061240404657838 8.8031405349502165 0 0 0 0 -0.90417405002943951 -0.33216753512442665 0 -0.33216753512442665 13.372365402464311 0 0 0 0 -0.90732949422760367 -0.30608135010477966 0 -0.30608135010477966 7.9235313766767632 0 0 0 0 -0.45676428600927466 -0.39178662387348595 0 -0.39178662387348595 15.653575964730408 0 0 0 0 -3.1271432861485806 0.66548474132014235 0 0.66548474132014235 11.76054335880599 0 0 0 0 3.1601683347323064 -10.689550265446087 0 -10.689550265446087 0.0030995093966339482 0 0 0 0 -12.042140121132338 14.99715443606101 0 14.99715443606101 15.644166027290339 0 0 0 0 0.58783591370537636 -0.85542443242525223 0 -0.85542443242525223 12.47982894483539 0 0 0 0 0.62568726672232344 -0.52663642682591671 0 -0.52663642682591671 10.641786259348919 0 0 0 0 0.52692995032919043 -0.13680174739351969 0 -0.13680174739351969 10.01970602435722 0 0 0 0 -1.2423991078782279 -1.1314094991428192 0 -1.1314094991428192 11.055153564240754 0 0 0 0 -0.09549155730176985 -0.79460611021406846 0 -0.79460611021406846 10.87057247590073 0 0 0 0 -36.815032042597878 -31.659666354848014 0 -31.659666354848014 20.174208508909942 0 0 0 0 0.011800890373604794 -0.042953291065810362 0 -0.042953291065810362 1.162748855206388 0 0 0 0 51.246017542839965 -9.2255953968565336 0 -9.2255953968565336 -16.449467262245889 0 0 0 0 24.651919980649911 -57.363679683451664 0 -57.363679683451664 -13.514365640081451 0 0 0 0 31.938599110741606 21.251864892638878 0 21.251864892638878 9.2303389351063743 0 0 0 0 21.039063951422307 10.136430698340519 0 10.136430698340519 7.4607356088454253 0 0 0 0 -17.252543900388332 -1.2946897502956745 0 -1.2946897502956745 13.890107964985873 0 0 0 0 5.9663718900750382 1.2130327472832505 0 1.2130327472832505 8.9825093276976986 0 0 0 0 -1.2077040365925449 -1.8902966244097428 0 -1.8902966244097428 6.6694568409076496 0 0 0 0 -7.0405906261236169 16.636747782700695 0 16.636747782700695 22.400483023438937 0 0 0 0 2.5109129346275267 6.1262181800921098 0 6.1262181800921098 11.425381203764346 0 0 0 0 1.0197598029386086 4.1939500706973831 0 4.1939500706973831 9.619107868289575 0 0 0 0 5.3867642666271749 5.3000809120630947 0 5.3000809120630947 7.4295927022449177 0 0 0 0 2.613407574197705 6.4209438601260445 0 6.4209438601260445 7.3035110133441776 0 0 0 0 0.085014672658547813 0.084757939144050276 0 0.084757939144050276 3.7590792135728748 0 0 0 0 -0.0080634347021423629 17.20543453551727 0 17.20543453551727 -9.1373632359482144 0 0 0 0 -8.9808139130984532 17.90610918616062 0 17.90610918616062 -4.8544833893101895 0 0 0 0 -9.4131885192038496 16.370271927540671 0 16.370271927540671 -7.0291109390445854 0 0 0 0 -12.722989893154427 19.465462139824467 0 19.465462139824467 -6.5025294149309047 0 0 0 0 -8.6981434310326176 13.497768451599086 0 13.497768451599086 -8.0749426428919833 0 0 0 0 0.0018769924320257772 11.463136919731369 0 11.463136919731369 -3.2833333790022152 0 0 0 0 -2.2668580183007982 14.88241139144975 0 14.88241139144975 -8.2200038623873297 0 0 0 0 -4.4017086232833513 21.541910505056649 0 21.541910505056649 18.768046190041787 0 0 0 0 0.31447766852075176 -9.6357820357197852 0 -9.6357820357197852 29.572934652455956 0 0 0 0 -1.2664458594394796 17.341274070294276 0 17.341274070294276 -5.4394436443471932 0 0 0 0 0.0017684774556716021 0.080316804259805252 0 0.080316804259805252 0.24925934973646235 0 0 0 0 -13.250955107285915 5.7698662564898768 0 5.7698662564898768 -4.6135402261243144 0 0 0 0 -19.642698922685074 13.247610727993106 0 13.247610727993106 -2.5246186993481388 0 0 0 0 0.027492909108042363 0.21973230964473345 0 0.21973230964473345 0.63384444461685518 0 0 0 0 -2.3899089717929485 1.0048040624897112 0 1.0048040624897112 2.5940610502857453 0 0 0 0 -0.36061044340786452 3.7826469070378153 0 3.7826469070378153 4.0886321365760523 0 0 0 0 -6.8253231142388699 3.6883330561695402 0 3.6883330561695402 5.2393136581613362 0 0 0 0 -0.40783324196589632 1.8232860019179498 0 1.8232860019179498 0.3557616516482085 0 0 0 0 0.20926956103618366 1.2350612289021683 0 1.2350612289021683 0.39427128050738247 0 0 0 0 -0.52389910762192926 2.3021337335294447 0 2.3021337335294447 0.016555247046653676 0 0 0 0 -0.22915508909798488 0.60545976693402181 0 0.60545976693402181 -0.58714841744397717 0 0 0 0 0.11039496379336988 1.7885006531065528 0 1.7885006531065528 -0.19335779469474801 0 0 0 0 -0.039243900605041848 0.45154219229933545 0 0.45154219229933545 0.7917644911442423 0 0 0 0 -22.853750579421586 11.716112486368729 0 11.716112486368729 -2.8885888420666106 0 0 0 0 -45.483447448349395 2.7428456792003999 0 2.7428456792003999 0.98336816779374203 0 0 0 0 -18.175264163299843 4.9503545601105543 0 4.9503545601105543 1.1090196551940608 0 0 0 0 -0.07448127774602431 0.27073214220495601 0 0.27073214220495601 -0.034377387178224694 0 0 0 0 -0.08966880463060406 0.23879416232484907 0 0.23879416232484907 0.11142498873269346 0 0 0 0 48.131704533282743 27.775734067632584 0 27.775734067632584 10.595187101708234 0 0 0 0 17.80996127637718 18.893415356206788 0 18.893415356206788 9.5368375461716823 0 0 0 0 -5.6159698730321281 22.887026137672365 0 22.887026137672365 22.14081752790662 0 0 0 0 8.2365781345683331 19.816109445026996 0 19.816109445026996 15.323720269051137 0 0 0 0 14.932545337261274 15.851056233575946 0 15.851056233575946 14.48057937286103 0 0 0 0 1.0807930362868774 1.4301511567518901 0 1.4301511567518901 -0.15993197184616292 0 0 0 0 -0.21209427075687992 0.36484492726152951 0 0.36484492726152951 -0.50579390421870585 0 0 0 0 0.12639971256506044 2.9212565896751812 0 2.9212565896751812 -0.53826763815777667 0 0 0 0 2.0379062317766738 2.8098135239806652 0 2.8098135239806652 -1.4356478061995404 0 0 0 0 2.0691431362405481 1.220383491113239 0 1.220383491113239 -26.615374700026223 0 0 0 0 -0.084062090865260508 0.13937449776989297 0 0.13937449776989297 -0.19519302571325881 0 0 0 0 -26.484132001764181 13.093417655821213 0 13.093417655821213 14.603193463825846 0 0 0 0 0.63869246391017498 8.2368341126070845 0 8.2368341126070845 13.519294599680507 0 0 0 0 -16.007805312273206 27.849907163595617 0 27.849907163595617 -16.533836020724266 0 0 0 0 -3.5897163901224758 -1.9189273908577889 0 -1.9189273908577889 4.9610668828427151 0 0 0 0 -9.6625481967120948 8.6007711648312579 0 8.6007711648312579 0.94578943183478259 0 0 0 0 -9.680287634755075 15.049675951421705 0 15.049675951421705 8.9706891093851482 0 0 0 0 -15.127406593385388 13.117083314600677 0 13.117083314600677 8.6915542332162659 0 0 0 0 -0.14278569427778343 0.092811301434892357 0 0.092811301434892357 0.22089003716934741 0 0 0 0 -18.955206820721671 7.0526765078434437 0 7.0526765078434437 17.434475023450432 0 0 0 0 -15.647687892490239 14.371283203418898 0 14.371283203418898 21.702839673343988 0 0 0 0 -16.645770819643758 10.054791093280983 0 10.054791093280983 21.604758271533655 0 0 0 0 -18.666653250439055 11.656262668274394 0 11.656262668274394 23.57170583266543 0 0 0 0 -37.009676245137882 15.404119104903657 0 15.404119104903657 23.079864713033203 0 0 0 0 -21.226611348027461 8.295149569554269 0 8.295149569554269 13.523829143679905 0 0 0 0 -25.757896436698275 -2.9707432782115575 0 -2.9707432782115575 -9.0878581351903449 0 0 0 0 -25.129542496562937 8.8789457999661465 0 8.8789457999661465 19.701662718764055 0 0 0 0 -37.55831389699074 20.056582500960303 0 20.056582500960303 5.1643545799415733 0 0 0 0 -55.170567560613478 -17.737017257749812 0 -17.737017257749812 12.857205508316838 0 0 0 0 -64.466749390864322 -7.1839075409739053 0 -7.1839075409739053 18.817728241505392 0 0 0 0 -63.907196029139755 -29.174506925221067 0 -29.174506925221067 11.606340928759892 0 0 0 0 -59.278018865487979 -12.652178691062545 0 -12.652178691062545 22.129449316980754 0 0 0 0 -35.682297360887787 -4.0970941746254539 0 -4.0970941746254539 22.380920929315835 0 0 0 0 -52.507519952886412 -16.599969096852874 0 -16.599969096852874 29.802828471878001 0 0 0 0 -17.140086240841867 6.8092713867772545 0 6.8092713867772545 16.603160579302312 0 0 0 0 -37.570269505794798 -1.1857603004750672 0 -1.1857603004750672 30.033040085043467 0 0 0 0 -31.360206267596311 3.1435154147129651 0 3.1435154147129651 32.352002908875875 0 0 0 0 -9.9033557744493805 20.658033836500181 0 20.658033836500181 29.989721685965378 0 0 0 0 -32.847389066600783 16.844351306662247 0 16.844351306662247 47.086979514857376 0 0 0 0 1.6895873360397786 20.650173929783705 0 20.650173929783705 17.197283908519239 0 0 0 0 -18.391179212645113 16.733607750449721 0 16.733607750449721 28.175240165030118 0 0 0 0 -3.9967564397715023 20.558106159151066 0 20.558106159151066 18.47913822911687 0 0 0 0 -6.996545260614937 9.5986837246073264 0 9.5986837246073264 11.743399356848386 0 0 0 0 -1.3414593644626507 15.26301004565903 0 15.26301004565903 18.395677891848663 0 0 0 0 -17.957421649811515 19.462627915145163 0 19.462627915145163 20.990403358809999 0 0 0 0 4.7299353400542543 26.595007972131498 0 26.595007972131498 33.07539054992958 0 0 0 0 18.042154634191263 12.086254832560371 0 12.086254832560371 20.083753634656205 0 0 0 0 32.765232866213765 35.208123116075967 0 35.208123116075967 8.466737787835882 0 0 0 0 -0.12886790013548932 1.8998992662995988 0 1.8998992662995988 17.160416665738012 0 0 0 0 -0.94401038247050906 56.803397487305119 0 56.803397487305119 11.548647481721105 0 0 0 0 -38.331453655760114 31.354831670774729 0 31.354831670774729 25.187161824149371 0 0 0 0 -2.2926974139298579 30.083900647471964 0 30.083900647471964 21.299423285099692 0 0 0 0 -2.0786617116589525 38.882112398825484 0 38.882112398825484 13.041782540246913 0 0 0 0 2.4040764130530015 30.517559757406275 0 30.517559757406275 23.138199038368839 0 0 0 0 -2.7170771128779734 32.912197652527539 0 32.912197652527539 26.302020585118953 0 0 0 0 -10.770122995376795 23.32887891970222 0 23.32887891970222 40.786886329593472 0 0 0 0 8.6698883276653333 29.377472581028087 0 29.377472581028087 38.811968179807081 0 0 0 0 -2.4321719768661021 26.64597205704797 0 26.64597205704797 38.162446387783348 0 0 0 0 -2.573449522179061 35.045418363832141 0 35.045418363832141 26.49103271889453 0 0 0 0 2.9669101215052649 9.0220261105050668 0 9.0220261105050668 57.110278813757304 0 0 0 0 -3.9038591036158437 14.452955519406714 0 14.452955519406714 22.802046205963052 0 0 0 0 -0.0096767660548618267 29.815662731898556 0 29.815662731898556 39.865888863574128 0 0 0 0 -12.459779161435776 19.383041194991165 0 19.383041194991165 21.206977016895507 0 0 0 0 -27.512423048820068 28.971591145452294 0 28.971591145452294 -10.079320582261062 0 0 0 0 -12.086262748815191 13.591616948683168 0 13.591616948683168 -7.1131598848987778 0 0 0 0 0.00558019815160825 21.905032510542696 0 21.905032510542696 -3.3295574144303828 0 0 0 0 14.196196841314041 8.3897343611770339 0 8.3897343611770339 216.75846786654074 0 0 0 0 0.024137705499676088 -19.802067250600885 0 -19.802067250600885 208.96855444098151 0 0 0 0 0.011591391723550157 19.622010591025173 0 19.622010591025173 145.32662127712319 0 0 0 0 17.133655271248479 -9.1113948983743285 0 -9.1113948983743285 106.26627531444865 0 0 0 0 0.02134475066617077 28.485197395185175 0 28.485197395185175 75.672578956779944 0 0 0 0 -3.1476952256355304 11.135562523072622 0 11.135562523072622 129.04940989908937 0 0 0 0 14.072356217641783 16.483647012331858 0 16.483647012331858 65.332559456935087 0 0 0 0 -4.0285709034489514 34.12250965647354 0 34.12250965647354 53.91904680333937 0 0 0 0 -15.868324829445811 14.418773754734502 0 14.418773754734502 69.116779587850942 0 0 0 0 -30.908999836755243 20.794497019818209 0 20.794497019818209 108.90902066706622 0 0 0 0 12.387486989068549 -19.895408198291989 0 -19.895408198291989 100.17127112258822 0 0 0 0 23.537159760777179 -5.2611921609682213 0 -5.2611921609682213 128.02130978471905 0 0 0 0 14.196748100150103 -41.553117219611522 0 -41.553117219611522 213.00636248449086 0 0 0 0 -12.241448563155132 -9.0266926753770349 0 -9.0266926753770349 207.34845794704415 0 0 0 0 -69.150608728755401 -19.966058504232933 0 -19.966058504232933 191.70757400171988 0 0 0 0 -126.40862494139731 -150.71901957128648 0 -150.71901957128648 236.37665099931291 0 0 0 0 -63.150185411651478 -40.984885223117089 0 -40.984885223117089 27.476582957274331 0 0 0 0 -145.82016039754546 -200.39014001256328 0 -200.39014001256328 109.37963998064697 0 0 0 0 -51.424667424094423 -27.344459401007953 0 -27.344459401007953 -67.936474533604269 0 0 0 0 -79.426937956250754 -211.78266378254648 0 -211.78266378254648 -160.15208437622869 0 0 0 0 -60.312844632313841 3.7181512396928156 0 3.7181512396928156 42.077255260822312 0 0 0 0 -117.25804165423807 -54.519257986217781 0 -54.519257986217781 52.36760160569429 0 0 0 0 -51.362458562584436 -10.452999887731494 0 -10.452999887731494 61.776629122572558 0 0 0 0 -44.137836918824405 18.990413385138709 0 18.990413385138709 63.33559107025394 0 0 0 0 -16.154008981186728 17.070590325543435 0 17.070590325543435 46.480229879307444 0 0 0 0 -63.241114397051831 -7.7444274941813092 0 -7.7444274941813092 50.099164966886747 0 0 0 0 -46.348552014508243 -4.4973705681832143 0 -4.4973705681832143 50.718455715557866 0 0 0 0 -51.058929766486926 -7.7296781164950517 0 -7.7296781164950517 41.973740420466129 0 0 0 0 -87.530089096759525 -33.29051680826683 0 -33.29051680826683 36.135949118570352 0 0 0 0 -47.075357315253427 -1.495116333923761 0 -1.495116333923761 50.048681143602607 0 0 0 0 -60.67593419355137 -17.190174608317648 0 -17.190174608317648 55.941427107078198 0 0 0 0 -19.332184266234208 -21.004908658921522 0 -21.004908658921522 24.787251196004945 0 0 0 0 -24.499838952946845 -9.0041942348079829 0 -9.0041942348079829 17.62663133791375 0 0 0 0 -27.851695253041214 -20.99898342052802 0 -20.99898342052802 -11.874757441878501 0 0 0 0 -70.026723266277486 -51.286758078572348 0 -51.286758078572348 -22.195825149303346 0 0 0 0 -0.5471030879318759 -2.9115119308103097 0 -2.9115119308103097 3.1424476154962164 0 0 0 0 22.893246236563527 80.605186685787885 0 80.605186685787885 420.36584687474624 0 0 0 0 13.641808893606594 14.173130295976989 0 14.173130295976989 421.32265895116052 0 0 0 0 21.477478220708917 51.309703882905524 0 51.309703882905524 381.33718630050953 0 0 0 0 0.51781010064132271 -0.78758719997105686 0 -0.78758719997105686 1.1573722601048146 0 0 0 0 13.614978394244986 71.848604468445274 0 71.848604468445274 460.35205046212923 0 0 0 0 -10.408474348386108 -42.875358948396297 0 -42.875358948396297 -13.252507080877876 0 0 0 0 -19.786830936116246 9.9759825516348428 0 9.9759825516348428 32.940843382422827 0 0 0 0 31.942231402731579 65.946942226722513 0 65.946942226722513 207.96715529652283 0 0 0 0 5.3285528619073261 82.351211819093805 0 82.351211819093805 311.58182149448658 0 0 0 0 -13.489636202038241 7.8442062587791952 0 7.8442062587791952 216.85590694297389 0 0 0 0 -0.71935734530893569 31.778417887258001 0 31.778417887258001 189.7641350984195 0 0 0 0 0.9874609403287371 -2.1157026340309351 0 -2.1157026340309351 2.6290533041254704 0 0 0 0 21.920094891950953 7.8376200253132993 0 7.8376200253132993 172.21117173117273 0 0 0 0 4.4948391617966195 30.864117891897195 0 30.864117891897195 102.49864210476335 0 0 0 0 -0.42071399371085816 -0.34188726287396065 0 -0.34188726287396065 1.167759430471154 0 0 0 0 -40.100214958531524 -33.271037136388259 0 -33.271037136388259 187.12898503227734 0 0 0 0 -46.468072416021755 20.778631073648285 0 20.778631073648285 290.40797454630047 0 0 0 0 -51.436889224486208 21.260042578274806 0 21.260042578274806 290.36161711541718 0 0 0 0 -15.883634968587103 31.563763200457288 0 31.563763200457288 234.66752169122901 0 0 0 0 -85.182621457088203 14.179538216098081 0 14.179538216098081 368.41514647376061 0 0 0 0 -43.505283162234605 40.76509338921187 0 40.76509338921187 317.95798675118021 0 0 0 0 -45.314905051456549 23.388662208899405 0 23.388662208899405 417.29756445003295 0 0 0 0 -18.269753842876298 -52.886775145568208 0 -52.886775145568208 408.67816568035198 0 0 0 0 0.13984271027266004 128.69323004451576 0 128.69323004451576 681.3225727249519 0 0 0 0 -0.20024629295328156 -1.0390554730914197 0 -1.0390554730914197 1.3178335766822578 0 0 0 0 -74.543735725965973 -8.7887156311808212 0 -8.7887156311808212 379.65896047871229 0 0 0 0 -14.503272357838885 -5.6961804253457444 0 -5.6961804253457444 334.41024031654524 0 0 0 0 -85.329500572839024 -28.329050422275486 0 -28.329050422275486 361.85767398716416 0 0 0 0 -54.522048563312552 47.313774165765608 0 47.313774165765608 441.75165349272356 0 0 0 0 21.464814183687054 15.4781315661603 0 15.4781315661603 269.94698246070766 0 0 0 0 -7.5534737891273949 26.351484881362012 0 26.351484881362012 346.36246096262767 0 0 0 0 -17.987449385786249 -5.6723377551716112 0 -5.6723377551716112 284.96459429493734 0 0 0 0 -48.566548667386883 -29.8659774012649 0 -29.8659774012649 266.42561328477541 0 0 0 0 -0.31320563162345194 0.053051782737799869 0 0.053051782737799869 0.50138462854203425 0 0 0 0 -94.957179286421649 -13.248655225714629 0 -13.248655225714629 313.30773740158838 0 0 0 0 -49.162939191640589 10.261093106282715 0 10.261093106282715 318.23154187730552 0 0 0 0 -18.859541052394604 -25.168337838327716 0 -25.168337838327716 283.82756735886323 0 0 0 0 -55.933298713866407 -3.7015607635494234 0 -3.7015607635494234 302.90129518338654 0 0 0 0 -0.51131261824863827 -10.545292199316918 0 -10.545292199316918 255.68348878437246 0 0 0 0 -16.260730704926743 23.326209993848352 0 23.326209993848352 246.02670450719961 0 0 0 0 -68.559575494165756 5.8160995976268168 0 5.8160995976268168 267.12514723684399 0 0 0 0 -8.2175599109908717 -30.89831744939147 0 -30.89831744939147 233.07802379718669 0 0 0 0 -20.920635239329101 -6.4060887090608958 0 -6.4060887090608958 216.54051872438868 0 0 0 0 0.31949568735137607 0.55680176285530791 0 0.55680176285530791 0.86187417168279978 0 0 0 0 38.982346619173995 -52.13904360740662 0 -52.13904360740662 58.353435720124253 0 0 0 0 -4.1538441020237684 14.284662779275095 0 14.284662779275095 11.923984746721544 0 0 0 0 16.995104322670727 11.662206784956652 0 11.662206784956652 157.19144479162787 0 0 0 0 0.78949536539461773 2.2129241797640375 0 2.2129241797640375 2.9825753641837025 0 0 0 0 -16.829019754209213 3.9528956731073777 0 3.9528956731073777 205.2616649184929 0 0 0 0 4.9735279332268192 -46.481617018858742 0 -46.481617018858742 260.41901141569542 0 0 0 0 -0.58503753000400138 -20.388488569562469 0 -20.388488569562469 196.62273272973835 0 0 0 0 40.396419658995114 -55.067092584138663 0 -55.067092584138663 142.69377607636852 0 0 0 0 -19.073065334300168 -26.686797481745089 0 -26.686797481745089 273.23617552811811 0 0 0 0 -26.229014330045914 -41.113792650306095 0 -41.113792650306095 310.85545275398908 0 0 0 0 -23.558989847240404 -21.149198735343816 0 -21.149198735343816 431.25171974264231 0 0 0 0 7.0092389211810584 -141.3706279663088 0 -141.3706279663088 547.34846140892842 0 0 0 0 53.599266443613004 -150.4254247346089 0 -150.4254247346089 309.66514438624472 0 0 0 0 -10.911537921291508 -11.963506478370618 0 -11.963506478370618 -15.09224977393751 0 0 0 0 -22.676611983955453 -13.049197695008843 0 -13.049197695008843 10.48584769781155 0 0 0 0 0.020216233530695505 -7.4632589320935949 0 -7.4632589320935949 9.7721137483058556 0 0 0 0 -11.933773542961223 0.76697930379668833 0 0.76697930379668833 7.0803382095746201 0 0 0 0 -10.747905246454733 -6.1735841780185865 0 -6.1735841780185865 25.49004720332232 0 0 0 0 0.24066088106146977 0.88936664927405218 0 0.88936664927405218 1.393172803324557 0 0 0 0 -0.048587359472439411 -40.082604686829654 0 -40.082604686829654 535.91027338651475 0 0 0 0 -15.317381338565081 56.16669515565809 0 56.16669515565809 51.793561019610024 0 0 0 0 -6.4861703325701825 40.842076903762063 0 40.842076903762063 -17.576125616048785 0 0 0 0 41.488034393993409 36.084100458002695 0 36.084100458002695 428.75770809054666 0 0 0 0 -3.4037120290943648 1.0565762086152972 0 1.0565762086152972 277.28906284166533 0 0 0 0 -2.3417712620946816 2.3950268289181622 0 2.3950268289181622 536.31631040747641 0 0 0 0 -0.13323581911664123 -0.048965929433141042 0 -0.048965929433141042 0.72424519367747475 0 0 0 0 -0.46519774840274825 -0.1036822779374198 0 -0.1036822779374198 0.73082320458877348 0 0 0 0 -5.6638758515269672 23.367493571669911 0 23.367493571669911 350.99715505561107 0 0 0 0 -5.7873149607026164 35.131217080785973 0 35.131217080785973 371.28954158635224 0 0 0 0 -11.859129267572841 1.8330280030118047 0 1.8330280030118047 323.58770203267159 0 0 0 0 6.516760343991356 -4.1003826949745417 0 -4.1003826949745417 234.01963924144366 0 0 0 0 -0.020060633569360622 12.766054616083228 0 12.766054616083228 244.01538217203779 0 0 0 0 0.28963479744827092 -0.31435253285011022 0 -0.31435253285011022 4.9988398122161257 0 0 0 0 105.87070134029523 -121.37791372350875 0 -121.37791372350875 125.01473602430269 0 0 0 0 66.818401891623807 20.280169168605426 0 20.280169168605426 -27.578611222602376 0 0 0 0 0.1011733727409958 -0.16095297728341507 0 -0.16095297728341507 -0.26874110501483983 0 0 0 0 -0.29531497004018092 -63.043939646516264 0 -63.043939646516264 174.95382766048169 0 0 0 0 1.7730121989708323 -34.945866091380594 0 -34.945866091380594 185.92598996974493 0 0 0 0 34.779002548311837 -60.350807235429784 0 -60.350807235429784 56.756904451834998 0 0 0 0 14.833768483105359 -23.611469283884617 0 -23.611469283884617 65.74803467718084 0 0 0 0 -36.462953568663011 -134.06103716569851 0 -134.06103716569851 537.31044983077936 0 0 0 0 68.160032160381888 168.39945378066568 0 168.39945378066568 556.22235309313987 0 0 0 0 282.16317104081105 266.78875148413022 0 266.78875148413022 288.56396486730955 0 0 0 0 48.730649613300557 240.51018902696978 0 240.51018902696978 615.99446079264169 0 0 0 0 -49.717585028760141 97.810157861086736 0 97.810157861086736 410.60551390734872 0 0 0 0 151.86614559673473 334.67109518712141 0 334.67109518712141 500.5505216651481 0 0 0 0 -1.3179703668463705 -0.06740225832619906 0 -0.06740225832619906 1.9993159468631134 0 0 0 0 -46.341515766821544 17.453625889410432 0 17.453625889410432 153.21371465233733 0 0 0 0 36.228510968429646 109.56835909182155 0 109.56835909182155 152.24742006830104 0 0 0 0 234.97620590013446 165.9921707864155 0 165.9921707864155 84.176569939547335 0 0 0 0 71.396930082261349 81.20868617975907 0 81.20868617975907 70.973857977081934 0 0 0 0 51.483522112396031 26.805315705892099 0 26.805315705892099 -13.537667031828278 0 0 0 0 4.0812450528320596 16.301842344133547 0 16.301842344133547 41.394642348085654 0 0 0 0 -3.0318496805406312 5.8048710346938606 0 5.8048710346938606 48.816085071825 0 0 0 0 3.7416807317840721 18.616467847533386 0 18.616467847533386 33.683628904311263 0 0 0 0 36.999019840081388 73.330174353939583 0 73.330174353939583 79.870258054997976 0 0 0 0 -29.857501956846249 19.693119159085654 0 19.693119159085654 67.631793454111175 0 0 0 0 27.419655160616173 73.293962874483441 0 73.293962874483441 101.90487346305599 0 0 0 0 52.144649745369151 106.44243481777562 0 106.44243481777562 120.03537388949007 0 0 0 0 -0.6069711259217172 30.731270205933924 0 30.731270205933924 113.70441156804736 0 0 0 0 28.977732669377929 46.797686931822682 0 46.797686931822682 99.116915710459807 0 0 0 0 -2.4800846569265786 -12.548313249320927 0 -12.548313249320927 81.537773010662931 0 0 0 0 8.7804974500830895 37.86294365354297 0 37.86294365354297 34.776625141847035 0 0 0 0 -3.959141683379471 -26.644605911064673 0 -26.644605911064673 25.680366637059706 0 0 0 0 7.2160459395265804 -15.544833066154752 0 -15.544833066154752 14.384230814724333 0 0 0 0 -2.587186711366968 -8.6194627479731025 0 -8.6194627479731025 76.512965636789886 0 0 0 0 -11.546231043207712 2.7869042043325862 0 2.7869042043325862 18.200866701834457 0 0 0 0 -0.37693713911827009 -0.43450023053950737 0 -0.43450023053950737 4.6246529030964778 0 0 0 0 -8.6983328471712866 -20.068412883469136 0 -20.068412883469136 -19.074906244679369 0 0 0 0 -1.7717807351640431 0.038901958802853187 0 0.038901958802853187 19.387993655029277 0 0 0 0 -2.9580563916273377 -1.4147994285226559 0 -1.4147994285226559 11.938528608363413 0 0 0 0 -2.4322811681074654 1.7092069387231277 0 1.7092069387231277 15.18860028047493 0 0 0 0 -2.0415678798412098 1.8867107618772927 0 1.8867107618772927 7.7720512856476303 0 0 0 0 -0.45184196584827596 -1.1972601504586624 0 -1.1972601504586624 13.329011699320269 0 0 0 0 6.9411084143418975 6.9550329922722085 0 6.9550329922722085 5.8062280829180963 0 0 0 0 -31.696703090335404 21.168565513372869 0 21.168565513372869 20.709015296082725 0 0 0 0 -23.742879316126334 11.665458491655954 0 11.665458491655954 1.0566378409894241 0 0 0 0 0.15085018087476998 -0.61139523044176336 0 -0.61139523044176336 -0.92613302110461149 0 0 0 0 26.841518739069897 -40.83682727437008 0 -40.83682727437008 42.220565015571992 0 0 0 0 9.1855848337772841 11.100925111481047 0 11.100925111481047 -17.813722149776368 0 0 0 0 -12.214093546012236 0.78458943455552799 0 0.78458943455552799 4.3405049542707275 0 0 0 0 19.424067590844288 -34.962827756650768 0 -34.962827756650768 11.676413228724414 0 0 0 0 0.020544480056400971 3.0312926161223004 0 3.0312926161223004 23.985364611909972 0 0 0 0 -8.1104795446610751 11.047930768532751 0 11.047930768532751 -18.216684197079303 0 0 0 0 -1.2839185214725148 -12.771071352282888 0 -12.771071352282888 8.5344437114599714 0 0 0 0 -1.8232679788026207 -3.7952860185497741 0 -3.7952860185497741 5.9793139655944696 0 0 0 0 0.05287086905610261 -0.25607563101061359 0 -0.25607563101061359 -1.3741666524416658 0 0 0 0 -0.9132470149678511 0.36784761042690661 0 0.36784761042690661 19.68906423090084 0 0 0 0 0.91577186936316934 0.24540268775331242 0 0.24540268775331242 19.667358789196442 0 0 0 0 -3.1514125120957033 0.9103064322098362 0 0.9103064322098362 21.605544686267422 0 0 0 0 -1.3643527516466065 -0.021821160291437991 0 -0.021821160291437991 21.003028907318367 0 0 0 0 -0.54851209536862866 0.041102903678822855 0 0.041102903678822855 1.1303916531829739 0 0 0 0 -2.9638172069062421 1.1923227680672426 0 1.1923227680672426 20.316359299027681 0 0 0 0 -1.2818687074658328 0.37006048957118765 0 0.37006048957118765 19.967331896492396 0 0 0 0 -3.8737123411076482 1.5206459976470796 0 1.5206459976470796 21.048722511699452 0 0 0 0 -3.0069808606352808 1.2749439610256559 0 1.2749439610256559 20.384062893383089 0 0 0 0 -3.7516421364084636 2.0601048130756681 0 2.0601048130756681 20.216661309736082 0 0 0 0 -3.782597735251187 2.1044701050996082 0 2.1044701050996082 21.072675870156672 0 0 0 0 -4.5015727546142443 1.8164921956558828 0 1.8164921956558828 20.965617387326347 0 0 0 0 -5.0549379089388822 -0.21754817939836357 0 -0.21754817939836357 23.849701010679382 0 0 0 0 -4.9116315916083408 1.1773215920334223 0 1.1773215920334223 21.097583723465505 0 0 0 0 -4.1644736377951332 1.2414967647421236 0 1.2414967647421236 21.100465224193613 0 0 0 0 -4.1270125065209413 1.6463939008299349 0 1.6463939008299349 21.052400033206538 0 0 0 0 -0.2792452610390983 -4.6207341152094408 0 -4.6207341152094408 4.4808834414809517 0 0 0 0 8.458389922564777 -1.0944259661869182 0 -1.0944259661869182 4.6267732111891746 0 0 0 0 29.366993890218964 -30.089858946595996 0 -30.089858946595996 -7.0189125905853871 0 0 0 0 -3.6266631132220937 -4.4532015465938457 0 -4.4532015465938457 23.305330204465918 0 0 0 0 -0.64750165786512071 -4.8976054772861595 0 -4.8976054772861595 3.3418477004427452 0 0 0 0 15.169246198636529 17.16463181977997 0 17.16463181977997 1.1197627784047199 0 0 0 0 11.480303608648228 3.765370464143416 0 3.765370464143416 57.942104735379871 0 0 0 0 22.795098579474143 58.178592524922351 0 58.178592524922351 67.637892194958113 0 0 0 0 -24.398011142165956 23.304407849415838 0 23.304407849415838 89.760992351007189 0 0 0 0 -17.835739845405556 -11.817290636129655 0 -11.817290636129655 43.411120334208817 0 0 0 0 2.7943136506772817 -5.8694476789542023 0 -5.8694476789542023 5.8436912055822177 0 0 0 0 -2.2758241327157975 -14.633366413607291 0 -14.633366413607291 18.106758031188292 0 0 0 0 4.8836309204609734 20.413128705611598 0 20.413128705611598 50.499110374497832 0 0 0 0 -2.570841846990561 5.2923703956366808 0 5.2923703956366808 33.141645426698233 0 0 0 0 -10.449316109233678 -5.9909870046167271 0 -5.9909870046167271 32.290880843137302 0 0 0 0 -0.2179674338229316 -0.046154458371812979 0 -0.046154458371812979 -0.13875243810209525 0 0 0 0 -8.855123835854215 -17.324062671323645 0 -17.324062671323645 -6.7223325073355227 0 0 0 0 -0.45684037084994644 -4.0414145036220646 0 -4.0414145036220646 3.9888684026212502 0 0 0 0 -5.2927495943087024 60.343386099422332 0 60.343386099422332 263.57121067820663 0 0 0 0 23.715867876432284 82.113032993191439 0 82.113032993191439 303.60487240127441 0 0 0 0 -2.2502545868803736 49.545121301546715 0 49.545121301546715 271.05235680860051 0 0 0 0 -6.9921507636222486 -33.695811793718349 0 -33.695811793718349 168.42036586791164 0 0 0 0 -21.458917406895353 1.8690145540313097 0 1.8690145540313097 167.3194392765281 0 0 0 0 15.795370421606108 -45.519020271361256 0 -45.519020271361256 116.87802911909966 0 0 0 0 -28.037025476819508 16.658328197207993 0 16.658328197207993 133.72715453139426 0 0 0 0 -12.400422273270351 18.899039387385528 0 18.899039387385528 158.84892721119786 0 0 0 0 -4.4014645686611402 -18.775837327970294 0 -18.775837327970294 141.46198993627513 0 0 0 0 -57.307863470413395 10.046681008453561 0 10.046681008453561 315.24789516956662 0 0 0 0 -51.119046347126186 9.3032638991635395 0 9.3032638991635395 283.92599565670753 0 0 0 0 -30.175463088217498 9.9046938895467065 0 9.9046938895467065 281.27907836386476 0 0 0 0 -5.3841015916634234 -75.524332013904541 0 -75.524332013904541 255.69678151546213 0 0 0 0 -64.704615998196005 11.952435721433631 0 11.952435721433631 389.15224148626658 0 0 0 0 -34.114377420528058 35.561941549748553 0 35.561941549748553 353.81535268883727 0 0 0 0 -46.145550380932264 54.150279069725912 0 54.150279069725912 370.00703191522734 0 0 0 0 -60.996665498616323 30.264748464931927 0 30.264748464931927 332.18445959807286 0 0 0 0 -63.972733879595779 36.948674730071502 0 36.948674730071502 345.00391871848296 0 0 0 0 15.107171275293467 87.083814206647276 0 87.083814206647276 318.33892697698684 0 0 0 0 -5.2482788993020222 56.023030342927086 0 56.023030342927086 271.06579893449452 0 0 0 0 -38.928713816746153 39.375350653757778 0 39.375350653757778 361.63519213659038 0 0 0 0 -38.853406283574031 38.767698045101497 0 38.767698045101497 335.6642071678807 0 0 0 0 -62.550187319367296 -1.4812029601107497 0 -1.4812029601107497 300.93218100803097 0 0 0 0 29.72141057321835 24.687772518840575 0 24.687772518840575 336.80268182949294 0 0 0 0 -44.756249085378158 -59.943920089964195 0 -59.943920089964195 279.01089023180157 0 0 0 0 -51.087986917240869 41.146994263582656 0 41.146994263582656 359.81750445810849 0 0 0 0 -19.98533877375715 16.660992224947108 0 16.660992224947108 113.59697433381734 0 0 0 0 -27.191027310243086 -22.374020674430994 0 -22.374020674430994 169.26600633471389 0 0 0 0 1.6323684979718109 -9.5979974467645661 0 -9.5979974467645661 74.179060715267951 0 0 0 0 -7.481773445657268 -62.900117915918599 0 -62.900117915918599 113.1341475881236 0 0 0 0 -2.7378941510164623 33.493496945521656 0 33.493496945521656 31.507990205529495 0 0 0 0 -33.700614281110006 23.008223726991673 0 23.008223726991673 258.51433540621588 0 0 0 0 33.108961533769616 33.19388327093202 0 33.19388327093202 157.78725121572279 0 0 0 0 -25.958111421258081 36.357255219673789 0 36.357255219673789 226.57320790037465 0 0 0 0 -23.517489399713327 49.643313221815333 0 49.643313221815333 101.01690955050435 0 0 0 0 13.086253607992546 38.847563518784682 0 38.847563518784682 157.93046491585483 0 0 0 0 66.942259207522994 37.382395366872288 0 37.382395366872288 130.3112099069258 0 0 0 0 77.264200633146629 58.20873977193969 0 58.20873977193969 148.09970192589208 0 0 0 0 75.358596971416887 48.645807463590245 0 48.645807463590245 127.21795438264598 0 0 0 0 91.356559048635972 24.23282508145985 0 24.23282508145985 150.958801330391 0 0 0 0 76.130999577472267 40.72428525569012 0 40.72428525569012 176.92084750642516 0 0 0 0 84.949364919724928 59.713803113159429 0 59.713803113159429 221.2258108117876 0 0 0 0 108.96537517308354 14.387315179782945 0 14.387315179782945 193.58292048531803 0 0 0 0 132.69924386763603 42.302432515380133 0 42.302432515380133 216.16287546075364 0 0 0 0 79.030235329454399 33.620713038642862 0 33.620713038642862 166.45437396747275 0 0 0 0 38.504144020613523 58.98373164261011 0 58.98373164261011 245.38766170385315 0 0 0 0 60.435070111677419 83.575018908209131 0 83.575018908209131 310.16270823975174 0 0 0 0 38.780116057530108 46.188744394185051 0 46.188744394185051 245.61858939863751 0 0 0 0 124.73615082104493 43.047149374498986 0 43.047149374498986 225.95265051127899 0 0 0 0 106.83428233227119 31.222826046256159 0 31.222826046256159 283.18750786171586 0 0 0 0 166.24026402193408 69.346466975031944 0 69.346466975031944 298.30169634819549 0 0 0 0 380.5362988217629 76.036081000703689 0 76.036081000703689 364.92058470030406 0 0 0 0 111.40405447729955 42.06631781920305 0 42.06631781920305 363.25187150955571 0 0 0 0 -42.844603457489598 67.714874884866163 0 67.714874884866163 468.43369577320118 0 0 0 0 170.01985016218805 105.22838777794732 0 105.22838777794732 314.01483632327972 0 0 0 0 48.442287289337287 54.29681957773937 0 54.29681957773937 505.39978474629436 0 0 0 0 20.271790587696358 -25.049467651910163 0 -25.049467651910163 311.21994655675189 0 0 0 0 99.452236395499881 99.466713489221092 0 99.466713489221092 288.7316381977198 0 0 0 0 87.675049447220431 45.216685383144977 0 45.216685383144977 380.11577974263491 0 0 0 0 117.35886521017858 -48.552415298346205 0 -48.552415298346205 642.35854147720579 0 0 0 0 90.924658267168297 -8.7373747935062056 0 -8.7373747935062056 386.99719672740389 0 0 0 0 183.76474094028771 -2.1754061573324179 0 -2.1754061573324179 262.68054316717098 0 0 0 0 99.069258716559602 -4.4183794766340725 0 -4.4183794766340725 262.92054204829526 0 0 0 0 100.13683369504116 6.5200648345939953 0 6.5200648345939953 262.01652263295 0 0 0 0 38.675348363890691 -27.661075869018532 0 -27.661075869018532 267.24620019450344 0 0 0 0 36.397695466111983 -15.346089177000067 0 -15.346089177000067 224.83104729857951 0 0 0 0 -6.0521312460938077 -19.254889909609119 0 -19.254889909609119 225.61748492456718 0 0 0 0 110.43563865953143 1.158861323920064 0 1.158861323920064 201.91890755856366 0 0 0 0 46.34405273847392 -0.18767268761621381 0 -0.18767268761621381 202.05431847319596 0 0 0 0 76.962909612765316 12.190751556705095 0 12.190751556705095 142.70071826678941 0 0 0 0 98.352828206428057 24.220231728752879 0 24.220231728752879 148.20723927513973 0 0 0 0 55.693785967192269 -9.6460047079594915 0 -9.6460047079594915 171.49749990173223 0 0 0 0 9.6359529979934848 16.765639608898709 0 16.765639608898709 157.10030858797018 0 0 0 0 -11.192568194634731 -10.022972466504825 0 -10.022972466504825 192.22704796306607 0 0 0 0 -24.336073787312671 18.162418522108055 0 18.162418522108055 156.04032224061984 0 0 0 0 -25.483292230993584 12.070493372665737 0 12.070493372665737 172.94731248475728 0 0 0 0 -69.092145886138837 32.342163406865438 0 32.342163406865438 200.92485788328031 0 0 0 0 -68.046720298970854 -15.851506870523735 0 -15.851506870523735 256.99125135310624 0 0 0 0 -50.515640754972168 -1.6389034627713954 0 -1.6389034627713954 258.38133199298227 0 0 0 0 -19.777652587369403 1.1414619933411814 0 1.1414619933411814 195.67399374027809 0 0 0 0 24.98739001742689 84.524169919090809 0 84.524169919090809 129.51397786461712 0 0 0 0 -55.126006947458791 71.073041121193683 0 71.073041121193683 304.21735129748413 0 0 0 0 -13.135336208801164 90.087839431972498 0 90.087839431972498 128.9256168870038 0 0 0 0 -107.93647768760411 35.441088889257117 0 35.441088889257117 281.86893094064817 0 0 0 0 -133.22686492127195 78.434274245691995 0 78.434274245691995 468.28810857690496 0 0 0 0 93.113467020894632 247.64712928304471 0 247.64712928304471 306.84961036564255 0 0 0 0 -45.772072683017456 99.041555430108701 0 99.041555430108701 411.54341298658983 0 0 0 0 -64.753697220661024 -3.8914650890646953 0 -3.8914650890646953 13.507900381911895 0 0 0 0 -45.778076081311156 -162.34148751199518 0 -162.34148751199518 363.22950507861447 0 0 0 0 -135.18047005605422 7.7240690508415355 0 7.7240690508415355 324.69938870051556 0 0 0 0 -155.36414855884163 -71.806823968400749 0 -71.806823968400749 262.14238470805776 0 0 0 0 -235.79770893822456 0.31203247228359032 0 0.31203247228359032 126.54108738427294 0 0 0 0 -107.21309138473634 -6.7104371072291542 0 -6.7104371072291542 107.76136439312359 0 0 0 0 -218.73506292251818 151.75868491433039 0 151.75868491433039 34.902176651207583 0 0 0 0 1.7784834975077661 4.9051424017025571 0 4.9051424017025571 7.6601141264164028 0 0 0 0 -31.618685419966766 -47.337318292767122 0 -47.337318292767122 253.8101904029827 0 0 0 0 7.3704557144833416 5.1484828284756077 0 5.1484828284756077 246.24396236433518 0 0 0 0 -111.41870500657218 -45.511327125448361 0 -45.511327125448361 255.52077755446771 0 0 0 0 -129.77711459843749 -16.134162697887405 0 -16.134162697887405 248.53972384642839 0 0 0 0 -58.496231186102079 -52.34782436663636 0 -52.34782436663636 210.3488298114753 0 0 0 0 -70.959686478138224 80.727916842703962 0 80.727916842703962 189.50475936464886 0 0 0 0 -10.982881297573044 260.55417160963043 0 260.55417160963043 217.65513628701228 0 0 0 0 6.8250683273042227 12.506004145551287 0 12.506004145551287 244.65195315261644 0 0 0 0 135.46140850338202 148.32143518882268 0 148.32143518882268 293.91001169314404 0 0 0 0 -74.370521341864901 129.44300200611906 0 129.44300200611906 294.37966730330038 0 0 0 0 -1.6869053275813499 -0.70239246986543513 0 -0.70239246986543513 3.2706648035596686 0 0 0 0 -118.59894782227207 219.45888244637899 0 219.45888244637899 342.23184105481869 0 0 0 0 -69.971006731479292 85.95271557795013 0 85.95271557795013 531.45250488675265 0 0 0 0 -148.12699595561895 358.28520556961223 0 358.28520556961223 -72.519942625322074 0 0 0 0 -91.49599784373936 -5.4351512675857521 0 -5.4351512675857521 -25.591107917074623 0 0 0 0 -218.67531896753337 96.347352230185152 0 96.347352230185152 91.090559690354894 0 0 0 0 -6.1815275734766146 -27.101412132435144 0 -27.101412132435144 98.503068321504713 0 0 0 0 -81.993705191584581 -5.2933107374856263 0 -5.2933107374856263 281.89348559253449 0 0 0 0 -99.068307948173469 -69.814096839298372 0 -69.814096839298372 374.73137717703139 0 0 0 0 -51.344064455077842 -17.000509551585992 0 -17.000509551585992 414.10644133353662 0 0 0 0 0.021767546924174486 0.12934786933578124 0 0.12934786933578124 0.57909965774838756 0 0 0 0 -11.417955377112435 -95.257859849230954 0 -95.257859849230954 225.98100953032645 0 0 0 0 -3.2391395649921151 -201.82117455495381 0 -201.82117455495381 596.63728241670742 0 0 0 0 -84.368113395362343 127.25484491775751 0 127.25484491775751 610.92520268397516 0 0 0 0 0.88986414377820644 2.0520524450319968 0 2.0520524450319968 3.281759865966329 0 0 0 0 -53.230336656464942 -3.9525297189288722 0 -3.9525297189288722 279.79317011268267 0 0 0 0 -112.24889844444965 12.412000063648975 0 12.412000063648975 280.23493644789869 0 0 0 0 -57.887908309080842 45.336959924864431 0 45.336959924864431 302.41489423963594 0 0 0 0 -52.246749814588384 -9.4806475514151316 0 -9.4806475514151316 276.08846612921297 0 0 0 0 -4.4537828275670108 21.074446141921271 0 21.074446141921271 222.14927864004676 0 0 0 0 -35.486732792232715 -12.155806893735189 0 -12.155806893735189 207.57046334778147 0 0 0 0 30.118090855207129 100.90330086040694 0 100.90330086040694 179.07978799016672 0 0 0 0 -62.657169931606745 26.804542387305446 0 26.804542387305446 185.5532884558761 0 0 0 0 -62.418461458679985 -84.343528805588903 0 -84.343528805588903 264.9323603785715 0 0 0 0 -25.064243814729707 144.57748381826241 0 144.57748381826241 391.69430243206716 0 0 0 0 70.737840220077828 62.828407767292902 0 62.828407767292902 145.32275563332587 0 0 0 0 21.100318142632432 35.821195374342096 0 35.821195374342096 160.77929908345504 0 0 0 0 59.841596244525363 -39.163131339526444 0 -39.163131339526444 46.466020672165541 0 0 0 0 31.713321638498371 24.058465773847274 0 24.058465773847274 35.322540504490462 0 0 0 0 -5.1420605310845531 0.08376720404248772 0 0.08376720404248772 102.53565463456016 0 0 0 0 -19.987777789510687 -9.9562443249787975 0 -9.9562443249787975 85.833725604702522 0 0 0 0 -0.28129178609179917 -18.5372753669144 0 -18.5372753669144 21.678811046149349 0 0 0 0 4.5216975963895152 -2.3920632839840437 0 -2.3920632839840437 37.879631652980606 0 0 0 0 28.371653596603664 7.9107979479740607 0 7.9107979479740607 79.041925276737402 0 0 0 0 3.3201116673594697 40.272891623367286 0 40.272891623367286 131.96590318812559 0 0 0 0 33.588958760257583 80.47708885386055 0 80.47708885386055 205.59891485178014 0 0 0 0 57.606490544556891 34.263621365387735 0 34.263621365387735 123.03596953932083 0 0 0 0 42.284693860843873 124.44591133867095 0 124.44591133867095 196.27441768080553 0 0 0 0 81.825233613393493 60.624593044843095 0 60.624593044843095 163.41999814988776 0 0 0 0 10.18245235541383 62.999723521620581 0 62.999723521620581 181.66274761131262 0 0 0 0 -0.48543085363488725 -0.5254278697277952 0 -0.5254278697277952 1.7056802041629222 0 0 0 0 7.267771675003587 -150.95409520234739 0 -150.95409520234739 31.239183777857761 0 0 0 0 107.33126567454929 258.63521706331449 0 258.63521706331449 319.23186764080538 0 0 0 0 240.23271655344593 246.24460308104699 0 246.24460308104699 2.2685766079612222 0 0 0 0 176.24215408104214 129.06380488148352 0 129.06380488148352 163.08690203392916 0 0 0 0 -25.51427017243924 50.218719936074194 0 50.218719936074194 335.27634646753143 0 0 0 0 23.467632743024069 -21.08672750570986 0 -21.08672750570986 318.69254002275397 0 0 0 0 88.026453987352511 2.4162686149661567 0 2.4162686149661567 -102.40581298576546 0 0 0 0 7.9489351015029612 6.2419967852994205 0 6.2419967852994205 510.31789668303236 0 0 0 0 1.3059973901563167 0.93717485450808624 0 0.93717485450808624 0.60130251231783038 0 0 0 0 -14.525455074234856 5.6712376641116862 0 5.6712376641116862 305.30881304239483 0 0 0 0 3.2380217424363984 2.704421827835044 0 2.704421827835044 1.1533347528017508 0 0 0 0 103.84035906989311 51.536695938322737 0 51.536695938322737 -47.941241834088032 0 0 0 0 -33.895025917991916 66.569809826816709 0 66.569809826816709 1.6689424964765749 0 0 0 0 -3.2343000134216027 -25.630203343885114 0 -25.630203343885114 320.87052598206196 0 0 0 0 -2.4178191354058498 -25.980023226525475 0 -25.980023226525475 231.51192116491529 0 0 0 0 12.38564930655059 7.1551849911979843 0 7.1551849911979843 183.89112037720861 0 0 0 0 4.0339173186940149 3.6645872804392532 0 3.6645872804392532 1.3821176289591683 0 0 0 0 -16.525696217585619 21.111790076508896 0 21.111790076508896 223.72117418614607 0 0 0 0 3.9480338560695145 19.723591690094963 0 19.723591690094963 261.82778686209213 0 0 0 0 -2.3002544507526181 -1.3657403168099336 0 -1.3657403168099336 232.86025959801145 0 0 0 0 -25.497152942634841 18.848619323257935 0 18.848619323257935 279.12994374060327 0 0 0 0 18.510762588535158 10.832033731547199 0 10.832033731547199 279.49500755323817 0 0 0 0 -0.54876674561853633 2.5801388092545494 0 2.5801388092545494 291.82624163065611 0 0 0 0 -3.142640727887283 15.864071817311924 0 15.864071817311924 292.48648517464358 0 0 0 0 87.750644357701276 -76.423768782664638 0 -76.423768782664638 151.421021074414 0 0 0 0 -12.908187066365201 19.223347258380954 0 19.223347258380954 322.50382415822196 0 0 0 0 0.93875746583282105 0.40725967938063867 0 0.40725967938063867 0.57570561701035494 0 0 0 0 23.60465063951824 -140.32160238019355 0 -140.32160238019355 163.10532759596845 0 0 0 0 28.952891811099676 -27.127897000051462 0 -27.127897000051462 164.97076454610487 0 0 0 0 5.6866422477230572 56.004546048759039 0 56.004546048759039 302.0388342994188 0 0 0 0 1.9935470937259527 0.8469249872653517 0 0.8469249872653517 0.51974973028370908 0 0 0 0 94.042229927622003 70.790706672252554 0 70.790706672252554 166.02957178506085 0 0 0 0 5.5070219543294385 26.58539309711216 0 26.58539309711216 219.04974707554902 0 0 0 0 1.0831117726814741 0.52638499508202674 0 0.52638499508202674 0.4352963044848015 0 0 0 0 108.9208427758166 -41.443178365710082 0 -41.443178365710082 125.6775959722072 0 0 0 0 93.574647743038213 150.31311798727188 0 150.31311798727188 401.03900665249921 0 0 0 0 4.1357657115452966 65.886737706800176 0 65.886737706800176 343.12686130271777 0 0 0 0 72.582551400661316 65.111663038677762 0 65.111663038677762 396.79829166199579 0 0 0 0 6.2211779906577931 112.76664046358746 0 112.76664046358746 363.29460887742334 0 0 0 0 10.074378098845841 106.19712821906523 0 106.19712821906523 305.35906665023663 0 0 0 0 -25.101085960690398 89.484625733985467 0 89.484625733985467 465.19121138635455 0 0 0 0 75.277848440578282 224.38724296142618 0 224.38724296142618 499.01958153164651 0 0 0 0 -27.852669288551169 83.6037226038261 0 83.6037226038261 476.80484829156467 0 0 0 0 7.0105410502337691 -146.93937912735169 0 -146.93937912735169 235.66331401249181 0 0 0 0 -24.909510609075255 101.75290390944247 0 101.75290390944247 292.13232176246584 0 0 0 0 -63.915069184153907 -9.7834953356393726 0 -9.7834953356393726 355.818647046553 0 0 0 0 361.10005404540038 -238.86702353548981 0 -238.86702353548981 -243.10968401986884 0 0 0 0 -250.56553678978548 -150.566152949844 0 -150.566152949844 182.86980505585052 0 0 0 0 465.79615335997823 353.63182158343807 0 353.63182158343807 401.26307076320791 0 0 0 0 215.41134913226256 92.602091903972905 0 92.602091903972905 137.93581199961841 0 0 0 0 38.993605639618977 233.0796188396871 0 233.0796188396871 786.25443727605852 0 0 0 0 2.8976929288916855 3.8642137028597574 0 3.8642137028597574 5.2133452342473277 0 0 0 0 20.054074005400025 555.18117723884222 0 555.18117723884222 303.06669004600917 0 0 0 0 6.5837152447184053 -92.598590355256192 0 -92.598590355256192 645.55703262018346 0 0 0 0 66.887618704799934 819.8496122111037 0 819.8496122111037 278.10509464748611 0 0 0 0 -36.229581162906953 -106.8132695080281 0 -106.8132695080281 621.65879676564509 0 0 0 0 1.7556609590889165 2.8653923820688725 0 2.8653923820688725 3.5972760311054657 0 0 0 0 -55.456621707783455 114.71744056258649 0 114.71744056258649 748.43572268864045 0 0 0 0 451.76406731672114 469.53620120168671 0 469.53620120168671 409.33496229167486 0 0 0 0 -189.01638455613465 -179.17134279015772 0 -179.17134279015772 20.967239136053649 0 0 0 0 148.65903194453017 -172.15965483108062 0 -172.15965483108062 -195.96606329828319 0 0 0 0 84.361188436409066 -123.18671412527647 0 -123.18671412527647 -13.634381001691509 0 0 0 0 -72.554449360599392 -63.249797830486386 0 -63.249797830486386 -12.263494885688488 0 0 0 0 165.10828151040664 11.870833362563644 0 11.870833362563644 -63.228688502775185 0 0 0 0 160.31821768047257 121.24259093944579 0 121.24259093944579 39.479781751504561 0 0 0 0 0.96648171498623014 -32.108691455885491 0 -32.108691455885491 -7.1188315332019556 0 0 0 0 1.3169677270204692 0.90404870907151214 0 0.90404870907151214 -0.20054658365617684 0 0 0 0 -54.96038573864962 21.715737992461072 0 21.715737992461072 168.85932607968061 0 0 0 0 41.642416984393776 77.243857546564413 0 77.243857546564413 20.59167216383139 0 0 0 0 18.339618679647344 -24.005219436780692 0 -24.005219436780692 142.61148274212428 0 0 0 0 -2.5683278342073663 64.164692961642686 0 64.164692961642686 14.769490354188747 0 0 0 0 41.519105691110013 35.868219472223359 0 35.868219472223359 -0.75173973046321407 0 0 0 0 -30.699002264145747 19.273124731819735 0 19.273124731819735 12.212456235762147 0 0 0 0 4.3724807647168866 9.1100284439082095 0 9.1100284439082095 13.693713679347361 0 0 0 0 -184.02183178567702 23.794385229003133 0 23.794385229003133 26.543326320314009 0 0 0 0 -7.3501584930124864 10.457350713068536 0 10.457350713068536 15.409350465684383 0 0 0 0 5.8455006114556198 -15.92110446882819 0 -15.92110446882819 -65.526905903755505 0 0 0 0 0.20643411348432816 1.989070874954324 0 1.989070874954324 3.7707980382646173 0 0 0 0 -3.4680460988850825 15.748998897031811 0 15.748998897031811 -1.854445915463657 0 0 0 0 11.897089237403179 -1.5907864504706595 0 -1.5907864504706595 -23.726872390180233 0 0 0 0 77.420958931335235 51.110109707757147 0 51.110109707757147 46.686639488721084 0 0 0 0 -9.6197534778086009 -41.645874247747486 0 -41.645874247747486 24.232757370932632 0 0 0 0 0.9508834016596972 0.65659042221065267 0 0.65659042221065267 3.1530789496476181 0 0 0 0 11.270449817778911 -6.7506740386806996 0 -6.7506740386806996 12.007839407721804 0 0 0 0 12.633759367073083 -6.9314560176878786 0 -6.9314560176878786 2.4850286408491229 0 0 0 0 10.9824114531134 0.035939091379077581 0 0.035939091379077581 8.5408663700991383 0 0 0 0 -0.94542327234815249 -2.7958599389076224 0 -2.7958599389076224 8.9020426976018161 0 0 0 0 6.4709871088887212 -4.7389468792540583 0 -4.7389468792540583 2.2821537589484251 0 0 0 0 1.5842506939006276 -2.7335925447814988 0 -2.7335925447814988 3.8290614158749516 0 0 0 0 -18.31806124769605 -23.910528209744143 0 -23.910528209744143 14.773235841002673 0 0 0 0 18.380655296978148 19.665152956060638 0 19.665152956060638 11.343998728914812 0 0 0 0 73.913618133263981 27.171710006556452 0 27.171710006556452 -4.5070500002061635 0 0 0 0 1.0348180991573865 -1.1254325345071265 0 -1.1254325345071265 1.3851484163676417 0 0 0 0 259.39442316984952 -125.71741357481073 0 -125.71741357481073 20.962562448836877 0 0 0 0 28.870948517378366 56.240898252477336 0 56.240898252477336 93.151636082733376 0 0 0 0 4.8963782738297255 7.9122668416321176 0 7.9122668416321176 86.082104061544669 0 0 0 0 -1.3524938622633726 -31.958519870521968 0 -31.958519870521968 31.747584254580943 0 0 0 0 52.000643678818818 27.883286621070511 0 27.883286621070511 38.913697892170205 0 0 0 0 -1.8105534964400078 -68.420054810649162 0 -68.420054810649162 322.18501873197465 0 0 0 0 29.989409033946288 -67.377930189415792 0 -67.377930189415792 239.04704356831985 0 0 0 0 113.66024532329425 -176.8934398116096 0 -176.8934398116096 399.72312753499682 0 0 0 0 272.58701909634362 -38.8393480174243 0 -38.8393480174243 283.03940074851243 0 0 0 0 -14.724791861481265 42.733333944557103 0 42.733333944557103 401.08727551883567 0 0 0 0 95.240344775046182 -57.361597540025741 0 -57.361597540025741 283.85195977650699 0 0 0 0 118.45207053599299 -46.429733102626869 0 -46.429733102626869 240.94072685657625 0 0 0 0 89.873006177341054 -86.871732487491727 0 -86.871732487491727 320.14827655572992 0 0 0 0 94.697955782585836 -6.2019517938592799 0 -6.2019517938592799 321.48175454310763 0 0 0 0 55.604482499282028 12.927864038587131 0 12.927864038587131 309.04542741711293 0 0 0 0 70.098938634862151 20.398910896394455 0 20.398910896394455 312.7267459172017 0 0 0 0 20.904412701444755 6.2841311189353064 0 6.2841311189353064 376.15226009616526 0 0 0 0 0.4079966575042997 0.57987341365681466 0 0.57987341365681466 0.73253454301609722 0 0 0 0 0.92283107884114202 -49.850945182473197 0 -49.850945182473197 308.841376917037 0 0 0 0 9.1129739587831864 -82.895005935690222 0 -82.895005935690222 132.92434780267041 0 0 0 0 23.647400100062498 -92.954639080224183 0 -92.954639080224183 111.6350369774915 0 0 0 0 9.5462295325144524 -81.673235131769573 0 -81.673235131769573 125.02266683099856 0 0 0 0 19.632350128552616 -111.63526468677753 0 -111.63526468677753 173.70260060259807 0 0 0 0 40.98053757384929 -91.072828172660138 0 -91.072828172660138 127.97380660493337 0 0 0 0 51.01071100875145 -111.14592202579581 0 -111.14592202579581 117.2846189719321 0 0 0 0 77.847994868950494 -46.756588566653818 0 -46.756588566653818 23.797444864227145 0 0 0 0 130.03451133492456 -111.25418330651732 0 -111.25418330651732 79.181023169421678 0 0 0 0 59.336002527468942 -146.20024755758334 0 -146.20024755758334 255.1697878474879 0 0 0 0 163.85620819786135 -238.47141819659873 0 -238.47141819659873 307.76659125850983 0 0 0 0 107.5497949209375 -106.21997954887524 0 -106.21997954887524 88.053034074617926 0 0 0 0 69.488996504306769 -80.042235248422017 0 -80.042235248422017 224.47418854628995 0 0 0 0 72.362477810650446 -49.731863049541516 0 -49.731863049541516 461.15234502335579 0 0 0 0 111.581831821043 -41.854168382363298 0 -41.854168382363298 221.95647414971199 0 0 0 0 25.342725585951484 -29.478243191653632 0 -29.478243191653632 300.84606204953752 0 0 0 0 22.185067317323849 -49.56563434563671 0 -49.56563434563671 192.60988138714765 0 0 0 0 1.4821555692703328 -44.178969980162265 0 -44.178969980162265 206.29843865100463 0 0 0 0 -4.6640813395920873 -57.313201814059482 0 -57.313201814059482 178.83889782269171 0 0 0 0 -18.357156486652912 -6.0648948263005877 0 -6.0648948263005877 180.76925297333983 0 0 0 0 -8.1343911972130627 -29.68410532116684 0 -29.68410532116684 230.17056204044843 0 0 0 0 -19.327143832139541 -8.8050417979549138 0 -8.8050417979549138 174.59284452639531 0 0 0 0 -7.9291312181511557 -42.544270744517803 0 -42.544270744517803 121.20541331711735 0 0 0 0 -51.798444937283534 37.25992779748367 0 37.25992779748367 182.56235782401208 0 0 0 0 -58.161153168669841 27.287329114901922 0 27.287329114901922 182.32180402539461 0 0 0 0 -24.417624007219018 -5.6472407485068743 0 -5.6472407485068743 179.13892155552276 0 0 0 0 -23.829434759423577 26.274064976604905 0 26.274064976604905 164.26340443411391 0 0 0 0 12.092040277639967 18.054562692414038 0 18.054562692414038 191.38351052565656 0 0 0 0 35.434430774305881 -21.131325085400363 0 -21.131325085400363 203.60653403880042 0 0 0 0 62.937633628363805 3.2142101690499203 0 3.2142101690499203 222.08864239671252 0 0 0 0 47.1243999969237 23.22641794670426 0 23.22641794670426 175.92448474688445 0 0 0 0 66.988248378702082 -10.167599178869864 0 -10.167599178869864 195.86535147252789 0 0 0 0 72.459274524291146 42.54327084035242 0 42.54327084035242 151.34293807646964 0 0 0 0 51.749414385686379 31.665134055873523 0 31.665134055873523 149.27392609460458 0 0 0 0 52.96769133820635 43.88219272915353 0 43.88219272915353 111.20192602845253 0 0 0 0 6.8608439555569873 0.73141739190442934 0 0.73141739190442934 70.820424433660264 0 0 0 0 10.293116648259002 -13.87814272497485 0 -13.87814272497485 140.6136182027717 0 0 0 0 -67.481433754904856 -6.7654889317209381 0 -6.7654889317209381 140.25858939841373 0 0 0 0 0.78542889582314501 33.128217418294071 0 33.128217418294071 76.634656058687369 0 0 0 0 -96.315774473574436 28.407468318509018 0 28.407468318509018 99.01334300485189 0 0 0 0 -65.150134756805699 6.3572066384873551 0 6.3572066384873551 91.746898590061846 0 0 0 0 97.147453864216942 -1.4939442966394836 0 -1.4939442966394836 321.25778272187608 0 0 0 0 199.62547470359024 29.798561554237722 0 29.798561554237722 300.01836279094823 0 0 0 0 99.29062705733925 -1.4213940602382991 0 -1.4213940602382991 292.53540780808771 0 0 0 0 55.755570852136451 -52.101588488396601 0 -52.101588488396601 293.98186195170456 0 0 0 0 89.510265617091477 -44.595811342534489 0 -44.595811342534489 249.48027181449061 0 0 0 0 80.504477948255527 5.6854670269187864 0 5.6854670269187864 213.96093149116382 0 0 0 0 96.872206297201188 -21.853722728742355 0 -21.853722728742355 245.17349489631306 0 0 0 0 145.59040095702107 40.531048441322582 0 40.531048441322582 182.62267643462746 0 0 0 0 98.795440412594701 47.641830432689403 0 47.641830432689403 234.06629134753086 0 0 0 0 89.845705638548907 18.79368087981652 0 18.79368087981652 163.08648111638922 0 0 0 0 112.88938704474435 71.795446418380834 0 71.795446418380834 130.48889681749768 0 0 0 0 112.78808776827422 85.10914942633508 0 85.10914942633508 188.18724469983732 0 0 0 0 120.23989352893098 59.594787416330973 0 59.594787416330973 115.81466781726976 0 0 0 0 118.03157689685339 59.726701886506817 0 59.726701886506817 237.69009636110525 0 0 0 0 143.59399903843692 20.736819557566847 0 20.736819557566847 219.23029128401413 0 0 0 0 205.34614505270514 86.386125395549925 0 86.386125395549925 292.76193302449246 0 0 0 0 207.09862654650385 76.789933992194847 0 76.789933992194847 262.88958605684013 0 0 0 0 39.390624638532472 29.219636064891802 0 29.219636064891802 49.697775175417291 0 0 0 0 170.1254202135118 81.065700563917289 0 81.065700563917289 -36.684572622156793 0 0 0 0 107.47597105012848 29.801864591080189 0 29.801864591080189 31.235133840638809 0 0 0 0 107.31261941318365 68.713797029449552 0 68.713797029449552 54.471993274302122 0 0 0 0 146.84014218090033 134.60200841781602 0 134.60200841781602 141.84189980391375 0 0 0 0 157.35667644589341 72.455205043591718 0 72.455205043591718 26.477901333659929 0 0 0 0 153.52948100572803 92.91841207530365 0 92.91841207530365 74.726242389741401 0 0 0 0 137.04675486595525 61.100873611177747 0 61.100873611177747 45.762892766656478 0 0 0 0 138.10772115061567 71.557929374633659 0 71.557929374633659 49.656300177417279 0 0 0 0 157.05119242114097 52.738715942905856 0 52.738715942905856 67.199040139999852 0 0 0 0 97.784691637616561 90.670507106682294 0 90.670507106682294 81.385759439160438 0 0 0 0 128.58389935823772 83.26130762363141 0 83.26130762363141 60.953312630166693 0 0 0 0 129.34229090432416 101.65629085977116 0 101.65629085977116 172.25537403952626 0 0 0 0 -7.0716045530347174 2.0510028663684352 0 2.0510028663684352 108.97052909617688 0 0 0 0 69.287306018494746 77.034095216062951 0 77.034095216062951 110.43532025655675 0 0 0 0 34.815471898475153 9.0796177066062 0 9.0796177066062 53.526894818035089 0 0 0 0 30.891072055065536 34.863874206016817 0 34.863874206016817 65.910151338384821 0 0 0 0 154.65821068783845 71.864220481825058 0 71.864220481825058 47.952950721210073 0 0 0 0 -68.139091736094088 43.047046750824563 0 43.047046750824563 17.162225463220693 0 0 0 0 -60.672731511970781 -24.718030681973858 0 -24.718030681973858 23.017052934140338 0 0 0 0 -12.41613226377558 68.569912596281483 0 68.569912596281483 -16.406587269859244 0 0 0 0 -4.210984728124032 40.601558919758304 0 40.601558919758304 46.478516856146598 0 0 0 0 46.396919748671394 70.592075847883279 0 70.592075847883279 6.7311276684517907 0 0 0 0 46.309376788287409 64.925672817649001 0 64.925672817649001 64.66459545237467 0 0 0 0 39.541569716411516 73.573699202138982 0 73.573699202138982 63.11992410366156 0 0 0 0 89.527340266057507 68.214275794420018 0 68.214275794420018 81.292383698404933 0 0 0 0 99.310430837209083 40.832627420057179 0 40.832627420057179 61.511596164321872 0 0 0 0 86.377136356713123 54.417478223116404 0 54.417478223116404 33.272901051975168 0 0 0 0 84.845076432443335 70.727416423835166 0 70.727416423835166 64.525861897869163 0 0 0 0 85.699086404870968 116.04483157579682 0 116.04483157579682 61.375324964403021 0 0 0 0 48.659871900941198 119.02124374467576 0 119.02124374467576 43.369501358788241 0 0 0 0 43.187943573883103 71.874249586574024 0 71.874249586574024 40.125844673355459 0 0 0 0 64.438102203161634 99.571071688232564 0 99.571071688232564 42.339534638657369 0 0 0 0 -5.5361445464961889 63.869188520464263 0 63.869188520464263 7.7902139497059579 0 0 0 0 7.9668779677134012 98.13397273260739 0 98.13397273260739 41.556847021767908 0 0 0 0 -26.797583514513519 99.346999980350802 0 99.346999980350802 47.770303740144527 0 0 0 0 -40.433403885484779 60.010754564307035 0 60.010754564307035 0.24842858930696821 0 0 0 0 -63.431238922191312 71.098203488877061 0 71.098203488877061 22.012899059492156 0 0 0 0 -110.78720974788129 43.973208897727204 0 43.973208897727204 22.219009060131157 0 0 0 0 -51.384994842726599 98.275499201126195 0 98.275499201126195 11.007080939743958 0 0 0 0 8.7584432436161705 147.10259639193509 0 147.10259639193509 111.61958645245079 0 0 0 0 33.748598438295005 107.12473744317981 0 107.12473744317981 60.547673403713247 0 0 0 0 -2.1915548763265065 95.633728557903623 0 95.633728557903623 28.797751296508977 0 0 0 0 -13.940687195917917 108.56824612136916 0 108.56824612136916 15.446906328213799 0 0 0 0 -47.007999025638838 82.16207999607434 0 82.16207999607434 34.350305020719134 0 0 0 0 -8.5959359873502308 95.158247689263249 0 95.158247689263249 43.652002371242816 0 0 0 0 3.2661597844967289 129.64996112629208 0 129.64996112629208 61.695201869443281 0 0 0 0 17.994183134036746 110.39718163883549 0 110.39718163883549 17.58538630004 0 0 0 0 18.464000872173614 102.96938968909114 0 102.96938968909114 67.305775497738523 0 0 0 0 10.690397359737688 111.02932490301248 0 111.02932490301248 80.670227542285602 0 0 0 0 28.029231719144974 128.06940364533045 0 128.06940364533045 58.019269745529982 0 0 0 0 38.618507963872275 107.9412440496551 0 107.9412440496551 95.905023501809751 0 0 0 0 54.562981881858207 121.248676098582 0 121.248676098582 72.807725945789116 0 0 0 0 59.654776680789126 99.915898971720594 0 99.915898971720594 66.206367080159225 0 0 0 0 94.129843048752946 104.88856633878379 0 104.88856633878379 74.45223631505246 0 0 0 0 68.545673083604584 108.83506689406295 0 108.83506689406295 71.145060312990154 0 0 0 0 39.790018119193235 89.210095407759468 0 89.210095407759468 96.819535968701302 0 0 0 0 29.316225515067458 54.980614915019288 0 54.980614915019288 29.584127488422382 0 0 0 0 35.495036724347983 71.933930067685992 0 71.933930067685992 74.666873741760199 0 0 0 0 26.982509651215537 114.777835133351 0 114.777835133351 93.533592648279296 0 0 0 0 7.8857343263896951 103.46719164726397 0 103.46719164726397 139.7695858949246 0 0 0 0 7.3657396727862761 109.04243444617856 0 109.04243444617856 114.22292389749327 0 0 0 0 16.242537728586086 74.234709530559201 0 74.234709530559201 127.00901644939745 0 0 0 0 3.1669549155013215 58.546883121882502 0 58.546883121882502 108.29374351626461 0 0 0 0 0.98993916157984074 50.204985768639148 0 50.204985768639148 192.41969090341877 0 0 0 0 -2.3244240850610538 107.14905602797398 0 107.14905602797398 152.89330451499052 0 0 0 0 16.755724513388387 8.4287629212198851 0 8.4287629212198851 -2.4109587059147088 0 0 0 0 12.21297309444094 0.66499499834480957 0 0.66499499834480957 3.9808336953846037 0 0 0 0 11.590885081002988 -12.039534238011839 0 -12.039534238011839 27.8446243430908 0 0 0 0 33.165149550125875 1.9425770635932622 0 1.9425770635932622 30.344806674567735 0 0 0 0 -7.8631589611267714 -27.279845129302544 0 -27.279845129302544 42.464507834060896 0 0 0 0 219.18059754386616 151.64010773232587 0 151.64010773232587 68.176594141291616 0 0 0 0 0.027865422833534659 0.28992392688184121 0 0.28992392688184121 1.4839339174022008 0 0 0 0 90.095552992072186 96.07428015000454 0 96.07428015000454 111.53080792211858 0 0 0 0 171.88512494873612 109.66871290199833 0 109.66871290199833 46.555168377397422 0 0 0 0 99.237785581473489 87.142899902646121 0 87.142899902646121 40.802598496826249 0 0 0 0 -10.009786276695877 7.078461489599249 0 7.078461489599249 2.5238781338443914 0 0 0 0 0.051863094696188217 0.18572825627554623 0 0.18572825627554623 3.7255332841712097 0 0 0 0 0.51376936403655771 0.035717809356856645 0 0.035717809356856645 1.5787893891341771 0 0 0 0 40.728562344805368 61.461500354526493 0 61.461500354526493 100.87853140563789 0 0 0 0 27.963121059734135 24.689778588363993 0 24.689778588363993 -22.256903331904653 0 0 0 0 -50.444376938104057 11.790272610948989 0 11.790272610948989 28.523935432548114 0 0 0 0 -5.1964881773542402 -8.4453264000389936 0 -8.4453264000389936 6.5058152958496009 0 0 0 0 -0.16773771234981 -0.14107670065039102 0 -0.14107670065039102 9.6915648555353897 0 0 0 0 -1.310634311376532 -5.4431460311518549 0 -5.4431460311518549 6.659804260976216 0 0 0 0 0.3759082190989993 -1.4809436946838339 0 -1.4809436946838339 0.40694541721523603 0 0 0 0 5.0759276526061399 7.0493600151207829 0 7.0493600151207829 -3.6679708167130229 0 0 0 0 0.6932696815033097 -5.3098821340957443 0 -5.3098821340957443 1.5484440759519202 0 0 0 0 4.9859122665754967 -1.4735339281619417 0 -1.4735339281619417 -7.6388765273518402 0 0 0 0 0.39913350987164486 -1.6377027367532726 0 -1.6377027367532726 -0.68721955948340696 0 0 0 0 -0.35753863995413226 -0.1272739458621901 0 -0.1272739458621901 0.378924109070093 0 0 0 0 0.52864863525264605 -1.4187848256698334 0 -1.4187848256698334 1.9591651736917246 0 0 0 0 -19.991792466812342 4.1953016015838784 0 4.1953016015838784 0.62471921812596065 0 0 0 0 -2.4128121736597734 -10.618743543442235 0 -10.618743543442235 -0.33265309970511225 0 0 0 0 4.7454568727139872 -15.031970507174378 0 -15.031970507174378 22.151815006225661 0 0 0 0 -2.7898968527572379 -1.0105517334106935 0 -1.0105517334106935 1.5309050286400634 0 0 0 0 -9.8999278242359168 -9.9099949111864021 0 -9.9099949111864021 36.48089196458568 0 0 0 0 -6.2584266953597307 -3.3262213324092045 0 -3.3262213324092045 28.943861709746216 0 0 0 0 20.575671375558329 47.787643434941174 0 47.787643434941174 51.857697862664736 0 0 0 0 0.15609847563927526 -0.31142491658543214 0 -0.31142491658543214 0.51982152117365388 0 0 0 0 -42.789406348490502 -49.993517883703589 0 -49.993517883703589 -14.452038113237734 0 0 0 0 -18.012550731159877 0.79088913176497044 0 0.79088913176497044 23.23626904999648 0 0 0 0 -8.4461013696882219 -6.3826865198193445 0 -6.3826865198193445 23.855686643719167 0 0 0 0 0.26484005181259174 -0.77815291732104619 0 -0.77815291732104619 1.6127731553521301 0 0 0 0 -36.80119010088238 -18.378497974541403 0 -18.378497974541403 2.8755967990537101 0 0 0 0 -20.52593577142602 -12.262478069837698 0 -12.262478069837698 3.1254163660267977 0 0 0 0 -29.434168088995051 -0.97065448929691911 0 -0.97065448929691911 -2.8321626633678534 0 0 0 0 -29.868577319794383 -10.897464058405262 0 -10.897464058405262 4.1423616536394547 0 0 0 0 -25.862213476516075 -14.859582286760656 0 -14.859582286760656 2.4081774188966847 0 0 0 0 7.1054581339276695 -3.9427228126517093 0 -3.9427228126517093 -0.90388359189182665 0 0 0 0 6.4405810843766176 -2.2857712716472633 0 -2.2857712716472633 8.3616258600454785 0 0 0 0 10.990384817842823 -4.4605058658116832 0 -4.4605058658116832 8.6652069128163021 0 0 0 0 11.068226739718572 -0.039846006859079353 0 -0.039846006859079353 4.6423942193005132 0 0 0 0 7.8860037505141634 -4.1687657518946253 0 -4.1687657518946253 0.49003455368074356 0 0 0 0 13.214839257006886 -3.2641387953444791 0 -3.2641387953444791 2.090043616019102 0 0 0 0 9.1445654871782232 -7.043610775119987 0 -7.043610775119987 6.3463474041918744 0 0 0 0 -8.1276898795902639 -3.5971054856242972 0 -3.5971054856242972 1.6003140475454529 0 0 0 0 -6.6897056925346305 -6.4665570861188826 0 -6.4665570861188826 5.288515266178365 0 0 0 0 -0.62442885058959796 1.6364707269310896 0 1.6364707269310896 6.5667844048044852 0 0 0 0 4.857002223437263 3.0455088808380424 0 3.0455088808380424 8.2083795433404703 0 0 0 0 3.9978807503205189 -1.3565780631956841 0 -1.3565780631956841 9.4229281206389714 0 0 0 0 10.011055823018978 2.9705422644228747 0 2.9705422644228747 6.7333132555504562 0 0 0 0 12.354371781024952 2.9416014715907295 0 2.9416014715907295 5.902461773071991 0 0 0 0 14.099633844876962 -1.2410390948434724 0 -1.2410390948434724 6.1840671383479275 0 0 0 0 10.6163019790867 0.070290277531057654 0 0.070290277531057654 6.1572464284745365 0 0 0 0 15.064108658477409 0.58052171037707012 0 0.58052171037707012 5.5059814691021529 0 0 0 0 17.47367170499551 0.073721837160519499 0 0.073721837160519499 5.9847678456198992 0 0 0 0 14.4798950974684 -0.41761332641954141 0 -0.41761332641954141 5.9482803295650228 0 0 0 0 13.782719481893828 -2.112162819882542 0 -2.112162819882542 5.9028333312808172 0 0 0 0 13.024176249424713 -0.84761803678566139 0 -0.84761803678566139 6.6427838070703729 0 0 0 0 14.341912646301893 -0.17266140429910593 0 -0.17266140429910593 5.4510103809334396 0 0 0 0 14.858544330713933 -0.20546230069112426 0 -0.20546230069112426 5.3278912793512063 0 0 0 0 16.740759194846028 -10.291162882771005 0 -10.291162882771005 8.6927293751634807 0 0 0 0 16.80018614412014 -8.3798594883273836 0 -8.3798594883273836 15.07216641211744 0 0 0 0 -0.65729176702187764 1.9392906986627576 0 1.9392906986627576 7.5091356290158302 0 0 0 0 13.189086371634154 -3.2162053454067063 0 -3.2162053454067063 8.0792922092205117 0 0 0 0 11.882939746460806 -1.7652393309417675 0 -1.7652393309417675 12.972162289376683 0 0 0 0 14.006777112498469 1.395721803507513 0 1.395721803507513 8.4909264643556526 0 0 0 0 0.11877481422453684 0.49452621430782528 0 0.49452621430782528 7.9604648215365614 0 0 0 0 -0.15538203431893322 -0.25246355092833106 0 -0.25246355092833106 3.3432081657437971 0 0 0 0 18.205489153627752 -8.7234082033155573 0 -8.7234082033155573 2.6427382608962944 0 0 0 0 -0.057927428614161225 -0.086918152901105827 0 -0.086918152901105827 1.4477431822934479 0 0 0 0 1.922320804247164 0.058724845209553678 0 0.058724845209553678 9.5162994657398485 0 0 0 0 0.32189573748130584 -0.091373778927618332 0 -0.091373778927618332 8.8121918907945656 0 0 0 0 0.67101824963603462 0.0101041367365724 0 0.0101041367365724 8.6697872469700883 0 0 0 0 0.85433694608852306 0.81431086155589583 0 0.81431086155589583 9.1420384885811927 0 0 0 0 16.115914917715596 -5.9418849434837284 0 -5.9418849434837284 2.3471247102706911 0 0 0 0 10.355333233969759 -3.268065264154302 0 -3.268065264154302 -4.9383798416447462 0 0 0 0 -9.2358032972664716 0.55901337988825617 0 0.55901337988825617 2.6940033020655392 0 0 0 0 2.8276650281650859 -9.3258170128642632 0 -9.3258170128642632 3.8882736304196897 0 0 0 0 10.617636248652701 -4.8360799613501513 0 -4.8360799613501513 5.7861421728202913 0 0 0 0 5.671018984108855 -12.092446707486943 0 -12.092446707486943 7.763280306702427 0 0 0 0 9.6643491943706294 12.343276819886341 0 12.343276819886341 82.174202774356672 0 0 0 0 -0.48788829397335076 2.3699810997772488 0 2.3699810997772488 7.8494783919073541 0 0 0 0 28.282698850211716 -8.3778219871771853 0 -8.3778219871771853 7.146055164345853 0 0 0 0 -9.7267876182251598 -0.12303415902624693 0 -0.12303415902624693 60.422840746904058 0 0 0 0 -10.686515302324381 -6.7876704760660687 0 -6.7876704760660687 36.604238317430827 0 0 0 0 -46.580431966095091 -24.096218898897632 0 -24.096218898897632 43.397346052247485 0 0 0 0 -26.651586148185629 -28.197741176522413 0 -28.197741176522413 8.027442292822343 0 0 0 0 -0.53234601713173846 2.5062228662823935 0 2.5062228662823935 8.2846969060183966 0 0 0 0 -6.4310800973320852 15.090622762511885 0 15.090622762511885 7.1621698665539952 0 0 0 0 -29.975472420886433 -13.805094229833685 0 -13.805094229833685 28.511929480930121 0 0 0 0 0.19589037379459961 0.73321560560868093 0 0.73321560560868093 0.20388380267863226 0 0 0 0 13.043104261237318 43.783346864699979 0 43.783346864699979 11.079256071127588 0 0 0 0 -21.518775838710553 -33.518738306063824 0 -33.518738306063824 44.764704403769997 0 0 0 0 -19.626694147244848 -28.22094364746772 0 -28.22094364746772 54.01101644215737 0 0 0 0 -0.13622128573886366 0.10566203590077627 0 0.10566203590077627 0.48026594559658342 0 0 0 0 2.3897942541289012 -0.059043200971245824 0 -0.059043200971245824 11.070483567285919 0 0 0 0 0.024773010253284156 -35.787504908143092 0 -35.787504908143092 -83.134050487813511 0 0 0 0 3.3692723909933306 1.0538855195536598 0 1.0538855195536598 11.544381712554468 0 0 0 0 0.9069473716040799 -3.2476969007299807 0 -3.2476969007299807 4.3588436631902505 0 0 0 0 1.356959346858531 -0.77475044640095803 0 -0.77475044640095803 5.4983171365061025 0 0 0 0 3.5437690650705918 -0.28958476376374165 0 -0.28958476376374165 4.7755273882794427 0 0 0 0 -0.30627686571748086 -0.63988077807460675 0 -0.63988077807460675 1.0250341949693755 0 0 0 0 -11.961215389627171 6.3362371902981067 0 6.3362371902981067 -3.646982918440699 0 0 0 0 -0.36211999717029653 2.6783118499241034 0 2.6783118499241034 5.9927836428439818 0 0 0 0 2.7236325496443499 0.3097599119773804 0 0.3097599119773804 9.566789762359349 0 0 0 0 0.92778098465346659 -0.64336879555526139 0 -0.64336879555526139 10.627523738839045 0 0 0 0 1.1420521830964958 0.14568467253411654 0 0.14568467253411654 10.793169437131837 0 0 0 0 2.7128888257485642 -0.28476060683487958 0 -0.28476060683487958 10.896408387141264 0 0 0 0 1.506150109681073 -0.13678340064711847 0 -0.13678340064711847 11.785001219561309 0 0 0 0 1.6842121645701411 0.045566336081719783 0 0.045566336081719783 10.804655203881453 0 0 0 0 0.96955385810942118 -1.3517126428664596 0 -1.3517126428664596 13.651239711733979 0 0 0 0 2.8838503115806304 -0.21422138295156401 0 -0.21422138295156401 11.768279957311279 0 0 0 0 1.465019986972016 -3.8618939717759275 0 -3.8618939717759275 3.7644814176715604 0 0 0 0 4.3030182768640657 -1.0336601392550619 0 -1.0336601392550619 10.892877890818227 0 0 0 0 1.6895288435782163 -0.80805159972487672 0 -0.80805159972487672 19.127603775182706 0 0 0 0 75.354859402121292 20.335205178165324 0 20.335205178165324 -64.202072018129911 0 0 0 0 2.267421675141235 3.0002449830483711 0 3.0002449830483711 1.5474666841530755 0 0 0 0 4.1642052150861417 -4.0646181234776577 0 -4.0646181234776577 15.522387728785361 0 0 0 0 78.273140728191379 -29.139358190921257 0 -29.139358190921257 -36.223425457026678 0 0 0 0 0.92276122602654576 -1.7560737714004091 0 -1.7560737714004091 1.9498953436070905 0 0 0 0 0.8387206064332986 -0.85126453388511436 0 -0.85126453388511436 7.2531575865825744 0 0 0 0 2.0274986636291032 -0.0026209539992123609 0 -0.0026209539992123609 18.712927656727118 0 0 0 0 -0.010834679356636734 -0.33698088859176689 0 -0.33698088859176689 1.9508372954926316 0 0 0 0 1.142825234515001 -1.8931623099431771 0 -1.8931623099431771 2.5814119027751969 0 0 0 0 20.888582360398232 42.678378504690045 0 42.678378504690045 -10.081595013312835 0 0 0 0 -44.745879279673318 4.8964722742239246 0 4.8964722742239246 31.203207059395936 0 0 0 0 -54.205594466850812 -47.900272354664594 0 -47.900272354664594 -30.892819511274865 0 0 0 0 -45.436698350973529 -9.5498635366975577 0 -9.5498635366975577 39.486598549665359 0 0 0 0 -17.096036480065436 -21.271879950268158 0 -21.271879950268158 21.596655149383793 0 0 0 0 -10.067683231598835 -21.80501044481116 0 -21.80501044481116 -51.444661617784732 0 0 0 0 1.0544419190220586 -0.90710718516190525 0 -0.90710718516190525 2.4942743521306818 0 0 0 0 6.2042394058003083 -1.5929396506435296 0 -1.5929396506435296 3.4125073706563853 0 0 0 0 -0.19617142176666191 0.19896059901745033 0 0.19896059901745033 1.0006945450998206 0 0 0 0 -23.382791250619618 -67.475854293539669 0 -67.475854293539669 -94.046198169220588 0 0 0 0 3.2495558071207249 -3.9293590671385346 0 -3.9293590671385346 8.5245987140692705 0 0 0 0 0.53595772074629622 -3.1210915349217885 0 -3.1210915349217885 14.103194955966501 0 0 0 0 2.8453719254757033 3.3701595166721745 0 3.3701595166721745 12.408609461874676 0 0 0 0 3.9534827227077987 3.8344510986742666 0 3.8344510986742666 1.2458555772398454 0 0 0 0 29.711884557088297 29.315123718818995 0 29.315123718818995 45.074472069527474 0 0 0 0 0.86036236979612113 -0.67173423542635646 0 -0.67173423542635646 20.564496431222778 0 0 0 0 2.8607861743739704 1.5849428539243036 0 1.5849428539243036 17.201511598072102 0 0 0 0 2.3115814416779017 1.9114839668736749 0 1.9114839668736749 19.650686788920211 0 0 0 0 6.1281544413681104 7.3581392115193012 0 7.3581392115193012 15.445889049869038 0 0 0 0 4.3297790641227039 1.4795425677971252 0 1.4795425677971252 17.442999786404016 0 0 0 0 1.5120321213331493 -0.23049473325795589 0 -0.23049473325795589 18.613567093485472 0 0 0 0 0.27979248849776384 1.0817373552403997 0 1.0817373552403997 1.9118526950531063 0 0 0 0 -42.198786689274129 13.728267420554644 0 13.728267420554644 13.491620469553709 0 0 0 0 -19.144748643817138 22.757595528323236 0 22.757595528323236 -17.623393839919686 0 0 0 0 15.942301256789364 -41.38406473028499 0 -41.38406473028499 35.293010490422603 0 0 0 0 -95.64715696205235 -38.069459224904222 0 -38.069459224904222 54.201311251506013 0 0 0 0 0.12918095693175879 0.3455812450479927 0 0.3455812450479927 0.70297330074237863 0 0 0 0 -16.111285035900437 52.787094589457638 0 52.787094589457638 -5.8094575478166917 0 0 0 0 -34.16309186233218 51.162423348274388 0 51.162423348274388 22.965429199390201 0 0 0 0 -16.332421782381566 55.355900084041906 0 55.355900084041906 6.4073933347845013 0 0 0 0 1.446213788985915 19.88870494480534 0 19.88870494480534 14.994618895435167 0 0 0 0 -69.316907274786189 24.960460712659597 0 24.960460712659597 14.631299710451003 0 0 0 0 38.328896472146198 37.810195119544915 0 37.810195119544915 17.620029112238626 0 0 0 0 -6.8128346141131715 29.314198580904076 0 29.314198580904076 46.469460034456461 0 0 0 0 25.666760204058392 13.038854919591586 0 13.038854919591586 33.188524551016371 0 0 0 0 -3.0975633944757419 28.730241287604713 0 28.730241287604713 15.101004282340682 0 0 0 0 -18.760970060610362 27.553642529909894 0 27.553642529909894 28.251661871578108 0 0 0 0 -4.3351312897747398 11.692235445761696 0 11.692235445761696 16.39976477867458 0 0 0 0 -22.348141786455699 8.9160486876919549 0 8.9160486876919549 33.242405257565224 0 0 0 0 -4.1564422138312551 14.613938430435283 0 14.613938430435283 48.006579093373148 0 0 0 0 13.413487219186891 -0.20230724080056461 0 -0.20230724080056461 36.404880556302487 0 0 0 0 18.965106723215513 16.371780464382709 0 16.371780464382709 56.728533595193312 0 0 0 0 10.038922250577201 -11.311836638264595 0 -11.311836638264595 32.701924705677811 0 0 0 0 8.3075916522615216 -12.291648868840639 0 -12.291648868840639 58.999719516983077 0 0 0 0 -7.4834638858707194 -1.6694733191527575 0 -1.6694733191527575 48.312606128113657 0 0 0 0 -7.8538215896495203 -5.4941944274324186 0 -5.4941944274324186 25.168189138666548 0 0 0 0 -19.018510099943455 -7.5359016360882833 0 -7.5359016360882833 36.940812752579404 0 0 0 0 -11.96365764108134 -3.894755257750262 0 -3.894755257750262 11.756043596990821 0 0 0 0 7.3652897583932919 -29.887226251466643 0 -29.887226251466643 23.607192760003272 0 0 0 0 -72.72754085363124 27.659394786563553 0 27.659394786563553 73.054319658955365 0 0 0 0 4.8244116922815863 -5.0109203755183103 0 -5.0109203755183103 8.2292713560332231 0 0 0 0 -41.692493298109866 9.3051789027083487 0 9.3051789027083487 5.544186663124492 0 0 0 0 -52.450487367296091 -5.3155903278261576 0 -5.3155903278261576 0.26556698968806813 0 0 0 0 -0.076971309709621405 0.53773602429180745 0 0.53773602429180745 0.71134848153945018 0 0 0 0 -21.895146161209141 10.194333473498318 0 10.194333473498318 7.8969457284852069 0 0 0 0 -47.070602616437327 16.282816023062878 0 16.282816023062878 16.488301481555936 0 0 0 0 
</DataArray>
<DataArray type="Float64" Name="cross_section_updated" format="ascii">
1 1 1 1 1 1 1 1 1 1 1 1 1 1 1 1 1 1 0.010014135583300417 1 1 0.009878862849726805 1 0.010259550873524471 0.010026971196789943 1 1 1 0.0099205299098372862 1 1 0.010425735594196392 1 1 1 1 1 1 0.010084729047420568 0.0098877869828635813 1 1 0.0099568660971259947 1 1 1 1 1 1 1 1 0.010258157505242237 1 1 1 0.010398724421270072 1 1 0.0098345359492786524 1 1 1 1 1 1 1 1 1 1 1 1 1 1 1 1 1 1 1 1 1 1 1 1 1 1 1 0.0099900421851475026 1 1 1 0.010296970328356022 1 1 1 0.010173364016818877 1 0.010043449882987256 1 1 1 1 1 1 1 0.010111922308133839 1 1 1 1 1 1 0.0099699476433611975 1 1 1 1 1 1 1 1 1 1 1 1 1 0.010043293560035188 1 1 1 1 1 1 0.010003884258621884 1 0.010003380255074912 1 1 0.01023613503275487 1 1 0.010140492434752228 1 1 1 0.010223987397644567 1 1 1 1 1 1 1 1 1 1 1 1 1 1 1 1 0.0099851625278934587 1 1 1 1 1 1 1 1 0.011364894267985606 1 1 1 0.010551215761490911 1 1 1 1 1 1 1 1 0.0098549095443672546 1 1 1 1 0.0095661011308609736 0.010592620951921006 1 1 0.010154923828507113 1 1 0.010228053072391569 1 1 1 1 1 1 1 1 1 1 1 1 1 1 1 1 1 1 1 1 1 1 1 1 1 1 1 1 1 1 1 1 1 1 1 1 1 1 1 0.010021018582227835 1 1 0.010045014009214608 1 1 1 1 1 1 1 1 1 1 1 1 1 1 1 1 1 1 1 1 1 1 1 1 1 1 0.011695233969970244 1 1 1 0.0099977818587383312 1 1 0.0099616360625513541 1 1 0.0099600617745197045 1 1 1 1 1 0.010812857917753653 1 0.010716883438966433 1 0.010167346781741027 0.010243414409601602 1 1 1 1 0.010403943263036002 0.010145181388636989 0.010612067615035622 1 1 1 1 1 0.01025455390406802 1 1 0.010548924689410551 1 0.010570404622378618 1 1 1 1 1 1 1 0.010004633783934597 1 1 1 1 1 1 0.010153965197685985 1 1 1 1 1 1 1 1 1 1 1 1 1 1 1 1 1 1 1 0.0097762876139417688 0.01019896756782444 0.010151378712442007 1 0.010463389871193558 0.010261400641885361 1 1 1 0.0098881444452016166 0.010131745094378398 1 1 1 0.010023245888603195 0.01000107026283582 1 0.0099402341304591236 1 0.010270811116253907 1 1 1 1 1 1 1 1 0.01077814610166883 1 1 1 1 1 1 1 1 1 1 1 1 0.010047301130341791 1 1 1 1 1 1 1 1 1 1 1 1 1 1 1 1 1 1 1 1 1 1 1 1 1 0.010954910172312869 1 1 1 1 0.010021749913180949 1 1 1 1 0.010005748101094915 1 1 1 1 1 1 1 1 1 1 1 1 1 1 1 1 1 1 0.010016173254272686 1 1 1 1 1 1 1 1 1 1 1 1 1 0.0099954695440078716 1 1 1 1 1 1 1 1 1 1 1 1 1 1 1 1 1 1 1 1 1 1 1 1 1 1 1 1 1 1 1 1 1 1 1 1 1 1 1 1 1 1 1 1 1 1 1 1 1 1 1 1 0.010331057136294022 1 1 1 1 1 1 1 1 1 0.0098601721091908026 1 1 1 1 0.009636979301824283 1 1 1 1 1 1 1 1 1 1 1 1 1 1 1 1 0.010185323331041402 1 1 1 1 1 1 1 1 0.010918134006455129 1 1 1 1 1 1 1 1 1 1 1 1 1 1 1 1 1 1 1 1 1 1 1 1 1 1 1 1 1 1 0.011072014776287855 1 1 0.0099994468770045353 1 1 1 0.0099501393998514855 1 1 1 1 1 1 1 1 1 1 1 0.01008526129969938 1 1 1 1 1 1 1 1 1 1 1 1 1 1 1 1 1 1 1 1 1 1 1 1 0.010125390630162538 0.0099939357863832248 1 0.010204143799593132 0.010024867677002778 1 1 1 1 1 1 1 1 1 0.0099148386921547454 1 1 1 0.0099858824511778604 1 0.010003517924931428 1 1 0.010006870635630206 1 1 1 1 1 0.010023766898873786 1 1 0.010016900567316737 1 1 1 1 1 1 1 1 1 1 1 1 0.0098978397961189905 0.0099976827223797176 1 1 1 1 0.0099935026583402899 1 1 1 1 1 1 1 0.010266154909562153 1 1 0.010089951499141492 1 0.010170646252253706 1 1 1 0.010023837924295825 0.010025762627260423 1 1 0.010024079848126739 0.0099688065237730876 1 1 0.0099451311489117504 1 1 0.0098036632453644013 1 1 0.010159591858671251 1 0.010339847519299231 1 1 1 1 1 1 0.010132570516764364 1 1 1 1 1 1 1 1 1 1 1 1 0.0099826023893927109 1 1 1 1 0.009974491046607541 1 1 0.0099838462658938722 1 1 1 1 1 1 1 1 1 1 1 1 1 1 1 1 1 1 1 1 1 1 1 1 1 1 1 1 1 1 1 1 1 1 1 1 1 1 1 1 1 1 1 1 1 1 1 1 1 1 1 1 1 1 1 1 1 1 1 1 1 1 1 1 1 1 0.01017790063748817 1 1 1 1 0.010075077657418545 1 1 1 1 1 1 1 1 1 1 1 1 1 1 1 1 1 1 1 1 1 1 1 1 1 1 1 1 1 1 1 0.0099960445370025682 1 1 1 1 1 1 0.010007702855475288 1 1 1 1 1 1 1 1 1 1 1 1 1 1 1 1 1 1 1 1 1 1 0.0099655257399374579 1 1 1 1 0.00999379667952696 1 1 1 0.010156729771259681 1 1 1 1 1 1 1 1 1 1 1 1 1 0.010060563861277388 1 1 0.010014303811477335 0.010038857733811055 1 1 1 1 1 1 0.01000350793595753 0.010033550981539243 0.010037109993469764 1 1 1 1 1 1 1 1 1 1 1 1 1 1 1 1 1 1 0.010000572600689019 1 1 1 1 1 0.0099990880321296424 1 1 0.01001526345400899 1 1 1 0.010000319979181035 1 1 1 0.0099648352307141613 1 1 1 1 1 0.0099979586951199802 1 1 1 1 0.010013599178433231 1 1 1 1 1 1 1 1 0.010098998503833204 1 1 1 1 1 1 1 1 1 0.0099949658040032335 1 1 1 0.010033460063351301 1 1 1 1 1 1 1 1 1 1 1 1 1 1 1 1 1 1 1 1 1 1 1 1 1 1 1 0.0099066324690740611 1 1 0.0099440670545847577 1 1 1 0.0099310232925722674 1 0.0099998989410536171 1 1 0.010043121269469685 1 0.009993174168743988 1 1 1 1 1 0.010200663312816362 1 1 0.0098804764843269631 0.010158667164069761 0.0099718934147081349 1 1 0.009847358511421711 1 1 1 0.010317177971928167 0.0099609802705072602 1 1 0.0099995600445861917 1 1 1 1 1 1 0.01000381433558116 1 1 1 1 1 1 1 1 1 0.010123136697544149 1 1 1 1 1 1 1 1 1 1 1 1 1 1 1 1 1 1 1 1 1 1 1 1 1 1 1 1 1 1 1 1 1 1 1 1 1 0.010000773847868918 0.009991762342342194 1 1 1 1 1 1 1 1 1 1 1 1 1 1 1 1 1 1 1 1 1 1 1 1 1 1 1 1 1 1 1 1 1 1 1 1 1 1 1 1 1 0.010951762327756479 1 1 1 1 0.010785859308176021 1 1 1 1 1 1 1 1 1 1 1 1 1 1 1 1 1 1 1 1 1 1 1 1 1 1 0.01099314476532055 1 1 1 1 1 1 1 1 1 1 1 1 1 1 0.010039825079393222 1 1 1 1 1 0.010303593662202482 1 1 1 1 0.010305149999241113 1 1 1 0.0098660432164181609 1 1 0.010018047564182023 1 0.0095903383777992263 1 0.0097433659541782298 1 1 0.0099997149092473005 1 1 1 1 1 1 1 0.0099566900751026817 1 1 1 1 1 1 1 1 1 1 1 1 1 1 1 1 1 1 1 1 1 1 1 1 1 1 1 1 1 1 1 1 1 0.0099954128389776672 1 1 1 0.010259020562298883 1 1 1 0.0099989441668002759 1 1 1 1 1 1 1 1 1 0.010319471407035746 1 1 1 0.010030759407559039 1 1 1 1 0.01034309905552829 1 0.010009620277292559 1 1 1 1 1 1 1 1 1 1 1 1 1 1 1 1 1 1 1 1 1 1 1 1 1 1 1 1 1 1 1 1 1 1 1 1 0.010088065777382769 1 1 0.010012051704380964 1 0.0099997635403443683 1 0.010282042066125846 1 1 0.010156884531083092 0.010236634922834664 1 1 1 0.01023487112727804 1 0.010111135748955863 1 1 1 1 1 1 1 0.010142688728651542 1 1 0.010134503171243175 1 1 0.010058360137781299 1 1 1 1 0.010002483484617818 0.010118354116540614 1 1 1 0.010187587895991359 0.010103816610197845 1 0.010074312586140851 1 1 1 1 1 1 0.010241584206165428 1 0.0099986798370317945 0.0099643767398008877 1 0.01036096423012396 1 1 1 1 1 0.010255364067816818 1 1 1 1 1 1 1 0.010037361620953342 0.01014366097456525 1 0.010157090835269857 1 1 0.010288362533069105 1 0.010086001760622987 1 1 1 1 1 1 1 1 0.01000563248069793 1 1 0.010005434393473189 1 0.010093047064136409 1 1 1 1 1 1 1 1 1 1 0.010223028990103198 1 1 1 0.010000138995067208 0.010218301014479243 1 1 0.010033165931329299 1 1 1 1 1 1 0.01006185507619432 1 1 1 1 1 1 1 1 0.010798574609116089 0.0099965346590615515 1 1 1 1 1 1 1 1 1 1 1 1 1 1 0.01078998553602448 1 1 1 1 1 1 0.010069147476352167 1 0.010150362386930081 1 0.010244146431720428 1 0.0099993381678566487 1 1 1 1 1 1 1 1 1 0.010070513980959928 0.010033632704757354 1 1 1 1 1 1 1 1 1 1 1 1 1 1 1 1 0.01057233606990535 1 1 0.010149146960131254 1 1 1 1 1 1 1 1 1 1 0.01024304449170118 1 1 1 1 1 1 1 0.010227452471423936 1 0.010607933864694642 0.010022299241024464 1 1 0.010460138955500482 1 1 1 1 1 1 1 1 0.010022934773809345 1 1 1 0.010092410917192245 1 1 1 0.010062934159336779 1 1 1 1 1 1 1 1 1 1 1 1 1 1 1 1 1 1 1 1 1 0.01004129246694725 1 1 1 1 1 1 1 1 1 1 1 1 1 1 1 1 1 1 1 1 1 1 1 1 1 0.010026604707573552 1 1 1 1 1 1 1 1 1 1 1 1 1 1 1 0.010030085545528526 1 1 1 1 1 1 1 1 1 1 1 1 0.01006470147850292 0.0099465126455889324 1 1 0.0099419357967491257 0.01001710328023203 1 1 1 1 0.0099406468644579731 0.010156938581606725 1 1 1 1 1 1 0.010059082523604601 0.010374509650560094 1 1 1 1 0.010391990326904448 1 1 0.009911788929784426 1 1 1 1 0.010019463864240827 1 1 1 1 0.010000361851431008 1 1 1 0.010047230191700595 1 0.010136035319192799 1 0.0099300460167495771 0.010130565382494905 1 1 1 0.010128211080728141 0.0099075602910983045 0.010321121493123864 0.0099969897772170142 1 1 0.010014925097045123 1 0.010212479244457123 1 1 0.01026770972482152 1 1 1 0.010030534712318805 0.0099995754676070782 1 0.010133333412513205 1 1 1 1 1 1 1 1 1 1 1 1 1 1 1 1 1 1 0.010284672466902659 1 1 1 1 1 0.010153053704526325 1 1 1 1 0.010110989412656635 1 1 1 1 1 1 1 0.010299695666114881 0.010108541801492302 1 1 0.0099693108329808999 1 1 1 1 1 1 1 1 1 1 1 1 1 1 1 1 1 1 1 1 1 1 1 1 1 1 1 1 1 1 1 1 1 1 1 1 0.010698997635213366 1 1 1 0.0099780898095578642 1 1 1 1 1 1 1 1 1 1 1 1 1 1 1 1 1 1 0.010195981055529473 1 1 0.01050932159569393 1 1 1 1 1 0.011856481824963287 1 0.010006506568756103 1 1 1 1 1 1 1 1 1 1 1 0.010035919522765571 0.010282403120731986 1 1 0.0099942773280024457 1 0.009998175672992422 1 1 1 1 0.010202758082237365 1 0.010337572151556385 1 0.010131453675533184 1 1 0.010250414057407372 0.0097383316352146043 1 1 0.01203210474007441 1 1 1 1 1 1 1 0.010314664975845012 1 1 1 0.01052664802675703 1 1 1 1 0.0099498093019831316 0.0099498320454584864 1 1 1 1 1 1 0.010893562255577442 1 1 1 1 0.0099488427329951865 1 1 1 1 1 1 1 1 1 1 1 1 1 1 1 1 0.0098347870745349505 1 1 1 1 0.0096857523890807352 1 1 1 1 0.010703652535586198 1 0.010813513078925033 1 1 1 1 1 0.010901331516247113 1 1 1 1 1 1 1 0.010560842011681809 1 1 1 0.010487446168266057 0.010653087573127584 1 1 1 0.011142474951555964 1 0.010364252086734872 1 1 1 1 0.010350000518868719 1 1 1 1 0.011004934780872742 1 1 1 1 1 0.0096704659493068792 1 1 0.010179066399746986 1 0.0098110769494423669 1 0.0099728416074973698 1 1 1 1 0.010154412734843901 1 1 1 1 1 1 1 1 1 1 1 0.010055390644047629 1 1 1 1 1 1 1 0.010018357693137903 1 1 1 1 1 1 1 1 1 1 0.010174050842729669 1 1 1 1 1 1 1 0.010309211967174579 1 1 0.01039617174090807 1 1 1 1 1 1 1 1 1 1 1 1 1 1 1 1 1 1 1 1 1 1 0.010006169014870692 1 0.010370771925878351 1 1 0.0099995771372240281 1 1 1 1 1 0.010609613219872084 1 1 1 0.010095920391771868 1 0.010707917857937087 1 1 1 1 1 1 1 1 1 1 1 0.010434736567046646 1 1 1 1 1 1 1 1 1 1 1 1 1 1 1 0.0099811587679808494 1 1 1 1 1 1 1 1 1 0.010486044764600749 1 1 0.0099977748274454638 1 1 0.01029058793535206 1 1 1 1 1 1 1 1 1 1 0.010038801952310921 1 1 1 1 0.010030166510433052 1 0.010174820935604395 0.0099423747146787922 0.010177442481027825 1 1 0.0099992988257082607 1 0.010218353562267376 1 1 1 1 0.0099995733079014312 1 1 0.010024938677715107 1 1 1 1 1 1 1 1 1 1 1 1 1 1 1 1 1 1 0.010236467301377252 1 0.010052855569997342 0.010573002323782086 1 1 1 1 1 0.010117919151506078 0.010050890656390213 1 1 1 1 1 1 1 1 1 1 1 1 1 1 1 1 1 1 0.010003071620186535 0.010249246578734857 1 1 1 1 1 1 1 1 1 1 1 1 1 0.010016048912346268 1 1 1 1 1 0.010205855559109755 1 1 1 1 1 1 1 1 1 1 1 1 1 1 1 1 1 1 1 1 1 1 1 1 1 1 1 0.009961237784647756 1 1 1 0.010380246923253039 1 1 1 0.01005862171664814 0.01037566898078735 1 0.010206760700619821 1 1 0.010144724447244407 1 1 0.0098406440004391738 1 1 1 1 1 0.010054845218472332 1 1 1 1 1 1 1 1 1 0.010097141246363253 1 1 1 1 1 0.010065118619081647 1 1 1 1 1 1 1 1 1 1 1 1 1 0.010144438541615442 1 1 1 1 1 1 1 1 1 1 1 1 1 1 1 1 0.0099806807133157628 1 1 1 1 1 0.011205395406142456 1 1 1 1 0.0099729535275623182 1 1 0.011289837741226418 1 1 1 1 0.011482660202129902 1 0.010817665961001853 1 1 1 1 1 1 0.010153837251298927 1 1 1 1 1 1 1 1 1 1 1 1 1 1 1 1 1 1 1 1 1 1 1 1 1 1 1 1 1 0.010406344833289689 1 1 1 1 1 1 1 1 1 1 1 1 0.010103287138835038 1 1 1 1 0.010574421385484254 1 1 0.010274310932470641 1 0.01003735253509634 1 1 1 1 1 1 1 1 1 1 1 1 1 0.010042363277897792 0.010100668186380725 1 1 0.010995335784209156 1 1 1 1 1 1 1 1 1 1 1 0.0099879601618041072 1 1 0.011516599271340938 1 1 1 1 1 1 1 1 1 1 0.010281073054301652 1 1 1 0.011654778897671978 1 1 1 1 1 1 1 1 1 1 1 1 1 1 1 1 1 1 1 0.010074074869385758 1 1 1 1 1 1 1 1 1 1 1 1 0.0098144224895622238 1 1 1 1 1 1 1 1 1 1 1 1 1 1 1 0.010864051548477527 0.010201408959587479 1 1 0.01014890696454211 1 1 0.010000862274740754 1 1 0.010301167749883213 1 0.0097017142837476679 1 1 0.010130316488776558 1 1 1 0.010653100596062753 0.011305873222806358 1 1 0.010232930850071088 1 0.011047472486936997 0.011006968708368908 0.01001607125098369 1 1 1 0.0095901170838466991 1 0.010043742053493858 1 1 1 1 0.010206046220438865 1 1 1 1 1 1 1 0.011603741048831325 1 0.0099975042182766614 1 1 0.010269106167084874 1 1 1 1 1 0.0099552086519919692 1 1 0.0099908470788461316 0.010420701160639086 1 0.01127260833181791 1 0.0098761191855769176 1 1 0.010617334617211382 1 1 1 0.0099815912120665637 1 1 1 1 0.010862621245801203 1 1 1 1 1 0.010715797984200663 1 1 0.01050873455966278 1 1 1 1 1 0.010309549668814651 1 1 1 1 1 1 1 1 1 1 1 0.010388648409858521 1 1 1 1 1 1 1 1 0.010030207920925068 1 1 1 1 1 1 1 0.010177303738782024 1 1 1 0.010239063771407221 1 1 1 1 1 0.010702130973674132 1 1 1 1 1 1 1 1 1 1 0.010487518671847927 1 0.010035084088550186 1 1 1 1 1 1 1 1 1 1 1 1 1 1 1 1 1 1 1 0.010062708893967955 1 0.0099668920095299998 1 1 1 0.011031118316364882 1 1 1 1 1 1 0.010118087464473074 1 1 1 1 1 0.0099979683505948529 1 1 0.010204123724701768 1 1 1 0.0099980594166406509 1 1 1 0.010037345016359073 1 1 1 1 1 1 1 1 1 1 1 1 1 1 1 1 1 1 1 1 1 0.01001744495676834 1 1 1 1 1 1 1 0.010495155452485231 1 0.01033415275891008 0.010026462458430117 1 1 1 1 1 0.0097974109068534043 1 0.010068174329755205 0.0099975788456268342 0.0099688168067128373 1 1 1 1 0.010005247692363555 1 1 1 1 1 0.010105742098172055 1 1 1 1 1 1 1 0.01005724158682093 1 1 1 1 1 1 1 1 1 1 1 1 1 1 1 1 1 1 1 1 1 1 0.010105327595905999 1 1 1 1 1 1 0.0096579203738169882 1 1 1 1 0.010281291971360827 1 1 0.011420300861393826 1 1 1 0.010041072676563546 1 0.010352902441998534 0.010463493182992327 0.010142487706664541 1 1 1 0.0099977705255786028 1 0.010266846635035394 0.01001493632759848 1 1 0.010504181422332495 1 0.011080207240842922 1 1 1 1 0.010055382695599073 0.010373439663859858 0.011068346147750411 0.010005787685163234 1 1 1 0.010120557327364051 1 1 1 1 1 1 0.010049033329270856 1 1 0.010023322040498668 1 1 1 1 1 1 1 1 1 1 0.010246768941405282 1 1 1 1 1 0.0098699359739563459 1 1 1 0.010031063441601627 1 1 0.01001223673446675 0.010196199495543073 1 1 0.010749930059856718 1 1 1 1 1 1 1 1 1 1 1 1 1 1 1 1 1 0.0099866911864802607 1 1 0.010885315238554884 1 1 0.010829429034698565 1 1 1 1 1 1 1 0.010106821116952736 1 1 0.010350160082890678 1 1 1 0.010075028595124762 1 0.010419750957285295 1 1 1 0.0099530277528463648 1 0.010023043613486278 1 1 1 1 1 1 1 1 1 1 0.010025711288772186 1 1 1 1 1 1 1 1 1 1 1 1 1 0.01002946568440486 1 0.011068277867356334 1 1 1 0.010933968742222317 1 1 1 1 1 0.010734651536361398 1 0.010310963859344567 1 1 1 1 1 1 0.010090706546340252 1 1 1 1 1 1 0.010231349659056392 1 1 1 0.010215073958620388 1 1 1 1 1 1 1 1 1 1 1 0.010126274863285968 1 1 0.011146257025028555 1 1 1 1 1 1 1 1 1 1 1 1 1 0.010309222404406048 1 1 1 1 0.010066152612355904 1 1 0.0099738298592881892 1 1 0.010633088884546176 1 1 1 1 1 1 1 1 1 1 1 1 1 1 1 1 1 1 1 1 1 1 1 1 1 0.01050848842137359 1 0.010462176950486041 1 1 0.009911936868544519 1 1 1 1 0.010256418309232133 1 1 1 1 1 1 1 1 1 0.01120187707194781 1 1 0.010155870624601299 1 1 1 1 1 1 0.010512447404013324 1 0.010049784961348007 1 1 1 1 1 0.010530843793804725 1 1 1 1 1 1 1 1 1 0.010252761387404675 1 1 1 1 1 1 1 1 1 1 0.011326381895106541 1 1 1 0.010056151782179674 1 1 1 1 1 1 0.011206920865802989 0.0094106199346670368 0.009979906932717459 1 1 1 1 1 0.010312385441386606 1 1 1 1 1 1 1 1 1 1 1 1 1 1 0.010532556378264397 1 1 1 1 1 1 0.010097777531802731 1 1 1 0.010631923344985228 1 0.010021889392476823 1 1 1 1 0.010010880359226511 1 1 1 1 1 1 1 1 1 1 1 1 1 1 1 1 1 1 1 1 1 1 0.010082405390976816 1 1 0.010034801395674215 1 1 1 1 1 0.010020168937141369 1 1 1 1 1 1 1 1 1 1 1 1 1 1 1 1 1 1 1 1 1 1 1 1 1 1 0.010347127462513827 1 1 1 1 1 0.010143894294675531 1 0.010154973418347769 1 1 1 1 1 0.010075888139325908 1 1 1 1 1 1 1 1 1 0.010316240327474609 1 1 1 1 1 1 1 1 1 1 1 1 1 1 1 1 1 0.010214378743882023 1 1 1 1 1 1 0.010017506717551226 1 1 1 0.010017622245908079 1 1 1 1 1 1 1 1 1 1 1 1 1 1 1 1 1 1 0.010303559296980427 1 1 0.01013121326418135 1 1 1 1 1 0.010329634194787501 1 1 1 1 1 1 1 1 1 1 0.010797453488993972 0.011030426177421587 1 1 1 1 0.011119317446478896 1 1 0.010035300458697896 1 1 1 1 1 1 1 1 1 1 1 1 1 1 1 1 1 1 1 1 1 1 1 1 0.010093097190723621 1 1 1 1 1 1 1 1 0.01029216278415759 1 1 1 1 1 1 0.009491237763476745 1 1 1 1 1 1 1 1 1 0.010177802149859021 1 1 1 1 1 1 1 1 1 0.010084704959135399 1 1 1 0.010019814252137814 0.010371416829255039 1 1 1 1 1 1 0.010410483574717912 1 1 0.010021232584577568 1 1 1 1 1 1 0.010387590492621702 1 1 1 1 0.010174835639370914 1 0.01015410074184519 1 1 1 1 0.0101961196158294 0.010095018035580805 1 1 1 1 1 0.01036307483628017 1 1 1 0.010163619450819578 1 1 1 1 1 1 1 1 1 1 0.010933059565051251 1 1 1 1 1 1 1 1 1 0.0099960772743174255 0.011248851464017487 1 1 1 1 1 1 1 1 1 1 1 1 1 1 0.010746066177518011 1 0.010451247639027222 1 1 1 0.010089620362573312 1 1 1 1 1 0.010134963725252272 1 1 1 1 1 1 1 1 0.010375933920201448 0.010101101580248593 1 1 1 1 0.010456085760841246 1 1 1 1 0.01036765788443199 1 1 1 1 1 1 0.010015334321794389 1 1 1 1 1 1 1 1 1 0.010040916114464025 1 1 1 1 1 0.010022768093763675 1 0.010337684443767927 1 1 1 0.010000126250329221 1 0.010475189618295801 1 0.010023832717883843 1 0.0099200710896013341 0.010234044324789325 1 1 1 1 1 1 1 1 0.010025025696858158 1 0.010917998987126658 1 1 1 1 0.010575955854604906 0.010100579033695071 0.010001099257791106 1 1 1 1 0.009662703548068188 1 1 1 0.0098703677331633786 0.010061088331628576 1 1 1 1 1 1 1 0.0097401590185353052 0.010013899000692297 1 1 1 1 1 1 0.0099557281319231049 1 1 1 1 1 1 1 1 1 1 1 0.010433038233741133 0.010195971553513958 1 1 1 1 0.009861526291593415 0.010068476693467332 1 0.010956868754393331 1 1 1 1 1 1 1 1 1 0.010857713741881336 0.010037864567308123 1 1 1 1 1 1 1 1 1 1 1 1 1 1 1 1 1 1 0.01061850595343899 0.010102184157507365 1 0.01015821836209597 1 1 1 1 1 1 1 1 1 1 1 1 1 1 1 1 1 1 1 1 1 1 1 1 0.01013165860783 0.010194347793816326 1 1 1 1 1 1 1 1 1 1 1 1 1 1 1 1 1 1 1 1 1 1 1 1 1 1 1 1 1 1 1 0.01016316134327587 1 1 0.010063335461599959 1 1 1 1 1 0.010286478284920483 1 1 0.010386942681730266 1 1 1 1 1 1 1 1 1 1 1 1 1 0.010026568903270741 1 1 1 1 1 1 1 1 0.010449742721208995 1 1 1 1 1 0.010540137890351879 0.010132226157980116 0.01066594593310656 1 1 1 1 0.009972241171155501 1 1 1 1 1 1 1 1 1 1 1 1 1 0.010197805450393903 0.010028267132006311 1 1 1 1 1 1 1 0.010043726262714082 1 1 0.010071831507781744 1 1 1 1 1 1 1 1 1 1 1 1 1 1 1 1 1 1 1 1 1 0.010427198334068386 1 0.010553116601474892 1 1 1 1 1 1 1 0.010630780121593559 1 1 1 1 1 1 1 1 1 1 1 0.010195455658162263 1 1 1 1 1 1 0.010581596041870592 1 1 1 1 0.010670199898894676 1 1 0.010526437570733163 1 1 1 1 0.01030308476903382 1 1 1 1 1 1 1 1 1 1 1 1 1 1 1 0.010175186067566476 1 1 1 1 1 1 1 0.010001130453790717 1 1 1 1 1 1 1 1 1 1 1 1 1 0.010241057524409222 1 1 0.010138135691419197 1 1 1 0.0098241468412451696 1 1 1 1 1 1 0.010864349014238522 1 1 1 1 1 1 1 1 1 1 1 1 1 1 1 1 1 1 1 1 0.010065421325753153 1 1 1 1 1 0.010091117710998576 1 1 1 1 1 0.010144055538560019 1 1 1 1 0.010121921923194653 1 1 0.010544390366476591 0.0099177532102904635 1 1 1 1 1 1 0.010344723676865002 1 1 1 1 1 1 1 1 1 1 0.0099664281945213724 1 1 0.010120311426100537 1 1 1 1 1 1 1 0.010147378495058534 1 1 1 1 1 1 1 1 1 1 1 1 1 0.0099288015601677031 1 1 1 1 0.010968624121027285 1 1 1 0.011073874118871481 0.0099818013883061392 1 1 1 1 1 1 0.010357788178092285 1 1 1 0.010381304760849737 1 1 1 1 1 1 0.0098519509033380796 1 1 1 0.010127825840989601 1 1 1 1 1 1 1 1 1 1 1 1 1 1 1 1 1 1 1 1 0.010153254838592141 1 1 1 1 1 1 1 1 1 1 1 1 1 1 1 1 1 1 1 1 1 1 1 1 1 1 1 1 1 1 1 1 1 1 0.010069217834379729 1 1 0.0098441758260448577 1 1 0.010009475961623415 1 1 0.0099030195066138835 1 1 1 1 1 0.010061292474714646 1 1 1 1 1 1 1 1 1 1 1 1 1 1 1 1 1 1 1 1 1 1 1 0.010176827147151351 1 1 1 1 1 1 1 0.0099861113749697954 1 1 1 0.010067252843962293 1 1 0.010006184419011186 1 1 0.010124980152417144 1 1 0.010672932028174119 1 1 0.010285280718744025 1 1 1 0.010855278624476817 1 1 0.010574990593027519 0.0096806715156763125 1 1 0.010796759759945679 1 1 0.0091765252366648471 1 1 1 1 1 1 1 1 1 1 1 1 1 1 1 1 0.0095576467503992266 1 0.01021448091200974 1 1 1 1 0.010620688894753122 1 1 1 0.011026600953386121 1 1 1 1 1 1 1 1 1 1 1 1 1 1 1 0.010062745027872463 0.0098243626018258891 1 1 1 1 1 1 0.010118321129564917 1 1 0.009838859574023728 1 1 0.010162627210495306 1 1 1 1 1 1 1 1 1 1 1 1 1 1 1 1 1 1 1 1 1 1 1 1 1 1 1 0.010577349744515805 1 1 0.010003538617929627 0.0099569598412692466 1 1 1 1 1 1 1 0.010263942676043927 1 1 1 0.010259697825920122 1 1 1 1 1 1 1 1 1 1 1 1 1 1 0.009989694418544897 1 1 0.010989349381868439 1 1 1 1 0.0099589501229414203 1 1 1 1 1 1 1 0.010055095646632668 1 1 1 1 1 1 1 1 1 1 1 1 1 1 1 0.0099963040793126651 1 1 1 1 0.010000958324439145 1 1 0.010419450315750759 0.010002251421907953 1 1 0.0098928609387728093 1 1 0.010023309676538595 1 1 0.010834202050885654 1 0.010374417202317588 0.0099036140667565758 1 1 1 1 1 1 0.010018434400227039 1 0.010045285145520196 1 1 0.010003413513963572 1 1 0.010709887143140525 1 1 1 0.010613208805380241 1 0.010000875858781596 1 1 1 1 0.010514997436494871 1 1 1 1 1 1 1 1 0.010139175510567986 1 1 0.010103452102078372 1 1 1 1 1 0.01021321513780905 1 1 1 1 0.0099967851312894838 0.0099946052707900294 1 1 0.010000317012358107 1 1 1 1 1 1 1 1 0.01000485235558245 1 1 1 1 0.010012321147572494 1 1 1 1 1 1 1 1 1 1 0.010007472971098781 1 1 1 1 1 1 1 1 1 1 0.010045125908965336 1 1 1 1 0.010132321615185298 1 1 1 1 1 1 0.010123576314682851 1 1 1 1 1 0.010040848998212013 1 1 1 1 1 1 1 1 1 1 1 1 1 1 1 0.010170207996022225 1 1 1 1 1 0.010141493518831488 1 1 1 1 0.010419467607109181 1 0.0098336462360398818 1 1 1 1 0.010364112248786646 0.010150887095449732 1 0.009769641208194485 0.010011043916363255 1 0.0099991955333258824 0.010375480065760542 1 1 1 1 1 0.010013821269256196 1 0.010423193921592445 1 1 1 1 1 1 1 1 1 1 1 1 0.010175027269782698 1 1 1 1 0.009621857708695402 1 0.0099975027106830334 1 1 1 1 1 1 1 1 1 1 1 1 1 1 0.010252445822305722 1 1 1 0.010010327676292589 1 1 1 1 1 1 1 1 1 1 1 1 1 1 1 1 1 1 1 1 1 1 1 1 1 1 1 1 1 1 1 1 1 1 1 1 1 1 1 1 1 1 1 1 1 0.0099704553707542411 1 1 1 1 1 1 0.0099699906559647059 1 1 1 1 0.010555158299594077 0.0096725051211463131 0.010097511811312377 0.010132028440182916 1 1 1 1 1 0.0099257547960050416 1 1 1 1 1 1 1 1 0.0098836308888148039 0.0099067345275680209 1 1 1 1 0.010196059747190702 1 1 1 1 1 1 1 1 1 1 1 1 1 1 1 1 1 1 1 1 1 1 1 1 1 1 1 0.0099793279301118726 1 1 0.010129241318591971 1 1 1 1 1 0.010378213717318632 1 1 1 1 0.010261004284259497 0.010755571562285939 1 1 1 1 1 0.010613068680193641 1 1 1 1 1 1 1 1 1 1 1 1 1 1 1 1 1 1 1 1 1 1 1 1 0.010202721393017707 1 1 1 0.0099016402232696196 0.010461538936990557 1 1 0.0097507795576166033 1 1 1 1 0.010007108485277348 1 1 1 1 1 1 1 1 1 1 1 1 1 1 1 1 1 1 1 1 1 1 1 1 1 0.0096484464164157194 1 0.011008167246680613 0.0099551028952390846 1 0.010472953768601564 1 1 1 1 1 0.0099886565309875823 1 1 1 1 1 1 1 1 0.010939929176289163 1 1 1 1 1 1 1 1 1 1 1 1 1 1 1 1 1 1 1 1 1 1 1 1 1 1 1 1 1 1 1 1 1 1 1 1 1 0.012298357310822711 1 1 1 1 1 0.010925811102862828 1 1 1 1 1 1 1 1 1 1 0.010258495077035759 1 1 1 1 1 1 1 1 1 0.010818569671055947 1 1 1 1 1 1 1 1 1 0.01036684546770834 1 1 1 1 1 1 0.010550138867117278 1 1 1 1 1 1 1 1 1 1 1 1 1 1 1 1 1 1 1 0.01012389506156719 1 1 1 1 1 1 1 1 1 1 1 1 1 1 1 1 0.0098612596800739128 1 1 1 1 1 1 1 1 1 1 1 1 1 1 1 1 1 1 1 1 1 1 0.01019199842869719 1 1 0.0098508803825376311 1 1 1 1 0.0099188617912569048 1 1 1 1 1 1 1 1 0.010323590494686992 1 1 1 0.010200835324227397 0.0099808206250684706 0.010403441021752264 1 1 0.01000016814378283 1 1 1 1 1 0.010325906614509949 1 1 1 1 1 1 1 1 1 1 1 1 1 1 1 1 1 1 1 1 1 1 1 1 1 1 1 1 1 1 1 1 1 1 1 1 1 1 1 1 1 1 1 0.010069519533548583 1 0.010291019075347402 1 1 1 1 1 1 1 1 1 0.010068352289724233 1 1 1 1 0.010173103093219187 1 1 0.0099821798563076002 1 1 0.010323104477481679 0.010035558427791972 1 0.010008116222956795 0.010010228707721095 1 1 1 1 1 1 1 0.010072440346353658 1 1 1 1 0.0099744410159392158 1 1 1 1 1 1 1 1 1 1 1 1 0.011105730267114734 1 1 1 1 1 1 1 1 1 1 1 1 1 1 1 1 1 1 0.011029557906348459 1 1 0.0099871326988738972 0.010878146130390452 1 1 1 1 1 0.0098788276686158569 1 1 1 1 1 1 0.009959551340538976 1 1 1 1 1 1 1 1 1 1 0.01001051342095129 1 1 1 1 1 1 1 0.010012290959802208 1 1 1 1 0.0100228043807535 1 1 1 1 1 1 1 0.01084774841258627 1 1 1 1 1 1 1 1 1 1 1 1 1 1 1 1 1 1 1 1 1 0.011163563008408662 1 1 1 1 1 0.010000670750648016 1 1 1 0.010038481522939541 1 0.010753948183109031 1 1 1 1 1 1 1 1 1 1 1 0.010552837662588728 1 1 1 1 1 0.010728843207669342 1 1 1 1 1 1 1 1 1 1 1 1 1 1 0.010040873726890425 1 1 1 1 0.010705445602911827 1 0.010000430530312941 1 0.010301910484457255 1 0.010483326412960275 0.0099948389008894731 1 0.010276035547941985 1 1 0.01001938080433783 1 1 0.010654814930984255 1 1 1 1 1 1 1 1 1 1 1 1 0.010656168216273972 1 1 1 1 0.010478732354897234 1 0.010490369903542521 1 1 1 0.010910822871829219 1 1 0.010134033142484743 1 1 0.010783267112505851 1 0.010533554376728935 1 1 1 1 1 1 1 1 1 1 1 1 0.010689365677533966 0.0099354706505346887 1 0.010062302934522233 1 1 0.010397501242581163 0.010538577677172669 1 1 1 1 1 1 0.01072815612940437 1 1 0.010072522635518666 1 1 1 0.010171014116406113 1 1 1 1 1 0.011203761452922697 1 0.01000082634275265 0.01000186059230649 1 1 1 0.010748565687838307 1 1 1 0.010043048329714621 1 1 1 1 0.011042169094452043 1 1 1 1 1 1 1 1 1 1 1 1 1 1 1 1 1 1 1 1 0.011103264597224801 1 1 1 1 1 1 1 0.010112880470080562 0.01090261194712553 1 1 1 1 1 0.011070507362043229 1 0.010871776728238036 1 1 1 1 1 1 1 1 1 1 1 1 1 1 1 1 1 1 1 1 1 1 1 1 1 1 1 1 1 1 1 1 1 1 1 1 1 1 1 1 1 1 1 1 1 1 1 1 1 1 1 1 1 1 1 1 1 1 1 1 1 1 1 1 1 1 1 1 1 1 1 1 1 1 1 1 1 1 1 1 1 1 1 1 1 1 1 1 1 1 1 1 1 0.0098840635499158735 1 1 1 1 1 1 1 1 1 0.0097088909172639501 0.010556627298804605 1 1 1 1 1 0.010972223222699 1 1 0.011040686102112604 1 1 0.011145978839927566 0.0092289909981824857 1 0.0095649093463262523 1 1 1 1 1 1 1 1 1 1 1 1 1 1 1 1 1 1 1 0.0095883395950838082 1 1 1 1 1 1 1 0.010022813761930462 0.012972735872963648 1 1 1 1 1 0.011676033087585457 1 1 0.010238138229499465 1 0.011446192943686382 1 1 1 1 1 1 1 1 1 1 1 1 1 1 1 1 1 1 1 1 1 1 1 1 1 0.010619631399089988 1 1 1 1 1 1 1 1 1 1 1 1 1 1 1 1 1 1 1 1 1 1 1 1 1 1 1 1 1 1 1 1 1 1 1 1 1 1 1 1 1 1 1 1 1 1 1 1 1 1 1 1 1 1 1 1 1 1 1 1 1 1 1 1 0.010081920523461923 1 1 1 1 1 0.010167897951627827 1 1 1 0.010085977428165907 1 1 1 1 1 1 1 1 1 1 0.0099999933565567186 1 1 1 1 1 1 1 1 1 1 1 1 0.010008504311239707 1 1 1 1 0.010686958441799338 1 1 1 1 1 1 1 1 1 1 0.01046484261427273 1 1 1 1 1 0.010173456415170675 1 1 1 1 1 1 1 1 1 1 0.010166052032533141 1 1 1 1 1 1 1 1 1 1 0.010372858745404282 1 1 1 0.010206806712871139 1 1 1 1 1 1 1 1 1 1 1 1 1 0.010234409651733863 1 1 1 1 1 1 1 1 1 1 1 1 1 1 1 1 1 1 1 1 1 1 1 1 1 1 1 1 1 1 1 1 1 1 1 1 1 0.010154677207607873 1 1 1 1 1 1 1 1 0.0099906638273910588 1 1 1 0.010001188778107449 1 1 1 1 1 1 1 1 0.010418972266273911 1 1 0.010377370596661538 1 1 1 1 1 1 1 0.010225338396839274 1 1 0.0099354558309216606 0.010527827767008398 1 1 1 1 1 1 0.010031846883271644 1 1 1 1 1 1 1 1 1 1 1 1 1 1 1 1 0.0098127967901844859 1 1 1 0.010001722579902863 1 1 1 1 1 1 1 1 1 1 1 1 1 1 1 1 1 1 0.010111131181697012 1 1 1 1 1 1 1 0.010308781013658105 0.009561982366903591 1 1 1 1 0.0094468492540359262 1 1 0.010093612979639011 1 1 1 1 1 1 1 1 1 0.009709467476475539 1 1 0.011398423432020516 0.011203959146840784 1 1 1 0.0095154584148891778 1 1 0.0099846543032408638 1 1 1 1 1 1 0.011610664088818133 1 1 0.0098826257649338133 1 1 1 1 1 1 0.0094046404333365165 1 1 0.010974753058356162 0.011134830655896027 1 1 1 1 1 0.0099622596928259002 1 1 1 1 1 1 1 1 1 1 1 0.011431943931635151 1 1 1 1 0.011277363139621358 1 1 1 0.010799126247236094 1 0.011199936436814471 1 1 1 1 1 1 0.010376276229890492 1 1 1 1 1 0.010406120125630337 1 1 1 1 0.010275817850557754 1 1 1 1 1 1 1 1 0.0099729442246877329 1 1 0.009789333841806639 1 0.0099196956299348257 1 0.0096161753418422431 1 1 1 0.011380005349324184 1 0.0099842583381793588 1 0.011090855032738267 1 1 1 1 1 1 1 1 1 1 1 1 1 1 1 0.01130599390345384 1 1 1 0.011146546324442248 1 1 0.0095856550161724681 1 1 1 0.0098076185023071531 1 1 1 1 0.010262002503399844 1 1 1 1 0.01041053669122804 0.010063791080233035 1 1 0.0099177498235639167 1 1 0.0099370566380211738 1 1 1 1 1 1 1 1 1 1 1 1 1 1 1 1 1 1 1 1 1 1 1 1 1 1 1 1 1 1 1 1 1 1 1 1 1 1 1 1 1 1 1 1 1 1 1 1 0.0097757119981788845 1 0.010428108187993156 1 1 1 1 1 1 0.01015510429125871 1 1 1 1 1 1 1 1 1 0.010354886695703494 1 1 0.010108363855538023 1 0.010143853320264139 1 1 1 1 1 1 1 1 1 0.01032714695434819 1 1 0.010032778142700913 1 1 0.010208531686946826 1 1 1 1 1 1 0.010036708219030728 1 1 1 1 1 1 1 1 1 1 1 1 1 1 1 1 1 1 1 1 1 0.010488659836392401 1 1 1 1 1 1 1 1 1 0.010162021277947656 1 1 1 1 1 1 1 1 1 1 1 1 0.0098234043071283236 0.0094931244067396336 1 0.010402059483584331 0.01001683213242098 1 1 1 1 0.0099969559832670286 1 1 1 1 1 1 1 0.0099386512432109633 1 1 0.0095906048512772353 1 1 1 1 1 0.0098674522074981858 1 1 1 1 0.010347404829320143 1 1 1 1 1 0.010910791228765118 1 1 1 1 0.010154558233071938 1 1 1 1 1 1 1 1 1 1 1 1 0.010009277110388492 1 1 1 1 1 1 1 1 0.010415792290971188 1 1 0.010376188702483979 0.010541063200930611 1 1 0.0097863427544393564 1 0.01042624457946089 0.0097823570346892205 1 1 1 0.010128988296103281 1 0.0099929867998941983 1 1 1 0.010328206819142441 0.010084722486408841 1 1 1 0.010064987194869174 1 1 1 1 1 1 1 0.0099026664541141344 1 1 1 1 1 1 1 1 1 1 1 0.0097456229489571895 1 1 0.010104489306410332 1 1 0.01031166931511456 1 1 0.0099963811214637942 1 0.0098826152591264226 1 1 0.010484291726612726 1 1 1 1 1 1 1 1 1 1 1 0.0099351731315950632 1 1 1 1 1 1 1 1 1 1 1 1 1 1 1 1 1 0.010072076036730101 1 1 0.010203461854589415 1 1 1 1 0.010026176149547972 1 1 1 1 1 1 1 1 1 1 1 1 1 1 1 1 1 1 1 1 1 1 1 1 1 1 1 1 1 1 1 1 1 0.010424373895735559 1 1 1 1 1 1 1 1 1 1 0.011064874245015266 1 1 0.01134507895068184 1 1 1 1 1 1 1 1 1 1 0.010036342403213799 1 1 1 1 1 1 1 0.011404598792157243 1 1 1 1 1 1 1 1 0.01014924074462659 1 0.010234599788161162 1 1 1 1 1 1 1 1 1 0.01141470377531021 1 1 1 1 1 1 1 1 1 1 1 1 1 0.010200473130033545 1 1 1 1 0.01049211692011506 1 1 1 1 1 1 1 1 1 1 1 1 1 1 1 1 1 1 1 1 1 0.010179302451635125 1 1 1 0.0099945643392762087 1 1 1 0.01001072330836867 1 1 1 1 1 0.01010613087822841 1 1 1 1 1 1 1 1 1 1 1 1 1 0.0099417755311946247 1 1 1 1 1 1 1 1 1 1 1 1 1 1 1 1 1 0.010058167165958113 1 1 1 1 1 1 1 1 1 1 1 1 1 0.01005352001345013 1 1 1 1 0.011563245038182009 1 1 1 1 1 1 0.011685445213120859 1 1 1 1 1 1 1 1 0.011746274979704551 1 1 1 1 1 1 1 0.010183716320319065 1 1 1 0.010069110357529481 1 1 1 1 1 1 1 0.010089221119411393 1 1 1 1 1 1 1 1 1 1 1 0.0099367438950455356 1 1 1 1 1 1 1 1 1 0.0098110352294204107 1 1 0.010813695023506511 1 1 1 1 1 0.010451824186538608 0.010499498761940935 1 0.010151110418794062 1 1 1 0.010932202309015803 0.010937798884797728 1 1 1 0.011563969961244182 1 0.010213647767510563 1 1 1 1 0.011600725501663427 1 1 1 1 1 0.010433134609396115 1 1 1 1 0.011081903700107431 1 1 0.010950988895063156 0.010050357497222703 0.010020415830375034 1 1 1 1 0.010483219903349501 1 0.010504067918861781 1 1 1 0.010433463425802168 1 1 1 1 1 1 1 1 1 1 1 1 1 1 1 1 0.010365548506232872 1 0.010288012275360513 1 1 1 1 1 1 1 1 1 0.011160353748770908 1 1 0.010100361251448951 0.011190286630478389 1 1 0.01003211434624068 1 1 1 1 0.011337977732252653 1 1 1 1 1 1 1 1 1 1 1 0.010114580836334893 1 1 1 1 1 1 1 1 1 1 1 1 1 1 1 1 1 1 1 0.010201523848050075 1 1 1 1 1 1 1 1 1 1 1 1 1 1 1 1 1 1 1 1 1 1 1 1 1 1 0.01022906995600352 1 0.009984802454549262 1 1 1 1 1 1 0.010021990961585379 1 0.010069410205457104 1 1 1 1 1 1 1 1 1 1 1 1 1 1 1 1 1 1 1 1 1 1 0.010034536414299527 1 1 1 1 1 1 0.010051930670330684 1 0.01000851473485803 1 1 1 1 1 1 0.01000721565885114 1 0.010149355147068736 0.010001770153356081 1 1 1 1 1 0.01004040207599715 1 1 1 1 1 1 1 0.010019807993871702 1 0.010046718360152848 1 1 1 0.010026937222190696 1 1 1 1 1 1 1 1 1 1 1 1 1 1 1 1 1 1 1 1 1 1 1 1 1 1 0.0099960808423928231 1 0.0099372018902093469 1 1 1 0.010012687829337072 1 1 1 1 0.010371615547264082 1 1 1 1 1 1 1 1 1 1 1 1 1 1 1 1 1 1 1 1 1 1 1 1 1 1 1 1 0.010008652455940108 0.010074300665862915 1 1 1 1 0.010030642829761745 0.01014684803121575 1 1 1 0.0099972749706040264 0.010026288174384293 1 1 1 1 1 1 0.010014558880427595 1 1 1 1 0.010123162977603897 1 1 1 0.010100331035802077 1 1 0.010156614275016379 1 1 1 0.010113042171349028 1 1 0.010020668192218777 0.010210404247510798 1 0.010095939868008462 1 1 1 1 1 1 0.010043000719340871 1 1 1 0.010029050700533584 1 1 1 1 1 0.0099951992596843658 1 1 1 1 1 1 1 1 1 1 1 1 1 1 1 1 1 1 1 1 1 1 1 1 1 1 1 1 1 1 1 1 1 1 1 1 1 1 1 1 1 1 1 1 1 1 1 1 1 1 1 1 0.010415960728391641 1 1 1 1 1 1 1 1 1 1 1 1 1 1 1 1 1 1 1 1 1 1 1 1 1 1 1 1 1 1 1 1 1 1 1 1 1 1 1 0.0096640803739221175 1 0.010285159839351622 1 0.0098340624280005839 0.0093648313948517699 1 0.01024855575320292 1 1 1 0.0098646401492765122 1 1 0.010013196179752677 1 1 0.0099725259060836017 0.010000857636321704 1 1 1 0.010000080455878966 1 1 1 1 1 1 1 1 1 1 1 1 1 1 1 1 1 1 1 1 1 1 1 1 0.011609733468574624 1 1 1 1 1 1 1 0.011801985424018122 1 1 1 1 0.010568997535293896 1 1 0.011387718994248166 1 1 1 1 1 0.0099533968740265315 1 1 1 1 0.010146445525175966 1 1 1 1 1 0.011529590172874424 1 1 1 1 1 1 1 1 0.011090614689847506 1 1 1 1 1 1 1 1 1 1 1 1 1 1 1 1 1 1 1 1 1 1 1 1 1 1 1 1 1 1 1 1 1 1 1 1 1 1 1 1 1 1 1 1 1 1 1 1 1 1 1 0.010139363150444133 1 1 1 1 1 1 1 1 1 1 0.010299220041930894 1 1 1 1 0.0099405873190875835 1 0.0097658843666600936 1 1 1 1 1 1 0.010077565598408989 1 1 1 1 1 1 1 1 0.010508984853875369 1 1 0.010005096424748058 1 1 1 1 1 0.010768752913696875 1 1 1 1 1 1 1 1 1 0.010158480941138408 1 1 0.010157821334699989 1 1 1 1 1 1 1 1 1 1 0.010238639595816078 1 1 1 1 1 1 1 0.010011245069713206 1 1 1 1 1 1 1 1 1 1 1 1 1 1 1 1 1 1 1 1 1 1 1 1 1 1 1 1 1 1 1 1 1 1 1 1 1 1 0.010313906974063546 0.0098737355175593997 1 1 1 1 1 1 0.010132339573611256 1 1 1 1 1 1 1 1 1 1 1 1 1 1 1 1 1 1 1 1 1 1 1 1 1 1 1 1 1 1 1 1 0.010222054062542285 1 1 1 0.010564494618867078 1 1 0.010734517241315826 1 1 1 1 1 1 1 1 1 1 1 1 1 1 0.010962321103343603 0.0092962674506959359 1 0.0094182161301860686 1 0.010797226532853641 1 1 1 1 1 0.0098631819717730964 1 1 1 1 1 1 1 1 1 1 1 1 1 1 0.010338684709047499 1 1 0.010185873073898524 0.0099896553819354382 1 0.010139385598097055 1 1 1 1 1 1 1 1 1 1 1 1 1 1 1 1 1 1 1 0.010282132613876982 1 0.01054717254430549 1 1 1 1 0.010094908171280365 1 1 1 1 1 1 1 1 1 1 1 1 1 1 1 1 0.0097957914638032075 0.010087854342160439 1 0.0099682910993951091 1 1 1 0.010193277346067106 1 1 0.01032296153155254 1 1 1 0.010317389713468173 1 0.009974778837433999 1 1 1 1 1 1 1 1 0.0097453075260396406 1 1 0.0099351344926240596 1 1 1 0.010663833157665368 1 1 0.0099282041867444753 1 1 0.010000482366717642 1 0.0099293232303458937 1 0.010030989464741685 1 0.01033069304129958 1 1 1 1 0.0099688406750685615 1 1 0.010028369811001445 0.010139744317666264 1 1 0.0099961296273393414 1 0.010116488764336871 1 1 1 0.010002127991531976 0.010192157368303492 1 0.010049119008336422 1 1 1 0.010291481194285823 1 1 1 0.0099730113892605721 1 0.010118907478090187 1 1 0.010023438363912949 1 0.01039432971404195 1 1 0.010016345286423962 1 1 1 0.010177021292016484 1 1 1 1 1 0.01011978497011224 0.0099965470812037362 1 0.010068237034124239 1 1 1 1 1 1 1 1 1 1 1 1 1 1 0.010131058564423034 1 0.010152648881471032 1 1 1 0.0099906450537360202 1 1 1 1 1 1 1 1 1 1 1 1 1 1 1 1 1 1 1 1 1 1 1 1 1 1 1 1 1 1 1 1 1 1 1 1 1 1 1 1 1 1 0.01129849211025731 1 1 1 1 0.009851109794826533 1 1 1 0.0095065838124765972 1 0.011828324760994621 1 1 1 0.010390724584161031 1 1 1 1 1 1 1 1 0.010223819648112725 1 1 1 1 1 0.010153221592265399 1 1 1 1 1 1 1 1 1 1 1 1 1 1 1 1 1 1 1 1 1 0.010253970074721269 1 1 1 0.010679769003140703 1 1 1 1 1 1 1 1 1 1 1 1 1 1 1 1 1 1 1 1 1 1 1 1 1 1 1 1 1 1 1 0.0099899015407871519 1 1 1 1 0.0099166901938574775 1 1 1 1 0.010979268598981462 1 1 1 1 1 1 1 1 1 1 1 1 0.010205102273407879 1 1 1 1 1 1 1 1 1 1 1 1 0.010355846036733358 1 1 0.010166609380545179 1 1 0.010520248804215593 1 0.01094119334772406 1 1 0.0097799523588200342 1 1 0.0098655047669022559 1 1 1 1 0.0099701358501437659 1 1 1 1 1 1 1 1 0.0099676189317024089 1 1 1 0.009964036936330023 1 1 1 1 1 0.010968667532533243 1 1 0.010053125536950798 1 1 1 1 1 1 1 1 1 1 1 1 1 1 1 1 1 1 1 1 1 1 1 1 1 1 1 1 0.010141680098919591 1 1 1 1 0.011302806584401075 1 1 1 0.010502051116769613 0.0098292814371017372 1 1 0.0089459447861546682 1 1 1 1 1 1 0.0093935560125076815 1 1 1 1 1 1 1 1 1 1 1 1 0.012125186178421298 1 1 1 0.011924984385071139 1 1 1 1 1 1 1 1 1 1 1 1 1 1 1 1 1 1 1 1 1 1 1 1 1 1 1 1 1 1 1 1 1 1 1 1 1 1 0.0099803256201441495 1 1 1 1 1 1 1 1 1 1 1 1 1 1 1 0.010061797552035144 1 1 1 1 1 1 1 1 1 1 1 1 1 1 1 1 1 1 1 1 1 1 1 1 0.01163997471160292 1 1 1 0.011198520969443777 1 1 1 1 0.01046457989132037 1 1 1 1 1 1 0.0099165081430086666 1 1 1 1 1 1 1 1 1 1 1 1 0.0099145586286153008 1 0.0098313533912947077 1 1 1 1 1 1 1 1 1 1 1 1 1 1 1 1 1 1 1 1 1 1 1 1 1 1 1 1 1 1 1 1 1 1 1 1 1 1 1 1 1 1 1 1 1 1 1 1 1 1 1 1 1 1 1 1 1 1 1 1 1 1 1 1 1 1 1 1 1 1 1 1 1 1 1 1 1 1 1 1 1 1 1 1 1 1 1 1 1 1 1 1 1 1 0.010028849420285263 1 1 0.009985749906343341 1 0.010034533835050088 1 1 1 1 1 1 1 1 1 0.0099970688159957011 1 0.0099950508086969897 1 1 1 1 1 1 1 1 1 1 1 1 1 1 1 0.011228985825745958 1 1 1 1 1 0.0099897765691915729 0.010054419340487331 0.010722777654360081 1 1 1 0.01004609783247376 1 1 1 1 1 1 1 1 1 1 1 1 1 1 1 1 1 1 1 1 1 1 0.0099746279368605733 1 1 0.011171618578522099 1 1 1 1 1 1 0.010927689146738234 1 1 1 1 1 1 1 1 1 1 1 1 1 1 1 1 1 1 1 1 1 1 1 1 1 1 1 1 1 1 1 1 1 1 1 1 1 1 1 1 1 1 1 1 1 1 1 1 1 1 1 1 1 0.010047855054440969 1 1 1 0.010085144892380889 1 1 1 0.010043032767474756 1 1 1 1 0.010387107660674888 1 1 1 1 1 0.010148196845523786 1 1 1 1 1 1 1 1 1 1 1 1 1 1 1 1 1 1 1 1 1 1 1 0.010127847407257385 1 1 1 0.010055689251906254 1 1 1 1 1 1 1 1 1 1 0.010218825127866782 1 1 1 0.010110946051183733 1 1 1 1 1 1 1 1 1 1 1 1 1 1 1 1 1 1 1 1 1 1 1 1 1 1 0.010023734841315624 1 1 1 1 0.0099872051876642685 1 1 1 1 1 1 0.0099612523348961268 1 1 1 1 1 1 1 1 1 1 1 0.0096315475525618859 1 0.01016291321487388 0.010196638112056216 1 1 1 1 1 0.010067141191170904 1 1 1 1 1 1 1 1 1 1 1 1 1 0.010132211054088869 1 1 1 1 0.01004275571293135 1 1 1 1 1 1 1 1 1 1 1 1 0.009844183402385312 1 1 1 1 1 1 1 0.0098955037504571512 1 0.0098021314400576313 1 1 1 1 1 1 1 1 1 1 1 0.010054773341121512 1 0.01001409208224509 1 1 1 1 1 1 1 0.010134605815536088 1 1 0.01014270496856999 1 0.0099299215821936088 1 1 1 0.0098208987766630704 1 1 0.010123906358577328 1 1 1 1 1 1 1 1 1 1 0.010040981360330218 1 1 1 1 1 1 1 1 1 1 0.0098296766695831102 1 1 0.0098053162913227382 1 1 1 0.0099728844270241916 1 1 1 1 1 1 1 1 1 1 1 1 1 1 1 0.0099160852812416756 0.010045731581028398 1 1 1 0.010067816962391242 1 1 1 0.010017489549862573 1 1 1 1 1 0.010027720580018835 1 1 0.0099949499639398441 1 1 1 1 1 1 1 1 1 1 1 0.011224409457437483 1 1 0.011221436121096103 1 1 1 1 1 1 1 1 1 1 1 0.011132981649582926 1 1 1 1 1 1 1 1 1 1 1 1 1 1 1 1 0.01014600937522169 1 0.010124561140871251 1 1 0.010129957148419839 1 1 1 0.010010247281243124 1 1 1 1 0.010057734406681215 1 1 1 1 1 1 0.010626170906876085 1 1 1 1 1 1 0.010756419112343317 1 1 1 1 1 1 1 1 1 1 1 1 1 1 1 0.0098308041371613017 1 1 1 1 1 1 0.010204230335475854 1 1 1 1 1 1 1 1 1 1 1 1 1 1 1 1 1 1 1 1 1 1 1 1 1 1 1 1 1 1 1 1 1 1 0.010002639186372559 1 1 1 1 1 1 1 1 1 1 1 0.010296031825904033 1 1 1 1 1 1 1 1 1 1 0.010119970652587611 1 0.010036147901922358 1 0.010825484604393219 1 0.010018351594932862 0.010110855245469464 0.010358483315806216 1 0.010020306798496616 1 0.010015882589723704 1 1 1 0.010128967826544485 1 1 1 1 0.010671642988683542 1 1 1 0.0099980429720766921 1 1 0.009816561498566934 0.010830647629446834 0.010002748320042628 1 0.010688437757261457 1 1 1 0.010554177142621062 1 1 1 1 1 1 1 1 1 1 1 1 1 1 1 1 1 1 1 1 1 1 1 1 1 0.01046386440680966 1 1 1 1 1 1 1 1 1 1 1 1 1 1 1 1 1 1 1 1 1 1 0.010007711003968729 1 1 1 1 1 1 1 1 1 1 1 1 1 1 1 1 1 1 1 1 1 1 1 1 1 1 1 1 1 1 1 1 1 1 1 1 1 1 1 1 1 1 0.010006497969976394 1 1 0.0099569958198098014 1 1 1 0.0099656153904123732 1 1 1 0.0099162110704547612 1 1 1 1 1 0.011007989260943384 0.010964849898773048 1 1 1 1 0.0097718490829757157 1 1 1 0.01092541903081997 0.010969317287169678 1 1 1 1 1 1 1 1 1 1 1 0.010080722093012501 0.010029697698012091 1 1 1 1 1 1 0.010045969140436446 0.009854329099156952 1 1 1 0.01104811271368104 1 1 1 1 0.011038170058435019 1 1 1 1 1 0.010218772252571491 0.010666560308877786 1 1 0.010935140473556379 1 1 0.010025547878499861 1 1 0.010605158605943021 1 1 1 0.011097117760178654 1 1 0.0098725773228299004 0.010106070510649557 1 1 1 1 0.010087193199259244 1 1 1 1 1 1 1 0.010157676301085423 1 1 1 1 0.010400499864677122 1 1 0.011014034857191756 1 1 1 1 1 1 1 1 1 1 1 1 0.010033479349967856 1 1 1 1 1 1 1 1 1 1 1 1 1 1 1 1 1 1 1 1 1 1 1 1 1 1 1 1 0.010265000710043375 1 1 1 0.010107453473130872 1 1 1 1 1 1 1 1 1 1 1 1 1 1 1 1 1 1 1 1 1 1 1 1 1 1 1 1 1 1 1 1 1 1 1 1 0.01040194361585167 1 1 0.010521503624112596 0.010293811551724749 1 1 1 1 0.0099825040725073158 1 1 1 0.010149388064225589 1 1 1 1 0.010231325780613507 1 1 1 1 0.010103846184664842 1 1 1 0.010228747554171917 1 1 1 1 0.010145650101193917 1 1 0.010622085828847057 0.010011731375760467 1 1 1 1 0.009971893200516526 1 1 1 0.0099543972730238434 1 1 1 1 1 1 1 1 1 1 1 1 1 0.010327420997916264 1 0.010304064556308881 0.010005910445392667 1 1 1 1 1 1 1 0.010279438795369437 0.010890354624757341 1 1 1 1 1 1 1 1 1 1 1 1 1 1 1 1 1 0.010705077357975703 1 1 0.010186288302606348 1 1 1 1 0.010094115178287498 1 1 1 0.010103950533424805 1 0.010118927461217364 1 1 1 0.010626908121234699 1 1 1 1 1 1 1 1 1 1 1 1 0.010096672406834598 1 1 1 1 0.0099505956800423883 1 1 1 1 0.010264385475324664 1 1 1 1 1 1 1 1 0.010364436371426415 1 1 1 1 0.010523321958574562 1 1 1 0.010441295539056646 1 1 1 1 1 1 1 0.010485159994514793 1 0.0099888460272912413 1 1 1 1 0.01022805742183093 1 1 0.0099217630026640566 1 1 1 1 1 0.010003204564950704 1 1 1 1 1 1 1 1 1 1 1 0.0099592694237137375 1 1 1 1 0.0099885488531787532 1 1 1 0.010355291212376903 1 1 1 1 1 1 0.010189325233567593 1 1 1 1 1 1 1 1 1 1 1 1 1 1 1 1 1 0.010166242347248724 1 1 1 1 1 1 1 1 1 1 1 1 1 1 1 1 1 1 1 0.0097440336728396235 1 1 1 1 1 1 1 1 0.0098926469651780414 1 1 1 0.010060158439345204 1 1 1 1 1 0.010164014936933427 1 1 1 1 0.0099241303240252265 1 1 1 0.010181558699253718 1 1 1 1 1 1 0.010105546765335829 1 1 0.010041605396841947 1 1 1 1 0.0099915135396728416 1 1 1 1 1 0.010239862462442259 1 1 1 0.010000270802032966 1 1 1 1 1 1 1 1 1 1 1 1 1 1 1 1 1 1 1 1 1 1 1 1 1 1 1 1 1 0.010008611567971781 1 1 1 1 1 1 1 0.0099820030342133072 1 1 1 1 1 1 1 1 1 1 1 1 1 0.0099805995463397336 1 1 1 1 1 1 1 1 1 1 1 1 1 1 0.0099733914662415279 1 1 1 1 1 1 0.010037736480670171 1 1 0.010052944940659534 0.010064994155270793 1 1 1 1 1 1 0.0099709174475571538 1 1 1 1 1 1 1 1 1 0.010003802677259543 1 1 1 0.0099277358349524128 1 1 1 1 1 1 1 0.009929002779698843 1 1 1 1 1 1 1 1 1 1 0.010130378881503709 1 0.010154987604297581 1 1 1 0.010053725508024339 1 1 1 1 1 1 1 1 1 1 0.0099953212820204623 1 1 1 1 1 1 1 1 1 1 1 1 1 1 1 0.0099721843923035857 1 1 1 1 1 1 1 1 1 1 1 0.0099953146455560807 1 1 1 1 0.01016591606607466 1 1 1 1 1 1 0.011140540989031226 1 0.011180282280471351 1 1 1 1 1 0.010958275504970895 1 1 0.0099820841379565685 1 1 1 1 1 1 1 1 1 1 1 0.010173548087877644 1 1 0.010475665761534201 1 0.010709007225321896 1 1 1 1 1 1 1 1 0.010382209746785208 1 1 1 1 1 1 1 1 1 1 0.010059942046882165 1 1 1 1 1 1 1 1 1 1 1 1 0.010282436499310901 1 1 1 1 1 1 1 1 1 1 1 1 1 1 1 1 1 1 0.010484018198926796 1 1 0.00994064589317133 0.010206431541180977 1 0.0099586013925587226 1 0.009909062923745833 0.0098515094494286935 0.0097298812429998556 1 0.010116886500295267 1 1 1 1 1 1 1 0.0099633953370775012 1 0.010112985230210215 0.010008886655801309 0.0099777869672674595 1 1 1 1 1 1 1 1 1 1 1 1 1 1 1 1 1 1 1 1 0.0098622382857138074 1 1 1 1 1 1 1 0.010027804481365074 1 1 1 0.011205589744722461 1 1 1 0.0097594102386393232 1 1 1 0.0097231663518363119 0.0097164311826183521 1 1 1 1 1 1 1 1 1 1 1 1 0.010002045245484655 1 0.0094288601938313406 0.0099604517326090693 1 0.011087245789055027 1 1 1 1 1 1 1 0.010276685220041715 0.010624703096191257 1 1 1 1 1 0.011604915214151291 1 1 1 0.010798260346921919 1 1 1 0.010000436859332423 1 1 1 1 0.0099994775076344203 1 1 1 1 1 1 0.010490313290582738 1 0.01007061961974888 1 1 1 0.010195909342370475 1 1 0.0099982406209948166 0.010320527425912218 1 1 0.010000776310174035 0.010186699332322503 1 1 0.011344546772443967 1 0.010345635051698361 1 1 0.01029425932495753 0.010088737832237574 1 0.011224820563908571 0.01063029826911362 1 0.010623919025669042 1 1 1 1 1 0.010000727011160799 0.010442248692932882 1 1 1 1 1 1 0.010742204341644124 1 1 1 1 1 1 1 0.010946384820778546 1 1 0.010616078458044818 1 1 1 1 1 1 0.010619217858590747 1 1 1 1 1 1 0.01067964145734478 0.010065356743973193 1 0.010215080114324999 1 1 0.0099879063181253364 1 1 1 1 1 1 1 1 1 1 1 1 1 1 1 0.010006347889136465 1 1 1 1 1 1 1 1 0.010445778471968439 1 1 1 1 1 0.010244324138677178 1 1 0.01002227623244431 1 0.010460004254481322 1 1 1 1 0.0099411421041042808 1 0.010111813716345185 1 1 1 1 0.010012232900475473 1 1 1 1 0.010033602028340881 1 1 1 0.010405605063559413 1 1 1 1 0.010253928000655461 0.010200908688727573 0.0099993747384540428 1 1 0.0099953790903628582 1 1 1 1 1 0.0099884552684229681 1 1 1 0.010183889388860799 1 1 1 1 0.011299682603702387 0.011267020440815572 1 0.0097932815374254488 1 1 1 0.011373398067628521 0.010926721714413043 0.0099980643753251972 1 0.0099457639726870297 1 1 1 1 0.011131523477779726 1 1 0.0099263063441641184 1 1 1 1 1 1 1 1 0.011078589856468845 1 0.010114158058207014 1 1 1 1 1 1 0.01055554740604546 1 1 1 1 1 0.010361410447942738 1 1 1 1 1 1 1 1 1 1 0.010025687827274062 1 1 0.010067240275334602 1 1 1 1 1 1 0.0098976239073991796 1 0.010097492969473447 1 1 1 0.009967665954102263 0.010026798443439728 1 1 1 1 1 1 0.0099267617907826122 1 1 1 0.0099717749143768547 1 1 1 1 1 1 1 0.010010150566396005 1 1 1 1 1 1 1 1 1 1 1 1 1 1 1 1 1 1 1 1 1 1 1 1 1 1 1 1 1 1 1 1 1 1 1 1 1 1 1 1 1 1 1 1 1 1 1 1 1 1 1 1 1 1 1 1 1 1 1 1 1 1 1 1 1 1 1 1 1 1 1 1 1 1 1 1 1 1 1 1 1 1 0.010224670824315094 1 1 1 0.010142269430337541 1 1 1 1 1 1 1 0.010339582191239306 1 1 0.0099614528461678814 1 1 1 1 1 1 1 1 1 0.010083056311208387 1 1 1 1 1 1 1 1 0.0099685591073239935 1 1 1 1 1 1 1 1 1 0.010048230181563252 1 1 1 0.010332667956780455 1 1 1 1 1 1 1 1 1 1 1 1 1 1 0.010133235714137465 1 1 1 1 1 1 0.0099889794637326498 0.0099575128013572271 1 1 1 1 1 0.010495273876113879 1 1 0.0099799027198333098 1 1 1 1 1 1 1 1 1 1 0.010009812645568935 1 1 1 1 1 1 1 1 1 1 1 1 1 1 1 1 1 1 1 1 0.0099763558965140341 1 1 1 1 0.0097677392695568951 0.011329459760298961 1 1 1 0.0099320983063235224 1 1 1 1 1 1 1 0.0099029481309517824 0.010000494069426392 1 1 1 1 0.0099460653562685828 1 1 1 1 1 1 1 1 1 1 1 0.010397104342861839 1 1 1 0.010368041816907978 1 1 1 1 1 1 1 1 1 1 0.0099792239309710578 1 0.010330791445587875 1 1 1 1 1 1 1 1 1 1 1 1 1 1 1 1 1 1 1 1 1 1 1 1 1 1 1 1 1 1 1 1 1 1 1 1 1 1 1 1 1 1 1 1 1 1 1 1 1 1 1 1 1 1 1 1 1 1 1 1 1 1 1 1 1 1 1 1 1 1 1 1 1 1 1 1 1 1 1 1 1 1 1 1 1 1 1 1 1 1 1 1 1 1 0.010981059459333293 1 1 1 1 1 1 1 1 1 1 0.010102054750352772 1 1 1 1 1 1 1 1 1 0.010004303792655605 1 1 1 0.010421343896761781 1 1 1 1 1 1 1 1 1 1 1 1 1 1 1 1 1 1 1 1 1 1 1 1 1 0.010092242104783836 1 1 1 1 1 1 1 1 0.010161066672210168 1 0.010411560663365484 1 1 1 1 1 0.010522850558116512 1 1 1 1 1 1 1 1 1 0.010099492701586487 1 1 1 0.010210668951407759 1 1 0.010115480042476879 1 1 1 1 1 1 1 1 1 1 1 1 1 1 1 1 1 0.010807818553304798 1 1 1 1 0.010559715562571511 1 1 1 1 1 1 1 1 1 0.010110592820382807 1 1 1 1 1 1 0.011893114880973991 1 1 1 0.0099440079482786756 1 1 1 1 0.010259412260250653 1 1 1 0.010835554645946373 1 0.010566096667040129 1 1 1 0.010232326692855065 1 1 1 1 1 1 1 1 1 1 1 1 1 1 1 1 1 0.010113080723392381 1 1 1 1 1 1 1 1 1 1 1 1 1 1 1 1 1 1 1 1 1 1 1 1 1 1 1 1 1 1 1 1 1 1 1 1 1 1 1 1 1 1 1 1 1 1 1 1 1 1 1 1 1 1 1 1 1 1 1 1 1 1 1 1 1 1 1 1 1 1 1 1 1 1 1 1 1 1 1 1 1 1 1 1 1 1 1 1 1 1 1 1 1 1 1 1 1 1 1 1 1 1 1 1 1 1 1 1 1 1 1 1 1 1 1 1 1 1 1 1 1 1 1 1 1 1 1 1 1 1 0.010135300176098885 1 1 1 1 0.010356970347167635 0.010059781727394749 1 1 1 1 0.010947785258565433 1 0.0099660032567195824 1 1 1 0.00995372591083429 0.0099626918630781984 0.010280805363657384 1 1 1 1 1 1 1 0.010068840763142854 1 1 1 0.010187730292620378 1 1 1 1 1 1 1 1 1 1 1 1 1 1 0.010576057448696358 1 1 1 1 1 1 1 1 1 1 1 1 1 1 1 0.010666939299072125 1 1 1 1 0.0099972519095368872 1 0.010000852615447982 1 1 1 1 1 1 1 1 1 1 1 0.01073576807577351 1 1 1 1 1 0.010776450045474001 1 1 0.010091379961888015 1 1 1 0.010034668559343049 1 1 1 0.010449597184660349 1 1 0.0099992335121717353 1 0.0098869735068160183 1 1 1 1 1 1 1 1 0.010530281581995241 1 1 1 0.010329098359706728 1 1 0.010097335846822583 1 1 0.0099999237897564226 0.010309833292712066 1 1 1 1 1 1 0.010078332615515776 1 0.0099919396983511617 1 1 1 1 0.010520554884644687 1 1 1 1 1 1 1 0.010233809640888733 1 1 1 1 0.010081905757835534 1 1 1 1 1 1 1 1 1 1 1 1 1 1 1 1 1 1 1 1 1 1 1 1 1 1 0.009965267223564344 1 1 
</DataArray>
</CellData>
</Piece>
</UnstructuredGrid>
</VTKFile>
