<?xml version="1.0"?>
<VTKFile type="UnstructuredGrid" version="0.1" byte_order="LittleEndian">
<UnstructuredGrid>
<Piece NumberOfPoints="31460" NumberOfCells="11032">
<Points>
<DataArray type="Float64" NumberOfComponents="3" format="ascii">
-0.5 -0.5 0 -0.45826379443595727 -0.49240595043268048 0 -0.46642144748582659 -0.46827107884399732 0 -0.5 -0.5 0 -0.45826379443595727 -0.49240595043268048 0 -0.45848359805609501 -0.5 0 -0.5 -0.5 0 -0.46642144748582659 -0.46827107884399732 0 -0.47457910053569591 -0.44413620725531422 0 -0.5 -0.5 0 -0.47457910053569591 -0.44413620725531422 0 -0.5 -0.41751269325046653 0 -0.45826379443595727 -0.49240595043268048 0 -0.45848359805609501 -0.5 0 -0.42679110151757371 -0.48004619837947488 0 -0.45826379443595727 -0.49240595043268048 0 -0.44201261089570698 -0.4714523331548211 0 -0.42679110151757371 -0.48004619837947488 0 -0.45826379443595727 -0.49240595043268048 0 -0.46642144748582659 -0.46827107884399732 0 -0.45826379443595727 -0.49240595043268048 0 -0.44201261089570698 -0.4714523331548211 0 -0.46642144748582659 -0.46827107884399732 0 -0.44240823633296938 -0.45229162232937098 0 -0.45670593271524501 -0.43994674796861938 0 -0.44031796922511218 -0.42850724856467381 0 -0.44201261089570698 -0.4714523331548211 0 -0.44240823633296938 -0.45229162232937098 0 -0.46642144748582659 -0.46827107884399732 0 -0.44240823633296938 -0.45229162232937098 0 -0.46642144748582659 -0.46827107884399732 0 -0.45670593271524501 -0.43994674796861938 0 -0.46642144748582659 -0.46827107884399732 0 -0.45670593271524501 -0.43994674796861938 0 -0.47457910053569591 -0.44413620725531422 0 -0.46642144748582659 -0.46827107884399732 0 -0.47457910053569591 -0.44413620725531422 0 -0.47457910053569591 -0.44413620725531422 0 -0.5 -0.41751269325046653 0 -0.48273675358556511 -0.42000133566663111 0 -0.5 -0.41751269325046653 0 -0.48273675358556511 -0.42000133566663111 0 -0.49089440663543438 -0.39586646407794801 0 -0.48273675358556511 -0.42000133566663111 0 -0.49089440663543438 -0.39586646407794801 0 -0.48273675358556511 -0.42000133566663111 0 -0.47239969127523262 -0.40464396238003442 0 -0.46060228419306642 -0.42088664922356989 0 -0.48273675358556511 -0.42000133566663111 0 -0.49089440663543438 -0.39586646407794801 0 -0.47239969127523262 -0.40464396238003442 0 -0.47457910053569591 -0.44413620725531422 0 -0.48273675358556511 -0.42000133566663111 0 -0.46060228419306642 -0.42088664922356989 0 -0.47457910053569591 -0.44413620725531422 0 -0.48273675358556511 -0.42000133566663111 0 -0.5 -0.41751269325046653 0 -0.49089440663543438 -0.39586646407794801 0 -0.5 -0.35718982066189531 0 -0.49089440663543438 -0.39586646407794801 0 -0.47239969127523262 -0.40464396238003442 0 -0.47015997070342119 -0.38996932702083759 0 -0.49089440663543438 -0.39586646407794801 0 -0.47015997070342119 -0.38996932702083759 0 -0.47429781889144779 -0.36869290898349849 0 -0.47015997070342119 -0.38996932702083759 0 -0.45406055381680549 -0.3790110336362707 0 -0.47429781889144779 -0.36869290898349849 0 -0.47015997070342119 -0.38996932702083759 0 -0.45406055381680549 -0.3790110336362707 0 -0.45692306129662602 -0.39916895556881221 0 -0.47239969127523262 -0.40464396238003442 0 -0.47015997070342119 -0.38996932702083759 0 -0.45692306129662602 -0.39916895556881221 0 -0.45406055381680549 -0.3790110336362707 0 -0.45692306129662602 -0.39916895556881221 0 -0.44355292439190502 -0.39507389339917143 0 -0.45692306129662602 -0.39916895556881221 0 -0.44355292439190502 -0.39507389339917143 0 -0.44688333252642382 -0.41058587036408029 0 -0.44355292439190502 -0.39507389339917143 0 -0.44688333252642382 -0.41058587036408029 0 -0.43210225647489492 -0.40762766561943192 0 -0.45406055381680549 -0.3790110336362707 0 -0.44355292439190502 -0.39507389339917143 0 -0.44065104410712241 -0.3826525541742411 0 -0.44355292439190502 -0.39507389339917143 0 -0.44065104410712241 -0.3826525541742411 0 -0.43069729812955759 -0.39139728103219218 0 -0.45670593271524501 -0.43994674796861938 0 -0.47457910053569591 -0.44413620725531422 0 -0.46060228419306642 -0.42088664922356989 0 -0.47239969127523262 -0.40464396238003442 0 -0.45692306129662602 -0.39916895556881221 0 -0.46060228419306642 -0.42088664922356989 0 -0.45692306129662602 -0.39916895556881221 0 -0.46060228419306642 -0.42088664922356989 0 -0.44688333252642382 -0.41058587036408029 0 -0.46060228419306642 -0.42088664922356989 0 -0.44688333252642382 -0.41058587036408029 0 -0.44031796922511218 -0.42850724856467381 0 -0.44688333252642382 -0.41058587036408029 0 -0.44031796922511218 -0.42850724856467381 0 -0.43210225647489492 -0.40762766561943192 0 -0.45670593271524501 -0.43994674796861938 0 -0.46060228419306642 -0.42088664922356989 0 -0.44031796922511218 -0.42850724856467381 0 -0.44031796922511218 -0.42850724856467381 0 -0.42101849629073163 -0.4240660635467729 0 -0.42333571139453008 -0.44444857464324627 0 -0.43210225647489492 -0.40762766561943192 0 -0.42101849629073163 -0.4240660635467729 0 -0.41813940108592951 -0.4002994084223529 0 -0.44031796922511218 -0.42850724856467381 0 -0.43210225647489492 -0.40762766561943192 0 -0.42101849629073163 -0.4240660635467729 0 -0.40688855083469172 -0.41211063442899998 0 -0.42101849629073163 -0.4240660635467729 0 -0.41813940108592951 -0.4002994084223529 0 -0.40688855083469172 -0.41211063442899998 0 -0.42101849629073163 -0.4240660635467729 0 -0.4016048111967645 -0.43978488499474971 0 -0.42101849629073163 -0.4240660635467729 0 -0.4016048111967645 -0.43978488499474971 0 -0.42333571139453008 -0.44444857464324627 0 -0.43069932187709958 -0.37879002033441939 0 -0.42063656841534353 -0.38461657006784372 0 -0.42385265753588541 -0.3725179346807968 0 -0.44065104410712241 -0.3826525541742411 0 -0.43069932187709958 -0.37879002033441939 0 -0.43069729812955759 -0.39139728103219218 0 -0.43069932187709958 -0.37879002033441939 0 -0.43069729812955759 -0.39139728103219218 0 -0.42063656841534353 -0.38461657006784372 0 -0.43069729812955759 -0.39139728103219218 0 -0.41813940108592951 -0.4002994084223529 0 -0.42063656841534353 -0.38461657006784372 0 -0.43210225647489492 -0.40762766561943192 0 -0.43069729812955759 -0.39139728103219218 0 -0.41813940108592951 -0.4002994084223529 0 -0.44355292439190502 -0.39507389339917143 0 -0.43210225647489492 -0.40762766561943192 0 -0.43069729812955759 -0.39139728103219218 0 -0.40688855083469172 -0.41211063442899998 0 -0.41813940108592951 -0.4002994084223529 0 -0.41217229047262077 -0.38443638386325091 0 -0.40688855083469172 -0.41211063442899998 0 -0.41217229047262077 -0.38443638386325091 0 -0.41813940108592951 -0.4002994084223529 0 -0.42063656841534353 -0.38461657006784372 0 -0.41217229047262077 -0.38443638386325091 0 -0.42063656841534353 -0.38461657006784372 0 -0.41217229047262077 -0.38443638386325091 0 -0.42063656841534353 -0.38461657006784372 0 -0.41217229047262077 -0.38443638386325091 0 -0.42385265753588541 -0.3725179346807968 0 -0.41217229047262077 -0.38443638386325091 0 -0.39638845942390522 -0.39754947296885251 0 -0.39027020230279269 -0.38397013568871091 0 -0.41217229047262077 -0.38443638386325091 0 -0.39027020230279269 -0.38397013568871091 0 -0.39866833408116109 -0.359484049848948 0 -0.41217229047262077 -0.38443638386325091 0 -0.39027020230279269 -0.38397013568871091 0 -0.40688855083469172 -0.41211063442899998 0 -0.41217229047262077 -0.38443638386325091 0 -0.39638845942390522 -0.39754947296885251 0 -0.40688855083469172 -0.41211063442899998 0 -0.39638845942390522 -0.39754947296885251 0 -0.39207740415033382 -0.40817179700541478 0 -0.39638845942390522 -0.39754947296885251 0 -0.38053384935908718 -0.39905841385788582 0 -0.39027020230279269 -0.38397013568871091 0 -0.39638845942390522 -0.39754947296885251 0 -0.38053384935908718 -0.39905841385788582 0 -0.39207740415033382 -0.40817179700541478 0 -0.38053384935908718 -0.39905841385788582 0 -0.38076443343398969 -0.4131052076953004 0 -0.37129162846163649 -0.40646668987925128 0 -0.38053384935908718 -0.39905841385788582 0 -0.39027020230279269 -0.38397013568871091 0 -0.36836811413296489 -0.38350388751415809 0 -0.39027020230279269 -0.38397013568871091 0 -0.37276014916928413 -0.36968874551325409 0 -0.36836811413296489 -0.38350388751415809 0 -0.39027020230279269 -0.38397013568871091 0 -0.36836811413296489 -0.38350388751415809 0 -0.39119617914405191 -0.42217665770588209 0 -0.38893306401390532 -0.43437150840034638 0 -0.4016048111967645 -0.43978488499474971 0 -0.40688855083469172 -0.41211063442899998 0 -0.39119617914405191 -0.42217665770588209 0 -0.4016048111967645 -0.43978488499474971 0 -0.40688855083469172 -0.41211063442899998 0 -0.4016048111967645 -0.43978488499474971 0 -0.40688855083469172 -0.41211063442899998 0 -0.39119617914405191 -0.42217665770588209 0 -0.39207740415033382 -0.40817179700541478 0 -0.39119617914405191 -0.42217665770588209 0 -0.39207740415033382 -0.40817179700541478 0 -0.38076443343398969 -0.4131052076953004 0 -0.39119617914405191 -0.42217665770588209 0 -0.38076443343398969 -0.4131052076953004 0 -0.37754063201758509 -0.42531469454045251 0 -0.38053384935908718 -0.39905841385788582 0 -0.39207740415033382 -0.40817179700541478 0 -0.38076443343398969 -0.4131052076953004 0 -0.38076443343398969 -0.4131052076953004 0 -0.37754063201758509 -0.42531469454045251 0 -0.36883198683104568 -0.41905626867772777 0 -0.37754063201758509 -0.42531469454045251 0 -0.38893306401390532 -0.43437150840034638 0 -0.38539063369721949 -0.45020979636030162 0 -0.39119617914405191 -0.42217665770588209 0 -0.37754063201758509 -0.42531469454045251 0 -0.38893306401390532 -0.43437150840034638 0 -0.37754063201758509 -0.42531469454045251 0 -0.38539063369721949 -0.45020979636030162 0 -0.37754063201758509 -0.42531469454045251 0 -0.38539063369721949 -0.45020979636030162 0 -0.3683365684192384 -0.44086890113562249 0 -0.38893306401390532 -0.43437150840034638 0 -0.38539063369721949 -0.45020979636030162 0 -0.4016048111967645 -0.43978488499474971 0 -0.38539063369721949 -0.45020979636030162 0 -0.4016048111967645 -0.43978488499474971 0 -0.40699761504363058 -0.45864100006030317 0 -0.38539063369721949 -0.45020979636030162 0 -0.39324063537685378 -0.47510489818015061 0 -0.40699761504363058 -0.45864100006030317 0 -0.38539063369721949 -0.45020979636030162 0 -0.39324063537685378 -0.47510489818015061 0 -0.38539063369721949 -0.45020979636030162 0 -0.38336291168111958 -0.46720898787430287 0 -0.39324063537685378 -0.47510489818015061 0 -0.38539063369721949 -0.45020979636030162 0 -0.38336291168111958 -0.46720898787430287 0 -0.37637167717206421 -0.46315756360206228 0 -0.38539063369721949 -0.45020979636030162 0 -0.37637167717206421 -0.46315756360206228 0 -0.37087628372248771 -0.45312649174698061 0 -0.38336291168111958 -0.46720898787430287 0 -0.37637167717206421 -0.46315756360206228 0 -0.37844870047834112 -0.48036369335469709 0 -0.38336291168111958 -0.46720898787430287 0 -0.37844870047834112 -0.48036369335469709 0 -0.39324063537685378 -0.47510489818015061 0 -0.37844870047834112 -0.48036369335469709 0 -0.39487403845899272 -0.50000000000000244 0 -0.37844870047834112 -0.48036369335469709 0 -0.37537080740044071 -0.48717709628316791 0 -0.39487403845899272 -0.50000000000000244 0 -0.37844870047834112 -0.48036369335469709 0 -0.39487403845899272 -0.50000000000000244 0 -0.39324063537685378 -0.47510489818015061 0 -0.37537080740044071 -0.48717709628316791 0 -0.39487403845899272 -0.50000000000000244 0 -0.36812109369960322 -0.5 0 -0.40109063705648801 -0.49999999999999961 0 -0.39324063537685378 -0.47510489818015061 0 -0.40109063705648801 -0.49999999999999961 0 -0.39487403845899272 -0.50000000000000244 0 -0.39324063537685378 -0.47510489818015061 0 -0.39324063537685378 -0.47510489818015061 0 -0.42679110151757371 -0.48004619837947488 0 -0.40699761504363058 -0.45864100006030317 0 -0.45848359805609501 -0.5 0 -0.40109063705648801 -0.49999999999999961 0 -0.42679110151757371 -0.48004619837947488 0 -0.40109063705648801 -0.49999999999999961 0 -0.39324063537685378 -0.47510489818015061 0 -0.42679110151757371 -0.48004619837947488 0 -0.44201261089570698 -0.4714523331548211 0 -0.42679110151757371 -0.48004619837947488 0 -0.42744881975828442 -0.46271920682836909 0 -0.44240823633296938 -0.45229162232937098 0 -0.42744881975828442 -0.46271920682836909 0 -0.42333571139453008 -0.44444857464324627 0 -0.44201261089570698 -0.4714523331548211 0 -0.44240823633296938 -0.45229162232937098 0 -0.42744881975828442 -0.46271920682836909 0 -0.44240823633296938 -0.45229162232937098 0 -0.44031796922511218 -0.42850724856467381 0 -0.42333571139453008 -0.44444857464324627 0 -0.4016048111967645 -0.43978488499474971 0 -0.42333571139453008 -0.44444857464324627 0 -0.40699761504363058 -0.45864100006030317 0 -0.42744881975828442 -0.46271920682836909 0 -0.42333571139453008 -0.44444857464324627 0 -0.40699761504363058 -0.45864100006030317 0 -0.42679110151757371 -0.48004619837947488 0 -0.42744881975828442 -0.46271920682836909 0 -0.40699761504363058 -0.45864100006030317 0 -0.43751304390905338 -0.25171100218643983 0 -0.44771011525143523 -0.26331328177383351 0 -0.45396786575014159 -0.2499289980016984 0 -0.43751304390905338 -0.25171100218643983 0 -0.44771011525143523 -0.26331328177383351 0 -0.43282870856519212 -0.27624579741167782 0 -0.44771011525143523 -0.26331328177383351 0 -0.44809741479406079 -0.27565526137140328 0 -0.43282870856519212 -0.27624579741167782 0 -0.44809741479406079 -0.27565526137140328 0 -0.44323332439988511 -0.28453985644780522 0 -0.43282870856519212 -0.27624579741167782 0 -0.44771011525143523 -0.26331328177383351 0 -0.44809741479406079 -0.27565526137140328 0 -0.46155187019882182 -0.26328341004398592 0 -0.46155187019882182 -0.26328341004398592 0 -0.47458862007145769 -0.26578738142994912 0 -0.4651829419705773 -0.29048702479280047 0 -0.46155187019882182 -0.26328341004398592 0 -0.45286721903501681 -0.29102299125273329 0 -0.44809741479406079 -0.27565526137140328 0 -0.46155187019882182 -0.26328341004398592 0 -0.45286721903501681 -0.29102299125273329 0 -0.44771011525143523 -0.26331328177383351 0 -0.46155187019882182 -0.26328341004398592 0 -0.45396786575014159 -0.2499289980016984 0 -0.48688722546503621 -0.2588449470791625 0 -0.47458862007145769 -0.26578738142994912 0 -0.48399429817233702 -0.2410877380670973 0 -0.47244310207800461 -0.25075377537078691 0 -0.47458862007145769 -0.26578738142994912 0 -0.48399429817233702 -0.2410877380670973 0 -0.47458862007145769 -0.26578738142994912 0 -0.48399429817233702 -0.2410877380670973 0 -0.46155187019882182 -0.26328341004398592 0 -0.47244310207800461 -0.25075377537078691 0 -0.47458862007145769 -0.26578738142994912 0 -0.48688722546503621 -0.2588449470791625 0 -0.48881346330435732 -0.26982504242244298 0 -0.47458862007145769 -0.26578738142994912 0 -0.48688722546503621 -0.2588449470791625 0 -0.5 -0.25803309959502541 0 -0.48399429817233702 -0.2410877380670973 0 -0.48688722546503621 -0.2588449470791625 0 -0.5 -0.25803309959502541 0 -0.48881346330435732 -0.26982504242244298 0 -0.50000000000000266 -0.28081084774111859 0 -0.48881346330435732 -0.26982504242244298 0 -0.48259147098528982 -0.28564893626695892 0 -0.5 -0.25803309959502541 0 -0.50000000000000266 -0.28081084774111859 0 -0.48881346330435732 -0.26982504242244298 0 -0.47458862007145769 -0.26578738142994912 0 -0.4651829419705773 -0.29048702479280047 0 -0.47458862007145769 -0.26578738142994912 0 -0.48259147098528982 -0.28564893626695892 0 -0.4651829419705773 -0.29048702479280047 0 -0.48881346330435732 -0.26982504242244298 0 -0.47458862007145769 -0.26578738142994912 0 -0.48259147098528982 -0.28564893626695892 0 -0.48259147098528982 -0.28564893626695892 0 -0.4793545387805751 -0.3105517803018949 0 -0.4651829419705773 -0.29048702479280047 0 -0.48259147098528982 -0.28564893626695892 0 -0.4651829419705773 -0.29048702479280047 0 -0.50000000000000266 -0.28081084774111859 0 -0.48259147098528982 -0.28564893626695892 0 -0.4793545387805751 -0.3105517803018949 0 -0.50000000000000266 -0.28081084774111859 0 -0.48259147098528982 -0.28564893626695892 0 -0.4651829419705773 -0.29048702479280047 0 -0.44666365759595422 -0.29563380871485728 0 -0.45600830837958201 -0.3145799371008749 0 -0.4651829419705773 -0.29048702479280047 0 -0.45600830837958201 -0.3145799371008749 0 -0.4793545387805751 -0.3105517803018949 0 -0.4651829419705773 -0.29048702479280047 0 -0.45600830837958201 -0.3145799371008749 0 -0.4651829419705773 -0.29048702479280047 0 -0.45286721903501681 -0.29102299125273329 0 -0.44666365759595422 -0.29563380871485728 0 -0.4651829419705773 -0.29048702479280047 0 -0.44666365759595422 -0.29563380871485728 0 -0.46155187019882182 -0.26328341004398592 0 -0.4651829419705773 -0.29048702479280047 0 -0.45286721903501681 -0.29102299125273329 0 -0.45286721903501681 -0.29102299125273329 0 -0.44666365759595422 -0.29563380871485728 0 -0.44323332439988511 -0.28453985644780522 0 -0.44666365759595422 -0.29563380871485728 0 -0.44323332439988511 -0.28453985644780522 0 -0.42814437322133159 -0.30078059263691592 0 -0.44809741479406079 -0.27565526137140328 0 -0.45286721903501681 -0.29102299125273329 0 -0.44323332439988511 -0.28453985644780522 0 -0.44666365759595422 -0.29563380871485728 0 -0.44214438417120699 -0.30703735509006341 0 -0.42814437322133159 -0.30078059263691592 0 -0.44666365759595422 -0.29563380871485728 0 -0.44214438417120699 -0.30703735509006341 0 -0.45600830837958201 -0.3145799371008749 0 -0.50000000000000266 -0.28081084774111859 0 -0.4793545387805751 -0.3105517803018949 0 -0.5 -0.35718982066189531 0 -0.44683367478858538 -0.33867284940894898 0 -0.45600830837958201 -0.3145799371008749 0 -0.4377611974879605 -0.31715508190760489 0 -0.44683367478858538 -0.33867284940894898 0 -0.45600830837958201 -0.3145799371008749 0 -0.44214438417120699 -0.30703735509006341 0 -0.4377611974879605 -0.31715508190760489 0 -0.45600830837958201 -0.3145799371008749 0 -0.44683367478858538 -0.33867284940894898 0 -0.46865258502026791 -0.34090393315223849 0 -0.45600830837958201 -0.3145799371008749 0 -0.4793545387805751 -0.3105517803018949 0 -0.46865258502026791 -0.34090393315223849 0 -0.45600830837958201 -0.3145799371008749 0 -0.4793545387805751 -0.3105517803018949 0 -0.46865258502026791 -0.34090393315223849 0 -0.5 -0.35718982066189531 0 -0.46865258502026791 -0.34090393315223849 0 -0.5 -0.35718982066189531 0 -0.47429781889144779 -0.36869290898349849 0 -0.49089440663543438 -0.39586646407794801 0 -0.5 -0.35718982066189531 0 -0.47429781889144779 -0.36869290898349849 0 -0.45406055381680549 -0.3790110336362707 0 -0.47429781889144779 -0.36869290898349849 0 -0.45630073474293908 -0.35800929737959603 0 -0.44683367478858538 -0.33867284940894898 0 -0.46865258502026791 -0.34090393315223849 0 -0.45630073474293908 -0.35800929737959603 0 -0.46865258502026791 -0.34090393315223849 0 -0.47429781889144779 -0.36869290898349849 0 -0.45630073474293908 -0.35800929737959603 0 -0.44683367478858538 -0.33867284940894898 0 -0.45630073474293908 -0.35800929737959603 0 -0.43765904119758881 -0.36276576171702302 0 -0.44683367478858538 -0.33867284940894898 0 -0.43765904119758881 -0.36276576171702302 0 -0.43029529694363711 -0.34454390052664191 0 -0.44683367478858538 -0.33867284940894898 0 -0.43765904119758881 -0.36276576171702302 0 -0.45406055381680549 -0.3790110336362707 0 -0.44065104410712241 -0.3826525541742411 0 -0.43765904119758881 -0.36276576171702302 0 -0.45406055381680549 -0.3790110336362707 0 -0.45630073474293908 -0.35800929737959603 0 -0.43765904119758881 -0.36276576171702302 0 -0.43765904119758881 -0.36276576171702302 0 -0.42385265753588541 -0.3725179346807968 0 -0.41749631805552279 -0.35655112012113888 0 -0.43069932187709958 -0.37879002033441939 0 -0.43765904119758881 -0.36276576171702302 0 -0.42385265753588541 -0.3725179346807968 0 -0.44065104410712241 -0.3826525541742411 0 -0.43069932187709958 -0.37879002033441939 0 -0.43765904119758881 -0.36276576171702302 0 -0.43765904119758881 -0.36276576171702302 0 -0.43029529694363711 -0.34454390052664191 0 -0.41749631805552279 -0.35655112012113888 0 -0.41749631805552279 -0.35655112012113888 0 -0.39866833408116109 -0.359484049848948 0 -0.40575234889667122 -0.33309670946439213 0 -0.41217229047262077 -0.38443638386325091 0 -0.41749631805552279 -0.35655112012113888 0 -0.41217229047262077 -0.38443638386325091 0 -0.41749631805552279 -0.35655112012113888 0 -0.39866833408116109 -0.359484049848948 0 -0.41217229047262077 -0.38443638386325091 0 -0.42385265753588541 -0.3725179346807968 0 -0.41749631805552279 -0.35655112012113888 0 -0.39027020230279269 -0.38397013568871091 0 -0.39866833408116109 -0.359484049848948 0 -0.38604582775584623 -0.36519931196448491 0 -0.39027020230279269 -0.38397013568871091 0 -0.38604582775584623 -0.36519931196448491 0 -0.37276014916928413 -0.36968874551325409 0 -0.38604582775584623 -0.36519931196448491 0 -0.37709915462052129 -0.35330995135625992 0 -0.37276014916928413 -0.36968874551325409 0 -0.37709915462052129 -0.35330995135625992 0 -0.39030381240506551 -0.34996338341312261 0 -0.39170779601273831 -0.33736825966297568 0 -0.38604582775584623 -0.36519931196448491 0 -0.37709915462052129 -0.35330995135625992 0 -0.39030381240506551 -0.34996338341312261 0 -0.39866833408116109 -0.359484049848948 0 -0.39030381240506551 -0.34996338341312261 0 -0.40575234889667122 -0.33309670946439213 0 -0.39866833408116109 -0.359484049848948 0 -0.40575234889667122 -0.33309670946439213 0 -0.39866833408116109 -0.359484049848948 0 -0.38604582775584623 -0.36519931196448491 0 -0.39030381240506551 -0.34996338341312261 0 -0.39030381240506551 -0.34996338341312261 0 -0.40575234889667122 -0.33309670946439213 0 -0.39170779601273831 -0.33736825966297568 0 -0.40575234889667122 -0.33309670946439213 0 -0.39170779601273831 -0.33736825966297568 0 -0.39312537117081431 -0.32336624974939149 0 -0.37709915462052129 -0.35330995135625992 0 -0.39170779601273831 -0.33736825966297568 0 -0.370535587673608 -0.33736067751263782 0 -0.39170779601273831 -0.33736825966297568 0 -0.37282940986846419 -0.31837505917586822 0 -0.370535587673608 -0.33736067751263782 0 -0.39312537117081431 -0.32336624974939149 0 -0.39274382019399251 -0.30988711581511857 0 -0.37282940986846419 -0.31837505917586822 0 -0.39170779601273831 -0.33736825966297568 0 -0.37282940986846419 -0.31837505917586822 0 -0.39170779601273831 -0.33736825966297568 0 -0.39312537117081431 -0.32336624974939149 0 -0.37282940986846419 -0.31837505917586822 0 -0.39312537117081431 -0.32336624974939149 0 -0.40259348088220509 -0.31810410462860272 0 -0.39274382019399251 -0.30988711581511857 0 -0.40575234889667122 -0.33309670946439213 0 -0.39312537117081431 -0.32336624974939149 0 -0.40259348088220509 -0.31810410462860272 0 -0.40575234889667122 -0.33309670946439213 0 -0.40259348088220509 -0.31810410462860272 0 -0.41283636371218141 -0.30670936907983631 0 -0.4228203456384268 -0.32866585637902729 0 -0.41581728305569499 -0.30420647390677841 0 -0.41283636371218141 -0.30670936907983631 0 -0.40575234889667122 -0.33309670946439213 0 -0.41283636371218141 -0.30670936907983631 0 -0.40575234889667122 -0.33309670946439213 0 -0.4228203456384268 -0.32866585637902729 0 -0.41283636371218141 -0.30670936907983631 0 -0.41749631805552279 -0.35655112012113888 0 -0.4228203456384268 -0.32866585637902729 0 -0.41749631805552279 -0.35655112012113888 0 -0.40575234889667122 -0.33309670946439213 0 -0.4228203456384268 -0.32866585637902729 0 -0.4377611974879605 -0.31715508190760489 0 -0.44683367478858538 -0.33867284940894898 0 -0.4228203456384268 -0.32866585637902729 0 -0.43029529694363711 -0.34454390052664191 0 -0.41749631805552279 -0.35655112012113888 0 -0.4228203456384268 -0.32866585637902729 0 -0.44683367478858538 -0.33867284940894898 0 -0.43029529694363711 -0.34454390052664191 0 -0.4228203456384268 -0.32866585637902729 0 -0.4377611974879605 -0.31715508190760489 0 -0.4228203456384268 -0.32866585637902729 0 -0.42814437322133159 -0.30078059263691592 0 -0.4228203456384268 -0.32866585637902729 0 -0.42814437322133159 -0.30078059263691592 0 -0.44214438417120699 -0.30703735509006341 0 -0.4377611974879605 -0.31715508190760489 0 -0.42814437322133159 -0.30078059263691592 0 -0.44666365759595422 -0.29563380871485728 0 -0.42814437322133159 -0.30078059263691592 0 -0.4228203456384268 -0.32866585637902729 0 -0.42814437322133159 -0.30078059263691592 0 -0.41581728305569499 -0.30420647390677841 0 -0.42814437322133159 -0.30078059263691592 0 -0.41581728305569499 -0.30420647390677841 0 -0.42814437322133159 -0.30078059263691592 0 -0.43282870856519212 -0.27624579741167782 0 -0.44323332439988511 -0.28453985644780522 0 -0.42814437322133159 -0.30078059263691592 0 -0.43282870856519212 -0.27624579741167782 0 -0.42814437322133159 -0.30078059263691592 0 -0.41992037852769148 -0.28032202869528061 0 -0.43282870856519212 -0.27624579741167782 0 -0.41283636371218141 -0.30670936907983631 0 -0.41992037852769148 -0.28032202869528061 0 -0.42814437322133159 -0.30078059263691592 0 -0.41581728305569499 -0.30420647390677841 0 -0.41992037852769148 -0.28032202869528061 0 -0.41116216196691469 -0.28932445271706558 0 -0.41283636371218141 -0.30670936907983631 0 -0.41992037852769148 -0.28032202869528061 0 -0.41116216196691469 -0.28932445271706558 0 -0.40673675598462983 -0.27630539850918479 0 -0.41992037852769148 -0.28032202869528061 0 -0.41116216196691469 -0.28932445271706558 0 -0.40311365154399731 -0.28885313284472741 0 -0.40673675598462983 -0.27630539850918479 0 -0.41116216196691469 -0.28932445271706558 0 -0.40860646088234109 -0.29740321819800952 0 -0.40311365154399731 -0.28885313284472741 0 -0.40860646088234109 -0.29740321819800952 0 -0.40685570905821211 -0.3033473525829401 0 -0.41283636371218141 -0.30670936907983631 0 -0.41581728305569499 -0.30420647390677841 0 -0.41283636371218141 -0.30670936907983631 0 -0.41992037852769148 -0.28032202869528061 0 -0.41116216196691469 -0.28932445271706558 0 -0.40860646088234109 -0.29740321819800952 0 -0.41283636371218141 -0.30670936907983631 0 -0.40259348088220509 -0.31810410462860272 0 -0.41283636371218141 -0.30670936907983631 0 -0.4039976292627826 -0.30833800501204761 0 -0.40685570905821211 -0.3033473525829401 0 -0.41283636371218141 -0.30670936907983631 0 -0.4039976292627826 -0.30833800501204761 0 -0.40259348088220509 -0.31810410462860272 0 -0.4039976292627826 -0.30833800501204761 0 -0.39274382019399251 -0.30988711581511857 0 -0.4039976292627826 -0.30833800501204761 0 -0.40198238237554351 -0.30093881804186701 0 -0.39274382019399251 -0.30988711581511857 0 -0.40198238237554351 -0.30093881804186701 0 -0.39274382019399251 -0.30988711581511857 0 -0.39226643191815552 -0.29325468499759622 0 -0.40860646088234109 -0.29740321819800952 0 -0.40685570905821211 -0.3033473525829401 0 -0.40198238237554351 -0.30093881804186701 0 -0.40685570905821211 -0.3033473525829401 0 -0.4039976292627826 -0.30833800501204761 0 -0.40198238237554351 -0.30093881804186701 0 -0.39274382019399251 -0.30988711581511857 0 -0.37774655200931578 -0.29923227280577341 0 -0.39226643191815552 -0.29325468499759622 0 -0.39274382019399251 -0.30988711581511857 0 -0.37774655200931578 -0.29923227280577341 0 -0.37282940986846419 -0.31837505917586822 0 -0.38432179755873203 -0.28503455885730761 0 -0.39226643191815552 -0.29325468499759622 0 -0.39413870049435168 -0.27727024870352829 0 -0.37774655200931578 -0.29923227280577341 0 -0.38432179755873203 -0.28503455885730761 0 -0.36921045431311739 -0.28394055350104441 0 -0.37774655200931578 -0.29923227280577341 0 -0.38432179755873203 -0.28503455885730761 0 -0.39226643191815552 -0.29325468499759622 0 -0.39226643191815552 -0.29325468499759622 0 -0.40311365154399731 -0.28885313284472741 0 -0.39413870049435168 -0.27727024870352829 0 -0.40198238237554351 -0.30093881804186701 0 -0.39226643191815552 -0.29325468499759622 0 -0.40311365154399731 -0.28885313284472741 0 -0.40860646088234109 -0.29740321819800952 0 -0.40198238237554351 -0.30093881804186701 0 -0.40311365154399731 -0.28885313284472741 0 -0.40311365154399731 -0.28885313284472741 0 -0.39413870049435168 -0.27727024870352829 0 -0.40673675598462983 -0.27630539850918479 0 -0.39413870049435168 -0.27727024870352829 0 -0.38317587946208043 -0.2687088021715523 0 -0.39779996746043539 -0.26118800843741402 0 -0.39413870049435168 -0.27727024870352829 0 -0.39779996746043539 -0.26118800843741402 0 -0.40673675598462983 -0.27630539850918479 0 -0.39779996746043539 -0.26118800843741402 0 -0.41243538898952181 -0.26404799861069378 0 -0.40673675598462983 -0.27630539850918479 0 -0.38432179755873203 -0.28503455885730761 0 -0.38317587946208043 -0.2687088021715523 0 -0.36921045431311739 -0.28394055350104441 0 -0.38432179755873203 -0.28503455885730761 0 -0.39413870049435168 -0.27727024870352829 0 -0.38317587946208043 -0.2687088021715523 0 -0.38317587946208043 -0.2687088021715523 0 -0.38049762921659952 -0.25021735770044617 0 -0.39779996746043539 -0.26118800843741402 0 -0.38317587946208043 -0.2687088021715523 0 -0.38049762921659952 -0.25021735770044617 0 -0.36659002409407088 -0.26688259394482711 0 -0.39779996746043539 -0.26118800843741402 0 -0.41118069241157817 -0.2485637714763447 0 -0.39616193795957338 -0.24440313672781319 0 -0.38049762921659952 -0.25021735770044617 0 -0.39779996746043539 -0.26118800843741402 0 -0.39616193795957338 -0.24440313672781319 0 -0.41243538898952181 -0.26404799861069378 0 -0.42700439334320162 -0.25393468831072469 0 -0.41118069241157817 -0.2485637714763447 0 -0.39779996746043539 -0.26118800843741402 0 -0.41243538898952181 -0.26404799861069378 0 -0.41118069241157817 -0.2485637714763447 0 -0.41243538898952181 -0.26404799861069378 0 -0.41992037852769148 -0.28032202869528061 0 -0.42700439334320162 -0.25393468831072469 0 -0.41243538898952181 -0.26404799861069378 0 -0.40673675598462983 -0.27630539850918479 0 -0.41992037852769148 -0.28032202869528061 0 -0.41992037852769148 -0.28032202869528061 0 -0.42700439334320162 -0.25393468831072469 0 -0.41992037852769148 -0.28032202869528061 0 -0.43282870856519212 -0.27624579741167782 0 -0.42700439334320162 -0.25393468831072469 0 -0.43751304390905338 -0.25171100218643983 0 -0.43282870856519212 -0.27624579741167782 0 -0.43751304390905338 -0.25171100218643983 0 -0.43282870856519212 -0.27624579741167782 0 -0.42700439334320162 -0.25393468831072469 0 -0.31994358486826752 -0.25582512977358962 0 -0.30624559577879279 -0.2625936730919165 0 -0.31587538925458419 -0.24307026029734491 0 -0.31994358486826752 -0.25582512977358962 0 -0.32117829512586249 -0.26592786709267879 0 -0.32834961528226753 -0.25760722193007402 0 -0.31994358486826752 -0.25582512977358962 0 -0.32834961528226753 -0.25760722193007402 0 -0.32772674009125052 -0.24786565639204999 0 -0.31994358486826752 -0.25582512977358962 0 -0.32117829512586249 -0.26592786709267879 0 -0.30624559577879279 -0.2625936730919165 0 -0.31972900505808077 -0.28115947625665549 0 -0.3364749571764134 -0.2655895040687859 0 -0.31993368036550079 -0.28505212826538512 0 -0.32117829512586249 -0.26592786709267879 0 -0.31188317497855511 -0.27272818958578687 0 -0.30624559577879279 -0.2625936730919165 0 -0.31972900505808077 -0.28115947625665549 0 -0.32117829512586249 -0.26592786709267879 0 -0.31188317497855511 -0.27272818958578687 0 -0.31972900505808077 -0.28115947625665549 0 -0.32117829512586249 -0.26592786709267879 0 -0.3364749571764134 -0.2655895040687859 0 -0.31972900505808077 -0.28115947625665549 0 -0.3364749571764134 -0.2655895040687859 0 -0.31972900505808077 -0.28115947625665549 0 -0.30976789980103642 -0.27978327277812348 0 -0.31188317497855511 -0.27272818958578687 0 -0.3364749571764134 -0.2655895040687859 0 -0.31993368036550079 -0.28505212826538512 0 -0.33507263757991618 -0.28038865820165348 0 -0.3364749571764134 -0.2655895040687859 0 -0.31993368036550079 -0.28505212826538512 0 -0.33507263757991618 -0.28038865820165348 0 -0.3364749571764134 -0.2655895040687859 0 -0.34432090568230411 -0.26901966045528319 0 -0.3364749571764134 -0.2655895040687859 0 -0.3364244991495437 -0.25282795232326549 0 -0.35131987670973169 -0.2481228300382099 0 -0.34228348826618482 -0.26018887549412839 0 -0.3364749571764134 -0.2655895040687859 0 -0.35131987670973169 -0.2481228300382099 0 -0.34228348826618482 -0.26018887549412839 0 -0.3364749571764134 -0.2655895040687859 0 -0.34432090568230411 -0.26901966045528319 0 -0.34228348826618482 -0.26018887549412839 0 -0.3364749571764134 -0.2655895040687859 0 -0.3364749571764134 -0.2655895040687859 0 -0.32834961528226753 -0.25760722193007402 0 -0.3364244991495437 -0.25282795232326549 0 -0.32117829512586249 -0.26592786709267879 0 -0.3364749571764134 -0.2655895040687859 0 -0.32834961528226753 -0.25760722193007402 0 -0.32834961528226753 -0.25760722193007402 0 -0.3364244991495437 -0.25282795232326549 0 -0.32772674009125052 -0.24786565639204999 0 -0.34228348826618482 -0.26018887549412839 0 -0.35394585854621918 -0.26182763857831748 0 -0.35131987670973169 -0.2481228300382099 0 -0.3364749571764134 -0.2655895040687859 0 -0.35131987670973169 -0.2481228300382099 0 -0.34228348826618482 -0.26018887549412839 0 -0.35394585854621918 -0.26182763857831748 0 -0.34432090568230411 -0.26901966045528319 0 -0.35394585854621918 -0.26182763857831748 0 -0.3652942889692089 -0.25042186949623613 0 -0.35131987670973169 -0.2481228300382099 0 -0.38049762921659952 -0.25021735770044617 0 -0.3652942889692089 -0.25042186949623613 0 -0.36659002409407088 -0.26688259394482711 0 -0.35394585854621918 -0.26182763857831748 0 -0.3652942889692089 -0.25042186949623613 0 -0.36659002409407088 -0.26688259394482711 0 -0.36659002409407088 -0.26688259394482711 0 -0.35382758684278659 -0.27710362593353061 0 -0.36921045431311739 -0.28394055350104441 0 -0.38317587946208043 -0.2687088021715523 0 -0.36659002409407088 -0.26688259394482711 0 -0.36921045431311739 -0.28394055350104441 0 -0.33507263757991618 -0.28038865820165348 0 -0.35382758684278659 -0.27710362593353061 0 -0.34432090568230411 -0.26901966045528319 0 -0.35394585854621918 -0.26182763857831748 0 -0.36659002409407088 -0.26688259394482711 0 -0.35382758684278659 -0.27710362593353061 0 -0.35394585854621918 -0.26182763857831748 0 -0.35382758684278659 -0.27710362593353061 0 -0.34432090568230411 -0.26901966045528319 0 -0.33507263757991618 -0.28038865820165348 0 -0.35382758684278659 -0.27710362593353061 0 -0.35395102372419007 -0.29938185868876083 0 -0.35382758684278659 -0.27710362593353061 0 -0.36921045431311739 -0.28394055350104441 0 -0.35395102372419007 -0.29938185868876083 0 -0.33507263757991618 -0.28038865820165348 0 -0.35395102372419007 -0.29938185868876083 0 -0.37774655200931578 -0.29923227280577341 0 -0.36921045431311739 -0.28394055350104441 0 -0.35395102372419007 -0.29938185868876083 0 -0.37774655200931578 -0.29923227280577341 0 -0.35395102372419007 -0.29938185868876083 0 -0.37282940986846419 -0.31837505917586822 0 -0.35395102372419007 -0.29938185868876083 0 -0.37282940986846419 -0.31837505917586822 0 -0.35395102372419007 -0.29938185868876083 0 -0.32863102983257497 -0.30920452672329152 0 -0.338798839675436 -0.31984855934083162 0 -0.35395102372419007 -0.29938185868876083 0 -0.32863102983257497 -0.30920452672329152 0 -0.33114673851172932 -0.29454849419583412 0 -0.33507263757991618 -0.28038865820165348 0 -0.35395102372419007 -0.29938185868876083 0 -0.33114673851172932 -0.29454849419583412 0 -0.33507263757991618 -0.28038865820165348 0 -0.33114673851172932 -0.29454849419583412 0 -0.31993368036550079 -0.28505212826538512 0 -0.33114673851172932 -0.29454849419583412 0 -0.31993368036550079 -0.28505212826538512 0 -0.31735653310169692 -0.29962233629278578 0 -0.31972900505808077 -0.28115947625665549 0 -0.31993368036550079 -0.28505212826538512 0 -0.30298305293974798 -0.2967294484445252 0 -0.31993368036550079 -0.28505212826538512 0 -0.31735653310169692 -0.29962233629278578 0 -0.30339240355458841 -0.30451475246198439 0 -0.31735653310169692 -0.29962233629278578 0 -0.3148001931040848 -0.31362709958530338 0 -0.31055964361726879 -0.30721133115868998 0 -0.32863102983257497 -0.30920452672329152 0 -0.31735653310169692 -0.29962233629278578 0 -0.3148001931040848 -0.31362709958530338 0 -0.32863102983257497 -0.30920452672329152 0 -0.33114673851172932 -0.29454849419583412 0 -0.31735653310169692 -0.29962233629278578 0 -0.32863102983257497 -0.30920452672329152 0 -0.3243083518625457 -0.32387088032201061 0 -0.3148001931040848 -0.31362709958530338 0 -0.3243083518625457 -0.32387088032201061 0 -0.3148001931040848 -0.31362709958530338 0 -0.31013596004931693 -0.32700662302497169 0 -0.3243083518625457 -0.32387088032201061 0 -0.31923948498301052 -0.33723026398065148 0 -0.31013596004931693 -0.32700662302497169 0 -0.31923948498301052 -0.33723026398065148 0 -0.3338563011266969 -0.33739023615067681 0 -0.32324545759623508 -0.34998483735420077 0 -0.3243083518625457 -0.32387088032201061 0 -0.31923948498301052 -0.33723026398065148 0 -0.3338563011266969 -0.33739023615067681 0 -0.3338563011266969 -0.33739023615067681 0 -0.338798839675436 -0.31984855934083162 0 -0.35324749183117249 -0.32939529481941843 0 -0.3243083518625457 -0.32387088032201061 0 -0.3338563011266969 -0.33739023615067681 0 -0.338798839675436 -0.31984855934083162 0 -0.32863102983257497 -0.30920452672329152 0 -0.3243083518625457 -0.32387088032201061 0 -0.338798839675436 -0.31984855934083162 0 -0.35395102372419007 -0.29938185868876083 0 -0.338798839675436 -0.31984855934083162 0 -0.35324749183117249 -0.32939529481941843 0 -0.35395102372419007 -0.29938185868876083 0 -0.37282940986846419 -0.31837505917586822 0 -0.35324749183117249 -0.32939529481941843 0 -0.370535587673608 -0.33736067751263782 0 -0.35324749183117249 -0.32939529481941843 0 -0.35779408603514368 -0.34835482254866662 0 -0.37282940986846419 -0.31837505917586822 0 -0.370535587673608 -0.33736067751263782 0 -0.35324749183117249 -0.32939529481941843 0 -0.3338563011266969 -0.33739023615067681 0 -0.35324749183117249 -0.32939529481941843 0 -0.34462079605222712 -0.34629921852363221 0 -0.35324749183117249 -0.32939529481941843 0 -0.34462079605222712 -0.34629921852363221 0 -0.35779408603514368 -0.34835482254866662 0 -0.34462079605222712 -0.34629921852363221 0 -0.35779408603514368 -0.34835482254866662 0 -0.34508372888693323 -0.36044144745231549 0 -0.35779408603514368 -0.34835482254866662 0 -0.3589234176013768 -0.36233688211669512 0 -0.34508372888693323 -0.36044144745231549 0 -0.37709915462052129 -0.35330995135625992 0 -0.35779408603514368 -0.34835482254866662 0 -0.3589234176013768 -0.36233688211669512 0 -0.37709915462052129 -0.35330995135625992 0 -0.370535587673608 -0.33736067751263782 0 -0.35779408603514368 -0.34835482254866662 0 -0.37709915462052129 -0.35330995135625992 0 -0.37276014916928413 -0.36968874551325409 0 -0.3589234176013768 -0.36233688211669512 0 -0.37276014916928413 -0.36968874551325409 0 -0.35824806362253647 -0.37377065864708331 0 -0.3589234176013768 -0.36233688211669512 0 -0.35824806362253647 -0.37377065864708331 0 -0.3589234176013768 -0.36233688211669512 0 -0.3471662148251049 -0.37050211097984159 0 -0.3589234176013768 -0.36233688211669512 0 -0.34508372888693323 -0.36044144745231549 0 -0.3471662148251049 -0.37050211097984159 0 -0.34508372888693323 -0.36044144745231549 0 -0.33449998817839111 -0.3525430839206557 0 -0.32721685314969001 -0.36756917325225108 0 -0.34508372888693323 -0.36044144745231549 0 -0.3471662148251049 -0.37050211097984159 0 -0.32721685314969001 -0.36756917325225108 0 -0.3471662148251049 -0.37050211097984159 0 -0.32721685314969001 -0.36756917325225108 0 -0.34646602596313703 -0.38303763933960522 0 -0.33449998817839111 -0.3525430839206557 0 -0.32324545759623508 -0.34998483735420077 0 -0.32721685314969001 -0.36756917325225108 0 -0.34462079605222712 -0.34629921852363221 0 -0.34508372888693323 -0.36044144745231549 0 -0.33449998817839111 -0.3525430839206557 0 -0.3338563011266969 -0.33739023615067681 0 -0.34462079605222712 -0.34629921852363221 0 -0.33449998817839111 -0.3525430839206557 0 -0.3338563011266969 -0.33739023615067681 0 -0.33449998817839111 -0.3525430839206557 0 -0.32324545759623508 -0.34998483735420077 0 -0.32324545759623508 -0.34998483735420077 0 -0.32721685314969001 -0.36756917325225108 0 -0.30796768033624289 -0.352100707164897 0 -0.31923948498301052 -0.33723026398065148 0 -0.32324545759623508 -0.34998483735420077 0 -0.30796768033624289 -0.352100707164897 0 -0.32721685314969001 -0.36756917325225108 0 -0.30671005576036697 -0.36862048684864651 0 -0.31851369388908679 -0.3752852129175071 0 -0.32721685314969001 -0.36756917325225108 0 -0.30796768033624289 -0.352100707164897 0 -0.32721685314969001 -0.36756917325225108 0 -0.30671005576036697 -0.36862048684864651 0 -0.30796768033624289 -0.352100707164897 0 -0.30671005576036697 -0.36862048684864651 0 -0.29290715828686381 -0.35113102750339392 0 -0.29121116600131242 -0.3690137260332218 0 -0.30671005576036697 -0.36862048684864651 0 -0.29121116600131242 -0.3690137260332218 0 -0.29586870978450941 -0.38164024413612552 0 -0.30796768033624289 -0.352100707164897 0 -0.28871850752279582 -0.33663224107754303 0 -0.30671005576036697 -0.36862048684864651 0 -0.30796768033624289 -0.352100707164897 0 -0.29290715828686381 -0.35113102750339392 0 -0.30796768033624289 -0.352100707164897 0 -0.29290715828686381 -0.35113102750339392 0 -0.28871850752279582 -0.33663224107754303 0 -0.29290715828686381 -0.35113102750339392 0 -0.27701166618613632 -0.36356236044978302 0 -0.28598606680900968 -0.33771990913836059 0 -0.27701166618613632 -0.36356236044978302 0 -0.28598606680900968 -0.33771990913836059 0 -0.29290715828686381 -0.35113102750339392 0 -0.29121116600131242 -0.3690137260332218 0 -0.27701166618613632 -0.36356236044978302 0 -0.29121116600131242 -0.3690137260332218 0 -0.27701166618613632 -0.36356236044978302 0 -0.28355823998868568 -0.38011451122816031 0 -0.27701166618613632 -0.36356236044978302 0 -0.26182794616138849 -0.37371714174773318 0 -0.25376857312185103 -0.36290262505178228 0 -0.26182794616138849 -0.37371714174773318 0 -0.25376857312185103 -0.36290262505178228 0 -0.25232805927103041 -0.37692263739255988 0 -0.25376857312185103 -0.36290262505178228 0 -0.27030984993276341 -0.34344000085518289 0 -0.25376857312185103 -0.36290262505178228 0 -0.27030984993276341 -0.34344000085518289 0 -0.24989579750610849 -0.34760382400854267 0 -0.27701166618613632 -0.36356236044978302 0 -0.25376857312185103 -0.36290262505178228 0 -0.27030984993276341 -0.34344000085518289 0 -0.27701166618613632 -0.36356236044978302 0 -0.27030984993276341 -0.34344000085518289 0 -0.28598606680900968 -0.33771990913836059 0 -0.2686947572401247 -0.32973985045312593 0 -0.27030984993276341 -0.34344000085518289 0 -0.28685112674367591 -0.32397737665858373 0 -0.27030984993276341 -0.34344000085518289 0 -0.28685112674367591 -0.32397737665858373 0 -0.27030984993276341 -0.34344000085518289 0 -0.28685112674367591 -0.32397737665858373 0 -0.28598606680900968 -0.33771990913836059 0 -0.2686947572401247 -0.32973985045312593 0 -0.27030984993276341 -0.34344000085518289 0 -0.25551182357448232 -0.33586001051792308 0 -0.27030984993276341 -0.34344000085518289 0 -0.25551182357448232 -0.33586001051792308 0 -0.24989579750610849 -0.34760382400854267 0 -0.2686947572401247 -0.32973985045312593 0 -0.25551182357448232 -0.33586001051792308 0 -0.25913618948314382 -0.32724993190865531 0 -0.25551182357448232 -0.33586001051792308 0 -0.25054650546405122 -0.32395998674240822 0 -0.25913618948314382 -0.32724993190865531 0 -0.25054650546405122 -0.32395998674240822 0 -0.26179167165391731 -0.31943987992116418 0 -0.25439597630510458 -0.30858987618539663 0 -0.25054650546405122 -0.32395998674240822 0 -0.25913618948314382 -0.32724993190865531 0 -0.26179167165391731 -0.31943987992116418 0 -0.2686947572401247 -0.32973985045312593 0 -0.25913618948314382 -0.32724993190865531 0 -0.26179167165391731 -0.31943987992116418 0 -0.2686947572401247 -0.32973985045312593 0 -0.27579018465820748 -0.31567323994473379 0 -0.28685112674367591 -0.32397737665858373 0 -0.26179167165391731 -0.31943987992116418 0 -0.27579018465820748 -0.31567323994473379 0 -0.26992636504264539 -0.30461556331938322 0 -0.2686947572401247 -0.32973985045312593 0 -0.26179167165391731 -0.31943987992116418 0 -0.27579018465820748 -0.31567323994473379 0 -0.28685112674367591 -0.32397737665858373 0 -0.30339240355458841 -0.30451475246198439 0 -0.28685112674367591 -0.32397737665858373 0 -0.2983286590752301 -0.32873197233131052 0 -0.30286538491549181 -0.31759288333364999 0 -0.28685112674367591 -0.32397737665858373 0 -0.30339240355458841 -0.30451475246198439 0 -0.28623710082141518 -0.3122994206323948 0 -0.27579018465820748 -0.31567323994473379 0 -0.28685112674367591 -0.32397737665858373 0 -0.28623710082141518 -0.3122994206323948 0 -0.28685112674367591 -0.32397737665858373 0 -0.28598606680900968 -0.33771990913836059 0 -0.29103000094474601 -0.33168526971854811 0 -0.28598606680900968 -0.33771990913836059 0 -0.28871850752279582 -0.33663224107754303 0 -0.29103000094474601 -0.33168526971854811 0 -0.29290715828686381 -0.35113102750339392 0 -0.28598606680900968 -0.33771990913836059 0 -0.28871850752279582 -0.33663224107754303 0 -0.29103000094474601 -0.33168526971854811 0 -0.2983286590752301 -0.32873197233131052 0 -0.29861986730500528 -0.33761311203405042 0 -0.28871850752279582 -0.33663224107754303 0 -0.29103000094474601 -0.33168526971854811 0 -0.29861986730500528 -0.33761311203405042 0 -0.28685112674367591 -0.32397737665858373 0 -0.29103000094474601 -0.33168526971854811 0 -0.2983286590752301 -0.32873197233131052 0 -0.30796768033624289 -0.352100707164897 0 -0.28871850752279582 -0.33663224107754303 0 -0.29861986730500528 -0.33761311203405042 0 -0.2983286590752301 -0.32873197233131052 0 -0.29861986730500528 -0.33761311203405042 0 -0.30705448864601192 -0.33891536987795368 0 -0.30796768033624289 -0.352100707164897 0 -0.29861986730500528 -0.33761311203405042 0 -0.30705448864601192 -0.33891536987795368 0 -0.31923948498301052 -0.33723026398065148 0 -0.30796768033624289 -0.352100707164897 0 -0.30705448864601192 -0.33891536987795368 0 -0.31923948498301052 -0.33723026398065148 0 -0.30705448864601192 -0.33891536987795368 0 -0.31013596004931693 -0.32700662302497169 0 -0.2983286590752301 -0.32873197233131052 0 -0.30705448864601192 -0.33891536987795368 0 -0.31013596004931693 -0.32700662302497169 0 -0.28685112674367591 -0.32397737665858373 0 -0.30286538491549181 -0.31759288333364999 0 -0.30339240355458841 -0.30451475246198439 0 -0.3148001931040848 -0.31362709958530338 0 -0.30286538491549181 -0.31759288333364999 0 -0.30790440629785848 -0.31073651663490698 0 -0.3148001931040848 -0.31362709958530338 0 -0.31013596004931693 -0.32700662302497169 0 -0.30286538491549181 -0.31759288333364999 0 -0.2983286590752301 -0.32873197233131052 0 -0.31013596004931693 -0.32700662302497169 0 -0.30286538491549181 -0.31759288333364999 0 -0.30339240355458841 -0.30451475246198439 0 -0.30298305293974798 -0.2967294484445252 0 -0.28623710082141518 -0.3122994206323948 0 -0.30286538491549181 -0.31759288333364999 0 -0.30339240355458841 -0.30451475246198439 0 -0.30790440629785848 -0.31073651663490698 0 -0.30339240355458841 -0.30451475246198439 0 -0.30790440629785848 -0.31073651663490698 0 -0.31055964361726879 -0.30721133115868998 0 -0.3148001931040848 -0.31362709958530338 0 -0.30790440629785848 -0.31073651663490698 0 -0.31055964361726879 -0.30721133115868998 0 -0.31735653310169692 -0.29962233629278578 0 -0.30339240355458841 -0.30451475246198439 0 -0.31055964361726879 -0.30721133115868998 0 -0.31972900505808077 -0.28115947625665549 0 -0.30298305293974798 -0.2967294484445252 0 -0.31993368036550079 -0.28505212826538512 0 -0.30339240355458841 -0.30451475246198439 0 -0.31993368036550079 -0.28505212826538512 0 -0.30339240355458841 -0.30451475246198439 0 -0.30298305293974798 -0.2967294484445252 0 -0.31972900505808077 -0.28115947625665549 0 -0.30556481144583209 -0.28565848863471449 0 -0.30298305293974798 -0.2967294484445252 0 -0.31972900505808077 -0.28115947625665549 0 -0.30556481144583209 -0.28565848863471449 0 -0.30976789980103642 -0.27978327277812348 0 -0.30556481144583209 -0.28565848863471449 0 -0.29395704779942028 -0.28865418408503418 0 -0.30240216381248042 -0.27720781166143987 0 -0.30556481144583209 -0.28565848863471449 0 -0.30298305293974798 -0.2967294484445252 0 -0.29395704779942028 -0.28865418408503418 0 -0.29395704779942028 -0.28865418408503418 0 -0.28849828439671299 -0.29848031588524482 0 -0.27831699643906688 -0.29049539414747311 0 -0.30298305293974798 -0.2967294484445252 0 -0.29395704779942028 -0.28865418408503418 0 -0.28849828439671299 -0.29848031588524482 0 -0.29395704779942028 -0.28865418408503418 0 -0.27831699643906688 -0.29049539414747311 0 -0.28667295763997402 -0.27116291159414968 0 -0.28849828439671299 -0.29848031588524482 0 -0.28068686647194252 -0.3035528951540134 0 -0.27831699643906688 -0.29049539414747311 0 -0.30298305293974798 -0.2967294484445252 0 -0.28849828439671299 -0.29848031588524482 0 -0.28623710082141518 -0.3122994206323948 0 -0.30298305293974798 -0.2967294484445252 0 -0.28623710082141518 -0.3122994206323948 0 -0.28849828439671299 -0.29848031588524482 0 -0.28623710082141518 -0.3122994206323948 0 -0.28068686647194252 -0.3035528951540134 0 -0.27579018465820748 -0.31567323994473379 0 -0.28623710082141518 -0.3122994206323948 0 -0.28068686647194252 -0.3035528951540134 0 -0.27579018465820748 -0.31567323994473379 0 -0.28068686647194252 -0.3035528951540134 0 -0.26992636504264539 -0.30461556331938322 0 -0.28068686647194252 -0.3035528951540134 0 -0.26992636504264539 -0.30461556331938322 0 -0.27831699643906688 -0.29049539414747311 0 -0.26992636504264539 -0.30461556331938322 0 -0.25439597630510458 -0.30858987618539663 0 -0.26002489615146268 -0.29163393889111838 0 -0.26179167165391731 -0.31943987992116418 0 -0.26992636504264539 -0.30461556331938322 0 -0.25439597630510458 -0.30858987618539663 0 -0.25439597630510458 -0.30858987618539663 0 -0.26002489615146268 -0.29163393889111838 0 -0.24182284751229011 -0.29664910485701462 0 -0.26002489615146268 -0.29163393889111838 0 -0.27831699643906688 -0.29049539414747311 0 -0.26728881426284218 -0.27530428681912028 0 -0.26992636504264539 -0.30461556331938322 0 -0.26002489615146268 -0.29163393889111838 0 -0.27831699643906688 -0.29049539414747311 0 -0.27831699643906688 -0.29049539414747311 0 -0.26728881426284218 -0.27530428681912028 0 -0.28667295763997402 -0.27116291159414968 0 -0.26728881426284218 -0.27530428681912028 0 -0.27296169138972359 -0.25846177992963199 0 -0.28667295763997402 -0.27116291159414968 0 -0.26728881426284218 -0.27530428681912028 0 -0.25606843302098309 -0.25636966241633519 0 -0.24477196931982659 -0.27565775886255373 0 -0.26002489615146268 -0.29163393889111838 0 -0.26728881426284218 -0.27530428681912028 0 -0.24477196931982659 -0.27565775886255373 0 -0.26728881426284218 -0.27530428681912028 0 -0.25606843302098309 -0.25636966241633519 0 -0.27296169138972359 -0.25846177992963199 0 -0.25606843302098309 -0.25636966241633519 0 -0.27296169138972359 -0.25846177992963199 0 -0.27059194761262051 -0.23894761412310589 0 -0.27296169138972359 -0.25846177992963199 0 -0.28671425380328991 -0.25080534032568302 0 -0.28667295763997402 -0.27116291159414968 0 -0.28671425380328991 -0.25080534032568302 0 -0.28667295763997402 -0.27116291159414968 0 -0.30624559577879279 -0.2625936730919165 0 -0.29395704779942028 -0.28865418408503418 0 -0.28667295763997402 -0.27116291159414968 0 -0.30240216381248042 -0.27720781166143987 0 -0.28667295763997402 -0.27116291159414968 0 -0.30240216381248042 -0.27720781166143987 0 -0.30624559577879279 -0.2625936730919165 0 -0.30240216381248042 -0.27720781166143987 0 -0.30976789980103642 -0.27978327277812348 0 -0.31188317497855511 -0.27272818958578687 0 -0.30556481144583209 -0.28565848863471449 0 -0.30240216381248042 -0.27720781166143987 0 -0.30976789980103642 -0.27978327277812348 0 -0.30240216381248042 -0.27720781166143987 0 -0.31188317497855511 -0.27272818958578687 0 -0.30624559577879279 -0.2625936730919165 0 -0.28671425380328991 -0.25080534032568302 0 -0.30624559577879279 -0.2625936730919165 0 -0.29768485334658651 -0.24139941593041811 0 -0.33144160294728092 -0.45175302013840701 0 -0.35340620517386079 -0.46946505821078738 0 -0.33144160294728092 -0.45175302013840701 0 -0.33197119024104382 -0.47199482387736652 0 -0.35340620517386079 -0.46946505821078738 0 -0.33144160294728092 -0.45175302013840701 0 -0.34559802451704008 -0.44109108006408437 0 -0.32626946674829482 -0.4350260528264035 0 -0.33144160294728092 -0.45175302013840701 0 -0.34813953087834187 -0.45565303600744139 0 -0.34559802451704008 -0.44109108006408437 0 -0.33144160294728092 -0.45175302013840701 0 -0.30947700072070078 -0.43404098206602648 0 -0.33144160294728092 -0.45175302013840701 0 -0.32626946674829482 -0.4350260528264035 0 -0.30947700072070078 -0.43404098206602648 0 -0.33144160294728092 -0.45175302013840701 0 -0.30947700072070078 -0.43404098206602648 0 -0.30743977574945519 -0.45193128090147472 0 -0.32000430923721818 -0.46266722288404971 0 -0.30743977574945519 -0.45193128090147472 0 -0.31102748996513963 -0.4759656404507388 0 -0.33144160294728092 -0.45175302013840701 0 -0.32000430923721818 -0.46266722288404971 0 -0.33197119024104382 -0.47199482387736652 0 -0.33144160294728092 -0.45175302013840701 0 -0.32000430923721818 -0.46266722288404971 0 -0.30743977574945519 -0.45193128090147472 0 -0.32915884116375033 -0.48692928145725628 0 -0.33197119024104382 -0.47199482387736652 0 -0.31102748996513963 -0.4759656404507388 0 -0.32000430923721818 -0.46266722288404971 0 -0.33197119024104382 -0.47199482387736652 0 -0.31102748996513963 -0.4759656404507388 0 -0.31461520418082439 -0.50000000000000289 0 -0.31102748996513963 -0.4759656404507388 0 -0.31461520418082439 -0.50000000000000289 0 -0.32915884116375033 -0.48692928145725628 0 -0.31102748996513963 -0.4759656404507388 0 -0.31461520418082439 -0.50000000000000289 0 -0.34136814894021372 -0.5 0 -0.32915884116375033 -0.48692928145725628 0 -0.34136814894021372 -0.5 0 -0.32915884116375033 -0.48692928145725628 0 -0.34288615556536828 -0.4835022807465591 0 -0.33197119024104382 -0.47199482387736652 0 -0.34288615556536828 -0.4835022807465591 0 -0.35340620517386079 -0.46946505821078738 0 -0.32915884116375033 -0.48692928145725628 0 -0.33197119024104382 -0.47199482387736652 0 -0.34288615556536828 -0.4835022807465591 0 -0.34288615556536828 -0.4835022807465591 0 -0.35340620517386079 -0.46946505821078738 0 -0.356563383844892 -0.48753040908157658 0 -0.34136814894021372 -0.5 0 -0.34288615556536828 -0.4835022807465591 0 -0.356563383844892 -0.48753040908157658 0 -0.34136814894021372 -0.5 0 -0.356563383844892 -0.48753040908157658 0 -0.36812109369960322 -0.5 0 -0.37537080740044071 -0.48717709628316791 0 -0.356563383844892 -0.48753040908157658 0 -0.36812109369960322 -0.5 0 -0.37537080740044071 -0.48717709628316791 0 -0.35340620517386079 -0.46946505821078738 0 -0.37537080740044071 -0.48717709628316791 0 -0.35340620517386079 -0.46946505821078738 0 -0.356563383844892 -0.48753040908157658 0 -0.37537080740044071 -0.48717709628316791 0 -0.35340620517386079 -0.46946505821078738 0 -0.36731226888758323 -0.47443330863951072 0 -0.37844870047834112 -0.48036369335469709 0 -0.36731226888758323 -0.47443330863951072 0 -0.36202336249769052 -0.46072738670939067 0 -0.37844870047834112 -0.48036369335469709 0 -0.36202336249769052 -0.46072738670939067 0 -0.37844870047834112 -0.48036369335469709 0 -0.37537080740044071 -0.48717709628316791 0 -0.36731226888758323 -0.47443330863951072 0 -0.37637167717206421 -0.46315756360206228 0 -0.37844870047834112 -0.48036369335469709 0 -0.36202336249769052 -0.46072738670939067 0 -0.37637167717206421 -0.46315756360206228 0 -0.37087628372248771 -0.45312649174698061 0 -0.36202336249769052 -0.46072738670939067 0 -0.37087628372248771 -0.45312649174698061 0 -0.36202336249769052 -0.46072738670939067 0 -0.36439333705081672 -0.44951800972986222 0 -0.35340620517386079 -0.46946505821078738 0 -0.36731226888758323 -0.47443330863951072 0 -0.36202336249769052 -0.46072738670939067 0 -0.33144160294728092 -0.45175302013840701 0 -0.35340620517386079 -0.46946505821078738 0 -0.34813953087834187 -0.45565303600744139 0 -0.35340620517386079 -0.46946505821078738 0 -0.36202336249769052 -0.46072738670939067 0 -0.34813953087834187 -0.45565303600744139 0 -0.36202336249769052 -0.46072738670939067 0 -0.34559802451704008 -0.44109108006408437 0 -0.36202336249769052 -0.46072738670939067 0 -0.34813953087834187 -0.45565303600744139 0 -0.34559802451704008 -0.44109108006408437 0 -0.36202336249769052 -0.46072738670939067 0 -0.34559802451704008 -0.44109108006408437 0 -0.35801803286680012 -0.44431168441372493 0 -0.34559802451704008 -0.44109108006408437 0 -0.35801803286680012 -0.44431168441372493 0 -0.35780718850337512 -0.4339726848437605 0 -0.38539063369721949 -0.45020979636030162 0 -0.37087628372248771 -0.45312649174698061 0 -0.3683365684192384 -0.44086890113562249 0 -0.35801803286680012 -0.44431168441372493 0 -0.36439333705081672 -0.44951800972986222 0 -0.3683365684192384 -0.44086890113562249 0 -0.36202336249769052 -0.46072738670939067 0 -0.35801803286680012 -0.44431168441372493 0 -0.36439333705081672 -0.44951800972986222 0 -0.35801803286680012 -0.44431168441372493 0 -0.3683365684192384 -0.44086890113562249 0 -0.35780718850337512 -0.4339726848437605 0 -0.37087628372248771 -0.45312649174698061 0 -0.36439333705081672 -0.44951800972986222 0 -0.3683365684192384 -0.44086890113562249 0 -0.37754063201758509 -0.42531469454045251 0 -0.3683365684192384 -0.44086890113562249 0 -0.36657316404127249 -0.42858567279043458 0 -0.3683365684192384 -0.44086890113562249 0 -0.36657316404127249 -0.42858567279043458 0 -0.35780718850337512 -0.4339726848437605 0 -0.36657316404127249 -0.42858567279043458 0 -0.35780718850337512 -0.4339726848437605 0 -0.35660776602871519 -0.42365558188868158 0 -0.36657316404127249 -0.42858567279043458 0 -0.36883198683104568 -0.41905626867772777 0 -0.35660776602871519 -0.42365558188868158 0 -0.37754063201758509 -0.42531469454045251 0 -0.36657316404127249 -0.42858567279043458 0 -0.36883198683104568 -0.41905626867772777 0 -0.36883198683104568 -0.41905626867772777 0 -0.36065040659924452 -0.40295735910704988 0 -0.35203305306849592 -0.40513647047139772 0 -0.36883198683104568 -0.41905626867772777 0 -0.37129162846163649 -0.40646668987925128 0 -0.36065040659924452 -0.40295735910704988 0 -0.38076443343398969 -0.4131052076953004 0 -0.36883198683104568 -0.41905626867772777 0 -0.37129162846163649 -0.40646668987925128 0 -0.36883198683104568 -0.41905626867772777 0 -0.35203305306849592 -0.40513647047139772 0 -0.34078966769339381 -0.41043736772559758 0 -0.3490368230744888 -0.42622591540588761 0 -0.35660776602871519 -0.42365558188868158 0 -0.34078966769339381 -0.41043736772559758 0 -0.36883198683104568 -0.41905626867772777 0 -0.34078966769339381 -0.41043736772559758 0 -0.36883198683104568 -0.41905626867772777 0 -0.35660776602871519 -0.42365558188868158 0 -0.34078966769339381 -0.41043736772559758 0 -0.34559802451704008 -0.44109108006408437 0 -0.3490368230744888 -0.42622591540588761 0 -0.34063979022351681 -0.42191262964138548 0 -0.34559802451704008 -0.44109108006408437 0 -0.3490368230744888 -0.42622591540588761 0 -0.35780718850337512 -0.4339726848437605 0 -0.3490368230744888 -0.42622591540588761 0 -0.35780718850337512 -0.4339726848437605 0 -0.35660776602871519 -0.42365558188868158 0 -0.37276014916928413 -0.36968874551325409 0 -0.35824806362253647 -0.37377065864708331 0 -0.36836811413296489 -0.38350388751415809 0 -0.36704065833014521 -0.39772404897624991 0 -0.36065040659924452 -0.40295735910704988 0 -0.35749329078673769 -0.39285724241851011 0 -0.36836811413296489 -0.38350388751415809 0 -0.36704065833014521 -0.39772404897624991 0 -0.35749329078673769 -0.39285724241851011 0 -0.38053384935908718 -0.39905841385788582 0 -0.36836811413296489 -0.38350388751415809 0 -0.36704065833014521 -0.39772404897624991 0 -0.38053384935908718 -0.39905841385788582 0 -0.37129162846163649 -0.40646668987925128 0 -0.36704065833014521 -0.39772404897624991 0 -0.37129162846163649 -0.40646668987925128 0 -0.36704065833014521 -0.39772404897624991 0 -0.36065040659924452 -0.40295735910704988 0 -0.36065040659924452 -0.40295735910704988 0 -0.35203305306849592 -0.40513647047139772 0 -0.35031363931482867 -0.39632101151927929 0 -0.35203305306849592 -0.40513647047139772 0 -0.35031363931482867 -0.39632101151927929 0 -0.33957956490396651 -0.39691034532733382 0 -0.35203305306849592 -0.40513647047139772 0 -0.33957956490396651 -0.39691034532733382 0 -0.34078966769339381 -0.41043736772559758 0 -0.35031363931482867 -0.39632101151927929 0 -0.34356298674334762 -0.3899266350522409 0 -0.33957956490396651 -0.39691034532733382 0 -0.35031363931482867 -0.39632101151927929 0 -0.34892128555021118 -0.39102832569958651 0 -0.34356298674334762 -0.3899266350522409 0 -0.35031363931482867 -0.39632101151927929 0 -0.34892128555021118 -0.39102832569958651 0 -0.35749329078673769 -0.39285724241851011 0 -0.36065040659924452 -0.40295735910704988 0 -0.35031363931482867 -0.39632101151927929 0 -0.35749329078673769 -0.39285724241851011 0 -0.36836811413296489 -0.38350388751415809 0 -0.35749329078673769 -0.39285724241851011 0 -0.3496656407930317 -0.38560882169473698 0 -0.36836811413296489 -0.38350388751415809 0 -0.34646602596313703 -0.38303763933960522 0 -0.3496656407930317 -0.38560882169473698 0 -0.35824806362253647 -0.37377065864708331 0 -0.36836811413296489 -0.38350388751415809 0 -0.34646602596313703 -0.38303763933960522 0 -0.36836811413296489 -0.38350388751415809 0 -0.34646602596313703 -0.38303763933960522 0 -0.34892128555021118 -0.39102832569958651 0 -0.35749329078673769 -0.39285724241851011 0 -0.3496656407930317 -0.38560882169473698 0 -0.34892128555021118 -0.39102832569958651 0 -0.3496656407930317 -0.38560882169473698 0 -0.34356298674334762 -0.3899266350522409 0 -0.34646602596313703 -0.38303763933960522 0 -0.3496656407930317 -0.38560882169473698 0 -0.34356298674334762 -0.3899266350522409 0 -0.34646602596313703 -0.38303763933960522 0 -0.3496656407930317 -0.38560882169473698 0 -0.35824806362253647 -0.37377065864708331 0 -0.3471662148251049 -0.37050211097984159 0 -0.34646602596313703 -0.38303763933960522 0 -0.32721685314969001 -0.36756917325225108 0 -0.34646602596313703 -0.38303763933960522 0 -0.32886463086980922 -0.38266294363624542 0 -0.32721685314969001 -0.36756917325225108 0 -0.34646602596313703 -0.38303763933960522 0 -0.34646602596313703 -0.38303763933960522 0 -0.32886463086980922 -0.38266294363624542 0 -0.34356298674334762 -0.3899266350522409 0 -0.34646602596313703 -0.38303763933960522 0 -0.32886463086980922 -0.38266294363624542 0 -0.32886463086980922 -0.38266294363624542 0 -0.34356298674334762 -0.3899266350522409 0 -0.33957956490396651 -0.39691034532733382 0 -0.32886463086980922 -0.38266294363624542 0 -0.33957956490396651 -0.39691034532733382 0 -0.32750852860504748 -0.39672244954817593 0 -0.33957956490396651 -0.39691034532733382 0 -0.32750852860504748 -0.39672244954817593 0 -0.34078966769339381 -0.41043736772559758 0 -0.3127473485557411 -0.40181846677347022 0 -0.34078966769339381 -0.41043736772559758 0 -0.3127473485557411 -0.40181846677347022 0 -0.32750852860504748 -0.39672244954817593 0 -0.34078966769339381 -0.41043736772559758 0 -0.3127473485557411 -0.40181846677347022 0 -0.31548049069516099 -0.39106554465701932 0 -0.32750852860504748 -0.39672244954817593 0 -0.32886463086980922 -0.38266294363624542 0 -0.31548049069516099 -0.39106554465701932 0 -0.31126323577648118 -0.38228824793288552 0 -0.32886463086980922 -0.38266294363624542 0 -0.31851369388908679 -0.3752852129175071 0 -0.31126323577648118 -0.38228824793288552 0 -0.32886463086980922 -0.38266294363624542 0 -0.31126323577648118 -0.38228824793288552 0 -0.32886463086980922 -0.38266294363624542 0 -0.31548049069516099 -0.39106554465701932 0 -0.32750852860504748 -0.39672244954817593 0 -0.32721685314969001 -0.36756917325225108 0 -0.32886463086980922 -0.38266294363624542 0 -0.31851369388908679 -0.3752852129175071 0 -0.34559802451704008 -0.44109108006408437 0 -0.34063979022351681 -0.42191262964138548 0 -0.32917268653638959 -0.42145477341877802 0 -0.34559802451704008 -0.44109108006408437 0 -0.32917268653638959 -0.42145477341877802 0 -0.34559802451704008 -0.44109108006408437 0 -0.32917268653638959 -0.42145477341877802 0 -0.32626946674829482 -0.4350260528264035 0 -0.3490368230744888 -0.42622591540588761 0 -0.34063979022351681 -0.42191262964138548 0 -0.34078966769339381 -0.41043736772559758 0 -0.34063979022351681 -0.42191262964138548 0 -0.34078966769339381 -0.41043736772559758 0 -0.32917268653638959 -0.42145477341877802 0 -0.32917268653638959 -0.42145477341877802 0 -0.31565801902006219 -0.42679040844472149 0 -0.3120149782299711 -0.41585015859073132 0 -0.3127473485557411 -0.40181846677347022 0 -0.32917268653638959 -0.42145477341877802 0 -0.3120149782299711 -0.41585015859073132 0 -0.3127473485557411 -0.40181846677347022 0 -0.32917268653638959 -0.42145477341877802 0 -0.3127473485557411 -0.40181846677347022 0 -0.34078966769339381 -0.41043736772559758 0 -0.32917268653638959 -0.42145477341877802 0 -0.31565801902006219 -0.42679040844472149 0 -0.32626946674829482 -0.4350260528264035 0 -0.30947700072070078 -0.43404098206602648 0 -0.32917268653638959 -0.42145477341877802 0 -0.31565801902006219 -0.42679040844472149 0 -0.32626946674829482 -0.4350260528264035 0 -0.30385206153377092 -0.42789692135221041 0 -0.29314389587875639 -0.42744859817606978 0 -0.29570266714267363 -0.44001388943097341 0 -0.30385206153377092 -0.42789692135221041 0 -0.29711482552990298 -0.4231116033896053 0 -0.29314389587875639 -0.42744859817606978 0 -0.30385206153377092 -0.42789692135221041 0 -0.29711482552990298 -0.4231116033896053 0 -0.2978234103625807 -0.41651188785259807 0 -0.31565801902006219 -0.42679040844472149 0 -0.30385206153377092 -0.42789692135221041 0 -0.3120149782299711 -0.41585015859073132 0 -0.31565801902006219 -0.42679040844472149 0 -0.30947700072070078 -0.43404098206602648 0 -0.30385206153377092 -0.42789692135221041 0 -0.30385206153377092 -0.42789692135221041 0 -0.30026434731808649 -0.40386256180294611 0 -0.30385206153377092 -0.42789692135221041 0 -0.3120149782299711 -0.41585015859073132 0 -0.30026434731808649 -0.40386256180294611 0 -0.30385206153377092 -0.42789692135221041 0 -0.2978234103625807 -0.41651188785259807 0 -0.30026434731808649 -0.40386256180294611 0 -0.3127473485557411 -0.40181846677347022 0 -0.3120149782299711 -0.41585015859073132 0 -0.30026434731808649 -0.40386256180294611 0 -0.2978234103625807 -0.41651188785259807 0 -0.29421779896595063 -0.40925593752682232 0 -0.30026434731808649 -0.40386256180294611 0 -0.29711482552990298 -0.4231116033896053 0 -0.2978234103625807 -0.41651188785259807 0 -0.2930499124934966 -0.42025016320412861 0 -0.2978234103625807 -0.41651188785259807 0 -0.2930499124934966 -0.42025016320412861 0 -0.29005945867777277 -0.4138288934632251 0 -0.2930499124934966 -0.42025016320412861 0 -0.29005945867777277 -0.4138288934632251 0 -0.28592792831645503 -0.41967214719231549 0 -0.29421779896595063 -0.40925593752682232 0 -0.29005945867777277 -0.4138288934632251 0 -0.28708330772965662 -0.4057571101070353 0 -0.2978234103625807 -0.41651188785259807 0 -0.29421779896595063 -0.40925593752682232 0 -0.29005945867777277 -0.4138288934632251 0 -0.28170507599070099 -0.4121933768870607 0 -0.28708330772965662 -0.4057571101070353 0 -0.27953703104731392 -0.40373031421480432 0 -0.29005945867777277 -0.4138288934632251 0 -0.28170507599070099 -0.4121933768870607 0 -0.28708330772965662 -0.4057571101070353 0 -0.29005945867777277 -0.4138288934632251 0 -0.28170507599070099 -0.4121933768870607 0 -0.28592792831645503 -0.41967214719231549 0 -0.28396953656801799 -0.42713459183812108 0 -0.28651205923072792 -0.43424410040618588 0 -0.29314389587875639 -0.42744859817606978 0 -0.28592792831645503 -0.41967214719231549 0 -0.28396953656801799 -0.42713459183812108 0 -0.27567730686781511 -0.42097216042040742 0 -0.28592792831645503 -0.41967214719231549 0 -0.28396953656801799 -0.42713459183812108 0 -0.29314389587875639 -0.42744859817606978 0 -0.28396953656801799 -0.42713459183812108 0 -0.28651205923072792 -0.43424410040618588 0 -0.27616848161394092 -0.43279925915669798 0 -0.28651205923072792 -0.43424410040618588 0 -0.27616848161394092 -0.43279925915669798 0 -0.28357571495025069 -0.44382416342906772 0 -0.28651205923072792 -0.43424410040618588 0 -0.29314389587875639 -0.42744859817606978 0 -0.29570266714267363 -0.44001388943097341 0 -0.29711482552990298 -0.4231116033896053 0 -0.2930499124934966 -0.42025016320412861 0 -0.29314389587875639 -0.42744859817606978 0 -0.2930499124934966 -0.42025016320412861 0 -0.28592792831645503 -0.41967214719231549 0 -0.29314389587875639 -0.42744859817606978 0 -0.31548049069516099 -0.39106554465701932 0 -0.31126323577648118 -0.38228824793288552 0 -0.29586870978450941 -0.38164024413612552 0 -0.30671005576036697 -0.36862048684864651 0 -0.31126323577648118 -0.38228824793288552 0 -0.29586870978450941 -0.38164024413612552 0 -0.30671005576036697 -0.36862048684864651 0 -0.31851369388908679 -0.3752852129175071 0 -0.31126323577648118 -0.38228824793288552 0 -0.3127473485557411 -0.40181846677347022 0 -0.29748466081531449 -0.39712742844485049 0 -0.29586870978450941 -0.38164024413612552 0 -0.3127473485557411 -0.40181846677347022 0 -0.29586870978450941 -0.38164024413612552 0 -0.3127473485557411 -0.40181846677347022 0 -0.31548049069516099 -0.39106554465701932 0 -0.29586870978450941 -0.38164024413612552 0 -0.3127473485557411 -0.40181846677347022 0 -0.29748466081531449 -0.39712742844485049 0 -0.3127473485557411 -0.40181846677347022 0 -0.29748466081531449 -0.39712742844485049 0 -0.30026434731808649 -0.40386256180294611 0 -0.29421779896595063 -0.40925593752682232 0 -0.30026434731808649 -0.40386256180294611 0 -0.29225441758077902 -0.40168788559957752 0 -0.29748466081531449 -0.39712742844485049 0 -0.30026434731808649 -0.40386256180294611 0 -0.29225441758077902 -0.40168788559957752 0 -0.29421779896595063 -0.40925593752682232 0 -0.29225441758077902 -0.40168788559957752 0 -0.28708330772965662 -0.4057571101070353 0 -0.28708330772965662 -0.4057571101070353 0 -0.28222197307488722 -0.39243639011623338 0 -0.27953703104731392 -0.40373031421480432 0 -0.29225441758077902 -0.40168788559957752 0 -0.28708330772965662 -0.4057571101070353 0 -0.28222197307488722 -0.39243639011623338 0 -0.29748466081531449 -0.39712742844485049 0 -0.28222197307488722 -0.39243639011623338 0 -0.28978339591584917 -0.38782964348134241 0 -0.29748466081531449 -0.39712742844485049 0 -0.29225441758077902 -0.40168788559957752 0 -0.28222197307488722 -0.39243639011623338 0 -0.29748466081531449 -0.39712742844485049 0 -0.28222197307488722 -0.39243639011623338 0 -0.29748466081531449 -0.39712742844485049 0 -0.28978339591584917 -0.38782964348134241 0 -0.29586870978450941 -0.38164024413612552 0 -0.28978339591584917 -0.38782964348134241 0 -0.28355823998868568 -0.38011451122816031 0 -0.29586870978450941 -0.38164024413612552 0 -0.28222197307488722 -0.39243639011623338 0 -0.28978339591584917 -0.38782964348134241 0 -0.28355823998868568 -0.38011451122816031 0 -0.29121116600131242 -0.3690137260332218 0 -0.28355823998868568 -0.38011451122816031 0 -0.29586870978450941 -0.38164024413612552 0 -0.27701166618613632 -0.36356236044978302 0 -0.28355823998868568 -0.38011451122816031 0 -0.26803726556326279 -0.38940481176120523 0 -0.27701166618613632 -0.36356236044978302 0 -0.26803726556326279 -0.38940481176120523 0 -0.27701166618613632 -0.36356236044978302 0 -0.26182794616138849 -0.37371714174773318 0 -0.26803726556326279 -0.38940481176120523 0 -0.28222197307488722 -0.39243639011623338 0 -0.28355823998868568 -0.38011451122816031 0 -0.26803726556326279 -0.38940481176120523 0 -0.26803726556326279 -0.38940481176120523 0 -0.27218044933495078 -0.40248661340062131 0 -0.25906286494038949 -0.41524726307262738 0 -0.28222197307488722 -0.39243639011623338 0 -0.26803726556326279 -0.38940481176120523 0 -0.27218044933495078 -0.40248661340062131 0 -0.27953703104731392 -0.40373031421480432 0 -0.27218044933495078 -0.40248661340062131 0 -0.27204311204890042 -0.41161428783823589 0 -0.28222197307488722 -0.39243639011623338 0 -0.27953703104731392 -0.40373031421480432 0 -0.27218044933495078 -0.40248661340062131 0 -0.26803726556326279 -0.38940481176120523 0 -0.25906286494038949 -0.41524726307262738 0 -0.26200263898397952 -0.39388305803323098 0 -0.25906286494038949 -0.41524726307262738 0 -0.245038587939852 -0.4013003724272578 0 -0.26200263898397952 -0.39388305803323098 0 -0.245038587939852 -0.4013003724272578 0 -0.26803726556326279 -0.38940481176120523 0 -0.26200263898397952 -0.39388305803323098 0 -0.25906286494038949 -0.41524726307262738 0 -0.2500437161492321 -0.39527344023300381 0 -0.26200263898397952 -0.39388305803323098 0 -0.245038587939852 -0.4013003724272578 0 -0.2500437161492321 -0.39527344023300381 0 -0.26200263898397952 -0.39388305803323098 0 -0.25552542181851873 -0.39016302053984769 0 -0.2500437161492321 -0.39527344023300381 0 -0.25552542181851873 -0.39016302053984769 0 -0.24920722146078561 -0.38750249992417568 0 -0.26182794616138849 -0.37371714174773318 0 -0.26803726556326279 -0.38940481176120523 0 -0.25822697610122219 -0.38444156623793829 0 -0.26200263898397952 -0.39388305803323098 0 -0.25822697610122219 -0.38444156623793829 0 -0.25552542181851873 -0.39016302053984769 0 -0.26803726556326279 -0.38940481176120523 0 -0.26200263898397952 -0.39388305803323098 0 -0.25822697610122219 -0.38444156623793829 0 -0.25822697610122219 -0.38444156623793829 0 -0.25232805927103041 -0.37692263739255988 0 -0.24920722146078561 -0.38750249992417568 0 -0.25822697610122219 -0.38444156623793829 0 -0.25552542181851873 -0.39016302053984769 0 -0.24920722146078561 -0.38750249992417568 0 -0.26182794616138849 -0.37371714174773318 0 -0.25822697610122219 -0.38444156623793829 0 -0.25232805927103041 -0.37692263739255988 0 -0.26977820906870048 -0.42665292519993431 0 -0.26413632402319648 -0.42029272666543549 0 -0.26313072376984969 -0.43254755455719629 0 -0.26977820906870048 -0.42665292519993431 0 -0.27567730686781511 -0.42097216042040742 0 -0.26413632402319648 -0.42029272666543549 0 -0.27616848161394092 -0.43279925915669798 0 -0.26313072376984969 -0.43254755455719629 0 -0.26920798522769102 -0.44609290629286602 0 -0.26977820906870048 -0.42665292519993431 0 -0.27616848161394092 -0.43279925915669798 0 -0.26313072376984969 -0.43254755455719629 0 -0.28396953656801799 -0.42713459183812108 0 -0.27616848161394092 -0.43279925915669798 0 -0.27567730686781511 -0.42097216042040742 0 -0.26977820906870048 -0.42665292519993431 0 -0.27616848161394092 -0.43279925915669798 0 -0.27567730686781511 -0.42097216042040742 0 -0.28170507599070099 -0.4121933768870607 0 -0.27567730686781511 -0.42097216042040742 0 -0.27204311204890042 -0.41161428783823589 0 -0.28170507599070099 -0.4121933768870607 0 -0.28592792831645503 -0.41967214719231549 0 -0.27567730686781511 -0.42097216042040742 0 -0.28170507599070099 -0.4121933768870607 0 -0.27953703104731392 -0.40373031421480432 0 -0.27204311204890042 -0.41161428783823589 0 -0.27218044933495078 -0.40248661340062131 0 -0.27204311204890042 -0.41161428783823589 0 -0.25906286494038949 -0.41524726307262738 0 -0.27567730686781511 -0.42097216042040742 0 -0.27204311204890042 -0.41161428783823589 0 -0.26413632402319648 -0.42029272666543549 0 -0.27204311204890042 -0.41161428783823589 0 -0.26413632402319648 -0.42029272666543549 0 -0.25906286494038949 -0.41524726307262738 0 -0.26413632402319648 -0.42029272666543549 0 -0.25906286494038949 -0.41524726307262738 0 -0.25906286494038949 -0.41524726307262738 0 -0.245038587939852 -0.4013003724272578 0 -0.25906286494038949 -0.41524726307262738 0 -0.24689695374805551 -0.40876130060916949 0 -0.245038587939852 -0.4013003724272578 0 -0.25906286494038949 -0.41524726307262738 0 -0.24689695374805551 -0.40876130060916949 0 -0.24619042706411781 -0.4220704466267769 0 -0.25906286494038949 -0.41524726307262738 0 -0.26313072376984969 -0.43254755455719629 0 -0.2491232337026161 -0.44386916743256061 0 -0.25906286494038949 -0.41524726307262738 0 -0.2491232337026161 -0.44386916743256061 0 -0.25906286494038949 -0.41524726307262738 0 -0.2491232337026161 -0.44386916743256061 0 -0.24619042706411781 -0.4220704466267769 0 -0.26413632402319648 -0.42029272666543549 0 -0.25906286494038949 -0.41524726307262738 0 -0.26313072376984969 -0.43254755455719629 0 -0.26313072376984969 -0.43254755455719629 0 -0.26920798522769102 -0.44609290629286602 0 -0.2491232337026161 -0.44386916743256061 0 -0.26567378381091161 -0.46793986896464029 0 -0.26920798522769102 -0.44609290629286602 0 -0.2491232337026161 -0.44386916743256061 0 -0.26567378381091161 -0.46793986896464029 0 -0.2491232337026161 -0.44386916743256061 0 -0.26567378381091161 -0.46793986896464029 0 -0.2398236558474823 -0.47064799066957891 0 -0.2491232337026161 -0.44386916743256061 0 -0.26567378381091161 -0.46793986896464029 0 -0.27739581541782737 -0.4549153419587294 0 -0.29083752472125929 -0.46074509753505782 0 -0.26567378381091161 -0.46793986896464029 0 -0.27739581541782737 -0.4549153419587294 0 -0.26920798522769102 -0.44609290629286602 0 -0.27739581541782737 -0.4549153419587294 0 -0.26920798522769102 -0.44609290629286602 0 -0.28357571495025069 -0.44382416342906772 0 -0.27616848161394092 -0.43279925915669798 0 -0.26920798522769102 -0.44609290629286602 0 -0.28357571495025069 -0.44382416342906772 0 -0.28651205923072792 -0.43424410040618588 0 -0.28357571495025069 -0.44382416342906772 0 -0.29570266714267363 -0.44001388943097341 0 -0.28357571495025069 -0.44382416342906772 0 -0.29570266714267363 -0.44001388943097341 0 -0.29083752472125929 -0.46074509753505782 0 -0.27739581541782737 -0.4549153419587294 0 -0.28357571495025069 -0.44382416342906772 0 -0.29083752472125929 -0.46074509753505782 0 -0.30743977574945519 -0.45193128090147472 0 -0.31102748996513963 -0.4759656404507388 0 -0.29083752472125929 -0.46074509753505782 0 -0.30743977574945519 -0.45193128090147472 0 -0.31102748996513963 -0.4759656404507388 0 -0.30385206153377092 -0.42789692135221041 0 -0.29570266714267363 -0.44001388943097341 0 -0.30743977574945519 -0.45193128090147472 0 -0.30947700072070078 -0.43404098206602648 0 -0.30385206153377092 -0.42789692135221041 0 -0.30743977574945519 -0.45193128090147472 0 -0.30385206153377092 -0.42789692135221041 0 -0.30743977574945519 -0.45193128090147472 0 -0.29570266714267363 -0.44001388943097341 0 -0.29083752472125929 -0.46074509753505782 0 -0.30743977574945519 -0.45193128090147472 0 -0.31461520418082439 -0.50000000000000289 0 -0.29361594053798212 -0.48002598497874521 0 -0.29077162578326388 -0.49631692155182999 0 -0.31461520418082439 -0.50000000000000289 0 -0.29077162578326388 -0.49631692155182999 0 -0.28771771154904791 -0.50000000000000266 0 -0.31461520418082439 -0.50000000000000289 0 -0.31102748996513963 -0.4759656404507388 0 -0.29361594053798212 -0.48002598497874521 0 -0.29083752472125929 -0.46074509753505782 0 -0.31102748996513963 -0.4759656404507388 0 -0.29361594053798212 -0.48002598497874521 0 -0.26567378381091161 -0.46793986896464029 0 -0.29083752472125929 -0.46074509753505782 0 -0.29361594053798212 -0.48002598497874521 0 -0.29361594053798212 -0.48002598497874521 0 -0.28222433391920992 -0.49201057049671809 0 -0.29077162578326388 -0.49631692155182999 0 -0.28222433391920992 -0.49201057049671809 0 -0.29077162578326388 -0.49631692155182999 0 -0.28771771154904791 -0.50000000000000266 0 -0.28222433391920992 -0.49201057049671809 0 -0.29077162578326388 -0.49631692155182999 0 -0.28222433391920992 -0.49201057049671809 0 -0.28771771154904791 -0.50000000000000266 0 -0.28222433391920992 -0.49201057049671809 0 -0.28771771154904791 -0.50000000000000266 0 -0.2586740949953753 -0.5 0 -0.28222433391920992 -0.49201057049671809 0 -0.26102399488334638 -0.48132928058314789 0 -0.28222433391920992 -0.49201057049671809 0 -0.26102399488334638 -0.48132928058314789 0 -0.2586740949953753 -0.5 0 -0.26567378381091161 -0.46793986896464029 0 -0.28222433391920992 -0.49201057049671809 0 -0.26102399488334638 -0.48132928058314789 0 -0.26567378381091161 -0.46793986896464029 0 -0.28222433391920992 -0.49201057049671809 0 -0.26567378381091161 -0.46793986896464029 0 -0.29361594053798212 -0.48002598497874521 0 -0.28222433391920992 -0.49201057049671809 0 -0.26102399488334638 -0.48132928058314789 0 -0.2398236558474823 -0.47064799066957891 0 -0.26567378381091161 -0.46793986896464029 0 -0.26102399488334638 -0.48132928058314789 0 -0.2398236558474823 -0.47064799066957891 0 -0.26102399488334638 -0.48132928058314789 0 -0.2586740949953753 -0.5 0 -0.24591949142757841 -0.48797769779789751 0 -0.24591949142757841 -0.48797769779789751 0 -0.23472706714459271 -0.48532399533479048 0 -0.22963047844170259 -0.50000000000000178 0 -0.2586740949953753 -0.5 0 -0.24591949142757841 -0.48797769779789751 0 -0.22963047844170259 -0.50000000000000178 0 -0.24591949142757841 -0.48797769779789751 0 -0.23472706714459271 -0.48532399533479048 0 -0.2398236558474823 -0.47064799066957891 0 -0.26102399488334638 -0.48132928058314789 0 -0.24591949142757841 -0.48797769779789751 0 -0.2398236558474823 -0.47064799066957891 0 -0.23472706714459271 -0.48532399533479048 0 -0.2398236558474823 -0.47064799066957891 0 -0.225198485850613 -0.47774010166010122 0 -0.22980099730474959 -0.46559831097254578 0 -0.2030987714368816 -0.47899566093487772 0 -0.23472706714459271 -0.48532399533479048 0 -0.225198485850613 -0.47774010166010122 0 -0.21854193751935819 -0.48813455038871362 0 -0.23472706714459271 -0.48532399533479048 0 -0.2398236558474823 -0.47064799066957891 0 -0.225198485850613 -0.47774010166010122 0 -0.2398236558474823 -0.47064799066957891 0 -0.225198485850613 -0.47774010166010122 0 -0.22980099730474959 -0.46559831097254578 0 -0.23472706714459271 -0.48532399533479048 0 -0.22963047844170259 -0.50000000000000178 0 -0.21854193751935819 -0.48813455038871362 0 -0.23472706714459271 -0.48532399533479048 0 -0.22963047844170259 -0.50000000000000178 0 -0.2491232337026161 -0.44386916743256061 0 -0.2308432700671284 -0.44863327888326782 0 -0.2293848728057081 -0.43656272829720139 0 -0.2491232337026161 -0.44386916743256061 0 -0.23776076022114481 -0.45734261003971088 0 -0.2308432700671284 -0.44863327888326782 0 -0.2398236558474823 -0.47064799066957891 0 -0.2491232337026161 -0.44386916743256061 0 -0.2398236558474823 -0.47064799066957891 0 -0.2491232337026161 -0.44386916743256061 0 -0.23776076022114481 -0.45734261003971088 0 -0.23776076022114481 -0.45734261003971088 0 -0.2349146843043998 -0.46323815571376847 0 -0.23190019161511369 -0.45955092339593079 0 -0.2398236558474823 -0.47064799066957891 0 -0.22980099730474959 -0.46559831097254578 0 -0.2398236558474823 -0.47064799066957891 0 -0.23776076022114481 -0.45734261003971088 0 -0.2349146843043998 -0.46323815571376847 0 -0.2398236558474823 -0.47064799066957891 0 -0.2349146843043998 -0.46323815571376847 0 -0.22980099730474959 -0.46559831097254578 0 -0.2349146843043998 -0.46323815571376847 0 -0.22980099730474959 -0.46559831097254578 0 -0.23190019161511369 -0.45955092339593079 0 -0.22980099730474959 -0.46559831097254578 0 -0.21705433798547111 -0.45917620784540208 0 -0.22980099730474959 -0.46559831097254578 0 -0.22572334214998391 -0.45615972233404328 0 -0.21705433798547111 -0.45917620784540208 0 -0.22572334214998391 -0.45615972233404328 0 -0.2198791919215746 -0.44788572763697648 0 -0.21705433798547111 -0.45917620784540208 0 -0.22572334214998391 -0.45615972233404328 0 -0.23190019161511369 -0.45955092339593079 0 -0.2308432700671284 -0.44863327888326782 0 -0.23776076022114481 -0.45734261003971088 0 -0.23190019161511369 -0.45955092339593079 0 -0.2308432700671284 -0.44863327888326782 0 -0.22980099730474959 -0.46559831097254578 0 -0.22572334214998391 -0.45615972233404328 0 -0.23190019161511369 -0.45955092339593079 0 -0.22572334214998391 -0.45615972233404328 0 -0.2308432700671284 -0.44863327888326782 0 -0.2198791919215746 -0.44788572763697648 0 -0.2198791919215746 -0.44788572763697648 0 -0.21565385882902791 -0.43707619785160112 0 -0.2293848728057081 -0.43656272829720139 0 -0.2308432700671284 -0.44863327888326782 0 -0.2198791919215746 -0.44788572763697648 0 -0.2293848728057081 -0.43656272829720139 0 -0.20696617327377781 -0.44884514537024112 0 -0.21565385882902791 -0.43707619785160112 0 -0.20475046332741861 -0.43652953449414361 0 -0.2198791919215746 -0.44788572763697648 0 -0.20696617327377781 -0.44884514537024112 0 -0.21565385882902791 -0.43707619785160112 0 -0.2198791919215746 -0.44788572763697648 0 -0.20696617327377781 -0.44884514537024112 0 -0.21705433798547111 -0.45917620784540208 0 -0.22980099730474959 -0.46559831097254578 0 -0.21705433798547111 -0.45917620784540208 0 -0.2030987714368816 -0.47899566093487772 0 -0.20696617327377781 -0.44884514537024112 0 -0.21705433798547111 -0.45917620784540208 0 -0.20012728008225009 -0.46162576495763918 0 -0.21705433798547111 -0.45917620784540208 0 -0.20012728008225009 -0.46162576495763918 0 -0.2030987714368816 -0.47899566093487772 0 -0.19214397575398359 -0.44578344946163773 0 -0.18427026066149921 -0.46908823017942403 0 -0.20012728008225009 -0.46162576495763918 0 -0.19214397575398359 -0.44578344946163773 0 -0.18427026066149921 -0.46908823017942403 0 -0.20696617327377781 -0.44884514537024112 0 -0.20012728008225009 -0.46162576495763918 0 -0.19214397575398359 -0.44578344946163773 0 -0.20696617327377781 -0.44884514537024112 0 -0.19214397575398359 -0.44578344946163773 0 -0.20475046332741861 -0.43652953449414361 0 -0.22963047844170259 -0.50000000000000178 0 -0.21854193751935819 -0.48813455038871362 0 -0.2017284695577953 -0.5 0 -0.21854193751935819 -0.48813455038871362 0 -0.2030987714368816 -0.47899566093487772 0 -0.2017284695577953 -0.5 0 -0.22980099730474959 -0.46559831097254578 0 -0.2030987714368816 -0.47899566093487772 0 -0.225198485850613 -0.47774010166010122 0 -0.21854193751935819 -0.48813455038871362 0 -0.2030987714368816 -0.47899566093487772 0 -0.2030987714368816 -0.47899566093487772 0 -0.17639654556901371 -0.49239301089720988 0 -0.18427026066149921 -0.46908823017942403 0 -0.20012728008225009 -0.46162576495763918 0 -0.2030987714368816 -0.47899566093487772 0 -0.18427026066149921 -0.46908823017942403 0 -0.2030987714368816 -0.47899566093487772 0 -0.17639654556901371 -0.49239301089720988 0 -0.2030987714368816 -0.47899566093487772 0 -0.2017284695577953 -0.5 0 -0.17639654556901371 -0.49239301089720988 0 -0.2017284695577953 -0.5 0 -0.17639654556901371 -0.49239301089720988 0 -0.17382646067388799 -0.50000000000000155 0 -0.17639654556901371 -0.49239301089720988 0 -0.17382646067388799 -0.50000000000000155 0 -0.17639654556901371 -0.49239301089720988 0 -0.16221075695562909 -0.50000000000000089 0 -0.17639654556901371 -0.49239301089720988 0 -0.17382646067388799 -0.50000000000000155 0 -0.16221075695562909 -0.50000000000000089 0 -0.17639654556901371 -0.49239301089720988 0 -0.1642542407371621 -0.48572913788752919 0 -0.1700939655564252 -0.4763849154522074 0 -0.17639654556901371 -0.49239301089720988 0 -0.1642542407371621 -0.48572913788752919 0 -0.16221075695562909 -0.50000000000000089 0 -0.1642542407371621 -0.48572913788752919 0 -0.16221075695562909 -0.50000000000000089 0 -0.15470729727515309 -0.48720860935837251 0 -0.15786263832958849 -0.47314868470441562 0 -0.1700939655564252 -0.4763849154522074 0 -0.1661736799200258 -0.45839239395997111 0 -0.1642542407371621 -0.48572913788752919 0 -0.15786263832958849 -0.47314868470441562 0 -0.15470729727515309 -0.48720860935837251 0 -0.1642542407371621 -0.48572913788752919 0 -0.15786263832958849 -0.47314868470441562 0 -0.1700939655564252 -0.4763849154522074 0 -0.17639654556901371 -0.49239301089720988 0 -0.18427026066149921 -0.46908823017942403 0 -0.17639654556901371 -0.49239301089720988 0 -0.1700939655564252 -0.4763849154522074 0 -0.18427026066149921 -0.46908823017942403 0 -0.1700939655564252 -0.4763849154522074 0 -0.18427026066149921 -0.46908823017942403 0 -0.1661736799200258 -0.45839239395997111 0 -0.19214397575398359 -0.44578344946163773 0 -0.18427026066149921 -0.46908823017942403 0 -0.1661736799200258 -0.45839239395997111 0 -0.19214397575398359 -0.44578344946163773 0 -0.1661736799200258 -0.45839239395997111 0 -0.1697158845179895 -0.43423426132176668 0 -0.14464721211569409 -0.44519521776813847 0 -0.1697158845179895 -0.43423426132176668 0 -0.1661736799200258 -0.45839239395997111 0 -0.14464721211569409 -0.44519521776813847 0 -0.1697158845179895 -0.43423426132176668 0 -0.15786263832958849 -0.47314868470441562 0 -0.1661736799200258 -0.45839239395997111 0 -0.14368247182686311 -0.4629492587317241 0 -0.1661736799200258 -0.45839239395997111 0 -0.14368247182686311 -0.4629492587317241 0 -0.14464721211569409 -0.44519521776813847 0 -0.14464721211569409 -0.44519521776813847 0 -0.1195785397133988 -0.45615617421451032 0 -0.1130772085521464 -0.43766298097986289 0 -0.14464721211569409 -0.44519521776813847 0 -0.1195785397133988 -0.45615617421451032 0 -0.14368247182686311 -0.4629492587317241 0 -0.14464721211569409 -0.44519521776813847 0 -0.1195785397133988 -0.45615617421451032 0 -0.14368247182686311 -0.4629492587317241 0 -0.13603472158864199 -0.48001898059572412 0 -0.1195785397133988 -0.45615617421451032 0 -0.13603472158864199 -0.48001898059572412 0 -0.14807269224560959 -0.5 0 -0.1223189238173311 -0.5 0 -0.13603472158864199 -0.48001898059572412 0 -0.14807269224560959 -0.5 0 -0.15470729727515309 -0.48720860935837251 0 -0.16221075695562909 -0.50000000000000089 0 -0.14807269224560959 -0.5 0 -0.15470729727515309 -0.48720860935837251 0 -0.15786263832958849 -0.47314868470441562 0 -0.14368247182686311 -0.4629492587317241 0 -0.13603472158864199 -0.48001898059572412 0 -0.15786263832958849 -0.47314868470441562 0 -0.13603472158864199 -0.48001898059572412 0 -0.15470729727515309 -0.48720860935837251 0 -0.14682123538076611 -0.38879446859826788 0 -0.13953032480614219 -0.4065366508835706 0 -0.15848101257854019 -0.41038597936223198 0 -0.14682123538076611 -0.38879446859826788 0 -0.16408149570558539 -0.38390439229673601 0 -0.15715566735953521 -0.36974080373051049 0 -0.14682123538076611 -0.38879446859826788 0 -0.12245845528947689 -0.37721081897995212 0 -0.14682123538076611 -0.38879446859826788 0 -0.1217783424510834 -0.39824608269263362 0 -0.12245845528947689 -0.37721081897995212 0 -0.14682123538076611 -0.38879446859826788 0 -0.13953032480614219 -0.4065366508835706 0 -0.1217783424510834 -0.39824608269263362 0 -0.13953032480614219 -0.4065366508835706 0 -0.12426836426920559 -0.42242943770303321 0 -0.1217783424510834 -0.39824608269263362 0 -0.13953032480614219 -0.4065366508835706 0 -0.14722099617005191 -0.42199354576108511 0 -0.12426836426920559 -0.42242943770303321 0 -0.14464721211569409 -0.44519521776813847 0 -0.1130772085521464 -0.43766298097986289 0 -0.12426836426920559 -0.42242943770303321 0 -0.14464721211569409 -0.44519521776813847 0 -0.14722099617005191 -0.42199354576108511 0 -0.12426836426920559 -0.42242943770303321 0 -0.14722099617005191 -0.42199354576108511 0 -0.12426836426920559 -0.42242943770303321 0 -0.14464721211569409 -0.44519521776813847 0 -0.14722099617005191 -0.42199354576108511 0 -0.1697158845179895 -0.43423426132176668 0 -0.13953032480614219 -0.4065366508835706 0 -0.14722099617005191 -0.42199354576108511 0 -0.15848101257854019 -0.41038597936223198 0 -0.14722099617005191 -0.42199354576108511 0 -0.17017362807089831 -0.42155765381913701 0 -0.14722099617005191 -0.42199354576108511 0 -0.15848101257854019 -0.41038597936223198 0 -0.17017362807089831 -0.42155765381913701 0 -0.15848101257854019 -0.41038597936223198 0 -0.17017362807089831 -0.42155765381913701 0 -0.1704957579709673 -0.41076543060101689 0 -0.15848101257854019 -0.41038597936223198 0 -0.1704957579709673 -0.41076543060101689 0 -0.1711840154720552 -0.40037811821658381 0 -0.14722099617005191 -0.42199354576108511 0 -0.17017362807089831 -0.42155765381913701 0 -0.1697158845179895 -0.43423426132176668 0 -0.1697158845179895 -0.43423426132176668 0 -0.1947845569202849 -0.42327330487539488 0 -0.19312625997174479 -0.4211217618771888 0 -0.1697158845179895 -0.43423426132176668 0 -0.1947845569202849 -0.42327330487539488 0 -0.19214397575398359 -0.44578344946163773 0 -0.1697158845179895 -0.43423426132176668 0 -0.1947845569202849 -0.42327330487539488 0 -0.17017362807089831 -0.42155765381913701 0 -0.1697158845179895 -0.43423426132176668 0 -0.19312625997174479 -0.4211217618771888 0 -0.17017362807089831 -0.42155765381913701 0 -0.19312625997174479 -0.4211217618771888 0 -0.17017362807089831 -0.42155765381913701 0 -0.18070257142306759 -0.40992729525856819 0 -0.19312625997174479 -0.4211217618771888 0 -0.1704957579709673 -0.41076543060101689 0 -0.18070257142306759 -0.40992729525856819 0 -0.1711840154720552 -0.40037811821658381 0 -0.17017362807089831 -0.42155765381913701 0 -0.1704957579709673 -0.41076543060101689 0 -0.18070257142306759 -0.40992729525856819 0 -0.18070257142306759 -0.40992729525856819 0 -0.18661463975974671 -0.38927830867645441 0 -0.19042124460492729 -0.41251875189663523 0 -0.18070257142306759 -0.40992729525856819 0 -0.1711840154720552 -0.40037811821658381 0 -0.18661463975974671 -0.38927830867645441 0 -0.1711840154720552 -0.40037811821658381 0 -0.16408149570558539 -0.38390439229673601 0 -0.18661463975974671 -0.38927830867645441 0 -0.14682123538076611 -0.38879446859826788 0 -0.15848101257854019 -0.41038597936223198 0 -0.1711840154720552 -0.40037811821658381 0 -0.14682123538076611 -0.38879446859826788 0 -0.1711840154720552 -0.40037811821658381 0 -0.16408149570558539 -0.38390439229673601 0 -0.14682123538076611 -0.38879446859826788 0 -0.1711840154720552 -0.40037811821658381 0 -0.18661463975974671 -0.38927830867645441 0 -0.17436381335051601 -0.36920393731860379 0 -0.16408149570558539 -0.38390439229673601 0 -0.18661463975974671 -0.38927830867645441 0 -0.17436381335051601 -0.36920393731860379 0 -0.18661463975974671 -0.38927830867645441 0 -0.19498298012446841 -0.37381376166100272 0 -0.17436381335051601 -0.36920393731860379 0 -0.18661463975974671 -0.38927830867645441 0 -0.20459189378062989 -0.38827295472266149 0 -0.19498298012446841 -0.37381376166100272 0 -0.18661463975974671 -0.38927830867645441 0 -0.19042124460492729 -0.41251875189663523 0 -0.19886546616897721 -0.40935268003430503 0 -0.18661463975974671 -0.38927830867645441 0 -0.19959911876630329 -0.39677138098475678 0 -0.19886546616897721 -0.40935268003430503 0 -0.18661463975974671 -0.38927830867645441 0 -0.19959911876630329 -0.39677138098475678 0 -0.20459189378062989 -0.38827295472266149 0 -0.18661463975974671 -0.38927830867645441 0 -0.19886546616897721 -0.40935268003430503 0 -0.19959911876630329 -0.39677138098475678 0 -0.2083244753558596 -0.40018158050560643 0 -0.19886546616897721 -0.40935268003430503 0 -0.19959911876630329 -0.39677138098475678 0 -0.2083244753558596 -0.40018158050560643 0 -0.20459189378062989 -0.38827295472266149 0 -0.2083244753558596 -0.40018158050560643 0 -0.21800526320487651 -0.39275229174050041 0 -0.20459189378062989 -0.38827295472266149 0 -0.2083244753558596 -0.40018158050560643 0 -0.21800526320487651 -0.39275229174050041 0 -0.21985322932258031 -0.41231234842902309 0 -0.21800526320487651 -0.39275229174050041 0 -0.20459189378062989 -0.38827295472266149 0 -0.21271008392445939 -0.36915025800682738 0 -0.20459189378062989 -0.38827295472266149 0 -0.19498298012446841 -0.37381376166100272 0 -0.21271008392445939 -0.36915025800682738 0 -0.19214397575398359 -0.44578344946163773 0 -0.200017690846468 -0.42247866874385148 0 -0.19214397575398359 -0.44578344946163773 0 -0.200017690846468 -0.42247866874385148 0 -0.20475046332741861 -0.43652953449414361 0 -0.19214397575398359 -0.44578344946163773 0 -0.1947845569202849 -0.42327330487539488 0 -0.200017690846468 -0.42247866874385148 0 -0.1947845569202849 -0.42327330487539488 0 -0.19312625997174479 -0.4211217618771888 0 -0.19886546616897721 -0.40935268003430503 0 -0.18070257142306759 -0.40992729525856819 0 -0.19312625997174479 -0.4211217618771888 0 -0.19042124460492729 -0.41251875189663523 0 -0.19312625997174479 -0.4211217618771888 0 -0.19042124460492729 -0.41251875189663523 0 -0.19886546616897721 -0.40935268003430503 0 -0.1947845569202849 -0.42327330487539488 0 -0.200017690846468 -0.42247866874385148 0 -0.21985322932258031 -0.41231234842902309 0 -0.1947845569202849 -0.42327330487539488 0 -0.21985322932258031 -0.41231234842902309 0 -0.1947845569202849 -0.42327330487539488 0 -0.19886546616897721 -0.40935268003430503 0 -0.21985322932258031 -0.41231234842902309 0 -0.200017690846468 -0.42247866874385148 0 -0.21258346236220799 -0.42677445176461221 0 -0.21985322932258031 -0.41231234842902309 0 -0.2083244753558596 -0.40018158050560643 0 -0.19886546616897721 -0.40935268003430503 0 -0.21985322932258031 -0.41231234842902309 0 -0.200017690846468 -0.42247866874385148 0 -0.21258346236220799 -0.42677445176461221 0 -0.20475046332741861 -0.43652953449414361 0 -0.21258346236220799 -0.42677445176461221 0 -0.21565385882902791 -0.43707619785160112 0 -0.20475046332741861 -0.43652953449414361 0 -0.21258346236220799 -0.42677445176461221 0 -0.21565385882902791 -0.43707619785160112 0 -0.22555741770817511 -0.42586670472699401 0 -0.2293848728057081 -0.43656272829720139 0 -0.22555741770817511 -0.42586670472699401 0 -0.2372850357534679 -0.42665199171048668 0 -0.21565385882902791 -0.43707619785160112 0 -0.2293848728057081 -0.43656272829720139 0 -0.22555741770817511 -0.42586670472699401 0 -0.22555741770817511 -0.42586670472699401 0 -0.23858404717605869 -0.41582251030903977 0 -0.2372850357534679 -0.42665199171048668 0 -0.22555741770817511 -0.42586670472699401 0 -0.21985322932258031 -0.41231234842902309 0 -0.23858404717605869 -0.41582251030903977 0 -0.21985322932258031 -0.41231234842902309 0 -0.245038587939852 -0.4013003724272578 0 -0.21258346236220799 -0.42677445176461221 0 -0.22555741770817511 -0.42586670472699401 0 -0.21985322932258031 -0.41231234842902309 0 -0.21985322932258031 -0.41231234842902309 0 -0.23858404717605869 -0.41582251030903977 0 -0.245038587939852 -0.4013003724272578 0 -0.24689695374805551 -0.40876130060916949 0 -0.23858404717605869 -0.41582251030903977 0 -0.245038587939852 -0.4013003724272578 0 -0.24689695374805551 -0.40876130060916949 0 -0.23858404717605869 -0.41582251030903977 0 -0.24619042706411781 -0.4220704466267769 0 -0.23858404717605869 -0.41582251030903977 0 -0.2372850357534679 -0.42665199171048668 0 -0.24619042706411781 -0.4220704466267769 0 -0.2491232337026161 -0.44386916743256061 0 -0.2372850357534679 -0.42665199171048668 0 -0.2491232337026161 -0.44386916743256061 0 -0.2293848728057081 -0.43656272829720139 0 -0.2372850357534679 -0.42665199171048668 0 -0.2491232337026161 -0.44386916743256061 0 -0.2372850357534679 -0.42665199171048668 0 -0.24619042706411781 -0.4220704466267769 0 -0.22878569804192911 -0.38513716643318863 0 -0.21271008392445939 -0.36915025800682738 0 -0.22878569804192911 -0.38513716643318863 0 -0.22635213556942849 -0.37150837166600459 0 -0.21271008392445939 -0.36915025800682738 0 -0.21800526320487651 -0.39275229174050041 0 -0.22878569804192911 -0.38513716643318863 0 -0.21271008392445939 -0.36915025800682738 0 -0.22878569804192911 -0.38513716643318863 0 -0.23865808147585479 -0.37785108153337932 0 -0.22635213556942849 -0.37150837166600459 0 -0.21800526320487651 -0.39275229174050041 0 -0.22878569804192911 -0.38513716643318863 0 -0.23162728082227529 -0.39863757738584182 0 -0.21985322932258031 -0.41231234842902309 0 -0.23162728082227529 -0.39863757738584182 0 -0.245038587939852 -0.4013003724272578 0 -0.21800526320487651 -0.39275229174050041 0 -0.21985322932258031 -0.41231234842902309 0 -0.23162728082227529 -0.39863757738584182 0 -0.22878569804192911 -0.38513716643318863 0 -0.245038587939852 -0.4013003724272578 0 -0.22878569804192911 -0.38513716643318863 0 -0.23162728082227529 -0.39863757738584182 0 -0.245038587939852 -0.4013003724272578 0 -0.24689695374805551 -0.40876130060916949 0 -0.245038587939852 -0.4013003724272578 0 -0.2500437161492321 -0.39527344023300381 0 -0.245038587939852 -0.4013003724272578 0 -0.24920722146078561 -0.38750249992417568 0 -0.245038587939852 -0.4013003724272578 0 -0.24920722146078561 -0.38750249992417568 0 -0.23865808147585479 -0.37785108153337932 0 -0.22878569804192911 -0.38513716643318863 0 -0.245038587939852 -0.4013003724272578 0 -0.23865808147585479 -0.37785108153337932 0 -0.245038587939852 -0.4013003724272578 0 -0.23865808147585479 -0.37785108153337932 0 -0.25232805927103041 -0.37692263739255988 0 -0.24920722146078561 -0.38750249992417568 0 -0.23865808147585479 -0.37785108153337932 0 -0.25376857312185103 -0.36290262505178228 0 -0.25232805927103041 -0.37692263739255988 0 -0.23865808147585479 -0.37785108153337932 0 -0.23865808147585479 -0.37785108153337932 0 -0.23245485079230829 -0.35457808820721037 0 -0.25376857312185103 -0.36290262505178228 0 -0.23865808147585479 -0.37785108153337932 0 -0.23245485079230829 -0.35457808820721037 0 -0.22635213556942849 -0.37150837166600459 0 -0.23245485079230829 -0.35457808820721037 0 -0.21271008392445939 -0.36915025800682738 0 -0.23865808147585479 -0.37785108153337932 0 -0.22635213556942849 -0.37150837166600459 0 -0.23245485079230829 -0.35457808820721037 0 -0.23245485079230829 -0.35457808820721037 0 -0.21271008392445939 -0.36915025800682738 0 -0.21483482909902191 -0.34846891163725791 0 -0.23245485079230829 -0.35457808820721037 0 -0.22625162010876179 -0.33130509488104137 0 -0.21483482909902191 -0.34846891163725791 0 -0.23245485079230829 -0.35457808820721037 0 -0.24989579750610849 -0.34760382400854267 0 -0.2414109067523551 -0.33670981635275599 0 -0.25376857312185103 -0.36290262505178228 0 -0.23245485079230829 -0.35457808820721037 0 -0.24989579750610849 -0.34760382400854267 0 -0.25551182357448232 -0.33586001051792308 0 -0.24989579750610849 -0.34760382400854267 0 -0.2414109067523551 -0.33670981635275599 0 -0.25551182357448232 -0.33586001051792308 0 -0.25054650546405122 -0.32395998674240822 0 -0.2414109067523551 -0.33670981635275599 0 -0.25054650546405122 -0.32395998674240822 0 -0.2414109067523551 -0.33670981635275599 0 -0.23674499114423969 -0.3249649135530005 0 -0.2414109067523551 -0.33670981635275599 0 -0.23674499114423969 -0.3249649135530005 0 -0.22625162010876179 -0.33130509488104137 0 -0.25054650546405122 -0.32395998674240822 0 -0.23674499114423969 -0.3249649135530005 0 -0.24136106976678079 -0.31123553463711268 0 -0.25054650546405122 -0.32395998674240822 0 -0.25439597630510458 -0.30858987618539663 0 -0.24136106976678079 -0.31123553463711268 0 -0.23674499114423969 -0.3249649135530005 0 -0.22329502840821849 -0.30201379184774357 0 -0.23674499114423969 -0.3249649135530005 0 -0.22625162010876179 -0.33130509488104137 0 -0.21495827037992141 -0.31892122608807549 0 -0.23674499114423969 -0.3249649135530005 0 -0.24136106976678079 -0.31123553463711268 0 -0.22329502840821849 -0.30201379184774357 0 -0.23674499114423969 -0.3249649135530005 0 -0.21495827037992141 -0.31892122608807549 0 -0.22329502840821849 -0.30201379184774357 0 -0.23245485079230829 -0.35457808820721037 0 -0.22625162010876179 -0.33130509488104137 0 -0.23245485079230829 -0.35457808820721037 0 -0.2414109067523551 -0.33670981635275599 0 -0.22625162010876179 -0.33130509488104137 0 -0.22625162010876179 -0.33130509488104137 0 -0.20612312086259019 -0.33414776751074438 0 -0.21483482909902191 -0.34846891163725791 0 -0.22625162010876179 -0.33130509488104137 0 -0.20612312086259019 -0.33414776751074438 0 -0.21495827037992141 -0.31892122608807549 0 -0.21495827037992141 -0.31892122608807549 0 -0.19263329763138359 -0.31902793267681251 0 -0.2050548817946822 -0.30236263247287609 0 -0.20612312086259019 -0.33414776751074438 0 -0.21495827037992141 -0.31892122608807549 0 -0.19263329763138359 -0.31902793267681251 0 -0.20612312086259019 -0.33414776751074438 0 -0.18983794162216269 -0.33795265309585348 0 -0.1966344698069897 -0.35316334958046619 0 -0.20612312086259019 -0.33414776751074438 0 -0.19263329763138359 -0.31902793267681251 0 -0.18983794162216269 -0.33795265309585348 0 -0.18983794162216269 -0.33795265309585348 0 -0.1966344698069897 -0.35316334958046619 0 -0.17948495516710511 -0.34825906283460029 0 -0.1966344698069897 -0.35316334958046619 0 -0.19498298012446841 -0.37381376166100272 0 -0.17436381335051601 -0.36920393731860379 0 -0.1966344698069897 -0.35316334958046619 0 -0.19498298012446841 -0.37381376166100272 0 -0.21271008392445939 -0.36915025800682738 0 -0.1966344698069897 -0.35316334958046619 0 -0.21271008392445939 -0.36915025800682738 0 -0.1966344698069897 -0.35316334958046619 0 -0.21271008392445939 -0.36915025800682738 0 -0.21483482909902191 -0.34846891163725791 0 -0.20612312086259019 -0.33414776751074438 0 -0.1966344698069897 -0.35316334958046619 0 -0.21483482909902191 -0.34846891163725791 0 -0.2345738197544574 -0.2535776733873526 0 -0.2157262119262304 -0.2584871452865905 0 -0.2169351205791176 -0.23928729075814181 0 -0.2345738197544574 -0.2535776733873526 0 -0.22702695668690509 -0.27010447627339379 0 -0.2157262119262304 -0.2584871452865905 0 -0.25606843302098309 -0.25636966241633519 0 -0.2345738197544574 -0.2535776733873526 0 -0.24477196931982659 -0.27565775886255373 0 -0.2345738197544574 -0.2535776733873526 0 -0.24477196931982659 -0.27565775886255373 0 -0.22702695668690509 -0.27010447627339379 0 -0.24477196931982659 -0.27565775886255373 0 -0.22702695668690509 -0.27010447627339379 0 -0.2293523735198876 -0.28469756039663852 0 -0.22702695668690509 -0.27010447627339379 0 -0.2293523735198876 -0.28469756039663852 0 -0.2098450656721973 -0.27906267014248659 0 -0.2293523735198876 -0.28469756039663852 0 -0.22329502840821849 -0.30201379184774357 0 -0.2098450656721973 -0.27906267014248659 0 -0.2293523735198876 -0.28469756039663852 0 -0.24182284751229011 -0.29664910485701462 0 -0.22329502840821849 -0.30201379184774357 0 -0.24477196931982659 -0.27565775886255373 0 -0.2293523735198876 -0.28469756039663852 0 -0.24182284751229011 -0.29664910485701462 0 -0.26002489615146268 -0.29163393889111838 0 -0.24477196931982659 -0.27565775886255373 0 -0.24182284751229011 -0.29664910485701462 0 -0.24182284751229011 -0.29664910485701462 0 -0.24136106976678079 -0.31123553463711268 0 -0.22329502840821849 -0.30201379184774357 0 -0.25439597630510458 -0.30858987618539663 0 -0.24182284751229011 -0.29664910485701462 0 -0.24136106976678079 -0.31123553463711268 0 -0.21495827037992141 -0.31892122608807549 0 -0.22329502840821849 -0.30201379184774357 0 -0.2050548817946822 -0.30236263247287609 0 -0.19263329763138359 -0.31902793267681251 0 -0.2050548817946822 -0.30236263247287609 0 -0.18762367696712201 -0.29535799193729712 0 -0.18762367696712201 -0.29535799193729712 0 -0.2098450656721973 -0.27906267014248659 0 -0.18915467320104101 -0.27402808097755249 0 -0.2050548817946822 -0.30236263247287609 0 -0.18762367696712201 -0.29535799193729712 0 -0.2098450656721973 -0.27906267014248659 0 -0.22329502840821849 -0.30201379184774357 0 -0.2098450656721973 -0.27906267014248659 0 -0.22329502840821849 -0.30201379184774357 0 -0.2050548817946822 -0.30236263247287609 0 -0.2098450656721973 -0.27906267014248659 0 -0.22702695668690509 -0.27010447627339379 0 -0.2098450656721973 -0.27906267014248659 0 -0.2157262119262304 -0.2584871452865905 0 -0.2098450656721973 -0.27906267014248659 0 -0.19639510293617601 -0.25611154843722972 0 -0.2098450656721973 -0.27906267014248659 0 -0.18915467320104101 -0.27402808097755249 0 -0.19639510293617601 -0.25611154843722972 0 -0.19639510293617601 -0.25611154843722972 0 -0.17894125144676101 -0.25938846464192622 0 -0.1927269721952623 -0.23802934634911169 0 -0.18915467320104101 -0.27402808097755249 0 -0.19639510293617601 -0.25611154843722972 0 -0.17894125144676101 -0.25938846464192622 0 -0.19639510293617601 -0.25611154843722972 0 -0.2157262119262304 -0.2584871452865905 0 -0.2169351205791176 -0.23928729075814181 0 -0.2098450656721973 -0.27906267014248659 0 -0.19639510293617601 -0.25611154843722972 0 -0.2157262119262304 -0.2584871452865905 0 -0.16213576413331901 -0.25364819393533983 0 -0.17894125144676101 -0.25938846464192622 0 -0.16298892681981669 -0.26747315361741791 0 -0.16213576413331901 -0.25364819393533983 0 -0.16298892681981669 -0.26747315361741791 0 -0.14710715992940279 -0.26255648642596507 0 -0.18915467320104101 -0.27402808097755249 0 -0.17894125144676101 -0.25938846464192622 0 -0.17296826898294859 -0.28021972972882297 0 -0.17296826898294859 -0.28021972972882297 0 -0.16298892681981669 -0.26747315361741791 0 -0.15379218960665181 -0.28155289335503542 0 -0.17894125144676101 -0.25938846464192622 0 -0.17296826898294859 -0.28021972972882297 0 -0.16298892681981669 -0.26747315361741791 0 -0.17296826898294859 -0.28021972972882297 0 -0.16377922796640279 -0.30156396911812361 0 -0.15379218960665181 -0.28155289335503542 0 -0.18762367696712201 -0.29535799193729712 0 -0.18915467320104101 -0.27402808097755249 0 -0.17296826898294859 -0.28021972972882297 0 -0.18762367696712201 -0.29535799193729712 0 -0.17296826898294859 -0.28021972972882297 0 -0.16377922796640279 -0.30156396911812361 0 -0.18762367696712201 -0.29535799193729712 0 -0.16377922796640279 -0.30156396911812361 0 -0.17611766919673261 -0.31374648551224782 0 -0.19263329763138359 -0.31902793267681251 0 -0.18762367696712201 -0.29535799193729712 0 -0.17611766919673261 -0.31374648551224782 0 -0.16377922796640279 -0.30156396911812361 0 -0.17611766919673261 -0.31374648551224782 0 -0.16207657930418301 -0.32093672561168157 0 -0.16377922796640279 -0.30156396911812361 0 -0.1451900588420664 -0.29932624794601193 0 -0.14735833977434859 -0.31757976917900099 0 -0.16377922796640279 -0.30156396911812361 0 -0.14735833977434859 -0.31757976917900099 0 -0.1451900588420664 -0.29932624794601193 0 -0.12648370928348551 -0.31104944339867441 0 -0.13027567592362391 -0.29430901659598813 0 -0.1451900588420664 -0.29932624794601193 0 -0.12648370928348551 -0.31104944339867441 0 -0.14735833977434859 -0.31757976917900099 0 -0.13027567592362391 -0.29430901659598813 0 -0.13615702443232869 -0.28003214896116752 0 -0.1169346354438304 -0.2794252909740268 0 -0.1451900588420664 -0.29932624794601193 0 -0.13027567592362391 -0.29430901659598813 0 -0.13615702443232869 -0.28003214896116752 0 -0.16377922796640279 -0.30156396911812361 0 -0.1451900588420664 -0.29932624794601193 0 -0.15379218960665181 -0.28155289335503542 0 -0.1451900588420664 -0.29932624794601193 0 -0.15379218960665181 -0.28155289335503542 0 -0.13615702443232869 -0.28003214896116752 0 -0.15379218960665181 -0.28155289335503542 0 -0.13615702443232869 -0.28003214896116752 0 -0.14710715992940279 -0.26255648642596507 0 -0.16298892681981669 -0.26747315361741791 0 -0.15379218960665181 -0.28155289335503542 0 -0.14710715992940279 -0.26255648642596507 0 -0.13615702443232869 -0.28003214896116752 0 -0.1298769943854616 -0.26544404850233227 0 -0.14710715992940279 -0.26255648642596507 0 -0.13615702443232869 -0.28003214896116752 0 -0.1298769943854616 -0.26544404850233227 0 -0.1169346354438304 -0.2794252909740268 0 -0.1298769943854616 -0.26544404850233227 0 -0.14710715992940279 -0.26255648642596507 0 -0.1396029791942078 -0.24239269199167149 0 -0.1298769943854616 -0.26544404850233227 0 -0.12328477412140371 -0.25011208707580329 0 -0.1396029791942078 -0.24239269199167149 0 -0.16213576413331901 -0.25364819393533983 0 -0.14710715992940279 -0.26255648642596507 0 -0.1396029791942078 -0.24239269199167149 0 -0.16211298694128551 -0.34912956596075329 0 -0.17436381335051601 -0.36920393731860379 0 -0.16211298694128551 -0.34912956596075329 0 -0.15715566735953521 -0.36974080373051049 0 -0.17436381335051601 -0.36920393731860379 0 -0.16408149570558539 -0.38390439229673601 0 -0.15715566735953521 -0.36974080373051049 0 -0.17436381335051601 -0.36920393731860379 0 -0.16211298694128551 -0.34912956596075329 0 -0.17436381335051601 -0.36920393731860379 0 -0.17948495516710511 -0.34825906283460029 0 -0.1966344698069897 -0.35316334958046619 0 -0.17436381335051601 -0.36920393731860379 0 -0.17948495516710511 -0.34825906283460029 0 -0.18983794162216269 -0.33795265309585348 0 -0.17948495516710511 -0.34825906283460029 0 -0.17447556411457141 -0.33184580821732429 0 -0.16211298694128551 -0.34912956596075329 0 -0.17948495516710511 -0.34825906283460029 0 -0.17447556411457141 -0.33184580821732429 0 -0.19263329763138359 -0.31902793267681251 0 -0.18983794162216269 -0.33795265309585348 0 -0.17447556411457141 -0.33184580821732429 0 -0.19263329763138359 -0.31902793267681251 0 -0.17447556411457141 -0.33184580821732429 0 -0.17611766919673261 -0.31374648551224782 0 -0.16377922796640279 -0.30156396911812361 0 -0.16207657930418301 -0.32093672561168157 0 -0.14735833977434859 -0.31757976917900099 0 -0.17447556411457141 -0.33184580821732429 0 -0.17611766919673261 -0.31374648551224782 0 -0.16207657930418301 -0.32093672561168157 0 -0.16207657930418301 -0.32093672561168157 0 -0.16213182272302371 -0.33274182359816551 0 -0.14986216053205489 -0.32905519460290278 0 -0.16211298694128551 -0.34912956596075329 0 -0.16213182272302371 -0.33274182359816551 0 -0.14986216053205489 -0.32905519460290278 0 -0.16211298694128551 -0.34912956596075329 0 -0.17447556411457141 -0.33184580821732429 0 -0.16213182272302371 -0.33274182359816551 0 -0.17447556411457141 -0.33184580821732429 0 -0.16207657930418301 -0.32093672561168157 0 -0.16213182272302371 -0.33274182359816551 0 -0.14428483646896231 -0.34267011483539722 0 -0.14986216053205489 -0.32905519460290278 0 -0.1309374515822945 -0.33359556923987838 0 -0.16211298694128551 -0.34912956596075329 0 -0.14428483646896231 -0.34267011483539722 0 -0.14986216053205489 -0.32905519460290278 0 -0.16211298694128551 -0.34912956596075329 0 -0.14986216053205489 -0.32905519460290278 0 -0.14986216053205489 -0.32905519460290278 0 -0.14735833977434859 -0.31757976917900099 0 -0.1309374515822945 -0.33359556923987838 0 -0.16207657930418301 -0.32093672561168157 0 -0.14986216053205489 -0.32905519460290278 0 -0.14735833977434859 -0.31757976917900099 0 -0.12648370928348551 -0.31104944339867441 0 -0.14735833977434859 -0.31757976917900099 0 -0.1309374515822945 -0.33359556923987838 0 -0.14735833977434859 -0.31757976917900099 0 -0.1309374515822945 -0.33359556923987838 0 -0.14428483646896231 -0.34267011483539722 0 -0.1309374515822945 -0.33359556923987838 0 -0.13839880541952321 -0.35767165447819149 0 -0.1309374515822945 -0.33359556923987838 0 -0.13839880541952321 -0.35767165447819149 0 -0.1145165633902403 -0.34961136930075581 0 -0.16211298694128551 -0.34912956596075329 0 -0.14428483646896231 -0.34267011483539722 0 -0.13839880541952321 -0.35767165447819149 0 -0.16211298694128551 -0.34912956596075329 0 -0.15715566735953521 -0.36974080373051049 0 -0.13839880541952321 -0.35767165447819149 0 -0.14682123538076611 -0.38879446859826788 0 -0.15715566735953521 -0.36974080373051049 0 -0.13839880541952321 -0.35767165447819149 0 -0.14682123538076611 -0.38879446859826788 0 -0.13839880541952321 -0.35767165447819149 0 -0.12245845528947689 -0.37721081897995212 0 -0.13839880541952321 -0.35767165447819149 0 -0.1145165633902403 -0.34961136930075581 0 -0.12245845528947689 -0.37721081897995212 0 -0.098095675198188237 -0.36562716936163542 0 -0.12245845528947689 -0.37721081897995212 0 -0.098095675198188237 -0.36562716936163542 0 -0.1145165633902403 -0.34961136930075581 0 -0.12245845528947689 -0.37721081897995212 0 -0.098095675198188237 -0.36562716936163542 0 -0.096651533106284299 -0.37216028955965691 0 -0.1080548520621018 -0.38235089945247053 0 -0.098095675198188237 -0.36562716936163542 0 -0.091830235083043443 -0.37173804686131029 0 -0.098095675198188237 -0.36562716936163542 0 -0.096651533106284299 -0.37216028955965691 0 -0.091830235083043443 -0.37173804686131029 0 -0.096651533106284299 -0.37216028955965691 0 -0.091830235083043443 -0.37173804686131029 0 -0.098095675198188237 -0.36562716936163542 0 -0.1145165633902403 -0.34961136930075581 0 -0.095680790957192424 -0.34367268614484042 0 -0.098095675198188237 -0.36562716936163542 0 -0.1145165633902403 -0.34961136930075581 0 -0.1309374515822945 -0.33359556923987838 0 -0.1145165633902403 -0.34961136930075581 0 -0.11140494971023281 -0.32939009980382811 0 -0.1309374515822945 -0.33359556923987838 0 -0.1145165633902403 -0.34961136930075581 0 -0.12648370928348551 -0.31104944339867441 0 -0.11140494971023281 -0.32939009980382811 0 -0.10502264397212289 -0.3082957856036298 0 -0.12648370928348551 -0.31104944339867441 0 -0.1309374515822945 -0.33359556923987838 0 -0.11140494971023281 -0.32939009980382811 0 -0.095788539076061469 -0.33011574513518982 0 -0.086209096638847377 -0.31955890705058698 0 -0.10502264397212289 -0.3082957856036298 0 -0.11140494971023281 -0.32939009980382811 0 -0.095788539076061469 -0.33011574513518982 0 -0.10502264397212289 -0.3082957856036298 0 -0.086209096638847377 -0.31955890705058698 0 -0.10502264397212289 -0.3082957856036298 0 -0.1145165633902403 -0.34961136930075581 0 -0.11140494971023281 -0.32939009980382811 0 -0.095680790957192424 -0.34367268614484042 0 -0.11140494971023281 -0.32939009980382811 0 -0.095788539076061469 -0.33011574513518982 0 -0.095680790957192424 -0.34367268614484042 0 -0.095788539076061469 -0.33011574513518982 0 -0.095680790957192424 -0.34367268614484042 0 -0.082657280295936275 -0.33457757914776259 0 -0.082657280295936275 -0.33457757914776259 0 -0.086209096638847377 -0.31955890705058698 0 -0.067395549305571831 -0.33082202849754422 0 -0.095788539076061469 -0.33011574513518982 0 -0.082657280295936275 -0.33457757914776259 0 -0.086209096638847377 -0.31955890705058698 0 -0.086209096638847377 -0.31955890705058698 0 -0.072564032893435007 -0.31930735653441411 0 -0.076639711326359827 -0.30469445889724223 0 -0.076639711326359827 -0.30469445889724223 0 -0.060011774302961007 -0.32215403169228329 0 -0.072564032893435007 -0.31930735653441411 0 -0.076639711326359827 -0.30469445889724223 0 -0.060011774302961007 -0.32215403169228329 0 -0.086209096638847377 -0.31955890705058698 0 -0.072564032893435007 -0.31930735653441411 0 -0.067395549305571831 -0.33082202849754422 0 -0.086209096638847377 -0.31955890705058698 0 -0.067395549305571831 -0.33082202849754422 0 -0.076639711326359827 -0.30469445889724223 0 -0.058805650447460389 -0.31310066310434281 0 -0.060011774302961007 -0.32215403169228329 0 -0.072564032893435007 -0.31930735653441411 0 -0.067395549305571831 -0.33082202849754422 0 -0.060011774302961007 -0.32215403169228329 0 -0.067395549305571831 -0.33082202849754422 0 -0.073338838585242053 -0.35385615965306888 0 -0.04858200197229641 -0.34208514994450151 0 -0.082657280295936275 -0.33457757914776259 0 -0.067395549305571831 -0.33082202849754422 0 -0.073338838585242053 -0.35385615965306888 0 -0.073338838585242053 -0.35385615965306888 0 -0.062539944435297992 -0.36917284319648369 0 -0.091830235083043443 -0.37173804686131029 0 -0.062539944435297992 -0.36917284319648369 0 -0.091830235083043443 -0.37173804686131029 0 -0.098095675198188237 -0.36562716936163542 0 -0.073338838585242053 -0.35385615965306888 0 -0.098095675198188237 -0.36562716936163542 0 -0.073338838585242053 -0.35385615965306888 0 -0.091830235083043443 -0.37173804686131029 0 -0.095680790957192424 -0.34367268614484042 0 -0.082657280295936275 -0.33457757914776259 0 -0.073338838585242053 -0.35385615965306888 0 -0.098095675198188237 -0.36562716936163542 0 -0.095680790957192424 -0.34367268614484042 0 -0.073338838585242053 -0.35385615965306888 0 -0.1034683851570302 -0.25081812964332789 0 -0.11446324398657549 -0.26362513070912608 0 -0.098751430825151532 -0.27232609735014057 0 -0.1034683851570302 -0.25081812964332789 0 -0.098751430825151532 -0.27232609735014057 0 -0.084425113954690906 -0.25926020895380841 0 -0.1034683851570302 -0.25081812964332789 0 -0.12328477412140371 -0.25011208707580329 0 -0.11446324398657549 -0.26362513070912608 0 -0.1298769943854616 -0.26544404850233227 0 -0.12328477412140371 -0.25011208707580329 0 -0.11446324398657549 -0.26362513070912608 0 -0.11446324398657549 -0.26362513070912608 0 -0.1169346354438304 -0.2794252909740268 0 -0.098751430825151532 -0.27232609735014057 0 -0.1298769943854616 -0.26544404850233227 0 -0.11446324398657549 -0.26362513070912608 0 -0.1169346354438304 -0.2794252909740268 0 -0.1169346354438304 -0.2794252909740268 0 -0.098751430825151532 -0.27232609735014057 0 -0.10288837352252719 -0.28960493133553328 0 -0.098751430825151532 -0.27232609735014057 0 -0.10288837352252719 -0.28960493133553328 0 -0.089402110110639588 -0.2862348075727395 0 -0.10288837352252719 -0.28960493133553328 0 -0.093763403920078758 -0.29742631509484041 0 -0.089402110110639588 -0.2862348075727395 0 -0.1169346354438304 -0.2794252909740268 0 -0.10288837352252719 -0.28960493133553328 0 -0.1156733204456077 -0.2955084106195674 0 -0.13027567592362391 -0.29430901659598813 0 -0.1169346354438304 -0.2794252909740268 0 -0.1156733204456077 -0.2955084106195674 0 -0.12648370928348551 -0.31104944339867441 0 -0.1156733204456077 -0.2955084106195674 0 -0.10502264397212289 -0.3082957856036298 0 -0.12648370928348551 -0.31104944339867441 0 -0.13027567592362391 -0.29430901659598813 0 -0.1156733204456077 -0.2955084106195674 0 -0.10502264397212289 -0.3082957856036298 0 -0.093763403920078758 -0.29742631509484041 0 -0.08899685101814403 -0.30667703820415582 0 -0.10288837352252719 -0.28960493133553328 0 -0.1156733204456077 -0.2955084106195674 0 -0.10502264397212289 -0.3082957856036298 0 -0.10288837352252719 -0.28960493133553328 0 -0.10502264397212289 -0.3082957856036298 0 -0.093763403920078758 -0.29742631509484041 0 -0.086209096638847377 -0.31955890705058698 0 -0.10502264397212289 -0.3082957856036298 0 -0.08899685101814403 -0.30667703820415582 0 -0.093763403920078758 -0.29742631509484041 0 -0.08899685101814403 -0.30667703820415582 0 -0.082507040976960072 -0.29631901275814382 0 -0.08899685101814403 -0.30667703820415582 0 -0.076639711326359827 -0.30469445889724223 0 -0.082507040976960072 -0.29631901275814382 0 -0.086209096638847377 -0.31955890705058698 0 -0.08899685101814403 -0.30667703820415582 0 -0.076639711326359827 -0.30469445889724223 0 -0.076639711326359827 -0.30469445889724223 0 -0.062509543349592148 -0.30508319577930187 0 -0.082507040976960072 -0.29631901275814382 0 -0.062509543349592148 -0.30508319577930187 0 -0.082507040976960072 -0.29631901275814382 0 -0.076639711326359827 -0.30469445889724223 0 -0.062509543349592148 -0.30508319577930187 0 -0.058805650447460389 -0.31310066310434281 0 -0.062509543349592148 -0.30508319577930187 0 -0.068260954466078133 -0.29066967611856082 0 -0.082507040976960072 -0.29631901275814382 0 -0.068260954466078133 -0.29066967611856082 0 -0.077548826560800824 -0.28613698239687352 0 -0.082507040976960072 -0.29631901275814382 0 -0.068260954466078133 -0.29066967611856082 0 -0.064734454358871679 -0.2789252861434518 0 -0.056411168136706748 -0.28961158313365609 0 -0.068260954466078133 -0.29066967611856082 0 -0.077548826560800824 -0.28613698239687352 0 -0.064734454358871679 -0.2789252861434518 0 -0.077548826560800824 -0.28613698239687352 0 -0.089402110110639588 -0.2862348075727395 0 -0.081308562812041407 -0.27494567914737561 0 -0.077548826560800824 -0.28613698239687352 0 -0.082507040976960072 -0.29631901275814382 0 -0.089402110110639588 -0.2862348075727395 0 -0.093763403920078758 -0.29742631509484041 0 -0.082507040976960072 -0.29631901275814382 0 -0.089402110110639588 -0.2862348075727395 0 -0.098751430825151532 -0.27232609735014057 0 -0.089402110110639588 -0.2862348075727395 0 -0.081308562812041407 -0.27494567914737561 0 -0.098751430825151532 -0.27232609735014057 0 -0.081308562812041407 -0.27494567914737561 0 -0.084425113954690906 -0.25926020895380841 0 -0.081308562812041407 -0.27494567914737561 0 -0.06986583199269418 -0.26484160315896271 0 -0.084425113954690906 -0.25926020895380841 0 -0.081308562812041407 -0.27494567914737561 0 -0.064734454358871679 -0.2789252861434518 0 -0.06986583199269418 -0.26484160315896271 0 -0.064734454358871679 -0.2789252861434518 0 -0.06986583199269418 -0.26484160315896271 0 -0.054199348714107851 -0.26350367731814422 0 -0.077548826560800824 -0.28613698239687352 0 -0.081308562812041407 -0.27494567914737561 0 -0.064734454358871679 -0.2789252861434518 0 -0.06986583199269418 -0.26484160315896271 0 -0.054199348714107851 -0.26350367731814422 0 -0.065966051164906045 -0.2483348353079719 0 -0.06986583199269418 -0.26484160315896271 0 -0.084425113954690906 -0.25926020895380841 0 -0.065966051164906045 -0.2483348353079719 0 -0.084425113954690906 -0.25926020895380841 0 -0.085099214246944763 -0.24380688298698661 0 -0.065966051164906045 -0.2483348353079719 0 -0.1034683851570302 -0.25081812964332789 0 -0.084425113954690906 -0.25926020895380841 0 -0.085099214246944763 -0.24380688298698661 0 -0.035482615388175313 -0.26120638803302199 0 -0.046799964515636311 -0.24920753124184811 0 -0.032006049370809683 -0.2414171829525375 0 -0.035482615388175313 -0.26120638803302199 0 -0.054199348714107851 -0.26350367731814422 0 -0.046799964515636311 -0.24920753124184811 0 -0.054199348714107851 -0.26350367731814422 0 -0.046799964515636311 -0.24920753124184811 0 -0.065966051164906045 -0.2483348353079719 0 -0.064734454358871679 -0.2789252861434518 0 -0.054199348714107851 -0.26350367731814422 0 -0.045477665363116392 -0.280334430605861 0 -0.035482615388175313 -0.26120638803302199 0 -0.045477665363116392 -0.280334430605861 0 -0.027189033676017101 -0.27567137982072959 0 -0.035482615388175313 -0.26120638803302199 0 -0.054199348714107851 -0.26350367731814422 0 -0.045477665363116392 -0.280334430605861 0 -0.045477665363116392 -0.280334430605861 0 -0.033473631731342803 -0.29306438742481578 0 -0.027189033676017101 -0.27567137982072959 0 -0.045477665363116392 -0.280334430605861 0 -0.033473631731342803 -0.29306438742481578 0 -0.047564393491497478 -0.29817893659286621 0 -0.045477665363116392 -0.280334430605861 0 -0.056411168136706748 -0.28961158313365609 0 -0.047564393491497478 -0.29817893659286621 0 -0.064734454358871679 -0.2789252861434518 0 -0.045477665363116392 -0.280334430605861 0 -0.056411168136706748 -0.28961158313365609 0 -0.062509543349592148 -0.30508319577930187 0 -0.068260954466078133 -0.29066967611856082 0 -0.056411168136706748 -0.28961158313365609 0 -0.062509543349592148 -0.30508319577930187 0 -0.042512045722224327 -0.31384737880045999 0 -0.062509543349592148 -0.30508319577930187 0 -0.047564393491497478 -0.29817893659286621 0 -0.042512045722224327 -0.31384737880045999 0 -0.062509543349592148 -0.30508319577930187 0 -0.058805650447460389 -0.31310066310434281 0 -0.042512045722224327 -0.31384737880045999 0 -0.062509543349592148 -0.30508319577930187 0 -0.056411168136706748 -0.28961158313365609 0 -0.047564393491497478 -0.29817893659286621 0 -0.047564393491497478 -0.29817893659286621 0 -0.038360679239479917 -0.30318780279647423 0 -0.042512045722224327 -0.31384737880045999 0 -0.033473631731342803 -0.29306438742481578 0 -0.047564393491497478 -0.29817893659286621 0 -0.038360679239479917 -0.30318780279647423 0 -0.033473631731342803 -0.29306438742481578 0 -0.038360679239479917 -0.30318780279647423 0 -0.02989264601285509 -0.30766050836775499 0 -0.038360679239479917 -0.30318780279647423 0 -0.02989264601285509 -0.30766050836775499 0 -0.042512045722224327 -0.31384737880045999 0 -0.033473631731342803 -0.29306438742481578 0 -0.02989264601285509 -0.30766050836775499 0 -0.01980039886366863 -0.29916952322172952 0 -0.02989264601285509 -0.30766050836775499 0 -0.01980039886366863 -0.29916952322172952 0 -0.020062307831917401 -0.31256145553851439 0 -0.01980039886366863 -0.29916952322172952 0 -0.0077929770141077753 -0.30510536924497561 0 -0.020062307831917401 -0.31256145553851439 0 -0.0077929770141077753 -0.30510536924497561 0 -0.01101761990230157 -0.27973399739982591 0 0.0080387197440938973 -0.29217093039849179 0 -0.0077929770141077753 -0.30510536924497561 0 -0.01101761990230157 -0.27973399739982591 0 -0.01980039886366863 -0.29916952322172952 0 -0.0077929770141077753 -0.30510536924497561 0 -0.01101761990230157 -0.27973399739982591 0 -0.033473631731342803 -0.29306438742481578 0 -0.02287017104333253 -0.28690982196677522 0 -0.027189033676017101 -0.27567137982072959 0 -0.01980039886366863 -0.29916952322172952 0 -0.02287017104333253 -0.28690982196677522 0 -0.01101761990230157 -0.27973399739982591 0 -0.033473631731342803 -0.29306438742481578 0 -0.01980039886366863 -0.29916952322172952 0 -0.02287017104333253 -0.28690982196677522 0 -0.02287017104333253 -0.28690982196677522 0 -0.027189033676017101 -0.27567137982072959 0 -0.01101761990230157 -0.27973399739982591 0 -0.027189033676017101 -0.27567137982072959 0 -0.01101761990230157 -0.27973399739982591 0 -0.014242262790494181 -0.25436262555467598 0 -0.01101761990230157 -0.27973399739982591 0 -0.014242262790494181 -0.25436262555467598 0 -0.01101761990230157 -0.27973399739982591 0 -0.00053764115848484954 -0.26240285167879379 0 0.0048942055376650917 -0.2741314967382914 0 -0.01101761990230157 -0.27973399739982591 0 -0.014242262790494181 -0.25436262555467598 0 -0.00053764115848484954 -0.26240285167879379 0 -0.014242262790494181 -0.25436262555467598 0 0.0054077402359684022 -0.24803128275829681 0 -0.014242262790494181 -0.25436262555467598 0 -0.00053764115848484954 -0.26240285167879379 0 0.0054077402359684022 -0.24803128275829681 0 -0.035482615388175313 -0.26120638803302199 0 -0.014242262790494181 -0.25436262555467598 0 -0.035482615388175313 -0.26120638803302199 0 -0.014242262790494181 -0.25436262555467598 0 -0.032006049370809683 -0.2414171829525375 0 -0.035482615388175313 -0.26120638803302199 0 -0.027189033676017101 -0.27567137982072959 0 -0.014242262790494181 -0.25436262555467598 0 -0.04858200197229641 -0.34208514994450151 0 -0.043383837279561341 -0.33961360448732358 0 -0.030073297605843079 -0.35358986239878609 0 -0.04858200197229641 -0.34208514994450151 0 -0.030073297605843079 -0.35358986239878609 0 -0.045828237498255008 -0.35741781105682668 0 -0.035041026705872058 -0.35755464013567911 0 -0.030073297605843079 -0.35358986239878609 0 -0.045828237498255008 -0.35741781105682668 0 -0.04858200197229641 -0.34208514994450151 0 -0.030073297605843079 -0.35358986239878609 0 -0.043383837279561341 -0.33961360448732358 0 -0.030073297605843079 -0.35358986239878609 0 -0.028580087402761131 -0.34747018421277182 0 -0.043383837279561341 -0.33961360448732358 0 -0.030073297605843079 -0.35358986239878609 0 -0.035041026705872058 -0.35755464013567911 0 -0.033249653787552583 -0.36660763953165532 0 -0.030073297605843079 -0.35358986239878609 0 -0.045828237498255008 -0.35741781105682668 0 -0.035041026705872058 -0.35755464013567911 0 -0.033249653787552583 -0.36660763953165532 0 -0.033249653787552583 -0.36660763953165532 0 -0.030073297605843079 -0.35358986239878609 0 -0.062539944435297992 -0.36917284319648369 0 -0.045828237498255008 -0.35741781105682668 0 -0.033249653787552583 -0.36660763953165532 0 -0.062539944435297992 -0.36917284319648369 0 -0.033249653787552583 -0.36660763953165532 0 -0.062539944435297992 -0.36917284319648369 0 -0.033249653787552583 -0.36660763953165532 0 -0.055594211468101007 -0.38521276736816301 0 -0.073338838585242053 -0.35385615965306888 0 -0.062539944435297992 -0.36917284319648369 0 -0.045828237498255008 -0.35741781105682668 0 -0.073338838585242053 -0.35385615965306888 0 -0.04858200197229641 -0.34208514994450151 0 -0.073338838585242053 -0.35385615965306888 0 -0.045828237498255008 -0.35741781105682668 0 -0.04858200197229641 -0.34208514994450151 0 -0.067395549305571831 -0.33082202849754422 0 -0.04858200197229641 -0.34208514994450151 0 -0.060011774302961007 -0.32215403169228329 0 -0.067395549305571831 -0.33082202849754422 0 -0.04858200197229641 -0.34208514994450151 0 -0.04858200197229641 -0.34208514994450151 0 -0.060011774302961007 -0.32215403169228329 0 -0.043383837279561341 -0.33961360448732358 0 -0.060011774302961007 -0.32215403169228329 0 -0.043383837279561341 -0.33961360448732358 0 -0.060011774302961007 -0.32215403169228329 0 -0.05229448610879734 -0.31939789224070791 0 -0.043383837279561341 -0.33961360448732358 0 -0.058805650447460389 -0.31310066310434281 0 -0.05229448610879734 -0.31939789224070791 0 -0.042512045722224327 -0.31384737880045999 0 -0.058805650447460389 -0.31310066310434281 0 -0.060011774302961007 -0.32215403169228329 0 -0.05229448610879734 -0.31939789224070791 0 -0.02989264601285509 -0.30766050836775499 0 -0.042512045722224327 -0.31384737880045999 0 -0.022514548094856531 -0.32261156182161838 0 -0.042512045722224327 -0.31384737880045999 0 -0.030256068126939421 -0.32546624082115622 0 -0.022514548094856531 -0.32261156182161838 0 -0.05229448610879734 -0.31939789224070791 0 -0.03755728670420018 -0.33684328352659682 0 -0.05229448610879734 -0.31939789224070791 0 -0.042449252995879108 -0.32366091294407151 0 -0.03755728670420018 -0.33684328352659682 0 -0.042512045722224327 -0.31384737880045999 0 -0.022514548094856531 -0.32261156182161838 0 -0.05229448610879734 -0.31939789224070791 0 -0.042512045722224327 -0.31384737880045999 0 -0.042449252995879108 -0.32366091294407151 0 -0.042512045722224327 -0.31384737880045999 0 -0.042449252995879108 -0.32366091294407151 0 -0.037433193448294669 -0.32455509720852099 0 -0.042512045722224327 -0.31384737880045999 0 -0.037433193448294669 -0.32455509720852099 0 -0.030256068126939421 -0.32546624082115622 0 -0.05229448610879734 -0.31939789224070791 0 -0.043383837279561341 -0.33961360448732358 0 -0.03755728670420018 -0.33684328352659682 0 -0.043383837279561341 -0.33961360448732358 0 -0.03755728670420018 -0.33684328352659682 0 -0.04858200197229641 -0.34208514994450151 0 -0.043383837279561341 -0.33961360448732358 0 -0.042449252995879108 -0.32366091294407151 0 -0.037433193448294669 -0.32455509720852099 0 -0.03755728670420018 -0.33684328352659682 0 -0.037433193448294669 -0.32455509720852099 0 -0.03755728670420018 -0.33684328352659682 0 -0.030256068126939421 -0.32546624082115622 0 -0.03755728670420018 -0.33684328352659682 0 -0.028580087402761131 -0.34747018421277182 0 -0.043383837279561341 -0.33961360448732358 0 -0.03755728670420018 -0.33684328352659682 0 -0.028580087402761131 -0.34747018421277182 0 -0.024468640417192721 -0.33062009011440691 0 -0.01779369205136817 -0.33578159943859143 0 -0.028580087402761131 -0.34747018421277182 0 -0.024468640417192721 -0.33062009011440691 0 -0.028580087402761131 -0.34747018421277182 0 -0.03755728670420018 -0.33684328352659682 0 -0.024468640417192721 -0.33062009011440691 0 -0.028580087402761131 -0.34747018421277182 0 -0.03755728670420018 -0.33684328352659682 0 -0.024468640417192721 -0.33062009011440691 0 -0.03755728670420018 -0.33684328352659682 0 -0.024468640417192721 -0.33062009011440691 0 -0.030256068126939421 -0.32546624082115622 0 -0.024468640417192721 -0.33062009011440691 0 -0.01779369205136817 -0.33578159943859143 0 -0.01738804930683167 -0.3272535167510357 0 -0.024468640417192721 -0.33062009011440691 0 -0.01738804930683167 -0.3272535167510357 0 -0.01779369205136817 -0.33578159943859143 0 -0.01396334900414258 -0.34308746502461718 0 -0.028580087402761131 -0.34747018421277182 0 -0.022514548094856531 -0.32261156182161838 0 -0.020062307831917401 -0.31256145553851439 0 -0.0045683341259116954 -0.33047674109012498 0 -0.02989264601285509 -0.30766050836775499 0 -0.022514548094856531 -0.32261156182161838 0 -0.020062307831917401 -0.31256145553851439 0 -0.024468640417192721 -0.33062009011440691 0 -0.022514548094856531 -0.32261156182161838 0 -0.024468640417192721 -0.33062009011440691 0 -0.030256068126939421 -0.32546624082115622 0 -0.022514548094856531 -0.32261156182161838 0 -0.024468640417192721 -0.33062009011440691 0 -0.022514548094856531 -0.32261156182161838 0 -0.01738804930683167 -0.3272535167510357 0 -0.022514548094856531 -0.32261156182161838 0 -0.020062307831917401 -0.31256145553851439 0 -0.0077929770141077753 -0.30510536924497561 0 -0.0045683341259116954 -0.33047674109012498 0 -0.022514548094856531 -0.32261156182161838 0 -0.01738804930683167 -0.3272535167510357 0 -0.0045683341259116954 -0.33047674109012498 0 -0.0077929770141077753 -0.30510536924497561 0 -0.0045683341259116954 -0.33047674109012498 0 0.0040981006955792022 -0.31953741139356839 0 -0.0077929770141077753 -0.30510536924497561 0 -0.020062307831917401 -0.31256145553851439 0 -0.0045683341259116954 -0.33047674109012498 0 -0.022514548094856531 -0.32261156182161838 0 -0.0045683341259116954 -0.33047674109012498 0 -0.0045683341259116954 -0.33047674109012498 0 -0.001957481232011143 -0.35101883579671062 0 -0.01396334900414258 -0.34308746502461718 0 -0.0045683341259116954 -0.33047674109012498 0 -0.001957481232011143 -0.35101883579671062 0 -0.01779369205136817 -0.33578159943859143 0 -0.01396334900414258 -0.34308746502461718 0 -0.0045683341259116954 -0.33047674109012498 0 -0.01779369205136817 -0.33578159943859143 0 -0.01738804930683167 -0.3272535167510357 0 -0.0045683341259116954 -0.33047674109012498 0 -0.001957481232011143 -0.35101883579671062 0 -0.0091271166321890522 -0.35688394691910769 0 -0.0050641191069524458 -0.36413918888610602 0 -0.001957481232011143 -0.35101883579671062 0 -0.01418915969599688 -0.35185251363087328 0 -0.0091271166321890522 -0.35688394691910769 0 -0.01418915969599688 -0.35185251363087328 0 -0.0091271166321890522 -0.35688394691910769 0 -0.017317764208880409 -0.36080213620115931 0 -0.01396334900414258 -0.34308746502461718 0 -0.001957481232011143 -0.35101883579671062 0 -0.01418915969599688 -0.35185251363087328 0 -0.01396334900414258 -0.34308746502461718 0 -0.01418915969599688 -0.35185251363087328 0 -0.028580087402761131 -0.34747018421277182 0 -0.028580087402761131 -0.34747018421277182 0 -0.017317764208880409 -0.36080213620115931 0 -0.01418915969599688 -0.35185251363087328 0 -0.028580087402761131 -0.34747018421277182 0 -0.017317764208880409 -0.36080213620115931 0 -0.030073297605843079 -0.35358986239878609 0 -0.017317764208880409 -0.36080213620115931 0 -0.030073297605843079 -0.35358986239878609 0 -0.028580087402761131 -0.34747018421277182 0 -0.017317764208880409 -0.36080213620115931 0 -0.030073297605843079 -0.35358986239878609 0 -0.028580087402761131 -0.34747018421277182 0 -0.033249653787552583 -0.36660763953165532 0 -0.018874568220174939 -0.36534868916400232 0 -0.024100325307879859 -0.37725443331372321 0 -0.030073297605843079 -0.35358986239878609 0 -0.018874568220174939 -0.36534868916400232 0 -0.033249653787552583 -0.36660763953165532 0 -0.030073297605843079 -0.35358986239878609 0 -0.018874568220174939 -0.36534868916400232 0 -0.033249653787552583 -0.36660763953165532 0 -0.018874568220174939 -0.36534868916400232 0 -0.030073297605843079 -0.35358986239878609 0 -0.017317764208880409 -0.36080213620115931 0 -0.018874568220174939 -0.36534868916400232 0 -0.018874568220174939 -0.36534868916400232 0 -0.01384882975484111 -0.36490854185086158 0 -0.017317764208880409 -0.36080213620115931 0 -0.018874568220174939 -0.36534868916400232 0 -0.01384882975484111 -0.36490854185086158 0 -0.018874568220174939 -0.36534868916400232 0 -0.016133033761401711 -0.38096201390050982 0 -0.024100325307879859 -0.37725443331372321 0 -0.018874568220174939 -0.36534868916400232 0 -0.01384882975484111 -0.36490854185086158 0 -0.0080624548927780045 -0.37670156351289219 0 -0.001957481232011143 -0.35101883579671062 0 0.00065337166189073257 -0.37156093050329603 0 -0.001957481232011143 -0.35101883579671062 0 -0.0050641191069524458 -0.36413918888610602 0 0.00065337166189073257 -0.37156093050329603 0 -0.01384882975484111 -0.36490854185086158 0 -0.010891223121570931 -0.36464951869994899 0 -0.0018100324986049449 -0.37915965720735212 0 -0.018874568220174939 -0.36534868916400232 0 -0.0080624548927780045 -0.37670156351289219 0 -0.01384882975484111 -0.36490854185086158 0 -0.0018100324986049449 -0.37915965720735212 0 -0.0080624548927780045 -0.37670156351289219 0 -0.018874568220174939 -0.36534868916400232 0 -0.0080624548927780045 -0.37670156351289219 0 -0.016133033761401711 -0.38096201390050982 0 -0.01384882975484111 -0.36490854185086158 0 -0.0018100324986049449 -0.37915965720735212 0 -0.0091271166321890522 -0.35688394691910769 0 -0.017317764208880409 -0.36080213620115931 0 -0.010891223121570931 -0.36464951869994899 0 -0.017317764208880409 -0.36080213620115931 0 -0.010891223121570931 -0.36464951869994899 0 -0.017317764208880409 -0.36080213620115931 0 -0.01384882975484111 -0.36490854185086158 0 -0.017317764208880409 -0.36080213620115931 0 -0.01384882975484111 -0.36490854185086158 0 -0.010891223121570931 -0.36464951869994899 0 -0.01384882975484111 -0.36490854185086158 0 -0.010891223121570931 -0.36464951869994899 0 -0.010891223121570931 -0.36464951869994899 0 -0.0050641191069524458 -0.36413918888610602 0 -0.0091271166321890522 -0.35688394691910769 0 -0.010891223121570931 -0.36464951869994899 0 -0.0050641191069524458 -0.36413918888610602 0 -0.010891223121570931 -0.36464951869994899 0 -0.0050641191069524458 -0.36413918888610602 0 0.00065337166189073257 -0.37156093050329603 0 -0.010891223121570931 -0.36464951869994899 0 0.00065337166189073257 -0.37156093050329603 0 -0.010891223121570931 -0.36464951869994899 0 -0.0018100324986049449 -0.37915965720735212 0 0.00065337166189073257 -0.37156093050329603 0 -0.0080624548927780045 -0.37670156351289219 0 0.0027496584346183182 -0.38805443786178262 0 -0.0018100324986049449 -0.37915965720735212 0 -0.0080624548927780045 -0.37670156351289219 0 0.0027496584346183182 -0.38805443786178262 0 -0.0085943900982866119 -0.38803315365160002 0 0.0041939554806844116 -0.38957097051270262 0 0.0027496584346183182 -0.38805443786178262 0 -0.0085943900982866119 -0.38803315365160002 0 -0.0080624548927780045 -0.37670156351289219 0 0.0027496584346183182 -0.38805443786178262 0 -0.0085943900982866119 -0.38803315365160002 0 -0.01542733458980651 -0.38796367281447292 0 -0.016133033761401711 -0.38096201390050982 0 -0.0085943900982866119 -0.38803315365160002 0 -0.0080624548927780045 -0.37670156351289219 0 -0.016133033761401711 -0.38096201390050982 0 -0.0047464050549406306 -0.40351715614234662 0 -0.018925898036094891 -0.39698198780943528 0 0.0041939554806844116 -0.38957097051270262 0 -0.0085943900982866119 -0.38803315365160002 0 -0.018925898036094891 -0.39698198780943528 0 0.0041939554806844116 -0.38957097051270262 0 -0.018925898036094891 -0.39698198780943528 0 0.0041939554806844116 -0.38957097051270262 0 -0.0085943900982866119 -0.38803315365160002 0 -0.01542733458980651 -0.38796367281447292 0 -0.018925898036094891 -0.39698198780943528 0 -0.0047464050549406306 -0.40351715614234662 0 -0.018925898036094891 -0.39698198780943528 0 -0.014023989021249329 -0.40923919877766712 0 -0.019535796501351909 -0.39102873640917568 0 -0.029120256341353311 -0.4006904959385002 0 -0.023282874004915521 -0.4129842518774044 0 -0.018925898036094891 -0.39698198780943528 0 -0.019535796501351909 -0.39102873640917568 0 -0.023282874004915521 -0.4129842518774044 0 -0.019535796501351909 -0.39102873640917568 0 -0.023282874004915521 -0.4129842518774044 0 -0.01542733458980651 -0.38796367281447292 0 -0.018925898036094891 -0.39698198780943528 0 -0.019535796501351909 -0.39102873640917568 0 -0.019535796501351909 -0.39102873640917568 0 -0.029120256341353311 -0.4006904959385002 0 -0.02846205260714087 -0.38599043754806711 0 -0.033249653787552583 -0.36660763953165532 0 -0.02846205260714087 -0.38599043754806711 0 -0.024100325307879859 -0.37725443331372321 0 -0.016133033761401711 -0.38096201390050982 0 -0.02158283196860384 -0.38464517765490269 0 -0.024100325307879859 -0.37725443331372321 0 -0.019535796501351909 -0.39102873640917568 0 -0.02158283196860384 -0.38464517765490269 0 -0.02846205260714087 -0.38599043754806711 0 -0.01542733458980651 -0.38796367281447292 0 -0.016133033761401711 -0.38096201390050982 0 -0.02158283196860384 -0.38464517765490269 0 -0.01542733458980651 -0.38796367281447292 0 -0.019535796501351909 -0.39102873640917568 0 -0.02158283196860384 -0.38464517765490269 0 -0.02158283196860384 -0.38464517765490269 0 -0.02846205260714087 -0.38599043754806711 0 -0.024100325307879859 -0.37725443331372321 0 -0.033249653787552583 -0.36660763953165532 0 -0.039385832225662512 -0.39175576486305203 0 -0.055594211468101007 -0.38521276736816301 0 -0.033249653787552583 -0.36660763953165532 0 -0.039385832225662512 -0.39175576486305203 0 -0.033249653787552583 -0.36660763953165532 0 -0.02846205260714087 -0.38599043754806711 0 -0.039385832225662512 -0.39175576486305203 0 -0.039385832225662512 -0.39175576486305203 0 -0.045522010663771727 -0.41690389019444901 0 -0.029120256341353311 -0.4006904959385002 0 -0.039385832225662512 -0.39175576486305203 0 -0.045522010663771727 -0.41690389019444901 0 -0.029120256341353311 -0.4006904959385002 0 -0.02846205260714087 -0.38599043754806711 0 -0.039385832225662512 -0.39175576486305203 0 -0.039385832225662512 -0.39175576486305203 0 -0.060958085470195197 -0.40184860908340242 0 -0.055594211468101007 -0.38521276736816301 0 -0.039385832225662512 -0.39175576486305203 0 -0.060958085470195197 -0.40184860908340242 0 -0.045522010663771727 -0.41690389019444901 0 -0.048753804842821463 -0.43114983807780211 0 -0.056294322335151817 -0.43023645691177631 0 -0.046512507284843477 -0.42096327885438861 0 -0.056294322335151817 -0.43023645691177631 0 -0.055477017075298819 -0.41868133532797142 0 -0.046512507284843477 -0.42096327885438861 0 -0.048753804842821463 -0.43114983807780211 0 -0.056294322335151817 -0.43023645691177631 0 -0.051742497972966373 -0.44240327379560418 0 -0.048753804842821463 -0.43114983807780211 0 -0.041404832018121507 -0.43394094853404819 0 -0.051742497972966373 -0.44240327379560418 0 -0.056294322335151817 -0.43023645691177631 0 -0.062936766708337949 -0.43794389984316379 0 -0.068098159622532392 -0.423454441595841 0 -0.056294322335151817 -0.43023645691177631 0 -0.051742497972966373 -0.44240327379560418 0 -0.062936766708337949 -0.43794389984316379 0 -0.056294322335151817 -0.43023645691177631 0 -0.055477017075298819 -0.41868133532797142 0 -0.068098159622532392 -0.423454441595841 0 -0.060958085470195197 -0.40184860908340242 0 -0.055477017075298819 -0.41868133532797142 0 -0.045522010663771727 -0.41690389019444901 0 -0.060958085470195197 -0.40184860908340242 0 -0.055477017075298819 -0.41868133532797142 0 -0.068098159622532392 -0.423454441595841 0 -0.060958085470195197 -0.40184860908340242 0 -0.045522010663771727 -0.41690389019444901 0 -0.055477017075298819 -0.41868133532797142 0 -0.046512507284843477 -0.42096327885438861 0 -0.045522010663771727 -0.41690389019444901 0 -0.046512507284843477 -0.42096327885438861 0 -0.045522010663771727 -0.41690389019444901 0 -0.045522010663771727 -0.41690389019444901 0 -0.02702995150847342 -0.43493976734563422 0 -0.023282874004915521 -0.4129842518774044 0 -0.029120256341353311 -0.4006904959385002 0 -0.045522010663771727 -0.41690389019444901 0 -0.023282874004915521 -0.4129842518774044 0 -0.045522010663771727 -0.41690389019444901 0 -0.02702995150847342 -0.43493976734563422 0 -0.046512507284843477 -0.42096327885438861 0 -0.045522010663771727 -0.41690389019444901 0 -0.02702995150847342 -0.43493976734563422 0 -0.046512507284843477 -0.42096327885438861 0 -0.041404832018121507 -0.43394094853404819 0 -0.02702995150847342 -0.43493976734563422 0 -0.048753804842821463 -0.43114983807780211 0 -0.046512507284843477 -0.42096327885438861 0 -0.041404832018121507 -0.43394094853404819 0 -0.02702995150847342 -0.43493976734563422 0 -0.023282874004915521 -0.4129842518774044 0 -0.02702995150847342 -0.43493976734563422 0 -0.023282874004915521 -0.4129842518774044 0 -0.0091407789890462932 -0.42347339928148231 0 -0.018925898036094891 -0.39698198780943528 0 -0.023282874004915521 -0.4129842518774044 0 -0.014023989021249329 -0.40923919877766712 0 -0.0047464050549406306 -0.40351715614234662 0 -0.014023989021249329 -0.40923919877766712 0 -0.0091407789890462932 -0.42347339928148231 0 -0.0047464050549406306 -0.40351715614234662 0 -0.0091407789890462932 -0.42347339928148231 0 0.0061376548268578923 -0.41471106907891653 0 -0.023282874004915521 -0.4129842518774044 0 -0.014023989021249329 -0.40923919877766712 0 -0.0091407789890462932 -0.42347339928148231 0 -0.02702995150847342 -0.43493976734563422 0 -0.0091407789890462932 -0.42347339928148231 0 -0.0095398701285203391 -0.45199838458689112 0 -0.0091407789890462932 -0.42347339928148231 0 -0.0095398701285203391 -0.45199838458689112 0 0.0092839102205797275 -0.43946569099571309 0 -0.0095398701285203391 -0.45199838458689112 0 0.0079502112514302607 -0.46905700182815052 0 -0.0095398701285203391 -0.45199838458689112 0 -0.021070329969178341 -0.46466568201132807 0 -0.0093133594171920693 -0.46978471257073939 0 -0.0095398701285203391 -0.45199838458689112 0 -0.0093133594171920693 -0.46978471257073939 0 0.0079502112514302607 -0.46905700182815052 0 -0.0095398701285203391 -0.45199838458689112 0 -0.030203929117153399 -0.4535372781835556 0 -0.021070329969178341 -0.46466568201132807 0 -0.030203929117153399 -0.4535372781835556 0 -0.021070329969178341 -0.46466568201132807 0 -0.033377906725827668 -0.4721347890214781 0 -0.02702995150847342 -0.43493976734563422 0 -0.0095398701285203391 -0.45199838458689112 0 -0.030203929117153399 -0.4535372781835556 0 -0.02702995150847342 -0.43493976734563422 0 -0.030203929117153399 -0.4535372781835556 0 -0.02702995150847342 -0.43493976734563422 0 -0.0095398701285203391 -0.45199838458689112 0 -0.0011630843612175921 -0.5 0 -0.0033431163747408531 -0.48124960651246851 0 -0.019303850104217379 -0.49999999999999878 0 -0.0033431163747408531 -0.48124960651246851 0 -0.020563691864951161 -0.48195288791485918 0 -0.019303850104217379 -0.49999999999999878 0 -0.0093133594171920693 -0.46978471257073939 0 -0.0033431163747408531 -0.48124960651246851 0 0.0079502112514302607 -0.46905700182815052 0 -0.0093133594171920693 -0.46978471257073939 0 -0.0033431163747408531 -0.48124960651246851 0 -0.020563691864951161 -0.48195288791485918 0 -0.021070329969178341 -0.46466568201132807 0 -0.0093133594171920693 -0.46978471257073939 0 -0.020563691864951161 -0.48195288791485918 0 -0.021070329969178341 -0.46466568201132807 0 -0.020563691864951161 -0.48195288791485918 0 -0.033377906725827668 -0.4721347890214781 0 -0.020563691864951161 -0.48195288791485918 0 -0.019303850104217379 -0.49999999999999878 0 -0.044372522506512371 -0.48903904355362582 0 -0.019303850104217379 -0.49999999999999878 0 -0.044372522506512371 -0.48903904355362582 0 -0.019303850104217379 -0.49999999999999878 0 -0.044372522506512371 -0.48903904355362582 0 -0.045057618532495958 -0.5 0 -0.020563691864951161 -0.48195288791485918 0 -0.044372522506512371 -0.48903904355362582 0 -0.033377906725827668 -0.4721347890214781 0 -0.044372522506512371 -0.48903904355362582 0 -0.033377906725827668 -0.4721347890214781 0 -0.047265568078032151 -0.46186585616568721 0 -0.044372522506512371 -0.48903904355362582 0 -0.069441194908807846 -0.47807808710725402 0 -0.044372522506512371 -0.48903904355362582 0 -0.047265568078032151 -0.46186585616568721 0 -0.069441194908807846 -0.47807808710725402 0 -0.044372522506512371 -0.48903904355362582 0 -0.070811386960774436 -0.5 0 -0.069441194908807846 -0.47807808710725402 0 -0.044372522506512371 -0.48903904355362582 0 -0.045057618532495958 -0.5 0 -0.070811386960774436 -0.5 0 -0.039328455957965837 -0.4453318405698013 0 -0.047265568078032151 -0.46186585616568721 0 -0.051742497972966373 -0.44240327379560418 0 -0.02702995150847342 -0.43493976734563422 0 -0.030203929117153399 -0.4535372781835556 0 -0.039328455957965837 -0.4453318405698013 0 -0.041404832018121507 -0.43394094853404819 0 -0.039328455957965837 -0.4453318405698013 0 -0.051742497972966373 -0.44240327379560418 0 -0.041404832018121507 -0.43394094853404819 0 -0.02702995150847342 -0.43493976734563422 0 -0.039328455957965837 -0.4453318405698013 0 -0.030203929117153399 -0.4535372781835556 0 -0.039328455957965837 -0.4453318405698013 0 -0.047265568078032151 -0.46186585616568721 0 -0.030203929117153399 -0.4535372781835556 0 -0.033377906725827668 -0.4721347890214781 0 -0.047265568078032151 -0.46186585616568721 0 -0.030203929117153399 -0.4535372781835556 0 -0.033377906725827668 -0.4721347890214781 0 -0.047265568078032151 -0.46186585616568721 0 -0.063368738347596459 -0.45292698017977301 0 -0.069441194908807846 -0.47807808710725402 0 -0.047265568078032151 -0.46186585616568721 0 -0.051742497972966373 -0.44240327379560418 0 -0.063368738347596459 -0.45292698017977301 0 -0.051742497972966373 -0.44240327379560418 0 -0.062936766708337949 -0.43794389984316379 0 -0.063368738347596459 -0.45292698017977301 0 -0.075180115263442662 -0.44069834673282482 0 -0.063368738347596459 -0.45292698017977301 0 -0.079720108949242127 -0.45731333391502033 0 -0.062936766708337949 -0.43794389984316379 0 -0.075180115263442662 -0.44069834673282482 0 -0.063368738347596459 -0.45292698017977301 0 -0.063368738347596459 -0.45292698017977301 0 -0.079720108949242127 -0.45731333391502033 0 -0.069441194908807846 -0.47807808710725402 0 -0.079720108949242127 -0.45731333391502033 0 -0.069441194908807846 -0.47807808710725402 0 -0.094509867311103307 -0.46711713066088212 0 -0.079720108949242127 -0.45731333391502033 0 -0.095501744285647699 -0.44462041318345402 0 -0.094509867311103307 -0.46711713066088212 0 -0.075180115263442662 -0.44069834673282482 0 -0.079720108949242127 -0.45731333391502033 0 -0.095501744285647699 -0.44462041318345402 0 -0.070811386960774436 -0.5 0 -0.069441194908807846 -0.47807808710725402 0 -0.085267631854766102 -0.4871820663729608 0 -0.069441194908807846 -0.47807808710725402 0 -0.085267631854766102 -0.4871820663729608 0 -0.094509867311103307 -0.46711713066088212 0 -0.069441194908807846 -0.47807808710725402 0 -0.094509867311103307 -0.46711713066088212 0 -0.070811386960774436 -0.5 0 -0.085267631854766102 -0.4871820663729608 0 -0.096565155389052748 -0.5 0 -0.085267631854766102 -0.4871820663729608 0 -0.096565155389052748 -0.5 0 -0.1087825798324069 -0.48191394340166949 0 -0.096565155389052748 -0.5 0 -0.1087825798324069 -0.48191394340166949 0 -0.1223189238173311 -0.5 0 -0.085267631854766102 -0.4871820663729608 0 -0.1087825798324069 -0.48191394340166949 0 -0.094509867311103307 -0.46711713066088212 0 -0.13603472158864199 -0.48001898059572412 0 -0.1087825798324069 -0.48191394340166949 0 -0.1195785397133988 -0.45615617421451032 0 -0.13603472158864199 -0.48001898059572412 0 -0.1087825798324069 -0.48191394340166949 0 -0.1223189238173311 -0.5 0 -0.094509867311103307 -0.46711713066088212 0 -0.1195785397133988 -0.45615617421451032 0 -0.1087825798324069 -0.48191394340166949 0 -0.094509867311103307 -0.46711713066088212 0 -0.1195785397133988 -0.45615617421451032 0 -0.095501744285647699 -0.44462041318345402 0 -0.094509867311103307 -0.46711713066088212 0 -0.1195785397133988 -0.45615617421451032 0 -0.095501744285647699 -0.44462041318345402 0 -0.1195785397133988 -0.45615617421451032 0 -0.1130772085521464 -0.43766298097986289 0 -0.1130772085521464 -0.43766298097986289 0 -0.12426836426920559 -0.42242943770303321 0 -0.1013157323683592 -0.4228653296449813 0 -0.12426836426920559 -0.42242943770303321 0 -0.1013157323683592 -0.4228653296449813 0 -0.095501744285647699 -0.44462041318345402 0 -0.1013157323683592 -0.4228653296449813 0 -0.084583529196584101 -0.4262919853887831 0 -0.095501744285647699 -0.44462041318345402 0 -0.1130772085521464 -0.43766298097986289 0 -0.1013157323683592 -0.4228653296449813 0 -0.1013157323683592 -0.4228653296449813 0 -0.09399768378797202 -0.41017808643803683 0 -0.1096254377518263 -0.40951203585235202 0 -0.12426836426920559 -0.42242943770303321 0 -0.1096254377518263 -0.40951203585235202 0 -0.1217783424510834 -0.39824608269263362 0 -0.12426836426920559 -0.42242943770303321 0 -0.1013157323683592 -0.4228653296449813 0 -0.1096254377518263 -0.40951203585235202 0 -0.1217783424510834 -0.39824608269263362 0 -0.1080548520621018 -0.38235089945247053 0 -0.1010261940212885 -0.39738524797016339 0 -0.1096254377518263 -0.40951203585235202 0 -0.1217783424510834 -0.39824608269263362 0 -0.1010261940212885 -0.39738524797016339 0 -0.098095675198188237 -0.36562716936163542 0 -0.12245845528947689 -0.37721081897995212 0 -0.1080548520621018 -0.38235089945247053 0 -0.1217783424510834 -0.39824608269263362 0 -0.12245845528947689 -0.37721081897995212 0 -0.1080548520621018 -0.38235089945247053 0 -0.1080548520621018 -0.38235089945247053 0 -0.1010261940212885 -0.39738524797016339 0 -0.09355875612264053 -0.38443310192799968 0 -0.096651533106284299 -0.37216028955965691 0 -0.091830235083043443 -0.37173804686131029 0 -0.09355875612264053 -0.38443310192799968 0 -0.096651533106284299 -0.37216028955965691 0 -0.1080548520621018 -0.38235089945247053 0 -0.09355875612264053 -0.38443310192799968 0 -0.09399768378797202 -0.41017808643803683 0 -0.1096254377518263 -0.40951203585235202 0 -0.1010261940212885 -0.39738524797016339 0 -0.1010261940212885 -0.39738524797016339 0 -0.088846234828024062 -0.3973662998782615 0 -0.09355875612264053 -0.38443310192799968 0 -0.09399768378797202 -0.41017808643803683 0 -0.1010261940212885 -0.39738524797016339 0 -0.088846234828024062 -0.3973662998782615 0 -0.088846234828024062 -0.3973662998782615 0 -0.076394160276619161 -0.38679332797235622 0 -0.078588974561749902 -0.40764761989367992 0 -0.09399768378797202 -0.41017808643803683 0 -0.088846234828024062 -0.3973662998782615 0 -0.078588974561749902 -0.40764761989367992 0 -0.091830235083043443 -0.37173804686131029 0 -0.09355875612264053 -0.38443310192799968 0 -0.076394160276619161 -0.38679332797235622 0 -0.088846234828024062 -0.3973662998782615 0 -0.09355875612264053 -0.38443310192799968 0 -0.076394160276619161 -0.38679332797235622 0 -0.091830235083043443 -0.37173804686131029 0 -0.076394160276619161 -0.38679332797235622 0 -0.062539944435297992 -0.36917284319648369 0 -0.055594211468101007 -0.38521276736816301 0 -0.076394160276619161 -0.38679332797235622 0 -0.062539944435297992 -0.36917284319648369 0 -0.091830235083043443 -0.37173804686131029 0 -0.076394160276619161 -0.38679332797235622 0 -0.060958085470195197 -0.40184860908340242 0 -0.055594211468101007 -0.38521276736816301 0 -0.076394160276619161 -0.38679332797235622 0 -0.060958085470195197 -0.40184860908340242 0 -0.076394160276619161 -0.38679332797235622 0 -0.078588974561749902 -0.40764761989367992 0 -0.060958085470195197 -0.40184860908340242 0 -0.076394160276619161 -0.38679332797235622 0 -0.068098159622532392 -0.423454441595841 0 -0.084583529196584101 -0.4262919853887831 0 -0.078588974561749902 -0.40764761989367992 0 -0.060958085470195197 -0.40184860908340242 0 -0.068098159622532392 -0.423454441595841 0 -0.078588974561749902 -0.40764761989367992 0 -0.075180115263442662 -0.44069834673282482 0 -0.068098159622532392 -0.423454441595841 0 -0.084583529196584101 -0.4262919853887831 0 -0.062936766708337949 -0.43794389984316379 0 -0.075180115263442662 -0.44069834673282482 0 -0.068098159622532392 -0.423454441595841 0 -0.075180115263442662 -0.44069834673282482 0 -0.095501744285647699 -0.44462041318345402 0 -0.084583529196584101 -0.4262919853887831 0 -0.09399768378797202 -0.41017808643803683 0 -0.084583529196584101 -0.4262919853887831 0 -0.078588974561749902 -0.40764761989367992 0 -0.1013157323683592 -0.4228653296449813 0 -0.09399768378797202 -0.41017808643803683 0 -0.084583529196584101 -0.4262919853887831 0 -0.08206042415203578 -0.073953563988589238 0 -0.091001326514902836 -0.094816536935228582 0 -0.10246532456861079 -0.078815063983625783 0 -0.08206042415203578 -0.073953563988589238 0 -0.070427380369511419 -0.085977071792472493 0 -0.091001326514902836 -0.094816536935228582 0 -0.08206042415203578 -0.073953563988589238 0 -0.094238863000140727 -0.063806997867017323 0 -0.079439553434863974 -0.05419188771562259 0 -0.08206042415203578 -0.073953563988589238 0 -0.10246532456861079 -0.078815063983625783 0 -0.094238863000140727 -0.063806997867017323 0 -0.08206042415203578 -0.073953563988589238 0 -0.079439553434863974 -0.05419188771562259 0 -0.064468264554541785 -0.060725450985857791 0 -0.08206042415203578 -0.073953563988589238 0 -0.063835131589644087 -0.075717807955200472 0 -0.064468264554541785 -0.060725450985857791 0 -0.070427380369511419 -0.085977071792472493 0 -0.06310439291707394 -0.099976928504534102 0 -0.091001326514902836 -0.094816536935228582 0 -0.08206042415203578 -0.073953563988589238 0 -0.063835131589644087 -0.075717807955200472 0 -0.070427380369511419 -0.085977071792472493 0 -0.06310439291707394 -0.099976928504534102 0 -0.091001326514902836 -0.094816536935228582 0 -0.06310439291707394 -0.099976928504534102 0 -0.079824491894017538 -0.12216580181545179 0 -0.091001326514902836 -0.094816536935228582 0 -0.060007406525312119 -0.1134014505963527 0 -0.061050978852012321 -0.1290213354191441 0 -0.07830581906928559 -0.12884272475078559 0 -0.060007406525312119 -0.1134014505963527 0 -0.07830581906928559 -0.12884272475078559 0 -0.06310439291707394 -0.099976928504534102 0 -0.079824491894017538 -0.12216580181545179 0 -0.060007406525312119 -0.1134014505963527 0 -0.06310439291707394 -0.099976928504534102 0 -0.079824491894017538 -0.12216580181545179 0 -0.079824491894017538 -0.12216580181545179 0 -0.060007406525312119 -0.1134014505963527 0 -0.07830581906928559 -0.12884272475078559 0 -0.079824491894017538 -0.12216580181545179 0 -0.091001326514902836 -0.094816536935228582 0 -0.10605473682518669 -0.1166633748805592 0 -0.091001326514902836 -0.094816536935228582 0 -0.10605473682518669 -0.1166633748805592 0 -0.1188982601127322 -0.089656145365925269 0 -0.10605473682518669 -0.1166633748805592 0 -0.11875687874594019 -0.1372593560808682 0 -0.12568953908620251 -0.1116801545194875 0 -0.10605473682518669 -0.1166633748805592 0 -0.1188982601127322 -0.089656145365925269 0 -0.12568953908620251 -0.1116801545194875 0 -0.1188982601127322 -0.089656145365925269 0 -0.10246532456861079 -0.078815063983625783 0 -0.12561467901087081 -0.074302752458958371 0 -0.091001326514902836 -0.094816536935228582 0 -0.1188982601127322 -0.089656145365925269 0 -0.091001326514902836 -0.094816536935228582 0 -0.1188982601127322 -0.089656145365925269 0 -0.10246532456861079 -0.078815063983625783 0 -0.10246532456861079 -0.078815063983625783 0 -0.094238863000140727 -0.063806997867017323 0 -0.1095555638537018 -0.063501532795649351 0 -0.1095555638537018 -0.063501532795649351 0 -0.12561467901087081 -0.074302752458958371 0 -0.13349983983805969 -0.056942535263725093 0 -0.10246532456861079 -0.078815063983625783 0 -0.1095555638537018 -0.063501532795649351 0 -0.12561467901087081 -0.074302752458958371 0 -0.1095555638537018 -0.063501532795649351 0 -0.1175603761250444 -0.039084570172323183 0 -0.13349983983805969 -0.056942535263725093 0 -0.1095555638537018 -0.063501532795649351 0 -0.1175603761250444 -0.039084570172323183 0 -0.1175603761250444 -0.039084570172323183 0 -0.09767344899149133 -0.048572940851599661 0 -0.092042099592736903 -0.030342871872578871 0 -0.1095555638537018 -0.063501532795649351 0 -0.1175603761250444 -0.039084570172323183 0 -0.09767344899149133 -0.048572940851599661 0 -0.094238863000140727 -0.063806997867017323 0 -0.1095555638537018 -0.063501532795649351 0 -0.09767344899149133 -0.048572940851599661 0 -0.1065280496128804 -0.018675503684700761 0 -0.1255651883963867 -0.01466760754899687 0 -0.1015133298770437 4.9595544974906723e-05 0 -0.1255651883963867 -0.01466760754899687 0 -0.13082697262089341 0.0013823364580261221 0 -0.1015133298770437 4.9595544974906723e-05 0 -0.1255651883963867 -0.01466760754899687 0 -0.1015133298770437 4.9595544974906723e-05 0 -0.1175603761250444 -0.039084570172323183 0 -0.1255651883963867 -0.01466760754899687 0 -0.1175603761250444 -0.039084570172323183 0 -0.1065280496128804 -0.018675503684700761 0 -0.1255651883963867 -0.01466760754899687 0 -0.1175603761250444 -0.039084570172323183 0 -0.1065280496128804 -0.018675503684700761 0 -0.092042099592736903 -0.030342871872578871 0 -0.1065280496128804 -0.018675503684700761 0 -0.091709336070603401 -0.014974699825805741 0 -0.092042099592736903 -0.030342871872578871 0 -0.1065280496128804 -0.018675503684700761 0 -0.091709336070603401 -0.014974699825805741 0 -0.1015133298770437 4.9595544974906723e-05 0 -0.080113023358067775 -0.0034963713414790428 0 -0.091709336070603401 -0.014974699825805741 0 -0.1015133298770437 4.9595544974906723e-05 0 -0.080113023358067775 -0.0034963713414790428 0 -0.091709336070603401 -0.014974699825805741 0 -0.076833281919627155 -0.02059932662751825 0 -0.092042099592736903 -0.030342871872578871 0 -0.076833281919627155 -0.02059932662751825 0 -0.079254101656316966 -0.038839596863020069 0 -0.091709336070603401 -0.014974699825805741 0 -0.092042099592736903 -0.030342871872578871 0 -0.076833281919627155 -0.02059932662751825 0 -0.076833281919627155 -0.02059932662751825 0 -0.065303587705170127 -0.033542036822940068 0 -0.058724649556778627 -0.01837471923928934 0 -0.076833281919627155 -0.02059932662751825 0 -0.079254101656316966 -0.038839596863020069 0 -0.065303587705170127 -0.033542036822940068 0 -0.080113023358067775 -0.0034963713414790428 0 -0.076833281919627155 -0.02059932662751825 0 -0.066910003298949472 -0.006380589779087396 0 -0.076833281919627155 -0.02059932662751825 0 -0.066910003298949472 -0.006380589779087396 0 -0.058724649556778627 -0.01837471923928934 0 -0.080113023358067775 -0.0034963713414790428 0 -0.066910003298949472 -0.006380589779087396 0 -0.067016117272491557 0.0064617448389865436 0 -0.094238863000140727 -0.063806997867017323 0 -0.09767344899149133 -0.048572940851599661 0 -0.079439553434863974 -0.05419188771562259 0 -0.09767344899149133 -0.048572940851599661 0 -0.079439553434863974 -0.05419188771562259 0 -0.079254101656316966 -0.038839596863020069 0 -0.09767344899149133 -0.048572940851599661 0 -0.092042099592736903 -0.030342871872578871 0 -0.079254101656316966 -0.038839596863020069 0 -0.079439553434863974 -0.05419188771562259 0 -0.079254101656316966 -0.038839596863020069 0 -0.069366778188196032 -0.046636298753570581 0 -0.079254101656316966 -0.038839596863020069 0 -0.065303587705170127 -0.033542036822940068 0 -0.069366778188196032 -0.046636298753570581 0 -0.065303587705170127 -0.033542036822940068 0 -0.069366778188196032 -0.046636298753570581 0 -0.057489345825814608 -0.045197007013554891 0 -0.069366778188196032 -0.046636298753570581 0 -0.064468264554541785 -0.060725450985857791 0 -0.057489345825814608 -0.045197007013554891 0 -0.079439553434863974 -0.05419188771562259 0 -0.069366778188196032 -0.046636298753570581 0 -0.064468264554541785 -0.060725450985857791 0 -0.079439553434863974 -0.05419188771562259 0 -0.064468264554541785 -0.060725450985857791 0 -0.053165090088771703 -0.053849044817045617 0 -0.057489345825814608 -0.045197007013554891 0 -0.041205774300509833 -0.042214707012676711 0 -0.064468264554541785 -0.060725450985857791 0 -0.053165090088771703 -0.053849044817045617 0 -0.049496975674219498 -0.067259014256092736 0 -0.053165090088771703 -0.053849044817045617 0 -0.041205774300509833 -0.042214707012676711 0 -0.049496975674219498 -0.067259014256092736 0 -0.064468264554541785 -0.060725450985857791 0 -0.053165090088771703 -0.053849044817045617 0 -0.057489345825814608 -0.045197007013554891 0 -0.057489345825814608 -0.045197007013554891 0 -0.053360649487572333 -0.031508274999117868 0 -0.041205774300509833 -0.042214707012676711 0 -0.065303587705170127 -0.033542036822940068 0 -0.057489345825814608 -0.045197007013554891 0 -0.053360649487572333 -0.031508274999117868 0 -0.041205774300509833 -0.042214707012676711 0 -0.029560731383513471 -0.030698354614048039 0 -0.029071288677197649 -0.041031931165279263 0 -0.041205774300509833 -0.042214707012676711 0 -0.035545428748514768 -0.049421198906023187 0 -0.029071288677197649 -0.041031931165279263 0 -0.041205774300509833 -0.042214707012676711 0 -0.035545428748514768 -0.049421198906023187 0 -0.039277333289250087 -0.05738761008273989 0 -0.041205774300509833 -0.042214707012676711 0 -0.039277333289250087 -0.05738761008273989 0 -0.049496975674219498 -0.067259014256092736 0 -0.035545428748514768 -0.049421198906023187 0 -0.032627318727100521 -0.057050547363396847 0 -0.029071288677197649 -0.041031931165279263 0 -0.041205774300509833 -0.042214707012676711 0 -0.049496975674219498 -0.067259014256092736 0 -0.035545428748514768 -0.049421198906023187 0 -0.032627318727100521 -0.057050547363396847 0 -0.039277333289250087 -0.05738761008273989 0 -0.041205774300509833 -0.042214707012676711 0 -0.039277333289250087 -0.05738761008273989 0 -0.066910003298949472 -0.006380589779087396 0 -0.058724649556778627 -0.01837471923928934 0 -0.047480093400365117 0.0071514052909069717 0 -0.058724649556778627 -0.01837471923928934 0 -0.044342933850437971 -0.017531650860884949 0 -0.047480093400365117 0.0071514052909069717 0 -0.053360649487572333 -0.031508274999117868 0 -0.058724649556778627 -0.01837471923928934 0 -0.044342933850437971 -0.017531650860884949 0 -0.065303587705170127 -0.033542036822940068 0 -0.053360649487572333 -0.031508274999117868 0 -0.058724649556778627 -0.01837471923928934 0 -0.041205774300509833 -0.042214707012676711 0 -0.03197940571368342 -0.014345644471004631 0 -0.053360649487572333 -0.031508274999117868 0 -0.041205774300509833 -0.042214707012676711 0 -0.044342933850437971 -0.017531650860884949 0 -0.041205774300509833 -0.042214707012676711 0 -0.044342933850437971 -0.017531650860884949 0 -0.03197940571368342 -0.014345644471004631 0 -0.041205774300509833 -0.042214707012676711 0 -0.044342933850437971 -0.017531650860884949 0 -0.041205774300509833 -0.042214707012676711 0 -0.03197940571368342 -0.014345644471004631 0 -0.029560731383513471 -0.030698354614048039 0 -0.044342933850437971 -0.017531650860884949 0 -0.03197940571368342 -0.014345644471004631 0 -0.047480093400365117 0.0071514052909069717 0 -0.044342933850437971 -0.017531650860884949 0 -0.047480093400365117 0.0071514052909069717 0 -0.03197940571368342 -0.014345644471004631 0 -0.015090251476702499 -0.003079934255059254 0 -0.022753037126858049 0.013523418070667899 0 -0.03197940571368342 -0.014345644471004631 0 -0.020564857339468119 -0.020481758501274941 0 -0.015090251476702499 -0.003079934255059254 0 -0.03197940571368342 -0.014345644471004631 0 -0.022753037126858049 0.013523418070667899 0 -0.020564857339468119 -0.020481758501274941 0 -0.0032704433637422889 -0.021708726878872899 0 -0.024982330886707361 -0.035417731920004573 0 -0.03197940571368342 -0.014345644471004631 0 -0.020564857339468119 -0.020481758501274941 0 -0.029560731383513471 -0.030698354614048039 0 -0.020564857339468119 -0.020481758501274941 0 -0.029560731383513471 -0.030698354614048039 0 -0.024982330886707361 -0.035417731920004573 0 -0.0032704433637422889 -0.021708726878872899 0 -0.015090251476702499 -0.003079934255059254 0 0.0064513957917756229 0.0050175021511877811 0 -0.020564857339468119 -0.020481758501274941 0 -0.0032704433637422889 -0.021708726878872899 0 -0.015090251476702499 -0.003079934255059254 0 -0.032627318727100521 -0.057050547363396847 0 -0.02308425262101951 -0.050503215701802419 0 -0.029071288677197649 -0.041031931165279263 0 -0.032627318727100521 -0.057050547363396847 0 -0.029071288677197649 -0.041031931165279263 0 -0.02308425262101951 -0.050503215701802419 0 -0.01304657834473286 -0.048584220121573297 0 -0.015614839606073841 -0.060504105130514678 0 -0.02308425262101951 -0.050503215701802419 0 -0.02449654445976816 -0.060278242785831597 0 -0.015614839606073841 -0.060504105130514678 0 -0.032627318727100521 -0.057050547363396847 0 -0.02449654445976816 -0.060278242785831597 0 -0.02820348437291878 -0.065157883414209278 0 -0.032627318727100521 -0.057050547363396847 0 -0.02308425262101951 -0.050503215701802419 0 -0.02449654445976816 -0.060278242785831597 0 -0.02308425262101951 -0.050503215701802419 0 -0.029071288677197649 -0.041031931165279263 0 -0.024982330886707361 -0.035417731920004573 0 -0.029560731383513471 -0.030698354614048039 0 -0.029071288677197649 -0.041031931165279263 0 -0.024982330886707361 -0.035417731920004573 0 -0.02308425262101951 -0.050503215701802419 0 -0.024982330886707361 -0.035417731920004573 0 -0.01304657834473286 -0.048584220121573297 0 -0.024982330886707361 -0.035417731920004573 0 -0.01304657834473286 -0.048584220121573297 0 -0.0032704433637422889 -0.021708726878872899 0 -0.024982330886707361 -0.035417731920004573 0 -0.01304657834473286 -0.048584220121573297 0 -0.0032704433637422889 -0.021708726878872899 0 -0.01304657834473286 -0.048584220121573297 0 0.006807656598899833 -0.044556533383483428 0 -0.0032704433637422889 -0.021708726878872899 0 -0.01304657834473286 -0.048584220121573297 0 -0.01304657834473286 -0.048584220121573297 0 -0.00013189539463332069 -0.062397079718219763 0 0.006807656598899833 -0.044556533383483428 0 -0.01304657834473286 -0.048584220121573297 0 -0.015614839606073841 -0.060504105130514678 0 -0.00013189539463332069 -0.062397079718219763 0 -0.01304657834473286 -0.048584220121573297 0 -0.00013189539463332069 -0.062397079718219763 0 -0.00013189539463332069 -0.062397079718219763 0 -0.0055933606100986404 -0.075178643524817665 0 -0.013506314765874281 -0.070878490704947769 0 -0.00013189539463332069 -0.062397079718219763 0 -0.0055933606100986404 -0.075178643524817665 0 0.002185648973446259 -0.076653208650150823 0 -0.0055933606100986404 -0.075178643524817665 0 -0.0029772157873130208 -0.081715700578056397 0 0.002185648973446259 -0.076653208650150823 0 -0.0055933606100986404 -0.075178643524817665 0 -0.013506314765874281 -0.070878490704947769 0 -0.017511967211902481 -0.081217470215234178 0 -0.015614839606073841 -0.060504105130514678 0 -0.00013189539463332069 -0.062397079718219763 0 -0.013506314765874281 -0.070878490704947769 0 -0.017511967211902481 -0.081217470215234178 0 0.0011594143531981141 -0.089365776868953806 0 -0.0098729550603256448 -0.089133197733310104 0 -0.017511967211902481 -0.081217470215234178 0 0.0011594143531981141 -0.089365776868953806 0 -0.0029772157873130208 -0.081715700578056397 0 -0.017511967211902481 -0.081217470215234178 0 0.0011594143531981141 -0.089365776868953806 0 -0.0056205606469964054 -0.093134027525927129 0 -0.0032681753368222072 -0.097396105460184401 0 0.0011594143531981141 -0.089365776868953806 0 -0.0056205606469964054 -0.093134027525927129 0 -0.0098729550603256448 -0.089133197733310104 0 0.0011594143531981141 -0.089365776868953806 0 -0.0055933606100986404 -0.075178643524817665 0 -0.0029772157873130208 -0.081715700578056397 0 -0.017511967211902481 -0.081217470215234178 0 -0.0098729550603256448 -0.089133197733310104 0 -0.019083369095817659 -0.092727292442805032 0 -0.01050052654403588 -0.096641030041260192 0 -0.0098729550603256448 -0.089133197733310104 0 -0.019083369095817659 -0.092727292442805032 0 -0.017511967211902481 -0.081217470215234178 0 -0.0056205606469964054 -0.093134027525927129 0 -0.0098729550603256448 -0.089133197733310104 0 -0.01050052654403588 -0.096641030041260192 0 -0.017511967211902481 -0.081217470215234178 0 -0.028370847935228191 -0.086704666199437716 0 -0.03618334877700316 -0.073069163561514563 0 -0.019083369095817659 -0.092727292442805032 0 -0.017511967211902481 -0.081217470215234178 0 -0.028370847935228191 -0.086704666199437716 0 -0.019083369095817659 -0.092727292442805032 0 -0.028370847935228191 -0.086704666199437716 0 -0.026569496083541019 -0.099011239532018069 0 -0.028370847935228191 -0.086704666199437716 0 -0.034855687785163271 -0.092176954559414839 0 -0.026569496083541019 -0.099011239532018069 0 -0.017511967211902481 -0.081217470215234178 0 -0.03618334877700316 -0.073069163561514563 0 -0.017511967211902481 -0.081217470215234178 0 -0.023069802994205229 -0.07326005077928846 0 -0.03618334877700316 -0.073069163561514563 0 -0.02449654445976816 -0.060278242785831597 0 -0.015614839606073841 -0.060504105130514678 0 -0.02213805773234015 -0.06742643696560327 0 -0.015614839606073841 -0.060504105130514678 0 -0.013506314765874281 -0.070878490704947769 0 -0.02213805773234015 -0.06742643696560327 0 -0.013506314765874281 -0.070878490704947769 0 -0.02213805773234015 -0.06742643696560327 0 -0.023069802994205229 -0.07326005077928846 0 -0.013506314765874281 -0.070878490704947769 0 -0.017511967211902481 -0.081217470215234178 0 -0.023069802994205229 -0.07326005077928846 0 -0.023069802994205229 -0.07326005077928846 0 -0.02828687065363485 -0.069959084079077402 0 -0.03618334877700316 -0.073069163561514563 0 -0.02828687065363485 -0.069959084079077402 0 -0.02820348437291878 -0.065157883414209278 0 -0.03132525563266432 -0.066309169604549495 0 -0.032627318727100521 -0.057050547363396847 0 -0.02820348437291878 -0.065157883414209278 0 -0.03132525563266432 -0.066309169604549495 0 -0.02213805773234015 -0.06742643696560327 0 -0.023069802994205229 -0.07326005077928846 0 -0.02828687065363485 -0.069959084079077402 0 -0.02213805773234015 -0.06742643696560327 0 -0.02828687065363485 -0.069959084079077402 0 -0.02820348437291878 -0.065157883414209278 0 -0.02449654445976816 -0.060278242785831597 0 -0.02213805773234015 -0.06742643696560327 0 -0.02820348437291878 -0.065157883414209278 0 -0.02828687065363485 -0.069959084079077402 0 -0.03132525563266432 -0.066309169604549495 0 -0.03618334877700316 -0.073069163561514563 0 -0.039277333289250087 -0.05738761008273989 0 -0.041166860430729438 -0.070864114653084259 0 -0.03618334877700316 -0.073069163561514563 0 -0.032627318727100521 -0.057050547363396847 0 -0.03132525563266432 -0.066309169604549495 0 -0.03618334877700316 -0.073069163561514563 0 -0.039277333289250087 -0.05738761008273989 0 -0.03618334877700316 -0.073069163561514563 0 -0.032627318727100521 -0.057050547363396847 0 -0.03618334877700316 -0.073069163561514563 0 -0.032627318727100521 -0.057050547363396847 0 -0.039277333289250087 -0.05738761008273989 0 -0.03618334877700316 -0.073069163561514563 0 -0.039277333289250087 -0.05738761008273989 0 -0.041166860430729438 -0.070864114653084259 0 -0.049496975674219498 -0.067259014256092736 0 -0.041166860430729438 -0.070864114653084259 0 -0.049496975674219498 -0.067259014256092736 0 -0.041166860430729438 -0.070864114653084259 0 -0.036883428348406591 -0.076222766260337471 0 -0.052135626673901293 -0.085420521578809472 0 -0.036883428348406591 -0.076222766260337471 0 -0.03618334877700316 -0.073069163561514563 0 -0.041166860430729438 -0.070864114653084259 0 -0.036883428348406591 -0.076222766260337471 0 -0.03618334877700316 -0.073069163561514563 0 -0.041166860430729438 -0.070864114653084259 0 -0.03618334877700316 -0.073069163561514563 0 -0.036883428348406591 -0.076222766260337471 0 -0.034855687785163271 -0.092176954559414839 0 -0.028370847935228191 -0.086704666199437716 0 -0.036883428348406591 -0.076222766260337471 0 -0.03618334877700316 -0.073069163561514563 0 -0.036883428348406591 -0.076222766260337471 0 -0.034855687785163271 -0.092176954559414839 0 -0.041708993981339107 -0.097960176441919206 0 -0.036883428348406591 -0.076222766260337471 0 -0.052135626673901293 -0.085420521578809472 0 -0.041708993981339107 -0.097960176441919206 0 -0.028370847935228191 -0.086704666199437716 0 -0.036883428348406591 -0.076222766260337471 0 -0.034855687785163271 -0.092176954559414839 0 -0.036883428348406591 -0.076222766260337471 0 -0.041708993981339107 -0.097960176441919206 0 -0.028370847935228191 -0.086704666199437716 0 -0.034855687785163271 -0.092176954559414839 0 -0.041166860430729438 -0.070864114653084259 0 -0.052135626673901293 -0.085420521578809472 0 -0.070427380369511419 -0.085977071792472493 0 -0.06310439291707394 -0.099976928504534102 0 -0.052135626673901293 -0.085420521578809472 0 -0.063835131589644087 -0.075717807955200472 0 -0.070427380369511419 -0.085977071792472493 0 -0.052135626673901293 -0.085420521578809472 0 -0.06310439291707394 -0.099976928504534102 0 -0.052135626673901293 -0.085420521578809472 0 -0.063835131589644087 -0.075717807955200472 0 -0.052135626673901293 -0.085420521578809472 0 -0.054045562282744652 -0.075810810483851687 0 -0.063835131589644087 -0.075717807955200472 0 -0.056385553288325348 -0.069707741847559554 0 -0.054045562282744652 -0.075810810483851687 0 -0.064468264554541785 -0.060725450985857791 0 -0.049496975674219498 -0.067259014256092736 0 -0.064468264554541785 -0.060725450985857791 0 -0.056385553288325348 -0.069707741847559554 0 -0.049496975674219498 -0.067259014256092736 0 -0.063835131589644087 -0.075717807955200472 0 -0.064468264554541785 -0.060725450985857791 0 -0.056385553288325348 -0.069707741847559554 0 -0.056385553288325348 -0.069707741847559554 0 -0.050081832340476723 -0.069025625556794881 0 -0.049496975674219498 -0.067259014256092736 0 -0.041166860430729438 -0.070864114653084259 0 -0.050081832340476723 -0.069025625556794881 0 -0.049496975674219498 -0.067259014256092736 0 -0.050081832340476723 -0.069025625556794881 0 -0.049496975674219498 -0.067259014256092736 0 -0.041166860430729438 -0.070864114653084259 0 -0.050081832340476723 -0.069025625556794881 0 -0.054045562282744652 -0.075810810483851687 0 -0.041166860430729438 -0.070864114653084259 0 -0.052135626673901293 -0.085420521578809472 0 -0.054045562282744652 -0.075810810483851687 0 -0.056385553288325348 -0.069707741847559554 0 -0.050081832340476723 -0.069025625556794881 0 -0.054045562282744652 -0.075810810483851687 0 -0.060007406525312119 -0.1134014505963527 0 -0.041708993981339107 -0.097960176441919206 0 -0.046323657263432932 -0.1187475485850229 0 -0.060007406525312119 -0.1134014505963527 0 -0.046323657263432932 -0.1187475485850229 0 -0.061050978852012321 -0.1290213354191441 0 -0.060007406525312119 -0.1134014505963527 0 -0.059657178600186427 -0.10061459628389779 0 -0.041708993981339107 -0.097960176441919206 0 -0.052135626673901293 -0.085420521578809472 0 -0.059657178600186427 -0.10061459628389779 0 -0.041708993981339107 -0.097960176441919206 0 -0.060007406525312119 -0.1134014505963527 0 -0.041708993981339107 -0.097960176441919206 0 -0.06310439291707394 -0.099976928504534102 0 -0.060007406525312119 -0.1134014505963527 0 -0.059657178600186427 -0.10061459628389779 0 -0.06310439291707394 -0.099976928504534102 0 -0.052135626673901293 -0.085420521578809472 0 -0.059657178600186427 -0.10061459628389779 0 -0.06310439291707394 -0.099976928504534102 0 -0.059657178600186427 -0.10061459628389779 0 -0.034855687785163271 -0.092176954559414839 0 -0.031420116952718208 -0.1192078997252916 0 -0.034855687785163271 -0.092176954559414839 0 -0.038577113995663298 -0.1070231448279122 0 -0.031420116952718208 -0.1192078997252916 0 -0.041708993981339107 -0.097960176441919206 0 -0.038577113995663298 -0.1070231448279122 0 -0.046323657263432932 -0.1187475485850229 0 -0.041708993981339107 -0.097960176441919206 0 -0.046323657263432932 -0.1187475485850229 0 -0.034855687785163271 -0.092176954559414839 0 -0.041708993981339107 -0.097960176441919206 0 -0.038577113995663298 -0.1070231448279122 0 -0.034855687785163271 -0.092176954559414839 0 -0.041708993981339107 -0.097960176441919206 0 -0.038577113995663298 -0.1070231448279122 0 -0.046323657263432932 -0.1187475485850229 0 -0.031420116952718208 -0.1192078997252916 0 -0.046323657263432932 -0.1187475485850229 0 -0.031420116952718208 -0.1192078997252916 0 -0.039370079749631998 -0.13381785723444389 0 -0.019172126162611491 -0.1159130583413457 0 -0.006255808653915158 -0.12961134133280849 0 -0.022070915447973079 -0.12507428175509869 0 -0.031420116952718208 -0.1192078997252916 0 -0.019172126162611491 -0.1159130583413457 0 -0.022070915447973079 -0.12507428175509869 0 -0.031420116952718208 -0.1192078997252916 0 -0.019172126162611491 -0.1159130583413457 0 -0.019117458648777581 -0.1042393847331413 0 -0.034855687785163271 -0.092176954559414839 0 -0.031420116952718208 -0.1192078997252916 0 -0.026569496083541019 -0.099011239532018069 0 -0.031420116952718208 -0.1192078997252916 0 -0.026569496083541019 -0.099011239532018069 0 -0.019117458648777581 -0.1042393847331413 0 -0.019083369095817659 -0.092727292442805032 0 -0.026569496083541019 -0.099011239532018069 0 -0.019117458648777581 -0.1042393847331413 0 -0.019083369095817659 -0.092727292442805032 0 -0.019117458648777581 -0.1042393847331413 0 -0.01050052654403588 -0.096641030041260192 0 -0.019117458648777581 -0.1042393847331413 0 -0.01050052654403588 -0.096641030041260192 0 -0.0071315204405777094 -0.1046314443299273 0 -0.019117458648777581 -0.1042393847331413 0 -0.0071315204405777094 -0.1046314443299273 0 -0.0065521411640195489 -0.1138300235372187 0 -0.0071315204405777094 -0.1046314443299273 0 -0.0032681753368222072 -0.097396105460184401 0 0.0055003327058907071 -0.1083906823608586 0 -0.0071315204405777094 -0.1046314443299273 0 -0.0065521411640195489 -0.1138300235372187 0 0.0055003327058907071 -0.1083906823608586 0 -0.01050052654403588 -0.096641030041260192 0 -0.0071315204405777094 -0.1046314443299273 0 -0.0032681753368222072 -0.097396105460184401 0 -0.0056205606469964054 -0.093134027525927129 0 -0.01050052654403588 -0.096641030041260192 0 -0.0032681753368222072 -0.097396105460184401 0 -0.019172126162611491 -0.1159130583413457 0 -0.0065521411640195489 -0.1138300235372187 0 -0.006255808653915158 -0.12961134133280849 0 -0.019172126162611491 -0.1159130583413457 0 -0.019117458648777581 -0.1042393847331413 0 -0.0065521411640195489 -0.1138300235372187 0 -0.006255808653915158 -0.12961134133280849 0 -0.013648663268692931 -0.14332862135090571 0 0.0094105755256839122 -0.1480926995065347 0 -0.006255808653915158 -0.12961134133280849 0 -0.026816307780583162 -0.1348854845939888 0 -0.013648663268692931 -0.14332862135090571 0 -0.006255808653915158 -0.12961134133280849 0 -0.022070915447973079 -0.12507428175509869 0 -0.026816307780583162 -0.1348854845939888 0 -0.031420116952718208 -0.1192078997252916 0 -0.026816307780583162 -0.1348854845939888 0 -0.027984546120273662 -0.1462388448911684 0 -0.031420116952718208 -0.1192078997252916 0 -0.027984546120273662 -0.1462388448911684 0 -0.006255808653915158 -0.12961134133280849 0 -0.026816307780583162 -0.1348854845939888 0 -0.031420116952718208 -0.1192078997252916 0 -0.022070915447973079 -0.12507428175509869 0 -0.026816307780583162 -0.1348854845939888 0 -0.026816307780583162 -0.1348854845939888 0 -0.027984546120273662 -0.1462388448911684 0 -0.013648663268692931 -0.14332862135090571 0 -0.027984546120273662 -0.1462388448911684 0 -0.018827256303632151 -0.1551846305544517 0 -0.013648663268692931 -0.14332862135090571 0 -0.013648663268692931 -0.14332862135090571 0 -0.0091268405377329317 -0.15790126591868739 0 0.0094105755256839122 -0.1480926995065347 0 -0.018827256303632151 -0.1551846305544517 0 -0.013648663268692931 -0.14332862135090571 0 -0.0091268405377329317 -0.15790126591868739 0 -0.0097505840828698218 -0.1712515658163829 0 -0.0091268405377329317 -0.15790126591868739 0 0.004516460578614578 -0.17184820094144029 0 -0.0097505840828698218 -0.1712515658163829 0 -0.0091268405377329317 -0.15790126591868739 0 -0.024548975287829081 -0.1732697900570454 0 -0.0098429810845318561 -0.18198700634835871 0 -0.00037765436845475011 -0.19560370237634589 0 0.004516460578614578 -0.17184820094144029 0 -0.0097505840828698218 -0.1712515658163829 0 -0.0098429810845318561 -0.18198700634835871 0 0.004516460578614578 -0.17184820094144029 0 -0.0097505840828698218 -0.1712515658163829 0 -0.0098429810845318561 -0.18198700634835871 0 -0.024548975287829081 -0.1732697900570454 0 -0.024548975287829081 -0.1732697900570454 0 -0.02111340445538451 -0.2003007352229223 0 -0.0098429810845318561 -0.18198700634835871 0 -0.024548975287829081 -0.1732697900570454 0 -0.02111340445538451 -0.2003007352229223 0 -0.027984546120273662 -0.1462388448911684 0 -0.024548975287829081 -0.1732697900570454 0 -0.03913446414276537 -0.16027223878554281 0 -0.027984546120273662 -0.1462388448911684 0 -0.018827256303632151 -0.1551846305544517 0 -0.024548975287829081 -0.1732697900570454 0 -0.018827256303632151 -0.1551846305544517 0 -0.0091268405377329317 -0.15790126591868739 0 -0.024548975287829081 -0.1732697900570454 0 -0.027984546120273662 -0.1462388448911684 0 -0.024548975287829081 -0.1732697900570454 0 -0.024548975287829081 -0.1732697900570454 0 -0.03913446414276537 -0.16027223878554281 0 -0.045883444665165363 -0.17409197101751081 0 -0.03913446414276537 -0.16027223878554281 0 -0.045883444665165363 -0.17409197101751081 0 -0.055552983827618647 -0.16032229287123059 0 -0.024548975287829081 -0.1732697900570454 0 -0.045883444665165363 -0.17409197101751081 0 -0.044696439928931443 -0.19502612847968129 0 -0.045883444665165363 -0.17409197101751081 0 -0.055552983827618647 -0.16032229287123059 0 -0.065484360138682265 -0.1815694048940539 0 -0.045883444665165363 -0.17409197101751081 0 -0.044696439928931443 -0.19502612847968129 0 -0.065484360138682265 -0.1815694048940539 0 -0.055552983827618647 -0.16032229287123059 0 -0.050938320545525793 -0.1395349207281267 0 -0.069679690856505189 -0.14458003243543241 0 -0.055552983827618647 -0.16032229287123059 0 -0.050938320545525793 -0.1395349207281267 0 -0.055552983827618647 -0.16032229287123059 0 -0.050938320545525793 -0.1395349207281267 0 -0.042596078877163088 -0.1480372309021025 0 -0.061050978852012321 -0.1290213354191441 0 -0.050938320545525793 -0.1395349207281267 0 -0.069679690856505189 -0.14458003243543241 0 -0.046323657263432932 -0.1187475485850229 0 -0.061050978852012321 -0.1290213354191441 0 -0.050938320545525793 -0.1395349207281267 0 -0.046323657263432932 -0.1187475485850229 0 -0.050938320545525793 -0.1395349207281267 0 -0.050938320545525793 -0.1395349207281267 0 -0.039370079749631998 -0.13381785723444389 0 -0.042596078877163088 -0.1480372309021025 0 -0.031420116952718208 -0.1192078997252916 0 -0.027984546120273662 -0.1462388448911684 0 -0.039370079749631998 -0.13381785723444389 0 -0.046323657263432932 -0.1187475485850229 0 -0.050938320545525793 -0.1395349207281267 0 -0.039370079749631998 -0.13381785723444389 0 -0.027984546120273662 -0.1462388448911684 0 -0.039370079749631998 -0.13381785723444389 0 -0.042596078877163088 -0.1480372309021025 0 -0.03913446414276537 -0.16027223878554281 0 -0.055552983827618647 -0.16032229287123059 0 -0.042596078877163088 -0.1480372309021025 0 -0.027984546120273662 -0.1462388448911684 0 -0.03913446414276537 -0.16027223878554281 0 -0.042596078877163088 -0.1480372309021025 0 -0.014242262790494181 -0.25436262555467598 0 -0.01767783362293994 -0.22733168038879931 0 -0.014242262790494181 -0.25436262555467598 0 -0.01767783362293994 -0.22733168038879931 0 -0.032006049370809683 -0.2414171829525375 0 -0.014242262790494181 -0.25436262555467598 0 -0.0040268346632878179 -0.23544582594765409 0 0.0054077402359684022 -0.24803128275829681 0 -0.014242262790494181 -0.25436262555467598 0 -0.0040268346632878179 -0.23544582594765409 0 -0.01767783362293994 -0.22733168038879931 0 -0.0040268346632878179 -0.23544582594765409 0 -0.0052717693155240868 -0.21935920381125151 0 -0.01767783362293994 -0.22733168038879931 0 -0.01767783362293994 -0.22733168038879931 0 -0.035770801484537922 -0.21589745575483399 0 -0.032596190888852947 -0.2289516049813223 0 -0.01767783362293994 -0.22733168038879931 0 -0.032596190888852947 -0.2289516049813223 0 -0.032006049370809683 -0.2414171829525375 0 -0.01767783362293994 -0.22733168038879931 0 -0.02111340445538451 -0.2003007352229223 0 -0.01767783362293994 -0.22733168038879931 0 -0.02111340445538451 -0.2003007352229223 0 -0.035770801484537922 -0.21589745575483399 0 -0.0052717693155240868 -0.21935920381125151 0 -0.00037765436845475011 -0.19560370237634589 0 -0.02111340445538451 -0.2003007352229223 0 -0.0052717693155240868 -0.21935920381125151 0 -0.00037765436845475011 -0.19560370237634589 0 -0.0052717693155240868 -0.21935920381125151 0 -0.01767783362293994 -0.22733168038879931 0 -0.02111340445538451 -0.2003007352229223 0 -0.0098429810845318561 -0.18198700634835871 0 -0.00037765436845475011 -0.19560370237634589 0 -0.02111340445538451 -0.2003007352229223 0 -0.024548975287829081 -0.1732697900570454 0 -0.02111340445538451 -0.2003007352229223 0 -0.044696439928931443 -0.19502612847968129 0 -0.044696439928931443 -0.19502612847968129 0 -0.065332895683858708 -0.20357050838494101 0 -0.065484360138682265 -0.1815694048940539 0 -0.044696439928931443 -0.19502612847968129 0 -0.052852580757208903 -0.21525152499313099 0 -0.065332895683858708 -0.20357050838494101 0 -0.044696439928931443 -0.19502612847968129 0 -0.052852580757208903 -0.21525152499313099 0 -0.035770801484537922 -0.21589745575483399 0 -0.02111340445538451 -0.2003007352229223 0 -0.044696439928931443 -0.19502612847968129 0 -0.035770801484537922 -0.21589745575483399 0 -0.035770801484537922 -0.21589745575483399 0 -0.032596190888852947 -0.2289516049813223 0 -0.047650128981329629 -0.23233724367350331 0 -0.052852580757208903 -0.21525152499313099 0 -0.035770801484537922 -0.21589745575483399 0 -0.047650128981329629 -0.23233724367350331 0 -0.032596190888852947 -0.2289516049813223 0 -0.047650128981329629 -0.23233724367350331 0 -0.032006049370809683 -0.2414171829525375 0 -0.052852580757208903 -0.21525152499313099 0 -0.047650128981329629 -0.23233724367350331 0 -0.072290514366763925 -0.2264671950666523 0 -0.047650128981329629 -0.23233724367350331 0 -0.065966051164906045 -0.2483348353079719 0 -0.072290514366763925 -0.2264671950666523 0 -0.047650128981329629 -0.23233724367350331 0 -0.046799964515636311 -0.24920753124184811 0 -0.065966051164906045 -0.2483348353079719 0 -0.047650128981329629 -0.23233724367350331 0 -0.046799964515636311 -0.24920753124184811 0 -0.032006049370809683 -0.2414171829525375 0 -0.085099214246944763 -0.24380688298698661 0 -0.065966051164906045 -0.2483348353079719 0 -0.072290514366763925 -0.2264671950666523 0 -0.072290514366763925 -0.2264671950666523 0 -0.091662591387593695 -0.21377586001299681 0 -0.098320394277497072 -0.2311064460740479 0 -0.085099214246944763 -0.24380688298698661 0 -0.072290514366763925 -0.2264671950666523 0 -0.098320394277497072 -0.2311064460740479 0 -0.091662591387593695 -0.21377586001299681 0 -0.065332895683858708 -0.20357050838494101 0 -0.083785919357256156 -0.19426515169319319 0 -0.052852580757208903 -0.21525152499313099 0 -0.072290514366763925 -0.2264671950666523 0 -0.065332895683858708 -0.20357050838494101 0 -0.072290514366763925 -0.2264671950666523 0 -0.091662591387593695 -0.21377586001299681 0 -0.065332895683858708 -0.20357050838494101 0 -0.065332895683858708 -0.20357050838494101 0 -0.083785919357256156 -0.19426515169319319 0 -0.065484360138682265 -0.1815694048940539 0 -0.091662591387593695 -0.21377586001299681 0 -0.083785919357256156 -0.19426515169319319 0 -0.1015890992290011 -0.19897460394336289 0 -0.1015890992290011 -0.19897460394336289 0 -0.097969849089404981 -0.1826333832679137 0 -0.1109916552247347 -0.18613106153322251 0 -0.083785919357256156 -0.19426515169319319 0 -0.1015890992290011 -0.19897460394336289 0 -0.097969849089404981 -0.1826333832679137 0 -0.1189044176714576 -0.20095678806107439 0 -0.125053449611397 -0.1757763260007012 0 -0.1189044176714576 -0.20095678806107439 0 -0.125053449611397 -0.1757763260007012 0 -0.13077023872427199 -0.18821095084207851 0 -0.1189044176714576 -0.20095678806107439 0 -0.1109916552247347 -0.18613106153322251 0 -0.125053449611397 -0.1757763260007012 0 -0.1015890992290011 -0.19897460394336289 0 -0.1189044176714576 -0.20095678806107439 0 -0.1109916552247347 -0.18613106153322251 0 -0.1015890992290011 -0.19897460394336289 0 -0.1189044176714576 -0.20095678806107439 0 -0.11046610995513501 -0.2167686491370299 0 -0.1189044176714576 -0.20095678806107439 0 -0.11046610995513501 -0.2167686491370299 0 -0.12980363706060791 -0.2180938268571638 0 -0.091662591387593695 -0.21377586001299681 0 -0.1015890992290011 -0.19897460394336289 0 -0.11046610995513501 -0.2167686491370299 0 -0.11046610995513501 -0.2167686491370299 0 -0.098320394277497072 -0.2311064460740479 0 -0.117963685465532 -0.23429398274213581 0 -0.091662591387593695 -0.21377586001299681 0 -0.11046610995513501 -0.2167686491370299 0 -0.098320394277497072 -0.2311064460740479 0 -0.11046610995513501 -0.2167686491370299 0 -0.117963685465532 -0.23429398274213581 0 -0.12980363706060791 -0.2180938268571638 0 -0.1034683851570302 -0.25081812964332789 0 -0.12328477412140371 -0.25011208707580329 0 -0.117963685465532 -0.23429398274213581 0 -0.1034683851570302 -0.25081812964332789 0 -0.098320394277497072 -0.2311064460740479 0 -0.117963685465532 -0.23429398274213581 0 -0.1034683851570302 -0.25081812964332789 0 -0.085099214246944763 -0.24380688298698661 0 -0.098320394277497072 -0.2311064460740479 0 -0.069679690856505189 -0.14458003243543241 0 -0.079541392476400852 -0.16281179123563311 0 -0.09654459087096183 -0.14435467512636879 0 -0.079824491894017538 -0.12216580181545179 0 -0.09654459087096183 -0.14435467512636879 0 -0.07830581906928559 -0.12884272475078559 0 -0.069679690856505189 -0.14458003243543241 0 -0.09654459087096183 -0.14435467512636879 0 -0.07830581906928559 -0.12884272475078559 0 -0.09654459087096183 -0.14435467512636879 0 -0.079824491894017538 -0.12216580181545179 0 -0.07830581906928559 -0.12884272475078559 0 -0.09654459087096183 -0.14435467512636879 0 -0.061050978852012321 -0.1290213354191441 0 -0.07830581906928559 -0.12884272475078559 0 -0.069679690856505189 -0.14458003243543241 0 -0.055552983827618647 -0.16032229287123059 0 -0.069679690856505189 -0.14458003243543241 0 -0.079541392476400852 -0.16281179123563311 0 -0.055552983827618647 -0.16032229287123059 0 -0.065484360138682265 -0.1815694048940539 0 -0.079541392476400852 -0.16281179123563311 0 -0.065484360138682265 -0.1815694048940539 0 -0.081126438528339229 -0.1783929530695231 0 -0.079541392476400852 -0.16281179123563311 0 -0.083785919357256156 -0.19426515169319319 0 -0.065484360138682265 -0.1815694048940539 0 -0.081126438528339229 -0.1783929530695231 0 -0.081126438528339229 -0.1783929530695231 0 -0.096573696365181122 -0.16400276755074669 0 -0.097969849089404981 -0.1826333832679137 0 -0.083785919357256156 -0.19426515169319319 0 -0.081126438528339229 -0.1783929530695231 0 -0.097969849089404981 -0.1826333832679137 0 -0.081126438528339229 -0.1783929530695231 0 -0.079541392476400852 -0.16281179123563311 0 -0.096573696365181122 -0.16400276755074669 0 -0.079541392476400852 -0.16281179123563311 0 -0.096573696365181122 -0.16400276755074669 0 -0.09654459087096183 -0.14435467512636879 0 -0.096573696365181122 -0.16400276755074669 0 -0.1116904955327109 -0.17235428182270371 0 -0.11113698875821421 -0.1565475920860899 0 -0.096573696365181122 -0.16400276755074669 0 -0.097969849089404981 -0.1826333832679137 0 -0.1116904955327109 -0.17235428182270371 0 -0.097969849089404981 -0.1826333832679137 0 -0.1109916552247347 -0.18613106153322251 0 -0.1116904955327109 -0.17235428182270371 0 -0.1109916552247347 -0.18613106153322251 0 -0.1116904955327109 -0.17235428182270371 0 -0.125053449611397 -0.1757763260007012 0 -0.1116904955327109 -0.17235428182270371 0 -0.12566974590316929 -0.1688111852669614 0 -0.125053449611397 -0.1757763260007012 0 -0.1116904955327109 -0.17235428182270371 0 -0.11113698875821421 -0.1565475920860899 0 -0.12566974590316929 -0.1688111852669614 0 -0.11113698875821421 -0.1565475920860899 0 -0.1220625944260179 -0.1555475155763848 0 -0.12566974590316929 -0.1688111852669614 0 -0.11113698875821421 -0.1565475920860899 0 -0.12566974590316929 -0.1688111852669614 0 -0.11113698875821421 -0.1565475920860899 0 -0.1220625944260179 -0.1555475155763848 0 -0.11875687874594019 -0.1372593560808682 0 -0.1220625944260179 -0.1555475155763848 0 -0.11875687874594019 -0.1372593560808682 0 -0.1312024815513364 -0.15059586394032801 0 -0.11113698875821421 -0.1565475920860899 0 -0.09654459087096183 -0.14435467512636879 0 -0.11875687874594019 -0.1372593560808682 0 -0.11113698875821421 -0.1565475920860899 0 -0.09654459087096183 -0.14435467512636879 0 -0.096573696365181122 -0.16400276755074669 0 -0.11113698875821421 -0.1565475920860899 0 -0.09654459087096183 -0.14435467512636879 0 -0.10605473682518669 -0.1166633748805592 0 -0.09654459087096183 -0.14435467512636879 0 -0.11875687874594019 -0.1372593560808682 0 -0.079824491894017538 -0.12216580181545179 0 -0.10605473682518669 -0.1166633748805592 0 -0.09654459087096183 -0.14435467512636879 0 -0.13735151349127581 -0.1254154018799547 0 -0.1312024815513364 -0.15059586394032801 0 -0.11875687874594019 -0.1372593560808682 0 -0.13735151349127581 -0.1254154018799547 0 -0.1312024815513364 -0.15059586394032801 0 -0.13735151349127581 -0.1254154018799547 0 -0.14800652857090349 -0.14767312795056831 0 -0.1560332016605003 -0.1231680344268509 0 -0.13735151349127581 -0.1254154018799547 0 -0.14800652857090349 -0.14767312795056831 0 -0.1312024815513364 -0.15059586394032801 0 -0.14800652857090349 -0.14767312795056831 0 -0.1312024815513364 -0.15059586394032801 0 -0.13795600753902459 -0.16335276397715651 0 -0.1312024815513364 -0.15059586394032801 0 -0.125053449611397 -0.1757763260007012 0 -0.1220625944260179 -0.1555475155763848 0 -0.1312024815513364 -0.15059586394032801 0 -0.12566974590316929 -0.1688111852669614 0 -0.1312024815513364 -0.15059586394032801 0 -0.12566974590316929 -0.1688111852669614 0 -0.125053449611397 -0.1757763260007012 0 -0.1312024815513364 -0.15059586394032801 0 -0.13795600753902459 -0.16335276397715651 0 -0.125053449611397 -0.1757763260007012 0 -0.125053449611397 -0.1757763260007012 0 -0.1384970065377028 -0.17727387122575669 0 -0.13077023872427199 -0.18821095084207851 0 -0.13795600753902459 -0.16335276397715651 0 -0.125053449611397 -0.1757763260007012 0 -0.1384970065377028 -0.17727387122575669 0 -0.1384970065377028 -0.17727387122575669 0 -0.15575366125178519 -0.18173754169600539 0 -0.1477683453935186 -0.16628019816272169 0 -0.1384970065377028 -0.17727387122575669 0 -0.15575366125178519 -0.18173754169600539 0 -0.14150504352553189 -0.19702882388976439 0 -0.14800652857090349 -0.14767312795056831 0 -0.13795600753902459 -0.16335276397715651 0 -0.1477683453935186 -0.16628019816272169 0 -0.14800652857090349 -0.14767312795056831 0 -0.1477683453935186 -0.16628019816272169 0 -0.16127919286468759 -0.16065896530092011 0 -0.15575366125178519 -0.18173754169600539 0 -0.1477683453935186 -0.16628019816272169 0 -0.16127919286468759 -0.16065896530092011 0 -0.13795600753902459 -0.16335276397715651 0 -0.1384970065377028 -0.17727387122575669 0 -0.1477683453935186 -0.16628019816272169 0 -0.16127919286468759 -0.16065896530092011 0 -0.16985593855773831 -0.1733760048302084 0 -0.18284421028580339 -0.15731778523749351 0 -0.15575366125178519 -0.18173754169600539 0 -0.16127919286468759 -0.16065896530092011 0 -0.16985593855773831 -0.1733760048302084 0 -0.15575366125178519 -0.18173754169600539 0 -0.16985593855773831 -0.1733760048302084 0 -0.16855634485042281 -0.19783999562748991 0 -0.16985593855773831 -0.1733760048302084 0 -0.19170683738853611 -0.19052255557805509 0 -0.19111323774934269 -0.17391133179527671 0 -0.16985593855773831 -0.1733760048302084 0 -0.16855634485042281 -0.19783999562748991 0 -0.19170683738853611 -0.19052255557805509 0 -0.16985593855773831 -0.1733760048302084 0 -0.18284421028580339 -0.15731778523749351 0 -0.19111323774934269 -0.17391133179527671 0 -0.18284421028580339 -0.15731778523749351 0 -0.1861077769716222 -0.13910116527453781 0 -0.1689321055301852 -0.1415089014386125 0 -0.1861077769716222 -0.13910116527453781 0 -0.1689321055301852 -0.1415089014386125 0 -0.1775948614377664 -0.1182258334164261 0 -0.1689321055301852 -0.1415089014386125 0 -0.1775948614377664 -0.1182258334164261 0 -0.1560332016605003 -0.1231680344268509 0 -0.14800652857090349 -0.14767312795056831 0 -0.1689321055301852 -0.1415089014386125 0 -0.1560332016605003 -0.1231680344268509 0 -0.16127919286468759 -0.16065896530092011 0 -0.18284421028580339 -0.15731778523749351 0 -0.1689321055301852 -0.1415089014386125 0 -0.14800652857090349 -0.14767312795056831 0 -0.16127919286468759 -0.16065896530092011 0 -0.1689321055301852 -0.1415089014386125 0 -0.16213576413331901 -0.25364819393533983 0 -0.15601206104061149 -0.23801114995441899 0 -0.1396029791942078 -0.24239269199167149 0 -0.12328477412140371 -0.25011208707580329 0 -0.117963685465532 -0.23429398274213581 0 -0.1396029791942078 -0.24239269199167149 0 -0.1396029791942078 -0.24239269199167149 0 -0.1503795865517831 -0.21712202532130681 0 -0.12980363706060791 -0.2180938268571638 0 -0.117963685465532 -0.23429398274213581 0 -0.1396029791942078 -0.24239269199167149 0 -0.12980363706060791 -0.2180938268571638 0 -0.15601206104061149 -0.23801114995441899 0 -0.1396029791942078 -0.24239269199167149 0 -0.1503795865517831 -0.21712202532130681 0 -0.1503795865517831 -0.21712202532130681 0 -0.14150504352553189 -0.19702882388976439 0 -0.16855634485042281 -0.19783999562748991 0 -0.1189044176714576 -0.20095678806107439 0 -0.12980363706060791 -0.2180938268571638 0 -0.14150504352553189 -0.19702882388976439 0 -0.1503795865517831 -0.21712202532130681 0 -0.12980363706060791 -0.2180938268571638 0 -0.14150504352553189 -0.19702882388976439 0 -0.1189044176714576 -0.20095678806107439 0 -0.13077023872427199 -0.18821095084207851 0 -0.14150504352553189 -0.19702882388976439 0 -0.1384970065377028 -0.17727387122575669 0 -0.13077023872427199 -0.18821095084207851 0 -0.14150504352553189 -0.19702882388976439 0 -0.15575366125178519 -0.18173754169600539 0 -0.14150504352553189 -0.19702882388976439 0 -0.16855634485042281 -0.19783999562748991 0 -0.16855634485042281 -0.19783999562748991 0 -0.19240368303710981 -0.20693450017179579 0 -0.19170683738853611 -0.19052255557805509 0 -0.16855634485042281 -0.19783999562748991 0 -0.1783080466822676 -0.21743944121185971 0 -0.19240368303710981 -0.20693450017179579 0 -0.1503795865517831 -0.21712202532130681 0 -0.16855634485042281 -0.19783999562748991 0 -0.1783080466822676 -0.21743944121185971 0 -0.1503795865517831 -0.21712202532130681 0 -0.1783080466822676 -0.21743944121185971 0 -0.1503795865517831 -0.21712202532130681 0 -0.1783080466822676 -0.21743944121185971 0 -0.17275209235147329 -0.2366739006357628 0 -0.15601206104061149 -0.23801114995441899 0 -0.1503795865517831 -0.21712202532130681 0 -0.17275209235147329 -0.2366739006357628 0 -0.1783080466822676 -0.21743944121185971 0 -0.17275209235147329 -0.2366739006357628 0 -0.1927269721952623 -0.23802934634911169 0 -0.17894125144676101 -0.25938846464192622 0 -0.17275209235147329 -0.2366739006357628 0 -0.1927269721952623 -0.23802934634911169 0 -0.16213576413331901 -0.25364819393533983 0 -0.15601206104061149 -0.23801114995441899 0 -0.17275209235147329 -0.2366739006357628 0 -0.16213576413331901 -0.25364819393533983 0 -0.17894125144676101 -0.25938846464192622 0 -0.17275209235147329 -0.2366739006357628 0 -0.19639510293617601 -0.25611154843722972 0 -0.2169351205791176 -0.23928729075814181 0 -0.1927269721952623 -0.23802934634911169 0 -0.1927269721952623 -0.23802934634911169 0 -0.2062365068127521 -0.2177568571024138 0 -0.1783080466822676 -0.21743944121185971 0 -0.1927269721952623 -0.23802934634911169 0 -0.2062365068127521 -0.2177568571024138 0 -0.2169351205791176 -0.23928729075814181 0 -0.1927269721952623 -0.23802934634911169 0 -0.2062365068127521 -0.2177568571024138 0 -0.2062365068127521 -0.2177568571024138 0 -0.21747186570935539 -0.20089700967885579 0 -0.2062365068127521 -0.2177568571024138 0 -0.19240368303710981 -0.20693450017179579 0 -0.21747186570935539 -0.20089700967885579 0 -0.1783080466822676 -0.21743944121185971 0 -0.2062365068127521 -0.2177568571024138 0 -0.1783080466822676 -0.21743944121185971 0 -0.2062365068127521 -0.2177568571024138 0 -0.19240368303710981 -0.20693450017179579 0 -0.19240368303710981 -0.20693450017179579 0 -0.19170683738853611 -0.19052255557805509 0 -0.21747186570935539 -0.20089700967885579 0 -0.21747186570935539 -0.20089700967885579 0 -0.20953273281970819 -0.18343286114378951 0 -0.22870722460595819 -0.1840371622552974 0 -0.19170683738853611 -0.19052255557805509 0 -0.21747186570935539 -0.20089700967885579 0 -0.20953273281970819 -0.18343286114378951 0 -0.21747186570935539 -0.20089700967885579 0 -0.24233895379904119 -0.19883865737118309 0 -0.22870722460595819 -0.1840371622552974 0 -0.21747186570935539 -0.20089700967885579 0 -0.22870722460595819 -0.1840371622552974 0 -0.24233895379904119 -0.19883865737118309 0 -0.22870722460595819 -0.1840371622552974 0 -0.25213976956776912 -0.17972188853128571 0 -0.24233895379904119 -0.19883865737118309 0 -0.23597594808743019 -0.21809485537344661 0 -0.25931235666459518 -0.21515005566809051 0 -0.2062365068127521 -0.2177568571024138 0 -0.21747186570935539 -0.20089700967885579 0 -0.23597594808743019 -0.21809485537344661 0 -0.2062365068127521 -0.2177568571024138 0 -0.23597594808743019 -0.21809485537344661 0 -0.21747186570935539 -0.20089700967885579 0 -0.24233895379904119 -0.19883865737118309 0 -0.23597594808743019 -0.21809485537344661 0 -0.2169351205791176 -0.23928729075814181 0 -0.2062365068127521 -0.2177568571024138 0 -0.23597594808743019 -0.21809485537344661 0 -0.2169351205791176 -0.23928729075814181 0 -0.23597594808743019 -0.21809485537344661 0 -0.24557627095320059 -0.23690452528774539 0 -0.23597594808743019 -0.21809485537344661 0 -0.24557627095320059 -0.23690452528774539 0 -0.25931235666459518 -0.21515005566809051 0 -0.25606843302098309 -0.25636966241633519 0 -0.2345738197544574 -0.2535776733873526 0 -0.24557627095320059 -0.23690452528774539 0 -0.2345738197544574 -0.2535776733873526 0 -0.2169351205791176 -0.23928729075814181 0 -0.24557627095320059 -0.23690452528774539 0 -0.2038423063621371 -0.1494861964795999 0 -0.20170654937518009 -0.13151814125817499 0 -0.2235688581138002 -0.14624382250616141 0 -0.2038423063621371 -0.1494861964795999 0 -0.21894243019015369 -0.1659596527112088 0 -0.2235688581138002 -0.14624382250616141 0 -0.20170654937518009 -0.13151814125817499 0 -0.2235688581138002 -0.14624382250616141 0 -0.22057226728629489 -0.122069136388385 0 -0.1861077769716222 -0.13910116527453781 0 -0.20170654937518009 -0.13151814125817499 0 -0.1775948614377664 -0.1182258334164261 0 -0.1861077769716222 -0.13910116527453781 0 -0.2038423063621371 -0.1494861964795999 0 -0.20170654937518009 -0.13151814125817499 0 -0.18284421028580339 -0.15731778523749351 0 -0.1861077769716222 -0.13910116527453781 0 -0.2038423063621371 -0.1494861964795999 0 -0.18284421028580339 -0.15731778523749351 0 -0.20162646969492751 -0.16490745218683669 0 -0.19111323774934269 -0.17391133179527671 0 -0.18284421028580339 -0.15731778523749351 0 -0.2038423063621371 -0.1494861964795999 0 -0.20162646969492751 -0.16490745218683669 0 -0.19170683738853611 -0.19052255557805509 0 -0.19111323774934269 -0.17391133179527671 0 -0.20953273281970819 -0.18343286114378951 0 -0.20162646969492751 -0.16490745218683669 0 -0.19111323774934269 -0.17391133179527671 0 -0.20953273281970819 -0.18343286114378951 0 -0.20162646969492751 -0.16490745218683669 0 -0.20953273281970819 -0.18343286114378951 0 -0.21894243019015369 -0.1659596527112088 0 -0.2038423063621371 -0.1494861964795999 0 -0.20162646969492751 -0.16490745218683669 0 -0.21894243019015369 -0.1659596527112088 0 -0.21894243019015369 -0.1659596527112088 0 -0.23994258350256101 -0.167177314831739 0 -0.2235688581138002 -0.14624382250616141 0 -0.20953273281970819 -0.18343286114378951 0 -0.21894243019015369 -0.1659596527112088 0 -0.22870722460595819 -0.1840371622552974 0 -0.22870722460595819 -0.1840371622552974 0 -0.23994258350256101 -0.167177314831739 0 -0.21894243019015369 -0.1659596527112088 0 -0.22870722460595819 -0.1840371622552974 0 -0.23994258350256101 -0.167177314831739 0 -0.22870722460595819 -0.1840371622552974 0 -0.23994258350256101 -0.167177314831739 0 -0.25213976956776912 -0.17972188853128571 0 -0.23994258350256101 -0.167177314831739 0 -0.24483425335123449 -0.1489253450313042 0 -0.25910388458026251 -0.16297733371699899 0 -0.24483425335123449 -0.1489253450313042 0 -0.2235688581138002 -0.14624382250616141 0 -0.24191771928431799 -0.12823304492456691 0 -0.23994258350256101 -0.167177314831739 0 -0.24483425335123449 -0.1489253450313042 0 -0.2235688581138002 -0.14624382250616141 0 -0.2235688581138002 -0.14624382250616141 0 -0.24191771928431799 -0.12823304492456691 0 -0.22057226728629489 -0.122069136388385 0 -0.24483425335123449 -0.1489253450313042 0 -0.24191771928431799 -0.12823304492456691 0 -0.25963822127523101 -0.1399952091770548 0 -0.24191771928431799 -0.12823304492456691 0 -0.24896736677396131 -0.110470745124257 0 -0.2334216025025278 -0.10906856233594529 0 -0.24896736677396131 -0.110470745124257 0 -0.24458770130138421 -0.096198659347011356 0 -0.2334216025025278 -0.10906856233594529 0 -0.24458770130138421 -0.096198659347011356 0 -0.2334216025025278 -0.10906856233594529 0 -0.2280902733408218 -0.095855085708708473 0 -0.2334216025025278 -0.10906856233594529 0 -0.2280902733408218 -0.095855085708708473 0 -0.21467626444562421 -0.1024117207182899 0 -0.2280902733408218 -0.095855085708708473 0 -0.21400777297599591 -0.09031122451116913 0 -0.21467626444562421 -0.1024117207182899 0 -0.2334216025025278 -0.10906856233594529 0 -0.22057226728629489 -0.122069136388385 0 -0.21467626444562421 -0.1024117207182899 0 -0.24191771928431799 -0.12823304492456691 0 -0.2334216025025278 -0.10906856233594529 0 -0.22057226728629489 -0.122069136388385 0 -0.24822306745508471 -0.073546667267469987 0 -0.2395799854963786 -0.074791947309699194 0 -0.24000929069603499 -0.082805528122219613 0 -0.2386960838138551 -0.0674958718261746 0 -0.2395799854963786 -0.074791947309699194 0 -0.23236750438056281 -0.077032323614342868 0 -0.2386960838138551 -0.0674958718261746 0 -0.24822306745508471 -0.073546667267469987 0 -0.2395799854963786 -0.074791947309699194 0 -0.24822306745508471 -0.073546667267469987 0 -0.24000929069603499 -0.082805528122219613 0 -0.25609121651680272 -0.080824474624059367 0 -0.24458770130138421 -0.096198659347011356 0 -0.24000929069603499 -0.082805528122219613 0 -0.25609121651680272 -0.080824474624059367 0 -0.24458770130138421 -0.096198659347011356 0 -0.2280902733408218 -0.095855085708708473 0 -0.24000929069603499 -0.082805528122219613 0 -0.2395799854963786 -0.074791947309699194 0 -0.24000929069603499 -0.082805528122219613 0 -0.23236750438056281 -0.077032323614342868 0 -0.2280902733408218 -0.095855085708708473 0 -0.24000929069603499 -0.082805528122219613 0 -0.2252970237093406 -0.083382551044912476 0 -0.2280902733408218 -0.095855085708708473 0 -0.2252970237093406 -0.083382551044912476 0 -0.21400777297599591 -0.09031122451116913 0 -0.2252970237093406 -0.083382551044912476 0 -0.22338890353044971 -0.076350692563550537 0 -0.21018466667522101 -0.081112477132933736 0 -0.2252970237093406 -0.083382551044912476 0 -0.23236750438056281 -0.077032323614342868 0 -0.22338890353044971 -0.076350692563550537 0 -0.24000929069603499 -0.082805528122219613 0 -0.2252970237093406 -0.083382551044912476 0 -0.23236750438056281 -0.077032323614342868 0 -0.2386960838138551 -0.0674958718261746 0 -0.22338890353044971 -0.076350692563550537 0 -0.2103992390732688 -0.07273023919938898 0 -0.2386960838138551 -0.0674958718261746 0 -0.2103992390732688 -0.07273023919938898 0 -0.23285573266224729 -0.063774905205547947 0 -0.2103992390732688 -0.07273023919938898 0 -0.2386960838138551 -0.0674958718261746 0 -0.23285573266224729 -0.063774905205547947 0 -0.2103992390732688 -0.07273023919938898 0 -0.21899459544886141 -0.062983878595794143 0 -0.23285573266224729 -0.063774905205547947 0 -0.2103992390732688 -0.07273023919938898 0 -0.2386960838138551 -0.0674958718261746 0 -0.23236750438056281 -0.077032323614342868 0 -0.22338890353044971 -0.076350692563550537 0 -0.21899459544886141 -0.062983878595794143 0 -0.2103992390732688 -0.07273023919938898 0 -0.20605187494492669 -0.058831579259914099 0 -0.22338890353044971 -0.076350692563550537 0 -0.2103992390732688 -0.07273023919938898 0 -0.21018466667522101 -0.081112477132933736 0 -0.2103992390732688 -0.07273023919938898 0 -0.21018466667522101 -0.081112477132933736 0 -0.19507230964110131 -0.078842403220955218 0 -0.2252970237093406 -0.083382551044912476 0 -0.21018466667522101 -0.081112477132933736 0 -0.2252970237093406 -0.083382551044912476 0 -0.21018466667522101 -0.081112477132933736 0 -0.21400777297599591 -0.09031122451116913 0 -0.21018466667522101 -0.081112477132933736 0 -0.21400777297599591 -0.09031122451116913 0 -0.20379002232792429 -0.086880947209857756 0 -0.21400777297599591 -0.09031122451116913 0 -0.20379002232792429 -0.086880947209857756 0 -0.203860371048041 -0.09453160534911699 0 -0.19582499129926209 -0.089607025835113471 0 -0.19332026218180709 -0.10720178491687229 0 -0.18493397498843411 -0.082885428575569423 0 -0.20379002232792429 -0.086880947209857756 0 -0.19582499129926209 -0.089607025835113471 0 -0.203860371048041 -0.09453160534911699 0 -0.19507230964110131 -0.078842403220955218 0 -0.18493397498843411 -0.082885428575569423 0 -0.18529593429106381 -0.077373863628770995 0 -0.19582499129926209 -0.089607025835113471 0 -0.19507230964110131 -0.078842403220955218 0 -0.18493397498843411 -0.082885428575569423 0 -0.19507230964110131 -0.078842403220955218 0 -0.18493397498843411 -0.082885428575569423 0 -0.21018466667522101 -0.081112477132933736 0 -0.19507230964110131 -0.078842403220955218 0 -0.20379002232792429 -0.086880947209857756 0 -0.19582499129926209 -0.089607025835113471 0 -0.19507230964110131 -0.078842403220955218 0 -0.21018466667522101 -0.081112477132933736 0 -0.20379002232792429 -0.086880947209857756 0 -0.19507230964110131 -0.078842403220955218 0 -0.18205038494476641 -0.074524350374062326 0 -0.20605187494492669 -0.058831579259914099 0 -0.2103992390732688 -0.07273023919938898 0 -0.18529593429106381 -0.077373863628770995 0 -0.18529593429106381 -0.077373863628770995 0 -0.18205038494476641 -0.074524350374062326 0 -0.20605187494492669 -0.058831579259914099 0 -0.18205038494476641 -0.074524350374062326 0 -0.1892827433445983 -0.0557116065585576 0 -0.20605187494492669 -0.058831579259914099 0 -0.2103992390732688 -0.07273023919938898 0 -0.19507230964110131 -0.078842403220955218 0 -0.18529593429106381 -0.077373863628770995 0 -0.2103992390732688 -0.07273023919938898 0 -0.18529593429106381 -0.077373863628770995 0 -0.20605187494492669 -0.058831579259914099 0 -0.2103992390732688 -0.07273023919938898 0 -0.19507230964110131 -0.078842403220955218 0 -0.19507230964110131 -0.078842403220955218 0 -0.18529593429106381 -0.077373863628770995 0 -0.20170654937518009 -0.13151814125817499 0 -0.22057226728629489 -0.122069136388385 0 -0.20756883582222649 -0.1158001958204305 0 -0.22057226728629489 -0.122069136388385 0 -0.20756883582222649 -0.1158001958204305 0 -0.21467626444562421 -0.1024117207182899 0 -0.21467626444562421 -0.1024117207182899 0 -0.203860371048041 -0.09453160534911699 0 -0.19332026218180709 -0.10720178491687229 0 -0.20756883582222649 -0.1158001958204305 0 -0.21467626444562421 -0.1024117207182899 0 -0.19332026218180709 -0.10720178491687229 0 -0.21400777297599591 -0.09031122451116913 0 -0.21467626444562421 -0.1024117207182899 0 -0.203860371048041 -0.09453160534911699 0 -0.19332026218180709 -0.10720178491687229 0 -0.18493397498843411 -0.082885428575569423 0 -0.19582499129926209 -0.089607025835113471 0 -0.203860371048041 -0.09453160534911699 0 -0.19332026218180709 -0.10720178491687229 0 -0.20170654937518009 -0.13151814125817499 0 -0.20756883582222649 -0.1158001958204305 0 -0.19332026218180709 -0.10720178491687229 0 -0.20170654937518009 -0.13151814125817499 0 -0.19332026218180709 -0.10720178491687229 0 -0.1775948614377664 -0.1182258334164261 0 -0.20170654937518009 -0.13151814125817499 0 -0.19332026218180709 -0.10720178491687229 0 -0.1775948614377664 -0.1182258334164261 0 -0.16081365550165591 -0.1059500020559624 0 -0.1560332016605003 -0.1231680344268509 0 -0.1775948614377664 -0.1182258334164261 0 -0.16081365550165591 -0.1059500020559624 0 -0.17085217410117681 -0.10030438371638591 0 -0.16346843359672319 -0.095185153576860485 0 -0.16081365550165591 -0.1059500020559624 0 -0.15436067030331141 -0.094805710280579936 0 -0.16346843359672319 -0.095185153576860485 0 -0.17085217410117681 -0.10030438371638591 0 -0.16843403659680509 -0.089465372082304553 0 -0.16346843359672319 -0.095185153576860485 0 -0.16081365550165591 -0.1059500020559624 0 -0.17085217410117681 -0.10030438371638591 0 -0.19332026218180709 -0.10720178491687229 0 -0.18129737965398771 -0.097743947142782811 0 -0.18493397498843411 -0.082885428575569423 0 -0.19332026218180709 -0.10720178491687229 0 -0.1775948614377664 -0.1182258334164261 0 -0.18129737965398771 -0.097743947142782811 0 -0.17085217410117681 -0.10030438371638591 0 -0.18129737965398771 -0.097743947142782811 0 -0.16843403659680509 -0.089465372082304553 0 -0.1775948614377664 -0.1182258334164261 0 -0.17085217410117681 -0.10030438371638591 0 -0.18129737965398771 -0.097743947142782811 0 -0.18493397498843411 -0.082885428575569423 0 -0.16843403659680509 -0.089465372082304553 0 -0.18493397498843411 -0.082885428575569423 0 -0.17780724324644781 -0.082363374697287856 0 -0.16843403659680509 -0.089465372082304553 0 -0.18129737965398771 -0.097743947142782811 0 -0.18493397498843411 -0.082885428575569423 0 -0.16843403659680509 -0.089465372082304553 0 -0.18493397498843411 -0.082885428575569423 0 -0.18529593429106381 -0.077373863628770995 0 -0.1829095011046403 -0.077015390115541427 0 -0.18493397498843411 -0.082885428575569423 0 -0.1829095011046403 -0.077015390115541427 0 -0.18493397498843411 -0.082885428575569423 0 -0.17780724324644781 -0.082363374697287856 0 -0.1829095011046403 -0.077015390115541427 0 -0.17780724324644781 -0.082363374697287856 0 -0.17469212730839059 -0.079335362227318851 0 -0.1829095011046403 -0.077015390115541427 0 -0.17469212730839059 -0.079335362227318851 0 -0.1829095011046403 -0.077015390115541427 0 -0.17780724324644781 -0.082363374697287856 0 -0.17469212730839059 -0.079335362227318851 0 -0.16843403659680509 -0.089465372082304553 0 -0.18529593429106381 -0.077373863628770995 0 -0.1829095011046403 -0.077015390115541427 0 -0.18529593429106381 -0.077373863628770995 0 -0.1829095011046403 -0.077015390115541427 0 -0.18205038494476641 -0.074524350374062326 0 -0.1829095011046403 -0.077015390115541427 0 -0.18205038494476641 -0.074524350374062326 0 -0.1829095011046403 -0.077015390115541427 0 -0.18205038494476641 -0.074524350374062326 0 -0.17911272609604881 -0.076445064793212086 0 -0.18205038494476641 -0.074524350374062326 0 -0.17911272609604881 -0.076445064793212086 0 -0.1829095011046403 -0.077015390115541427 0 -0.17911272609604881 -0.076445064793212086 0 -0.18205038494476641 -0.074524350374062326 0 -0.17911272609604881 -0.076445064793212086 0 -0.17248564552130599 -0.063102324544197189 0 -0.17469212730839059 -0.079335362227318851 0 -0.1829095011046403 -0.077015390115541427 0 -0.17911272609604881 -0.076445064793212086 0 -0.17469212730839059 -0.079335362227318851 0 -0.17911272609604881 -0.076445064793212086 0 -0.17911272609604881 -0.076445064793212086 0 -0.16099188046657451 -0.073723076500214951 0 -0.17469212730839059 -0.079335362227318851 0 -0.17911272609604881 -0.076445064793212086 0 -0.16099188046657451 -0.073723076500214951 0 -0.17911272609604881 -0.076445064793212086 0 -0.17248564552130599 -0.063102324544197189 0 -0.16099188046657451 -0.073723076500214951 0 -0.17248564552130599 -0.063102324544197189 0 -0.16099188046657451 -0.073723076500214951 0 -0.15990799954844079 -0.061020456497287129 0 -0.16099188046657451 -0.073723076500214951 0 -0.14900089496689781 -0.061933387898678791 0 -0.15990799954844079 -0.061020456497287129 0 -0.17469212730839059 -0.079335362227318851 0 -0.1615553796211939 -0.087924494595272989 0 -0.14679519371056141 -0.084495753796621983 0 -0.17469212730839059 -0.079335362227318851 0 -0.16099188046657451 -0.073723076500214951 0 -0.14679519371056141 -0.084495753796621983 0 -0.17469212730839059 -0.079335362227318851 0 -0.14679519371056141 -0.084495753796621983 0 -0.16346843359672319 -0.095185153576860485 0 -0.16843403659680509 -0.089465372082304553 0 -0.1615553796211939 -0.087924494595272989 0 -0.17469212730839059 -0.079335362227318851 0 -0.1615553796211939 -0.087924494595272989 0 -0.17469212730839059 -0.079335362227318851 0 -0.16843403659680509 -0.089465372082304553 0 -0.1615553796211939 -0.087924494595272989 0 -0.16346843359672319 -0.095185153576860485 0 -0.1615553796211939 -0.087924494595272989 0 -0.15436067030331141 -0.094805710280579936 0 -0.14679519371056141 -0.084495753796621983 0 -0.14350054543121521 -0.1002349398195815 0 -0.15436067030331141 -0.094805710280579936 0 -0.1615553796211939 -0.087924494595272989 0 -0.14679519371056141 -0.084495753796621983 0 -0.15436067030331141 -0.094805710280579936 0 -0.16099188046657451 -0.073723076500214951 0 -0.1428710348371002 -0.071001088207218024 0 -0.16099188046657451 -0.073723076500214951 0 -0.1428710348371002 -0.071001088207218024 0 -0.14900089496689781 -0.061933387898678791 0 -0.16099188046657451 -0.073723076500214951 0 -0.14679519371056141 -0.084495753796621983 0 -0.1428710348371002 -0.071001088207218024 0 -0.1428710348371002 -0.071001088207218024 0 -0.13349983983805969 -0.056942535263725093 0 -0.14900089496689781 -0.061933387898678791 0 -0.14679519371056141 -0.084495753796621983 0 -0.1428710348371002 -0.071001088207218024 0 -0.12561467901087081 -0.074302752458958371 0 -0.1428710348371002 -0.071001088207218024 0 -0.12561467901087081 -0.074302752458958371 0 -0.13349983983805969 -0.056942535263725093 0 -0.1188982601127322 -0.089656145365925269 0 -0.14679519371056141 -0.084495753796621983 0 -0.14350054543121521 -0.1002349398195815 0 -0.1188982601127322 -0.089656145365925269 0 -0.14679519371056141 -0.084495753796621983 0 -0.12561467901087081 -0.074302752458958371 0 -0.1188982601127322 -0.089656145365925269 0 -0.14679519371056141 -0.084495753796621983 0 -0.1188982601127322 -0.089656145365925269 0 -0.12568953908620251 -0.1116801545194875 0 -0.14350054543121521 -0.1002349398195815 0 -0.13735151349127581 -0.1254154018799547 0 -0.14350054543121521 -0.1002349398195815 0 -0.11875687874594019 -0.1372593560808682 0 -0.13735151349127581 -0.1254154018799547 0 -0.12568953908620251 -0.1116801545194875 0 -0.13735151349127581 -0.1254154018799547 0 -0.12568953908620251 -0.1116801545194875 0 -0.14350054543121521 -0.1002349398195815 0 -0.16081365550165591 -0.1059500020559624 0 -0.1560332016605003 -0.1231680344268509 0 -0.14350054543121521 -0.1002349398195815 0 -0.13735151349127581 -0.1254154018799547 0 -0.1560332016605003 -0.1231680344268509 0 -0.14350054543121521 -0.1002349398195815 0 -0.16081365550165591 -0.1059500020559624 0 -0.14350054543121521 -0.1002349398195815 0 -0.15436067030331141 -0.094805710280579936 0 -0.15029451426785159 -0.029799349278424599 0 -0.15501973835593311 -0.02184355620342375 0 -0.15035722511985949 -0.013453666351310831 0 -0.15029451426785159 -0.029799349278424599 0 -0.15035722511985949 -0.013453666351310831 0 -0.13828073203894151 -0.0085811645313545182 0 -0.15029451426785159 -0.029799349278424599 0 -0.15501973835593311 -0.02184355620342375 0 -0.15804205896822771 -0.02700560007574962 0 -0.15029451426785159 -0.029799349278424599 0 -0.15725206947002429 -0.032634072556092429 0 -0.15804205896822771 -0.02700560007574962 0 -0.15035722511985949 -0.013453666351310831 0 -0.14682546129531099 -0.0042659812654107041 0 -0.15559051571298349 0.0021970394553601428 0 -0.14682546129531099 -0.0042659812654107041 0 -0.13828073203894151 -0.0085811645313545182 0 -0.1430733723094596 0.0027738663656623908 0 -0.15035722511985949 -0.013453666351310831 0 -0.14682546129531099 -0.0042659812654107041 0 -0.13828073203894151 -0.0085811645313545182 0 -0.1255651883963867 -0.01466760754899687 0 -0.13828073203894151 -0.0085811645313545182 0 -0.13082697262089341 0.0013823364580261221 0 -0.1255651883963867 -0.01466760754899687 0 -0.13082697262089341 0.0013823364580261221 0 -0.13828073203894151 -0.0085811645313545182 0 -0.13082697262089341 0.0013823364580261221 0 -0.1430733723094596 0.0027738663656623908 0 -0.15029451426785159 -0.029799349278424599 0 -0.1255651883963867 -0.01466760754899687 0 -0.1175603761250444 -0.039084570172323183 0 -0.1255651883963867 -0.01466760754899687 0 -0.1323031206999582 -0.030717033232092451 0 -0.15029451426785159 -0.029799349278424599 0 -0.1255651883963867 -0.01466760754899687 0 -0.13828073203894151 -0.0085811645313545182 0 -0.15029451426785159 -0.029799349278424599 0 -0.1255651883963867 -0.01466760754899687 0 -0.1323031206999582 -0.030717033232092451 0 -0.1175603761250444 -0.039084570172323183 0 -0.1323031206999582 -0.030717033232092451 0 -0.13982986977504369 -0.04115200371081635 0 -0.1175603761250444 -0.039084570172323183 0 -0.13982986977504369 -0.04115200371081635 0 -0.13349983983805969 -0.056942535263725093 0 -0.13982986977504369 -0.04115200371081635 0 -0.13349983983805969 -0.056942535263725093 0 -0.15006386466539379 -0.051387351028221673 0 -0.13349983983805969 -0.056942535263725093 0 -0.15006386466539379 -0.051387351028221673 0 -0.14900089496689781 -0.061933387898678791 0 -0.15006386466539379 -0.051387351028221673 0 -0.14900089496689781 -0.061933387898678791 0 -0.15990799954844079 -0.061020456497287129 0 -0.13982986977504369 -0.04115200371081635 0 -0.15006386466539379 -0.051387351028221673 0 -0.15778091915676329 -0.040128306903980657 0 -0.15029451426785159 -0.029799349278424599 0 -0.1323031206999582 -0.030717033232092451 0 -0.13982986977504369 -0.04115200371081635 0 -0.15029451426785159 -0.029799349278424599 0 -0.13982986977504369 -0.04115200371081635 0 -0.15778091915676329 -0.040128306903980657 0 -0.15029451426785159 -0.029799349278424599 0 -0.15725206947002429 -0.032634072556092429 0 -0.15778091915676329 -0.040128306903980657 0 -0.17297589014304229 -0.04821251008908467 0 -0.17302289992543571 -0.02688872963305363 0 -0.16390139534131981 -0.02190066980410646 0 -0.17297589014304229 -0.04821251008908467 0 -0.16390139534131981 -0.02190066980410646 0 -0.17297589014304229 -0.04821251008908467 0 -0.16390139534131981 -0.02190066980410646 0 -0.16374257740600959 -0.028850352536700829 0 -0.15778091915676329 -0.040128306903980657 0 -0.17297589014304229 -0.04821251008908467 0 -0.16374257740600959 -0.028850352536700829 0 -0.15725206947002429 -0.032634072556092429 0 -0.15778091915676329 -0.040128306903980657 0 -0.16374257740600959 -0.028850352536700829 0 -0.15778091915676329 -0.040128306903980657 0 -0.1624897470490147 -0.051364227037821418 0 -0.17297589014304229 -0.04821251008908467 0 -0.15006386466539379 -0.051387351028221673 0 -0.15778091915676329 -0.040128306903980657 0 -0.1624897470490147 -0.051364227037821418 0 -0.15006386466539379 -0.051387351028221673 0 -0.15990799954844079 -0.061020456497287129 0 -0.1624897470490147 -0.051364227037821418 0 -0.17248564552130599 -0.063102324544197189 0 -0.1624897470490147 -0.051364227037821418 0 -0.17297589014304229 -0.04821251008908467 0 -0.17248564552130599 -0.063102324544197189 0 -0.15990799954844079 -0.061020456497287129 0 -0.1624897470490147 -0.051364227037821418 0 -0.17297589014304229 -0.04821251008908467 0 -0.1892827433445983 -0.0557116065585576 0 -0.18886050274951019 -0.041277992526776247 0 -0.18205038494476641 -0.074524350374062326 0 -0.17297589014304229 -0.04821251008908467 0 -0.1892827433445983 -0.0557116065585576 0 -0.18205038494476641 -0.074524350374062326 0 -0.17297589014304229 -0.04821251008908467 0 -0.18205038494476641 -0.074524350374062326 0 -0.17248564552130599 -0.063102324544197189 0 -0.17297589014304229 -0.04821251008908467 0 -0.17297589014304229 -0.04821251008908467 0 -0.17806956434070331 -0.035031524613221197 0 -0.17302289992543571 -0.02688872963305363 0 -0.17297589014304229 -0.04821251008908467 0 -0.17806956434070331 -0.035031524613221197 0 -0.18886050274951019 -0.041277992526776247 0 -0.17806956434070331 -0.035031524613221197 0 -0.18195263098960329 -0.025910394309482929 0 -0.18886050274951019 -0.041277992526776247 0 -0.18195263098960329 -0.025910394309482929 0 -0.1871679262034279 -0.014832847094228659 0 -0.19285949357592841 -0.023111532127107561 0 -0.18195263098960329 -0.025910394309482929 0 -0.17797245913242449 -0.016720022041080519 0 -0.1871679262034279 -0.014832847094228659 0 -0.17797245913242449 -0.016720022041080519 0 -0.17302289992543571 -0.02688872963305363 0 -0.17050797407893239 -0.017349559790410429 0 -0.18195263098960329 -0.025910394309482929 0 -0.17797245913242449 -0.016720022041080519 0 -0.17302289992543571 -0.02688872963305363 0 -0.17806956434070331 -0.035031524613221197 0 -0.18195263098960329 -0.025910394309482929 0 -0.17302289992543571 -0.02688872963305363 0 -0.17050797407893239 -0.017349559790410429 0 -0.16390139534131981 -0.02190066980410646 0 -0.16787562223468 -0.0099242110759791974 0 -0.17302289992543571 -0.02688872963305363 0 -0.17050797407893239 -0.017349559790410429 0 -0.16390139534131981 -0.02190066980410646 0 -0.15501973835593311 -0.02184355620342375 0 -0.15035722511985949 -0.013453666351310831 0 -0.16390139534131981 -0.02190066980410646 0 -0.15501973835593311 -0.02184355620342375 0 -0.16390139534131981 -0.02190066980410646 0 -0.15804205896822771 -0.02700560007574962 0 -0.15725206947002429 -0.032634072556092429 0 -0.15804205896822771 -0.02700560007574962 0 -0.16374257740600959 -0.028850352536700829 0 -0.16390139534131981 -0.02190066980410646 0 -0.16374257740600959 -0.028850352536700829 0 -0.16390139534131981 -0.02190066980410646 0 -0.15804205896822771 -0.02700560007574962 0 -0.16374257740600959 -0.028850352536700829 0 -0.16390139534131981 -0.02190066980410646 0 -0.1645132280666701 0.0048723978490777626 0 -0.16390139534131981 -0.02190066980410646 0 -0.15559051571298349 0.0021970394553601428 0 -0.1645132280666701 0.0048723978490777626 0 -0.16390139534131981 -0.02190066980410646 0 -0.16787562223468 -0.0099242110759791974 0 -0.1645132280666701 0.0048723978490777626 0 -0.15035722511985949 -0.013453666351310831 0 -0.16390139534131981 -0.02190066980410646 0 -0.15559051571298349 0.0021970394553601428 0 -0.16390139534131981 -0.02190066980410646 0 -0.15559051571298349 0.0021970394553601428 0 -0.17050797407893239 -0.017349559790410429 0 -0.16787562223468 -0.0099242110759791974 0 -0.17444419184024501 -0.008619040889985892 0 -0.16787562223468 -0.0099242110759791974 0 -0.17142969566451249 -0.002320172152788679 0 -0.17444419184024501 -0.008619040889985892 0 -0.16787562223468 -0.0099242110759791974 0 -0.17142969566451249 -0.002320172152788679 0 -0.1645132280666701 0.0048723978490777626 0 -0.17142969566451249 -0.002320172152788679 0 -0.17622003680225889 -0.0018283141660710069 0 -0.17409539937870841 0.0038983075190149349 0 -0.17142969566451249 -0.002320172152788679 0 -0.17622003680225889 -0.0018283141660710069 0 -0.17444419184024501 -0.008619040889985892 0 -0.17622003680225889 -0.0018283141660710069 0 -0.17444419184024501 -0.008619040889985892 0 -0.18141533781934341 -0.0094380149470248784 0 -0.17797245913242449 -0.016720022041080519 0 -0.17050797407893239 -0.017349559790410429 0 -0.17444419184024501 -0.008619040889985892 0 -0.17797245913242449 -0.016720022041080519 0 -0.17444419184024501 -0.008619040889985892 0 -0.18141533781934341 -0.0094380149470248784 0 -0.17797245913242449 -0.016720022041080519 0 -0.1871679262034279 -0.014832847094228659 0 -0.18141533781934341 -0.0094380149470248784 0 -0.1871679262034279 -0.014832847094228659 0 -0.18141533781934341 -0.0094380149470248784 0 -0.18889388088250469 -0.0064459530119784086 0 -0.18346386537279349 -0.001647984405783556 0 -0.18889388088250469 -0.0064459530119784086 0 -0.18806779659284831 0.0049700422461890943 0 -0.17622003680225889 -0.0018283141660710069 0 -0.18346386537279349 -0.001647984405783556 0 -0.179989761597835 0.003196499848222149 0 -0.17622003680225889 -0.0018283141660710069 0 -0.18141533781934341 -0.0094380149470248784 0 -0.18346386537279349 -0.001647984405783556 0 -0.18141533781934341 -0.0094380149470248784 0 -0.18346386537279349 -0.001647984405783556 0 -0.18889388088250469 -0.0064459530119784086 0 -0.18889388088250469 -0.0064459530119784086 0 -0.19685848440234599 -0.0049450717274387504 0 -0.18806779659284831 0.0049700422461890943 0 -0.19685848440234599 -0.0049450717274387504 0 -0.19285949357592841 -0.023111532127107561 0 -0.18889388088250469 -0.0064459530119784086 0 -0.18806779659284831 0.0049700422461890943 0 -0.1871679262034279 -0.014832847094228659 0 -0.19685848440234599 -0.0049450717274387504 0 -0.19285949357592841 -0.023111532127107561 0 -0.1871679262034279 -0.014832847094228659 0 -0.18889388088250469 -0.0064459530119784086 0 -0.19685848440234599 -0.0049450717274387504 0 -0.18195263098960329 -0.025910394309482929 0 -0.19285949357592841 -0.023111532127107561 0 -0.18886050274951019 -0.041277992526776247 0 -0.19685848440234599 -0.0049450717274387504 0 -0.19285949357592841 -0.023111532127107561 0 -0.20108265312294921 -0.019843344887548419 0 -0.19285949357592841 -0.023111532127107561 0 -0.20282024108335359 -0.029527582860565858 0 -0.20108265312294921 -0.019843344887548419 0 -0.2117923934301692 -0.02178919283508125 0 -0.21245146612027019 -0.032873253149423888 0 -0.22672630245799269 -0.038633313942723513 0 -0.20282024108335359 -0.029527582860565858 0 -0.2117923934301692 -0.02178919283508125 0 -0.21245146612027019 -0.032873253149423888 0 -0.20282024108335359 -0.029527582860565858 0 -0.20108265312294921 -0.019843344887548419 0 -0.2117923934301692 -0.02178919283508125 0 -0.2117923934301692 -0.02178919283508125 0 -0.22034012263555319 -0.021271977535389921 0 -0.22265013048358939 -0.02684977739837402 0 -0.2117923934301692 -0.02178919283508125 0 -0.21951947958089429 -0.01545704244013903 0 -0.22034012263555319 -0.021271977535389921 0 -0.19685848440234599 -0.0049450717274387504 0 -0.2117923934301692 -0.02178919283508125 0 -0.2120469589708838 -0.0066311205522630702 0 -0.19685848440234599 -0.0049450717274387504 0 -0.20108265312294921 -0.019843344887548419 0 -0.2117923934301692 -0.02178919283508125 0 -0.2120469589708838 -0.0066311205522630702 0 -0.21951947958089429 -0.01545704244013903 0 -0.22381138727050781 0.002909525995360538 0 -0.2117923934301692 -0.02178919283508125 0 -0.2120469589708838 -0.0066311205522630702 0 -0.21951947958089429 -0.01545704244013903 0 -0.19685848440234599 -0.0049450717274387504 0 -0.2117923934301692 -0.02178919283508125 0 -0.19685848440234599 -0.0049450717274387504 0 -0.2120469589708838 -0.0066311205522630702 0 -0.21019557575314421 0.006394909686725795 0 -0.19708883927297011 -0.049391743639764903 0 -0.20416023605284511 -0.041745796213811651 0 -0.20605187494492669 -0.058831579259914099 0 -0.1892827433445983 -0.0557116065585576 0 -0.19708883927297011 -0.049391743639764903 0 -0.20605187494492669 -0.058831579259914099 0 -0.1892827433445983 -0.0557116065585576 0 -0.19708883927297011 -0.049391743639764903 0 -0.18886050274951019 -0.041277992526776247 0 -0.19285949357592841 -0.023111532127107561 0 -0.20282024108335359 -0.029527582860565858 0 -0.18886050274951019 -0.041277992526776247 0 -0.19285949357592841 -0.023111532127107561 0 -0.18886050274951019 -0.041277992526776247 0 -0.19708883927297011 -0.049391743639764903 0 -0.18886050274951019 -0.041277992526776247 0 -0.20416023605284511 -0.041745796213811651 0 -0.20282024108335359 -0.029527582860565858 0 -0.18886050274951019 -0.041277992526776247 0 -0.20416023605284511 -0.041745796213811651 0 -0.20282024108335359 -0.029527582860565858 0 -0.21245146612027019 -0.032873253149423888 0 -0.20416023605284511 -0.041745796213811651 0 -0.21245146612027019 -0.032873253149423888 0 -0.21631304823255479 -0.041997994647288019 0 -0.22672630245799269 -0.038633313942723513 0 -0.21245146612027019 -0.032873253149423888 0 -0.21631304823255479 -0.041997994647288019 0 -0.20416023605284511 -0.041745796213811651 0 -0.21631304823255479 -0.041997994647288019 0 -0.20416023605284511 -0.041745796213811651 0 -0.20605187494492669 -0.058831579259914099 0 -0.20605187494492669 -0.058831579259914099 0 -0.23042708620373509 -0.042807468846864101 0 -0.21631304823255479 -0.041997994647288019 0 -0.20605187494492669 -0.058831579259914099 0 -0.23042708620373509 -0.042807468846864101 0 -0.21899459544886141 -0.062983878595794143 0 -0.20605187494492669 -0.058831579259914099 0 -0.22221052199831259 -0.056016671247121091 0 -0.20605187494492669 -0.058831579259914099 0 -0.22221052199831259 -0.056016671247121091 0 -0.23042708620373509 -0.042807468846864101 0 -0.22653057280075989 -0.059644064445095561 0 -0.22221052199831259 -0.056016671247121091 0 -0.2309596839695322 -0.053524058978084481 0 -0.23285573266224729 -0.063774905205547947 0 -0.23300155022958891 -0.058105115919773437 0 -0.22653057280075989 -0.059644064445095561 0 -0.23300155022958891 -0.058105115919773437 0 -0.22653057280075989 -0.059644064445095561 0 -0.2309596839695322 -0.053524058978084481 0 -0.21899459544886141 -0.062983878595794143 0 -0.23285573266224729 -0.063774905205547947 0 -0.22653057280075989 -0.059644064445095561 0 -0.21899459544886141 -0.062983878595794143 0 -0.22653057280075989 -0.059644064445095561 0 -0.22221052199831259 -0.056016671247121091 0 -0.22221052199831259 -0.056016671247121091 0 -0.2309596839695322 -0.053524058978084481 0 -0.23042708620373509 -0.042807468846864101 0 -0.2309596839695322 -0.053524058978084481 0 -0.23042708620373509 -0.042807468846864101 0 -0.24166021148581621 -0.05547743505036578 0 -0.22672630245799269 -0.038633313942723513 0 -0.23546826616295691 -0.035738523330740943 0 -0.2394051328623602 -0.043041491953147902 0 -0.23042708620373509 -0.042807468846864101 0 -0.22672630245799269 -0.038633313942723513 0 -0.2394051328623602 -0.043041491953147902 0 -0.23042708620373509 -0.042807468846864101 0 -0.22672630245799269 -0.038633313942723513 0 -0.21631304823255479 -0.041997994647288019 0 -0.23042708620373509 -0.042807468846864101 0 -0.22672630245799269 -0.038633313942723513 0 -0.22672630245799269 -0.038633313942723513 0 -0.22265013048358939 -0.02684977739837402 0 -0.22951151604962269 -0.03010603737211329 0 -0.22672630245799269 -0.038633313942723513 0 -0.23546826616295691 -0.035738523330740943 0 -0.22951151604962269 -0.03010603737211329 0 -0.23546826616295691 -0.035738523330740943 0 -0.2450099963415123 -0.036960965385889062 0 -0.23707244309720779 -0.027570307513105189 0 -0.23546826616295691 -0.035738523330740943 0 -0.2450099963415123 -0.036960965385889062 0 -0.2394051328623602 -0.043041491953147902 0 -0.2450099963415123 -0.036960965385889062 0 -0.2394051328623602 -0.043041491953147902 0 -0.24813924731967391 -0.047304803084769531 0 -0.23285573266224729 -0.063774905205547947 0 -0.25531222625122602 -0.054819571211706872 0 -0.2386960838138551 -0.0674958718261746 0 -0.23285573266224729 -0.063774905205547947 0 -0.25531222625122602 -0.054819571211706872 0 -0.23285573266224729 -0.063774905205547947 0 -0.24166021148581621 -0.05547743505036578 0 -0.25531222625122602 -0.054819571211706872 0 -0.23042708620373509 -0.042807468846864101 0 -0.2394051328623602 -0.043041491953147902 0 -0.24166021148581621 -0.05547743505036578 0 -0.23042708620373509 -0.042807468846864101 0 -0.24166021148581621 -0.05547743505036578 0 -0.2394051328623602 -0.043041491953147902 0 -0.24813924731967391 -0.047304803084769531 0 -0.24166021148581621 -0.05547743505036578 0 -0.24813924731967391 -0.047304803084769531 0 -0.24166021148581621 -0.05547743505036578 0 -0.25531222625122602 -0.054819571211706872 0 -0.23300155022958891 -0.058105115919773437 0 -0.2309596839695322 -0.053524058978084481 0 -0.24166021148581621 -0.05547743505036578 0 -0.23285573266224729 -0.063774905205547947 0 -0.23300155022958891 -0.058105115919773437 0 -0.24166021148581621 -0.05547743505036578 0 -0.22949647805534379 -0.0092425154972004715 0 -0.22381138727050781 0.002909525995360538 0 -0.24156246817162111 3.8901865961206428e-05 0 -0.21951947958089429 -0.01545704244013903 0 -0.22381138727050781 0.002909525995360538 0 -0.22949647805534379 -0.0092425154972004715 0 -0.21951947958089429 -0.01545704244013903 0 -0.22381138727050781 0.002909525995360538 0 -0.22949647805534379 -0.0092425154972004715 0 -0.22739848704755969 -0.02099189746796537 0 -0.237569813236752 -0.015545639180020649 0 -0.22949647805534379 -0.0092425154972004715 0 -0.21951947958089429 -0.01545704244013903 0 -0.22739848704755969 -0.02099189746796537 0 -0.2117923934301692 -0.02178919283508125 0 -0.22672630245799269 -0.038633313942723513 0 -0.21951947958089429 -0.01545704244013903 0 -0.22034012263555319 -0.021271977535389921 0 -0.22739848704755969 -0.02099189746796537 0 -0.2117923934301692 -0.02178919283508125 0 -0.22672630245799269 -0.038633313942723513 0 -0.22265013048358939 -0.02684977739837402 0 -0.22034012263555319 -0.021271977535389921 0 -0.22265013048358939 -0.02684977739837402 0 -0.22739848704755969 -0.02099189746796537 0 -0.22265013048358939 -0.02684977739837402 0 -0.22951151604962269 -0.03010603737211329 0 -0.22739848704755969 -0.02099189746796537 0 -0.23546826616295691 -0.035738523330740943 0 -0.22951151604962269 -0.03010603737211329 0 -0.23707244309720779 -0.027570307513105189 0 -0.22951151604962269 -0.03010603737211329 0 -0.22739848704755969 -0.02099189746796537 0 -0.23707244309720779 -0.027570307513105189 0 -0.22739848704755969 -0.02099189746796537 0 -0.23707244309720779 -0.027570307513105189 0 -0.237569813236752 -0.015545639180020649 0 -0.23707244309720779 -0.027570307513105189 0 -0.237569813236752 -0.015545639180020649 0 -0.25502164138312289 -0.021198290698937441 0 -0.2450099963415123 -0.036960965385889062 0 -0.23707244309720779 -0.027570307513105189 0 -0.25502164138312289 -0.021198290698937441 0 -0.25502164138312289 -0.021198290698937441 0 -0.24156246817162111 3.8901865961206428e-05 0 -0.237569813236752 -0.015545639180020649 0 -0.25502164138312289 -0.021198290698937441 0 -0.24156246817162111 3.8901865961206428e-05 0 -0.22949647805534379 -0.0092425154972004715 0 -0.237569813236752 -0.015545639180020649 0 -0.24156246817162111 3.8901865961206428e-05 0 -0.25502164138312289 -0.021198290698937441 0 -0.27008529692414812 -0.0016724996365426871 0 -0.24156246817162111 3.8901865961206428e-05 0 -0.25502164138312289 -0.021198290698937441 0 -0.27159611450508853 -0.02267253520771827 0 -0.27008529692414812 -0.0016724996365426871 0 -0.25502164138312289 -0.021198290698937441 0 -0.27159611450508853 -0.02267253520771827 0 -0.25920479504697908 -0.040980940760735003 0 -0.27159611450508853 -0.02267253520771827 0 -0.27008529692414812 -0.0016724996365426871 0 -0.28805288740465229 -0.02021058844253117 0 -0.27008529692414812 -0.0016724996365426871 0 -0.29313710650179581 -0.003376988243723194 0 -0.28805288740465229 -0.02021058844253117 0 -0.29313710650179581 -0.003376988243723194 0 -0.28805288740465229 -0.02021058844253117 0 -0.30118173831813189 -0.01308205908544741 0 -0.27159611450508853 -0.02267253520771827 0 -0.28805288740465229 -0.02021058844253117 0 -0.28674859067891051 -0.036273150696857319 0 -0.28805288740465229 -0.02021058844253117 0 -0.29922404346128728 -0.034298522595486561 0 -0.28674859067891051 -0.036273150696857319 0 -0.28805288740465229 -0.02021058844253117 0 -0.31284947532081242 -0.026460771025650819 0 -0.28805288740465229 -0.02021058844253117 0 -0.30118173831813189 -0.01308205908544741 0 -0.31284947532081242 -0.026460771025650819 0 -0.28805288740465229 -0.02021058844253117 0 -0.29922404346128728 -0.034298522595486561 0 -0.31284947532081242 -0.026460771025650819 0 -0.30118173831813189 -0.01308205908544741 0 -0.31068748404526708 -0.0022798886298844401 0 -0.31284947532081242 -0.026460771025650819 0 -0.31068748404526708 -0.0022798886298844401 0 -0.31284947532081242 -0.026460771025650819 0 -0.29313710650179581 -0.003376988243723194 0 -0.30118173831813189 -0.01308205908544741 0 -0.31068748404526708 -0.0022798886298844401 0 -0.30801956562010108 -0.055547277269801618 0 -0.29437191184692402 -0.048130401942291207 0 -0.29207964257026059 -0.069938357425674391 0 -0.30801956562010108 -0.055547277269801618 0 -0.29437191184692402 -0.048130401942291207 0 -0.31409735205513722 -0.040417700870102248 0 -0.29922404346128728 -0.034298522595486561 0 -0.29437191184692402 -0.048130401942291207 0 -0.31409735205513722 -0.040417700870102248 0 -0.29922404346128728 -0.034298522595486561 0 -0.31284947532081242 -0.026460771025650819 0 -0.31409735205513722 -0.040417700870102248 0 -0.29922404346128728 -0.034298522595486561 0 -0.28674859067891051 -0.036273150696857319 0 -0.29437191184692402 -0.048130401942291207 0 -0.28674859067891051 -0.036273150696857319 0 -0.29437191184692402 -0.048130401942291207 0 -0.27978381670594432 -0.05167880305238786 0 -0.29437191184692402 -0.048130401942291207 0 -0.27978381670594432 -0.05167880305238786 0 -0.29207964257026059 -0.069938357425674391 0 -0.27978381670594432 -0.05167880305238786 0 -0.26699292855444151 -0.062261504452960192 0 -0.29207964257026059 -0.069938357425674391 0 -0.27978381670594432 -0.05167880305238786 0 -0.26695285981077171 -0.049789470679091001 0 -0.26699292855444151 -0.062261504452960192 0 -0.27978381670594432 -0.05167880305238786 0 -0.26695285981077171 -0.049789470679091001 0 -0.27347053249526732 -0.039206533917665057 0 -0.27159611450508853 -0.02267253520771827 0 -0.28674859067891051 -0.036273150696857319 0 -0.27347053249526732 -0.039206533917665057 0 -0.27159611450508853 -0.02267253520771827 0 -0.27347053249526732 -0.039206533917665057 0 -0.25920479504697908 -0.040980940760735003 0 -0.28674859067891051 -0.036273150696857319 0 -0.27978381670594432 -0.05167880305238786 0 -0.27347053249526732 -0.039206533917665057 0 -0.26695285981077171 -0.049789470679091001 0 -0.27347053249526732 -0.039206533917665057 0 -0.25920479504697908 -0.040980940760735003 0 -0.2450099963415123 -0.036960965385889062 0 -0.25502164138312289 -0.021198290698937441 0 -0.25920479504697908 -0.040980940760735003 0 -0.2450099963415123 -0.036960965385889062 0 -0.24813924731967391 -0.047304803084769531 0 -0.25920479504697908 -0.040980940760735003 0 -0.2386960838138551 -0.0674958718261746 0 -0.26699292855444151 -0.062261504452960192 0 -0.25531222625122602 -0.054819571211706872 0 -0.26695285981077171 -0.049789470679091001 0 -0.26699292855444151 -0.062261504452960192 0 -0.25531222625122602 -0.054819571211706872 0 -0.26695285981077171 -0.049789470679091001 0 -0.25920479504697908 -0.040980940760735003 0 -0.25531222625122602 -0.054819571211706872 0 -0.24813924731967391 -0.047304803084769531 0 -0.25920479504697908 -0.040980940760735003 0 -0.25531222625122602 -0.054819571211706872 0 -0.2386960838138551 -0.0674958718261746 0 -0.24822306745508471 -0.073546667267469987 0 -0.26699292855444151 -0.062261504452960192 0 -0.24822306745508471 -0.073546667267469987 0 -0.26699292855444151 -0.062261504452960192 0 -0.25609121651680272 -0.080824474624059367 0 -0.2386960838138551 -0.0674958718261746 0 -0.26699292855444151 -0.062261504452960192 0 -0.26699292855444151 -0.062261504452960192 0 -0.25609121651680272 -0.080824474624059367 0 -0.27374533554110292 -0.081640777283714258 0 -0.24458770130138421 -0.096198659347011356 0 -0.25609121651680272 -0.080824474624059367 0 -0.25901297524903949 -0.09822526069951848 0 -0.25609121651680272 -0.080824474624059367 0 -0.26564635850269208 -0.089002421068691037 0 -0.27374533554110292 -0.081640777283714258 0 -0.25609121651680272 -0.080824474624059367 0 -0.26564635850269208 -0.089002421068691037 0 -0.25901297524903949 -0.09822526069951848 0 -0.26564635850269208 -0.089002421068691037 0 -0.27374533554110292 -0.081640777283714258 0 -0.27373590670382347 -0.095319171667472086 0 -0.27374533554110292 -0.081640777283714258 0 -0.27373590670382347 -0.095319171667472086 0 -0.28911794337029417 -0.094456443093391851 0 -0.26699292855444151 -0.062261504452960192 0 -0.27374533554110292 -0.081640777283714258 0 -0.29207964257026059 -0.069938357425674391 0 -0.24191771928431799 -0.12823304492456691 0 -0.24896736677396131 -0.110470745124257 0 -0.26154251711887128 -0.12041762727127971 0 -0.24896736677396131 -0.110470745124257 0 -0.26154251711887128 -0.12041762727127971 0 -0.25901297524903949 -0.09822526069951848 0 -0.24896736677396131 -0.110470745124257 0 -0.24458770130138421 -0.096198659347011356 0 -0.25901297524903949 -0.09822526069951848 0 -0.27373590670382347 -0.095319171667472086 0 -0.27957595838395349 -0.11316471695844429 0 -0.28911794337029417 -0.094456443093391851 0 -0.25901297524903949 -0.09822526069951848 0 -0.27373590670382347 -0.095319171667472086 0 -0.27957595838395349 -0.11316471695844429 0 -0.26564635850269208 -0.089002421068691037 0 -0.25901297524903949 -0.09822526069951848 0 -0.27373590670382347 -0.095319171667472086 0 -0.26154251711887128 -0.12041762727127971 0 -0.25901297524903949 -0.09822526069951848 0 -0.27957595838395349 -0.11316471695844429 0 -0.26154251711887128 -0.12041762727127971 0 -0.27957595838395349 -0.11316471695844429 0 -0.27975854580024112 -0.13276778112819559 0 -0.27957595838395349 -0.11316471695844429 0 -0.30122205703222749 -0.1088163539998557 0 -0.30161085778989238 -0.12506041681693489 0 -0.27957595838395349 -0.11316471695844429 0 -0.27975854580024112 -0.13276778112819559 0 -0.30161085778989238 -0.12506041681693489 0 -0.27957595838395349 -0.11316471695844429 0 -0.28911794337029417 -0.094456443093391851 0 -0.30122205703222749 -0.1088163539998557 0 -0.28911794337029417 -0.094456443093391851 0 -0.30122205703222749 -0.1088163539998557 0 -0.31564990731543269 -0.086866234909481629 0 -0.30122205703222749 -0.1088163539998557 0 -0.31564990731543269 -0.086866234909481629 0 -0.31998521116966222 -0.10854474752067141 0 -0.30122205703222749 -0.1088163539998557 0 -0.31646766509827562 -0.1234392920682638 0 -0.30161085778989238 -0.12506041681693489 0 -0.30801956562010108 -0.055547277269801618 0 -0.29207964257026059 -0.069938357425674391 0 -0.31564990731543269 -0.086866234909481629 0 -0.27374533554110292 -0.081640777283714258 0 -0.28911794337029417 -0.094456443093391851 0 -0.29207964257026059 -0.069938357425674391 0 -0.28911794337029417 -0.094456443093391851 0 -0.29207964257026059 -0.069938357425674391 0 -0.31564990731543269 -0.086866234909481629 0 -0.29207964257026059 -0.069938357425674391 0 -0.31564990731543269 -0.086866234909481629 0 -0.3224666035142113 -0.063105495715333929 0 -0.31564990731543269 -0.086866234909481629 0 -0.32794987492720951 -0.081392243101033615 0 -0.30801956562010108 -0.055547277269801618 0 -0.3224666035142113 -0.063105495715333929 0 -0.31564990731543269 -0.086866234909481629 0 -0.31564990731543269 -0.086866234909481629 0 -0.32794987492720951 -0.081392243101033615 0 -0.33791527535172111 -0.090444567882483451 0 -0.31564990731543269 -0.086866234909481629 0 -0.33791527535172111 -0.090444567882483451 0 -0.33922017206060479 -0.1037941123932889 0 -0.32794987492720951 -0.081392243101033615 0 -0.33791527535172111 -0.090444567882483451 0 -0.34133837881109153 -0.079977409781877867 0 -0.33791527535172111 -0.090444567882483451 0 -0.34133837881109153 -0.079977409781877867 0 -0.34769986971088351 -0.093108061762922731 0 -0.3224666035142113 -0.063105495715333929 0 -0.32794987492720951 -0.081392243101033615 0 -0.34133837881109153 -0.079977409781877867 0 -0.3224666035142113 -0.063105495715333929 0 -0.34133837881109153 -0.079977409781877867 0 -0.3224666035142113 -0.063105495715333929 0 -0.34133837881109153 -0.079977409781877867 0 -0.34061241906260747 -0.062066906209837493 0 -0.30122205703222749 -0.1088163539998557 0 -0.31646766509827562 -0.1234392920682638 0 -0.31998521116966222 -0.10854474752067141 0 -0.31646766509827562 -0.1234392920682638 0 -0.31998521116966222 -0.10854474752067141 0 -0.33115294485301261 -0.1184356283404827 0 -0.31564990731543269 -0.086866234909481629 0 -0.33922017206060479 -0.1037941123932889 0 -0.31564990731543269 -0.086866234909481629 0 -0.31998521116966222 -0.10854474752067141 0 -0.33922017206060479 -0.1037941123932889 0 -0.33791527535172111 -0.090444567882483451 0 -0.33922017206060479 -0.1037941123932889 0 -0.35133567057274928 -0.1051609455389077 0 -0.31998521116966222 -0.10854474752067141 0 -0.33922017206060479 -0.1037941123932889 0 -0.33115294485301261 -0.1184356283404827 0 -0.33922017206060479 -0.1037941123932889 0 -0.33115294485301261 -0.1184356283404827 0 -0.34395096494824351 -0.11808314993514921 0 -0.33115294485301261 -0.1184356283404827 0 -0.34395096494824351 -0.11808314993514921 0 -0.34264030607357959 -0.12938086912973051 0 -0.33922017206060479 -0.1037941123932889 0 -0.35133567057274928 -0.1051609455389077 0 -0.36279043680577733 -0.12072198987709561 0 -0.33922017206060479 -0.1037941123932889 0 -0.34395096494824351 -0.11808314993514921 0 -0.36279043680577733 -0.12072198987709561 0 -0.34395096494824351 -0.11808314993514921 0 -0.36279043680577733 -0.12072198987709561 0 -0.34264030607357959 -0.12938086912973051 0 -0.33922017206060479 -0.1037941123932889 0 -0.36279043680577733 -0.12072198987709561 0 -0.35133567057274928 -0.1051609455389077 0 -0.36163661180814288 -0.10869756791031331 0 -0.36475606579377678 -0.11987732319533261 0 -0.35133567057274928 -0.1051609455389077 0 -0.36475606579377678 -0.11987732319533261 0 -0.35133567057274928 -0.1051609455389077 0 -0.36021015410797191 -0.096849323848421917 0 -0.36163661180814288 -0.10869756791031331 0 -0.33791527535172111 -0.090444567882483451 0 -0.35133567057274928 -0.1051609455389077 0 -0.34769986971088351 -0.093108061762922731 0 -0.33791527535172111 -0.090444567882483451 0 -0.35133567057274928 -0.1051609455389077 0 -0.35133567057274928 -0.1051609455389077 0 -0.36021015410797191 -0.096849323848421917 0 -0.34769986971088351 -0.093108061762922731 0 -0.36021015410797191 -0.096849323848421917 0 -0.37908192940485258 -0.11372123791496561 0 -0.36021015410797191 -0.096849323848421917 0 -0.36751358070136803 -0.1106767391719246 0 -0.37908192940485258 -0.11372123791496561 0 -0.36021015410797191 -0.096849323848421917 0 -0.37436088789708721 -0.1011039431900262 0 -0.37908192940485258 -0.11372123791496561 0 -0.36021015410797191 -0.096849323848421917 0 -0.37399052753485651 -0.095074413185577189 0 -0.37436088789708721 -0.1011039431900262 0 -0.36021015410797191 -0.096849323848421917 0 -0.36163661180814288 -0.10869756791031331 0 -0.36751358070136803 -0.1106767391719246 0 -0.35133567057274928 -0.1051609455389077 0 -0.36475606579377678 -0.11987732319533261 0 -0.36279043680577733 -0.12072198987709561 0 -0.36163661180814288 -0.10869756791031331 0 -0.36751358070136803 -0.1106767391719246 0 -0.36475606579377678 -0.11987732319533261 0 -0.36475606579377678 -0.11987732319533261 0 -0.37908192940485258 -0.11372123791496561 0 -0.36751358070136803 -0.1106767391719246 0 -0.36475606579377678 -0.11987732319533261 0 -0.37908192940485258 -0.11372123791496561 0 -0.37456545992351081 -0.12153932669336311 0 -0.36475606579377678 -0.11987732319533261 0 -0.37086364155792689 -0.1265431919395642 0 -0.37456545992351081 -0.12153932669336311 0 -0.36475606579377678 -0.11987732319533261 0 -0.37908192940485258 -0.11372123791496561 0 -0.36475606579377678 -0.11987732319533261 0 -0.37086364155792689 -0.1265431919395642 0 -0.36279043680577733 -0.12072198987709561 0 -0.37086364155792689 -0.1265431919395642 0 -0.36475606579377678 -0.11987732319533261 0 -0.36279043680577733 -0.12072198987709561 0 -0.37086364155792689 -0.1265431919395642 0 -0.36475606579377678 -0.11987732319533261 0 -0.36279043680577733 -0.12072198987709561 0 -0.34133837881109153 -0.079977409781877867 0 -0.35126068269024779 -0.071611008018486827 0 -0.34061241906260747 -0.062066906209837493 0 -0.35126068269024779 -0.071611008018486827 0 -0.35739137402349042 -0.060390099399817002 0 -0.34061241906260747 -0.062066906209837493 0 -0.35126068269024779 -0.071611008018486827 0 -0.35695125867425792 -0.081499143512915706 0 -0.36287294244484802 -0.072986765830338168 0 -0.35126068269024779 -0.071611008018486827 0 -0.36287294244484802 -0.072986765830338168 0 -0.35739137402349042 -0.060390099399817002 0 -0.34133837881109153 -0.079977409781877867 0 -0.35126068269024779 -0.071611008018486827 0 -0.35695125867425792 -0.081499143512915706 0 -0.34133837881109153 -0.079977409781877867 0 -0.36021015410797191 -0.096849323848421917 0 -0.34133837881109153 -0.079977409781877867 0 -0.36021015410797191 -0.096849323848421917 0 -0.35695125867425792 -0.081499143512915706 0 -0.34133837881109153 -0.079977409781877867 0 -0.36021015410797191 -0.096849323848421917 0 -0.34769986971088351 -0.093108061762922731 0 -0.35695125867425792 -0.081499143512915706 0 -0.36987620287596668 -0.084754769908034683 0 -0.36287294244484802 -0.072986765830338168 0 -0.36021015410797191 -0.096849323848421917 0 -0.35695125867425792 -0.081499143512915706 0 -0.36987620287596668 -0.084754769908034683 0 -0.36021015410797191 -0.096849323848421917 0 -0.37399052753485651 -0.095074413185577189 0 -0.36987620287596668 -0.084754769908034683 0 -0.37399052753485651 -0.095074413185577189 0 -0.36987620287596668 -0.084754769908034683 0 -0.37974365793776149 -0.090047199299109523 0 -0.36987620287596668 -0.084754769908034683 0 -0.36287294244484802 -0.072986765830338168 0 -0.37647484402476228 -0.072677937837527018 0 -0.36287294244484802 -0.072986765830338168 0 -0.36947373707469872 -0.063985249966456478 0 -0.35739137402349042 -0.060390099399817002 0 -0.36287294244484802 -0.072986765830338168 0 -0.36947373707469872 -0.063985249966456478 0 -0.37647484402476228 -0.072677937837527018 0 -0.36947373707469872 -0.063985249966456478 0 -0.37018361451259613 -0.0523005454956997 0 -0.38044591036779662 -0.061570901268900517 0 -0.37018361451259613 -0.0523005454956997 0 -0.36002646482183431 -0.050450752763553763 0 -0.36148310747996409 -0.038719275369187151 0 -0.37018361451259613 -0.0523005454956997 0 -0.36002646482183431 -0.050450752763553763 0 -0.35739137402349042 -0.060390099399817002 0 -0.36947373707469872 -0.063985249966456478 0 -0.37018361451259613 -0.0523005454956997 0 -0.35739137402349042 -0.060390099399817002 0 -0.35739137402349042 -0.060390099399817002 0 -0.35104776327128612 -0.050393090789512547 0 -0.34061241906260747 -0.062066906209837493 0 -0.36002646482183431 -0.050450752763553763 0 -0.35739137402349042 -0.060390099399817002 0 -0.35104776327128612 -0.050393090789512547 0 -0.35104776327128612 -0.050393090789512547 0 -0.34061241906260747 -0.062066906209837493 0 -0.35104776327128612 -0.050393090789512547 0 -0.34061241906260747 -0.062066906209837493 0 -0.34024514424024699 -0.051695739479787221 0 -0.35104776327128612 -0.050393090789512547 0 -0.35656307937074011 -0.037479142085498622 0 -0.34024514424024699 -0.051695739479787221 0 -0.35656307937074011 -0.037479142085498622 0 -0.33470627734577618 -0.031969956555574788 0 -0.35656307937074011 -0.037479142085498622 0 -0.3508912263580462 -0.02798995751468265 0 -0.33470627734577618 -0.031969956555574788 0 -0.36002646482183431 -0.050450752763553763 0 -0.35104776327128612 -0.050393090789512547 0 -0.36148310747996409 -0.038719275369187151 0 -0.35104776327128612 -0.050393090789512547 0 -0.35656307937074011 -0.037479142085498622 0 -0.36148310747996409 -0.038719275369187151 0 -0.35104776327128612 -0.050393090789512547 0 -0.36148310747996409 -0.038719275369187151 0 -0.35656307937074011 -0.037479142085498622 0 -0.36609613794937518 -0.033558768427457177 0 -0.3508912263580462 -0.02798995751468265 0 -0.35656307937074011 -0.037479142085498622 0 -0.36148310747996409 -0.038719275369187151 0 -0.37018361451259613 -0.0523005454956997 0 -0.36148310747996409 -0.038719275369187151 0 -0.37822729992581983 -0.042939785882461369 0 -0.35656307937074011 -0.037479142085498622 0 -0.36609613794937518 -0.033558768427457177 0 -0.35656307937074011 -0.037479142085498622 0 -0.36148310747996409 -0.038719275369187151 0 -0.36609613794937518 -0.033558768427457177 0 -0.36148310747996409 -0.038719275369187151 0 -0.37822729992581983 -0.042939785882461369 0 -0.36148310747996409 -0.038719275369187151 0 -0.36759445675048202 -0.034107528875047463 0 -0.37822729992581983 -0.042939785882461369 0 -0.36148310747996409 -0.038719275369187151 0 -0.36609613794937518 -0.033558768427457177 0 -0.36759445675048202 -0.034107528875047463 0 -0.36148310747996409 -0.038719275369187151 0 -0.36609613794937518 -0.033558768427457177 0 -0.36609613794937518 -0.033558768427457177 0 -0.36759445675048202 -0.034107528875047463 0 -0.36609613794937518 -0.033558768427457177 0 -0.36469900198698629 -0.017635878389213891 0 -0.37936430061871951 -0.018715934413416849 0 -0.36609613794937518 -0.033558768427457177 0 -0.36759445675048202 -0.034107528875047463 0 -0.37936430061871951 -0.018715934413416849 0 -0.36609613794937518 -0.033558768427457177 0 -0.36469900198698629 -0.017635878389213891 0 -0.35899371095008781 -0.024822302721243542 0 -0.36609613794937518 -0.033558768427457177 0 -0.37936430061871951 -0.018715934413416849 0 -0.36469900198698629 -0.017635878389213891 0 -0.35899371095008781 -0.024822302721243542 0 -0.35448509653769661 -0.018058793221438569 0 -0.36933859948822412 -0.0004439302888986224 0 -0.37936430061871951 -0.018715934413416849 0 -0.36469900198698629 -0.017635878389213891 0 -0.36933859948822412 -0.0004439302888986224 0 -0.3587836281522806 -0.0070627832799181082 0 -0.36469900198698629 -0.017635878389213891 0 -0.36933859948822412 -0.0004439302888986224 0 -0.37936430061871951 -0.018715934413416849 0 -0.36933859948822412 -0.0004439302888986224 0 -0.3587836281522806 -0.0070627832799181082 0 -0.35379291907987859 0.0036531515146394689 0 -0.3587836281522806 -0.0070627832799181082 0 -0.34834756147487889 -0.0080863677750986872 0 -0.35379291907987859 0.0036531515146394689 0 -0.3587836281522806 -0.0070627832799181082 0 -0.34834756147487889 -0.0080863677750986872 0 -0.35448509653769661 -0.018058793221438569 0 -0.36469900198698629 -0.017635878389213891 0 -0.3587836281522806 -0.0070627832799181082 0 -0.35448509653769661 -0.018058793221438569 0 -0.34834756147487889 -0.0080863677750986872 0 -0.35448509653769661 -0.018058793221438569 0 -0.3456673359801069 -0.017845517651237909 0 -0.34834756147487889 -0.0080863677750986872 0 -0.33824337868228571 0.0027742543799208551 0 -0.35379291907987859 0.0036531515146394689 0 -0.36609613794937518 -0.033558768427457177 0 -0.35899371095008781 -0.024822302721243542 0 -0.3508912263580462 -0.02798995751468265 0 -0.36609613794937518 -0.033558768427457177 0 -0.3508912263580462 -0.02798995751468265 0 -0.35899371095008781 -0.024822302721243542 0 -0.35448509653769661 -0.018058793221438569 0 -0.3508912263580462 -0.02798995751468265 0 -0.3456673359801069 -0.017845517651237909 0 -0.3508912263580462 -0.02798995751468265 0 -0.33568631476671729 -0.022421146601908071 0 -0.35448509653769661 -0.018058793221438569 0 -0.3456673359801069 -0.017845517651237909 0 -0.3508912263580462 -0.02798995751468265 0 -0.3508912263580462 -0.02798995751468265 0 -0.33568631476671729 -0.022421146601908071 0 -0.3508912263580462 -0.02798995751468265 0 -0.33568631476671729 -0.022421146601908071 0 -0.33470627734577618 -0.031969956555574788 0 -0.3456673359801069 -0.017845517651237909 0 -0.33568631476671729 -0.022421146601908071 0 -0.33712374340610868 -0.01192926651653531 0 -0.33568631476671729 -0.022421146601908071 0 -0.33712374340610868 -0.01192926651653531 0 -0.32488827289429512 -0.017190907767110169 0 -0.33568631476671729 -0.022421146601908071 0 -0.32488827289429512 -0.017190907767110169 0 -0.33470627734577618 -0.031969956555574788 0 -0.34834756147487889 -0.0080863677750986872 0 -0.33712374340610868 -0.01192926651653531 0 -0.33824337868228571 0.0027742543799208551 0 -0.34834756147487889 -0.0080863677750986872 0 -0.3456673359801069 -0.017845517651237909 0 -0.33712374340610868 -0.01192926651653531 0 -0.33712374340610868 -0.01192926651653531 0 -0.32876637323156849 -0.0054254128446808037 0 -0.32488827289429512 -0.017190907767110169 0 -0.33712374340610868 -0.01192926651653531 0 -0.32876637323156849 -0.0054254128446808037 0 -0.33824337868228571 0.0027742543799208551 0 -0.31068748404526708 -0.0022798886298844401 0 -0.32876637323156849 -0.0054254128446808037 0 -0.32287077353134719 0.0073081144652285199 0 -0.31068748404526708 -0.0022798886298844401 0 -0.32488827289429512 -0.017190907767110169 0 -0.31284947532081242 -0.026460771025650819 0 -0.31068748404526708 -0.0022798886298844401 0 -0.32876637323156849 -0.0054254128446808037 0 -0.32488827289429512 -0.017190907767110169 0 -0.31284947532081242 -0.026460771025650819 0 -0.33470627734577618 -0.031969956555574788 0 -0.32488827289429512 -0.017190907767110169 0 -0.31284947532081242 -0.026460771025650819 0 -0.33470627734577618 -0.031969956555574788 0 -0.31284947532081242 -0.026460771025650819 0 -0.32296389645118873 -0.038255587182241188 0 -0.33470627734577618 -0.031969956555574788 0 -0.31284947532081242 -0.026460771025650819 0 -0.32296389645118873 -0.038255587182241188 0 -0.31409735205513722 -0.040417700870102248 0 -0.31284947532081242 -0.026460771025650819 0 -0.31409735205513722 -0.040417700870102248 0 -0.32296389645118873 -0.038255587182241188 0 -0.31979006833068341 -0.051205282040358693 0 -0.33053585598238971 -0.045434062598752392 0 -0.32296389645118873 -0.038255587182241188 0 -0.31409735205513722 -0.040417700870102248 0 -0.31979006833068341 -0.051205282040358693 0 -0.3224666035142113 -0.063105495715333929 0 -0.31979006833068341 -0.051205282040358693 0 -0.33053585598238971 -0.045434062598752392 0 -0.30801956562010108 -0.055547277269801618 0 -0.31409735205513722 -0.040417700870102248 0 -0.31979006833068341 -0.051205282040358693 0 -0.30801956562010108 -0.055547277269801618 0 -0.3224666035142113 -0.063105495715333929 0 -0.31979006833068341 -0.051205282040358693 0 -0.3224666035142113 -0.063105495715333929 0 -0.34061241906260747 -0.062066906209837493 0 -0.34024514424024699 -0.051695739479787221 0 -0.3224666035142113 -0.063105495715333929 0 -0.34024514424024699 -0.051695739479787221 0 -0.33053585598238971 -0.045434062598752392 0 -0.35656307937074011 -0.037479142085498622 0 -0.34024514424024699 -0.051695739479787221 0 -0.33053585598238971 -0.045434062598752392 0 -0.35656307937074011 -0.037479142085498622 0 -0.33470627734577618 -0.031969956555574788 0 -0.33053585598238971 -0.045434062598752392 0 -0.35656307937074011 -0.037479142085498622 0 -0.33053585598238971 -0.045434062598752392 0 -0.32296389645118873 -0.038255587182241188 0 -0.33470627734577618 -0.031969956555574788 0 -0.33053585598238971 -0.045434062598752392 0 -0.30624559577879279 -0.2625936730919165 0 -0.29768485334658651 -0.24139941593041811 0 -0.30526326541306292 -0.23344356918956369 0 -0.30624559577879279 -0.2625936730919165 0 -0.30526326541306292 -0.23344356918956369 0 -0.30624559577879279 -0.2625936730919165 0 -0.30526326541306292 -0.23344356918956369 0 -0.31587538925458419 -0.24307026029734491 0 -0.29768485334658651 -0.24139941593041811 0 -0.30526326541306292 -0.23344356918956369 0 -0.30381806044319848 -0.23350971503727111 0 -0.29768485334658651 -0.24139941593041811 0 -0.30381806044319848 -0.23350971503727111 0 -0.29657988040778499 -0.23381952962755809 0 -0.30526326541306292 -0.23344356918956369 0 -0.30431311966966951 -0.2052485259449042 0 -0.30526326541306292 -0.23344356918956369 0 -0.29671804937770302 -0.22654223623457501 0 -0.30431311966966951 -0.2052485259449042 0 -0.30526326541306292 -0.23344356918956369 0 -0.30381806044319848 -0.23350971503727111 0 -0.29671804937770302 -0.22654223623457501 0 -0.30526326541306292 -0.23344356918956369 0 -0.30381806044319848 -0.23350971503727111 0 -0.30381806044319848 -0.23350971503727111 0 -0.29657988040778499 -0.23381952962755809 0 -0.29671804937770302 -0.22654223623457501 0 -0.29657988040778499 -0.23381952962755809 0 -0.29671804937770302 -0.22654223623457501 0 -0.28809855846365212 -0.23382675130796851 0 -0.29671804937770302 -0.22654223623457501 0 -0.28284590609911192 -0.21900740929763671 0 -0.28809855846365212 -0.23382675130796851 0 -0.28671425380328991 -0.25080534032568302 0 -0.29768485334658651 -0.24139941593041811 0 -0.28809855846365212 -0.23382675130796851 0 -0.28671425380328991 -0.25080534032568302 0 -0.28809855846365212 -0.23382675130796851 0 -0.27059194761262051 -0.23894761412310589 0 -0.29768485334658651 -0.24139941593041811 0 -0.29657988040778499 -0.23381952962755809 0 -0.28809855846365212 -0.23382675130796851 0 -0.27296169138972359 -0.25846177992963199 0 -0.28671425380328991 -0.25080534032568302 0 -0.27059194761262051 -0.23894761412310589 0 -0.25606843302098309 -0.25636966241633519 0 -0.24557627095320059 -0.23690452528774539 0 -0.27059194761262051 -0.23894761412310589 0 -0.24557627095320059 -0.23690452528774539 0 -0.27059194761262051 -0.23894761412310589 0 -0.25931235666459518 -0.21515005566809051 0 -0.28284590609911192 -0.21900740929763671 0 -0.27059194761262051 -0.23894761412310589 0 -0.25931235666459518 -0.21515005566809051 0 -0.28284590609911192 -0.21900740929763671 0 -0.28809855846365212 -0.23382675130796851 0 -0.27059194761262051 -0.23894761412310589 0 -0.28284590609911192 -0.21900740929763671 0 -0.25931235666459518 -0.21515005566809051 0 -0.28110525415034993 -0.19846514050950789 0 -0.24233895379904119 -0.19883865737118309 0 -0.26042655815913912 -0.195130972720123 0 -0.25213976956776912 -0.17972188853128571 0 -0.24233895379904119 -0.19883865737118309 0 -0.25931235666459518 -0.21515005566809051 0 -0.26042655815913912 -0.195130972720123 0 -0.26042655815913912 -0.195130972720123 0 -0.28110525415034993 -0.19846514050950789 0 -0.27637061038330801 -0.17920039672604851 0 -0.25931235666459518 -0.21515005566809051 0 -0.26042655815913912 -0.195130972720123 0 -0.28110525415034993 -0.19846514050950789 0 -0.28110525415034993 -0.19846514050950789 0 -0.30431311966966951 -0.2052485259449042 0 -0.30336297392627598 -0.17705348270024471 0 -0.28284590609911192 -0.21900740929763671 0 -0.28110525415034993 -0.19846514050950789 0 -0.30431311966966951 -0.2052485259449042 0 -0.29671804937770302 -0.22654223623457501 0 -0.28284590609911192 -0.21900740929763671 0 -0.30431311966966951 -0.2052485259449042 0 -0.30431311966966951 -0.2052485259449042 0 -0.31472720824821648 -0.19441619817220221 0 -0.31507765915775671 -0.21589833531192229 0 -0.30526326541306292 -0.23344356918956369 0 -0.30431311966966951 -0.2052485259449042 0 -0.31507765915775671 -0.21589833531192229 0 -0.30431311966966951 -0.2052485259449042 0 -0.30336297392627598 -0.17705348270024471 0 -0.31472720824821648 -0.19441619817220221 0 -0.30431311966966951 -0.2052485259449042 0 -0.30336297392627598 -0.17705348270024471 0 -0.30336297392627598 -0.17705348270024471 0 -0.3024128281828844 -0.14885843945558511 0 -0.32104352310124051 -0.1638604622019546 0 -0.30336297392627598 -0.17705348270024471 0 -0.29028598154063939 -0.16648703249968619 0 -0.3024128281828844 -0.14885843945558511 0 -0.30336297392627598 -0.17705348270024471 0 -0.3024128281828844 -0.14885843945558511 0 -0.29028598154063939 -0.16648703249968619 0 -0.28075835638157348 -0.1559178865862923 0 -0.3024128281828844 -0.14885843945558511 0 -0.29028598154063939 -0.16648703249968619 0 -0.27637061038330801 -0.17920039672604851 0 -0.28075835638157348 -0.1559178865862923 0 -0.30336297392627598 -0.17705348270024471 0 -0.29028598154063939 -0.16648703249968619 0 -0.27637061038330801 -0.17920039672604851 0 -0.28110525415034993 -0.19846514050950789 0 -0.30336297392627598 -0.17705348270024471 0 -0.27637061038330801 -0.17920039672604851 0 -0.26042655815913912 -0.195130972720123 0 -0.27637061038330801 -0.17920039672604851 0 -0.25213976956776912 -0.17972188853128571 0 -0.27637061038330801 -0.17920039672604851 0 -0.25213976956776912 -0.17972188853128571 0 -0.25910388458026251 -0.16297733371699899 0 -0.23994258350256101 -0.167177314831739 0 -0.25213976956776912 -0.17972188853128571 0 -0.25910388458026251 -0.16297733371699899 0 -0.25910388458026251 -0.16297733371699899 0 -0.28075835638157348 -0.1559178865862923 0 -0.27637061038330801 -0.17920039672604851 0 -0.25910388458026251 -0.16297733371699899 0 -0.28075835638157348 -0.1559178865862923 0 -0.25910388458026251 -0.16297733371699899 0 -0.28075835638157348 -0.1559178865862923 0 -0.27206894264909331 -0.14653646438362569 0 -0.28075835638157348 -0.1559178865862923 0 -0.27206894264909331 -0.14653646438362569 0 -0.28442919201894412 -0.14445497649103081 0 -0.27206894264909331 -0.14653646438362569 0 -0.27975854580024112 -0.13276778112819559 0 -0.28442919201894412 -0.14445497649103081 0 -0.24483425335123449 -0.1489253450313042 0 -0.25910388458026251 -0.16297733371699899 0 -0.25963822127523101 -0.1399952091770548 0 -0.25910388458026251 -0.16297733371699899 0 -0.27206894264909331 -0.14653646438362569 0 -0.25963822127523101 -0.1399952091770548 0 -0.24191771928431799 -0.12823304492456691 0 -0.26154251711887128 -0.12041762727127971 0 -0.25963822127523101 -0.1399952091770548 0 -0.26154251711887128 -0.12041762727127971 0 -0.25963822127523101 -0.1399952091770548 0 -0.27975854580024112 -0.13276778112819559 0 -0.27206894264909331 -0.14653646438362569 0 -0.25963822127523101 -0.1399952091770548 0 -0.27975854580024112 -0.13276778112819559 0 -0.27975854580024112 -0.13276778112819559 0 -0.29335670431666672 -0.13794145208427519 0 -0.30161085778989238 -0.12506041681693489 0 -0.27975854580024112 -0.13276778112819559 0 -0.29335670431666672 -0.13794145208427519 0 -0.28442919201894412 -0.14445497649103081 0 -0.28075835638157348 -0.1559178865862923 0 -0.2957620507808506 -0.14952531174147959 0 -0.3024128281828844 -0.14885843945558511 0 -0.28075835638157348 -0.1559178865862923 0 -0.3024128281828844 -0.14885843945558511 0 -0.28075835638157348 -0.1559178865862923 0 -0.28442919201894412 -0.14445497649103081 0 -0.2957620507808506 -0.14952531174147959 0 -0.29335670431666672 -0.13794145208427519 0 -0.28442919201894412 -0.14445497649103081 0 -0.2957620507808506 -0.14952531174147959 0 -0.30234004460918612 -0.1466986276350041 0 -0.3024128281828844 -0.14885843945558511 0 -0.32522976597456521 -0.1414200236169115 0 -0.30234004460918612 -0.1466986276350041 0 -0.32249017534138252 -0.13803974838236649 0 -0.29335670431666672 -0.13794145208427519 0 -0.2957620507808506 -0.14952531174147959 0 -0.30234004460918612 -0.1466986276350041 0 -0.2957620507808506 -0.14952531174147959 0 -0.30234004460918612 -0.1466986276350041 0 -0.3024128281828844 -0.14885843945558511 0 -0.2957620507808506 -0.14952531174147959 0 -0.30234004460918612 -0.1466986276350041 0 -0.30234004460918612 -0.1466986276350041 0 -0.3024128281828844 -0.14885843945558511 0 -0.30234004460918612 -0.1466986276350041 0 -0.31013452482286852 -0.1344438162615906 0 -0.32249017534138252 -0.13803974838236649 0 -0.30234004460918612 -0.1466986276350041 0 -0.30161085778989238 -0.12506041681693489 0 -0.29335670431666672 -0.13794145208427519 0 -0.30234004460918612 -0.1466986276350041 0 -0.30161085778989238 -0.12506041681693489 0 -0.30234004460918612 -0.1466986276350041 0 -0.31013452482286852 -0.1344438162615906 0 -0.30161085778989238 -0.12506041681693489 0 -0.31646766509827562 -0.1234392920682638 0 -0.31013452482286852 -0.1344438162615906 0 -0.30161085778989238 -0.12506041681693489 0 -0.31646766509827562 -0.1234392920682638 0 -0.33115294485301261 -0.1184356283404827 0 -0.32249017534138252 -0.13803974838236649 0 -0.31646766509827562 -0.1234392920682638 0 -0.31013452482286852 -0.1344438162615906 0 -0.32249017534138252 -0.13803974838236649 0 -0.3024128281828844 -0.14885843945558511 0 -0.32522976597456521 -0.1414200236169115 0 -0.3024128281828844 -0.14885843945558511 0 -0.32522976597456521 -0.1414200236169115 0 -0.32104352310124051 -0.1638604622019546 0 -0.30234004460918612 -0.1466986276350041 0 -0.32249017534138252 -0.13803974838236649 0 -0.32522976597456521 -0.1414200236169115 0 -0.32522976597456521 -0.1414200236169115 0 -0.35061601333595432 -0.14781811543171361 0 -0.33822294767172473 -0.1569931376524217 0 -0.32522976597456521 -0.1414200236169115 0 -0.33822294767172473 -0.1569931376524217 0 -0.32104352310124051 -0.1638604622019546 0 -0.32522976597456521 -0.1414200236169115 0 -0.34804670376624591 -0.13398160777823731 0 -0.35061601333595432 -0.14781811543171361 0 -0.32249017534138252 -0.13803974838236649 0 -0.34264030607357959 -0.12938086912973051 0 -0.32522976597456521 -0.1414200236169115 0 -0.34264030607357959 -0.12938086912973051 0 -0.34804670376624591 -0.13398160777823731 0 -0.33115294485301261 -0.1184356283404827 0 -0.32249017534138252 -0.13803974838236649 0 -0.34264030607357959 -0.12938086912973051 0 -0.32249017534138252 -0.13803974838236649 0 -0.32522976597456521 -0.1414200236169115 0 -0.34264030607357959 -0.12938086912973051 0 -0.32522976597456521 -0.1414200236169115 0 -0.34804670376624591 -0.13398160777823731 0 -0.36279043680577733 -0.12072198987709561 0 -0.34264030607357959 -0.12938086912973051 0 -0.36279043680577733 -0.12072198987709561 0 -0.34264030607357959 -0.12938086912973051 0 -0.34804670376624591 -0.13398160777823731 0 -0.34804670376624591 -0.13398160777823731 0 -0.36316708944414761 -0.13804621465368969 0 -0.35061601333595432 -0.14781811543171361 0 -0.34804670376624591 -0.13398160777823731 0 -0.36316708944414761 -0.13804621465368969 0 -0.37086364155792689 -0.1265431919395642 0 -0.34804670376624591 -0.13398160777823731 0 -0.37086364155792689 -0.1265431919395642 0 -0.36279043680577733 -0.12072198987709561 0 -0.34804670376624591 -0.13398160777823731 0 -0.37086364155792689 -0.1265431919395642 0 -0.36316708944414761 -0.13804621465368969 0 -0.36818747372735511 -0.14735459984177601 0 -0.37812161483325563 -0.13453355827715829 0 -0.36316708944414761 -0.13804621465368969 0 -0.37086364155792689 -0.1265431919395642 0 -0.37812161483325563 -0.13453355827715829 0 -0.37086364155792689 -0.1265431919395642 0 -0.37812161483325563 -0.13453355827715829 0 -0.36316708944414761 -0.13804621465368969 0 -0.36818747372735511 -0.14735459984177601 0 -0.35061601333595432 -0.14781811543171361 0 -0.37028632845225251 -0.1496561370371301 0 -0.3690111511086428 -0.15365147065227111 0 -0.38034638008608129 -0.1504485127156148 0 -0.37028632845225251 -0.1496561370371301 0 -0.36818747372735511 -0.14735459984177601 0 -0.38231932428305082 -0.13913663266786711 0 -0.36818747372735511 -0.14735459984177601 0 -0.37812161483325563 -0.13453355827715829 0 -0.37028632845225251 -0.1496561370371301 0 -0.35825333262145431 -0.1601756414063934 0 -0.37028632845225251 -0.1496561370371301 0 -0.3690111511086428 -0.15365147065227111 0 -0.35825333262145431 -0.1601756414063934 0 -0.37028632845225251 -0.1496561370371301 0 -0.36818747372735511 -0.14735459984177601 0 -0.35825333262145431 -0.1601756414063934 0 -0.36818747372735511 -0.14735459984177601 0 -0.35825333262145431 -0.1601756414063934 0 -0.35061601333595432 -0.14781811543171361 0 -0.3476137553859136 -0.1572787451787506 0 -0.35825333262145431 -0.1601756414063934 0 -0.36818747372735511 -0.14735459984177601 0 -0.35061601333595432 -0.14781811543171361 0 -0.35825333262145431 -0.1601756414063934 0 -0.35061601333595432 -0.14781811543171361 0 -0.3476137553859136 -0.1572787451787506 0 -0.33822294767172473 -0.1569931376524217 0 -0.35825333262145431 -0.1601756414063934 0 -0.3602623718222232 -0.1697290827347824 0 -0.34386144146688857 -0.1787498727082365 0 -0.3476137553859136 -0.1572787451787506 0 -0.35825333262145431 -0.1601756414063934 0 -0.34336272791452083 -0.16412808622447339 0 -0.35825333262145431 -0.1601756414063934 0 -0.33870050144152858 -0.17726914795463261 0 -0.34336272791452083 -0.16412808622447339 0 -0.35825333262145431 -0.1601756414063934 0 -0.33870050144152858 -0.17726914795463261 0 -0.35825333262145431 -0.1601756414063934 0 -0.34386144146688857 -0.1787498727082365 0 -0.3690111511086428 -0.15365147065227111 0 -0.35825333262145431 -0.1601756414063934 0 -0.36565001044296819 -0.16181661477064349 0 -0.35825333262145431 -0.1601756414063934 0 -0.36565001044296819 -0.16181661477064349 0 -0.3602623718222232 -0.1697290827347824 0 -0.3602623718222232 -0.1697290827347824 0 -0.36951353869147829 -0.16661132852984889 0 -0.35692362799304528 -0.17890280986002 0 -0.36565001044296819 -0.16181661477064349 0 -0.3602623718222232 -0.1697290827347824 0 -0.36951353869147829 -0.16661132852984889 0 -0.3690111511086428 -0.15365147065227111 0 -0.36565001044296819 -0.16181661477064349 0 -0.37046745866572162 -0.1601292671416574 0 -0.36951353869147829 -0.16661132852984889 0 -0.37046745866572162 -0.1601292671416574 0 -0.37650761553128481 -0.1603796011926433 0 -0.3690111511086428 -0.15365147065227111 0 -0.37046745866572162 -0.1601292671416574 0 -0.37650761553128481 -0.1603796011926433 0 -0.36565001044296819 -0.16181661477064349 0 -0.36951353869147829 -0.16661132852984889 0 -0.37046745866572162 -0.1601292671416574 0 -0.36951353869147829 -0.16661132852984889 0 -0.35692362799304528 -0.17890280986002 0 -0.38135966416584027 -0.17189144412859131 0 -0.35692362799304528 -0.17890280986002 0 -0.36281807040910941 -0.18936662009603261 0 -0.38135966416584027 -0.17189144412859131 0 -0.36281807040910941 -0.18936662009603261 0 -0.37571965098959831 -0.1921848407989061 0 -0.38135966416584027 -0.17189144412859131 0 -0.35692362799304528 -0.17890280986002 0 -0.38135966416584027 -0.17189144412859131 0 -0.35692362799304528 -0.17890280986002 0 -0.34832195587157733 -0.1892795917774831 0 -0.36281807040910941 -0.18936662009603261 0 -0.3602623718222232 -0.1697290827347824 0 -0.35692362799304528 -0.17890280986002 0 -0.34386144146688857 -0.1787498727082365 0 -0.35825333262145431 -0.1601756414063934 0 -0.34386144146688857 -0.1787498727082365 0 -0.33870050144152858 -0.17726914795463261 0 -0.35692362799304528 -0.17890280986002 0 -0.34386144146688857 -0.1787498727082365 0 -0.34832195587157733 -0.1892795917774831 0 -0.33870050144152858 -0.17726914795463261 0 -0.32333969254272071 -0.17953157192565439 0 -0.32946955031232261 -0.19732410401007941 0 -0.34386144146688857 -0.1787498727082365 0 -0.33870050144152858 -0.17726914795463261 0 -0.32946955031232261 -0.19732410401007941 0 -0.33870050144152858 -0.17726914795463261 0 -0.33295944249599402 -0.16811413814610879 0 -0.32333969254272071 -0.17953157192565439 0 -0.33822294767172473 -0.1569931376524217 0 -0.33295944249599402 -0.16811413814610879 0 -0.32104352310124051 -0.1638604622019546 0 -0.33870050144152858 -0.17726914795463261 0 -0.34336272791452083 -0.16412808622447339 0 -0.33295944249599402 -0.16811413814610879 0 -0.34336272791452083 -0.16412808622447339 0 -0.33822294767172473 -0.1569931376524217 0 -0.33295944249599402 -0.16811413814610879 0 -0.3476137553859136 -0.1572787451787506 0 -0.34336272791452083 -0.16412808622447339 0 -0.33822294767172473 -0.1569931376524217 0 -0.33295944249599402 -0.16811413814610879 0 -0.32104352310124051 -0.1638604622019546 0 -0.32333969254272071 -0.17953157192565439 0 -0.30336297392627598 -0.17705348270024471 0 -0.32333969254272071 -0.17953157192565439 0 -0.31472720824821648 -0.19441619817220221 0 -0.30336297392627598 -0.17705348270024471 0 -0.32104352310124051 -0.1638604622019546 0 -0.32333969254272071 -0.17953157192565439 0 -0.31472720824821648 -0.19441619817220221 0 -0.31507765915775671 -0.21589833531192229 0 -0.32946955031232261 -0.19732410401007941 0 -0.32333969254272071 -0.17953157192565439 0 -0.31472720824821648 -0.19441619817220221 0 -0.32946955031232261 -0.19732410401007941 0 -0.31507765915775671 -0.21589833531192229 0 -0.32946955031232261 -0.19732410401007941 0 -0.31507765915775671 -0.21589833531192229 0 -0.33675717973519131 -0.2158317131984189 0 -0.32946955031232261 -0.19732410401007941 0 -0.33675717973519131 -0.2158317131984189 0 -0.32946955031232261 -0.19732410401007941 0 -0.34924581982300218 -0.2016788304129559 0 -0.34386144146688857 -0.1787498727082365 0 -0.32946955031232261 -0.19732410401007941 0 -0.34832195587157733 -0.1892795917774831 0 -0.34386144146688857 -0.1787498727082365 0 -0.32946955031232261 -0.19732410401007941 0 -0.32946955031232261 -0.19732410401007941 0 -0.34832195587157733 -0.1892795917774831 0 -0.34924581982300218 -0.2016788304129559 0 -0.34924581982300218 -0.2016788304129559 0 -0.36281807040910941 -0.18936662009603261 0 -0.36533770361159351 -0.20226220359823899 0 -0.34832195587157733 -0.1892795917774831 0 -0.34924581982300218 -0.2016788304129559 0 -0.36281807040910941 -0.18936662009603261 0 -0.36533770361159351 -0.20226220359823899 0 -0.38218261793032121 -0.21180943410634581 0 -0.37571965098959831 -0.1921848407989061 0 -0.36281807040910941 -0.18936662009603261 0 -0.36533770361159351 -0.20226220359823899 0 -0.37571965098959831 -0.1921848407989061 0 -0.36533770361159351 -0.20226220359823899 0 -0.35743108955241798 -0.21589557077686339 0 -0.38218261793032121 -0.21180943410634581 0 -0.33675717973519131 -0.2158317131984189 0 -0.34924581982300218 -0.2016788304129559 0 -0.35743108955241798 -0.21589557077686339 0 -0.34924581982300218 -0.2016788304129559 0 -0.36533770361159351 -0.20226220359823899 0 -0.35743108955241798 -0.21589557077686339 0 -0.35743108955241798 -0.21589557077686339 0 -0.34586428596638641 -0.23158529373494069 0 -0.36616479624304832 -0.23065615600763231 0 -0.33675717973519131 -0.2158317131984189 0 -0.35743108955241798 -0.21589557077686339 0 -0.34586428596638641 -0.23158529373494069 0 -0.34586428596638641 -0.23158529373494069 0 -0.36616479624304832 -0.23065615600763231 0 -0.36616479624304832 -0.23065615600763231 0 -0.38218261793032121 -0.21180943410634581 0 -0.35743108955241798 -0.21589557077686339 0 -0.36616479624304832 -0.23065615600763231 0 -0.38218261793032121 -0.21180943410634581 0 -0.3652942889692089 -0.25042186949623613 0 -0.36616479624304832 -0.23065615600763231 0 -0.35131987670973169 -0.2481228300382099 0 -0.38049762921659952 -0.25021735770044617 0 -0.3652942889692089 -0.25042186949623613 0 -0.36616479624304832 -0.23065615600763231 0 -0.34586428596638641 -0.23158529373494069 0 -0.35131987670973169 -0.2481228300382099 0 -0.33790901767947568 -0.24289357912332429 0 -0.36616479624304832 -0.23065615600763231 0 -0.35131987670973169 -0.2481228300382099 0 -0.34586428596638641 -0.23158529373494069 0 -0.36616479624304832 -0.23065615600763231 0 -0.35131987670973169 -0.2481228300382099 0 -0.34586428596638641 -0.23158529373494069 0 -0.33790901767947568 -0.24289357912332429 0 -0.32556377568972461 -0.2325144314622509 0 -0.3364244991495437 -0.25282795232326549 0 -0.35131987670973169 -0.2481228300382099 0 -0.33790901767947568 -0.24289357912332429 0 -0.3364244991495437 -0.25282795232326549 0 -0.33790901767947568 -0.24289357912332429 0 -0.32772674009125052 -0.24786565639204999 0 -0.33790901767947568 -0.24289357912332429 0 -0.32556377568972461 -0.2325144314622509 0 -0.32772674009125052 -0.24786565639204999 0 -0.33675717973519131 -0.2158317131984189 0 -0.34586428596638641 -0.23158529373494069 0 -0.32556377568972461 -0.2325144314622509 0 -0.34586428596638641 -0.23158529373494069 0 -0.32556377568972461 -0.2325144314622509 0 -0.30526326541306292 -0.23344356918956369 0 -0.31507765915775671 -0.21589833531192229 0 -0.32556377568972461 -0.2325144314622509 0 -0.30526326541306292 -0.23344356918956369 0 -0.32556377568972461 -0.2325144314622509 0 -0.31507765915775671 -0.21589833531192229 0 -0.33675717973519131 -0.2158317131984189 0 -0.32556377568972461 -0.2325144314622509 0 -0.30526326541306292 -0.23344356918956369 0 -0.32556377568972461 -0.2325144314622509 0 -0.31587538925458419 -0.24307026029734491 0 -0.31994358486826752 -0.25582512977358962 0 -0.31587538925458419 -0.24307026029734491 0 -0.32772674009125052 -0.24786565639204999 0 -0.32556377568972461 -0.2325144314622509 0 -0.31587538925458419 -0.24307026029734491 0 -0.32772674009125052 -0.24786565639204999 0 -0.42700439334320162 -0.25393468831072469 0 -0.43408840815871008 -0.22754734792616829 0 -0.42093017452507808 -0.23965735624997089 0 -0.43751304390905338 -0.25171100218643983 0 -0.42700439334320162 -0.25393468831072469 0 -0.43408840815871008 -0.22754734792616829 0 -0.42700439334320162 -0.25393468831072469 0 -0.43408840815871008 -0.22754734792616829 0 -0.43408840815871008 -0.22754734792616829 0 -0.41144720418682262 -0.2285836172866518 0 -0.43408840815871008 -0.22754734792616829 0 -0.41144720418682262 -0.2285836172866518 0 -0.42093017452507808 -0.23965735624997089 0 -0.43408840815871008 -0.22754734792616829 0 -0.41144720418682262 -0.2285836172866518 0 -0.41960846420435149 -0.20880193326852001 0 -0.41144720418682262 -0.2285836172866518 0 -0.41118069241157817 -0.2485637714763447 0 -0.39616193795957338 -0.24440313672781319 0 -0.41144720418682262 -0.2285836172866518 0 -0.42093017452507808 -0.23965735624997089 0 -0.41118069241157817 -0.2485637714763447 0 -0.42700439334320162 -0.25393468831072469 0 -0.42093017452507808 -0.23965735624997089 0 -0.41118069241157817 -0.2485637714763447 0 -0.38049762921659952 -0.25021735770044617 0 -0.36616479624304832 -0.23065615600763231 0 -0.38880600021493539 -0.2296198866471412 0 -0.38049762921659952 -0.25021735770044617 0 -0.39616193795957338 -0.24440313672781319 0 -0.38880600021493539 -0.2296198866471412 0 -0.36616479624304832 -0.23065615600763231 0 -0.38880600021493539 -0.2296198866471412 0 -0.38218261793032121 -0.21180943410634581 0 -0.36616479624304832 -0.23065615600763231 0 -0.38880600021493539 -0.2296198866471412 0 -0.41144720418682262 -0.2285836172866518 0 -0.38880600021493539 -0.2296198866471412 0 -0.41144720418682262 -0.2285836172866518 0 -0.39616193795957338 -0.24440313672781319 0 -0.38880600021493539 -0.2296198866471412 0 -0.41144720418682262 -0.2285836172866518 0 -0.38880600021493539 -0.2296198866471412 0 -0.40061820107719548 -0.2134597752659384 0 -0.40061820107719548 -0.2134597752659384 0 -0.39820043961759222 -0.1929627122050577 0 -0.41960846420435149 -0.20880193326852001 0 -0.40061820107719548 -0.2134597752659384 0 -0.38218261793032121 -0.21180943410634581 0 -0.39820043961759222 -0.1929627122050577 0 -0.38880600021493539 -0.2296198866471412 0 -0.40061820107719548 -0.2134597752659384 0 -0.38218261793032121 -0.21180943410634581 0 -0.37571965098959831 -0.1921848407989061 0 -0.39820043961759222 -0.1929627122050577 0 -0.38758481984173881 -0.18368885608706961 0 -0.38218261793032121 -0.21180943410634581 0 -0.39820043961759222 -0.1929627122050577 0 -0.38218261793032121 -0.21180943410634581 0 -0.37571965098959831 -0.1921848407989061 0 -0.39820043961759222 -0.1929627122050577 0 -0.39820043961759222 -0.1929627122050577 0 -0.41960846420435149 -0.20880193326852001 0 -0.42743473163706069 -0.18860875042672051 0 -0.41144720418682262 -0.2285836172866518 0 -0.40061820107719548 -0.2134597752659384 0 -0.41960846420435149 -0.20880193326852001 0 -0.43408840815871008 -0.22754734792616829 0 -0.41960846420435149 -0.20880193326852001 0 -0.44065120196926161 -0.2031015105496714 0 -0.43408840815871008 -0.22754734792616829 0 -0.44065120196926161 -0.2031015105496714 0 -0.42743473163706069 -0.18860875042672051 0 -0.43336024338209372 -0.17839712387414869 0 -0.44065120196926161 -0.2031015105496714 0 -0.42743473163706069 -0.18860875042672051 0 -0.44065120196926161 -0.2031015105496714 0 -0.41960846420435149 -0.20880193326852001 0 -0.42743473163706069 -0.18860875042672051 0 -0.44065120196926161 -0.2031015105496714 0 -0.42637562209842711 -0.1762261023025401 0 -0.4371201132985455 -0.17239518874738191 0 -0.41974476086957407 -0.1676134581606821 0 -0.42743473163706069 -0.18860875042672051 0 -0.42637562209842711 -0.1762261023025401 0 -0.41421826130486139 -0.1741159903037682 0 -0.42743473163706069 -0.18860875042672051 0 -0.42637562209842711 -0.1762261023025401 0 -0.43336024338209372 -0.17839712387414869 0 -0.42637562209842711 -0.1762261023025401 0 -0.43336024338209372 -0.17839712387414869 0 -0.4371201132985455 -0.17239518874738191 0 -0.43336024338209372 -0.17839712387414869 0 -0.4371201132985455 -0.17239518874738191 0 -0.4371201132985455 -0.17239518874738191 0 -0.42731571773431493 -0.15870539804226019 0 -0.41974476086957407 -0.1676134581606821 0 -0.4371201132985455 -0.17239518874738191 0 -0.41974476086957407 -0.1676134581606821 0 -0.42731571773431493 -0.15870539804226019 0 -0.41974476086957407 -0.1676134581606821 0 -0.42731571773431493 -0.15870539804226019 0 -0.41974476086957407 -0.1676134581606821 0 -0.40776220308106309 -0.16431583508693531 0 -0.42731571773431493 -0.15870539804226019 0 -0.40776220308106309 -0.16431583508693531 0 -0.41899126830346761 -0.1504527797196214 0 -0.42731571773431493 -0.15870539804226019 0 -0.40776220308106309 -0.16431583508693531 0 -0.41974476086957407 -0.1676134581606821 0 -0.41421826130486139 -0.1741159903037682 0 -0.40776220308106309 -0.16431583508693531 0 -0.40444985889061419 -0.16340427156073589 0 -0.40856248037929488 -0.15238598682744689 0 -0.41974476086957407 -0.1676134581606821 0 -0.40776220308106309 -0.16431583508693531 0 -0.41421826130486139 -0.1741159903037682 0 -0.41974476086957407 -0.1676134581606821 0 -0.40776220308106309 -0.16431583508693531 0 -0.40776220308106309 -0.16431583508693531 0 -0.41421826130486139 -0.1741159903037682 0 -0.40579570033863538 -0.1648800783971627 0 -0.41421826130486139 -0.1741159903037682 0 -0.40579570033863538 -0.1648800783971627 0 -0.40776220308106309 -0.16431583508693531 0 -0.40579570033863538 -0.1648800783971627 0 -0.41421826130486139 -0.1741159903037682 0 -0.4033184814637531 -0.17741880203042809 0 -0.40579570033863538 -0.1648800783971627 0 -0.39820043961759222 -0.1929627122050577 0 -0.42743473163706069 -0.18860875042672051 0 -0.41421826130486139 -0.1741159903037682 0 -0.42637562209842711 -0.1762261023025401 0 -0.41974476086957407 -0.1676134581606821 0 -0.41421826130486139 -0.1741159903037682 0 -0.42743473163706069 -0.18860875042672051 0 -0.41421826130486139 -0.1741159903037682 0 -0.39820043961759222 -0.1929627122050577 0 -0.41421826130486139 -0.1741159903037682 0 -0.39820043961759222 -0.1929627122050577 0 -0.4033184814637531 -0.17741880203042809 0 -0.39505952459392418 -0.1777164272157232 0 -0.39820043961759222 -0.1929627122050577 0 -0.41421826130486139 -0.1741159903037682 0 -0.4033184814637531 -0.17741880203042809 0 -0.4033184814637531 -0.17741880203042809 0 -0.39505952459392418 -0.1777164272157232 0 -0.40579570033863538 -0.1648800783971627 0 -0.39820043961759222 -0.1929627122050577 0 -0.39505952459392418 -0.1777164272157232 0 -0.38758481984173881 -0.18368885608706961 0 -0.37571965098959831 -0.1921848407989061 0 -0.38758481984173881 -0.18368885608706961 0 -0.38135966416584027 -0.17189144412859131 0 -0.39505952459392418 -0.1777164272157232 0 -0.38758481984173881 -0.18368885608706961 0 -0.38135966416584027 -0.17189144412859131 0 -0.3690111511086428 -0.15365147065227111 0 -0.37650761553128481 -0.1603796011926433 0 -0.38673050499962852 -0.1585278711065034 0 -0.38135966416584027 -0.17189144412859131 0 -0.37650761553128481 -0.1603796011926433 0 -0.38673050499962852 -0.1585278711065034 0 -0.36951353869147829 -0.16661132852984889 0 -0.38135966416584027 -0.17189144412859131 0 -0.37650761553128481 -0.1603796011926433 0 -0.38673050499962852 -0.1585278711065034 0 -0.40444985889061419 -0.16340427156073589 0 -0.39338459158683181 -0.1512704521143021 0 -0.38135966416584027 -0.17189144412859131 0 -0.40579570033863538 -0.1648800783971627 0 -0.39505952459392418 -0.1777164272157232 0 -0.38135966416584027 -0.17189144412859131 0 -0.40579570033863538 -0.1648800783971627 0 -0.38135966416584027 -0.17189144412859131 0 -0.38673050499962852 -0.1585278711065034 0 -0.40444985889061419 -0.16340427156073589 0 -0.38135966416584027 -0.17189144412859131 0 -0.40579570033863538 -0.1648800783971627 0 -0.40444985889061419 -0.16340427156073589 0 -0.38673050499962852 -0.1585278711065034 0 -0.40444985889061419 -0.16340427156073589 0 -0.40579570033863538 -0.1648800783971627 0 -0.40444985889061419 -0.16340427156073589 0 -0.40776220308106309 -0.16431583508693531 0 -0.40579570033863538 -0.1648800783971627 0 -0.40444985889061419 -0.16340427156073589 0 -0.40444985889061419 -0.16340427156073589 0 -0.39338459158683181 -0.1512704521143021 0 -0.40776220308106309 -0.16431583508693531 0 -0.40444985889061419 -0.16340427156073589 0 -0.40444985889061419 -0.16340427156073589 0 -0.39338459158683181 -0.1512704521143021 0 -0.40856248037929488 -0.15238598682744689 0 -0.403811443379887 -0.14412693733252921 0 -0.39338459158683181 -0.1512704521143021 0 -0.40856248037929488 -0.15238598682744689 0 -0.39338459158683181 -0.1512704521143021 0 -0.38231932428305082 -0.13913663266786711 0 -0.39736006081100261 -0.13923549274155819 0 -0.403811443379887 -0.14412693733252921 0 -0.39338459158683181 -0.1512704521143021 0 -0.39736006081100261 -0.13923549274155819 0 -0.3690111511086428 -0.15365147065227111 0 -0.38673050499962852 -0.1585278711065034 0 -0.38034638008608129 -0.1504485127156148 0 -0.3690111511086428 -0.15365147065227111 0 -0.38673050499962852 -0.1585278711065034 0 -0.38673050499962852 -0.1585278711065034 0 -0.39338459158683181 -0.1512704521143021 0 -0.38034638008608129 -0.1504485127156148 0 -0.39338459158683181 -0.1512704521143021 0 -0.38231932428305082 -0.13913663266786711 0 -0.39338459158683181 -0.1512704521143021 0 -0.38034638008608129 -0.1504485127156148 0 -0.38231932428305082 -0.13913663266786711 0 -0.37028632845225251 -0.1496561370371301 0 -0.38231932428305082 -0.13913663266786711 0 -0.37028632845225251 -0.1496561370371301 0 -0.38034638008608129 -0.1504485127156148 0 -0.38231932428305082 -0.13913663266786711 0 -0.37086364155792689 -0.1265431919395642 0 -0.37951593695145991 -0.1327340406700106 0 -0.38739544009950189 -0.1211537574222683 0 -0.37086364155792689 -0.1265431919395642 0 -0.37951593695145991 -0.1327340406700106 0 -0.37812161483325563 -0.13453355827715829 0 -0.37086364155792689 -0.1265431919395642 0 -0.37951593695145991 -0.1327340406700106 0 -0.36818747372735511 -0.14735459984177601 0 -0.37812161483325563 -0.13453355827715829 0 -0.38231932428305082 -0.13913663266786711 0 -0.37951593695145991 -0.1327340406700106 0 -0.37812161483325563 -0.13453355827715829 0 -0.37812161483325563 -0.13453355827715829 0 -0.38231932428305082 -0.13913663266786711 0 -0.37812161483325563 -0.13453355827715829 0 -0.38231932428305082 -0.13913663266786711 0 -0.38260547737258283 -0.1349529110261794 0 -0.37951593695145991 -0.1327340406700106 0 -0.37812161483325563 -0.13453355827715829 0 -0.38260547737258283 -0.1349529110261794 0 -0.37951593695145991 -0.1327340406700106 0 -0.38260547737258283 -0.1349529110261794 0 -0.38231932428305082 -0.13913663266786711 0 -0.38260547737258283 -0.1349529110261794 0 -0.39086993047885182 -0.12689081738553831 0 -0.37951593695145991 -0.1327340406700106 0 -0.38260547737258283 -0.1349529110261794 0 -0.38885818713676112 -0.12067689585437411 0 -0.37951593695145991 -0.1327340406700106 0 -0.38885818713676112 -0.12067689585437411 0 -0.38260547737258283 -0.1349529110261794 0 -0.39086993047885182 -0.12689081738553831 0 -0.38885818713676112 -0.12067689585437411 0 -0.38231932428305082 -0.13913663266786711 0 -0.39736006081100261 -0.13923549274155819 0 -0.39957252425331041 -0.1316566402584616 0 -0.38231932428305082 -0.13913663266786711 0 -0.39957252425331041 -0.1316566402584616 0 -0.40155420383366469 -0.1223210862885489 0 -0.38231932428305082 -0.13913663266786711 0 -0.39086993047885182 -0.12689081738553831 0 -0.40155420383366469 -0.1223210862885489 0 -0.38231932428305082 -0.13913663266786711 0 -0.40155420383366469 -0.1223210862885489 0 -0.39736006081100261 -0.13923549274155819 0 -0.39957252425331041 -0.1316566402584616 0 -0.40729374523523398 -0.13339493871188929 0 -0.403811443379887 -0.14412693733252921 0 -0.39736006081100261 -0.13923549274155819 0 -0.40729374523523398 -0.13339493871188929 0 -0.39957252425331041 -0.1316566402584616 0 -0.40155420383366469 -0.1223210862885489 0 -0.40933528710360068 -0.1241950508824432 0 -0.39957252425331041 -0.1316566402584616 0 -0.40729374523523398 -0.13339493871188929 0 -0.40933528710360068 -0.1241950508824432 0 -0.41858497058187871 -0.1265104183566792 0 -0.40729374523523398 -0.13339493871188929 0 -0.40933528710360068 -0.1241950508824432 0 -0.41858497058187871 -0.1265104183566792 0 -0.41473337947229189 -0.14011310018649251 0 -0.42641355146893489 -0.13952204595193141 0 -0.41858497058187871 -0.1265104183566792 0 -0.41473337947229189 -0.14011310018649251 0 -0.40729374523523398 -0.13339493871188929 0 -0.403811443379887 -0.14412693733252921 0 -0.41473337947229189 -0.14011310018649251 0 -0.40729374523523398 -0.13339493871188929 0 -0.403811443379887 -0.14412693733252921 0 -0.41473337947229189 -0.14011310018649251 0 -0.40856248037929488 -0.15238598682744689 0 -0.40776220308106309 -0.16431583508693531 0 -0.40856248037929488 -0.15238598682744689 0 -0.41899126830346761 -0.1504527797196214 0 -0.41473337947229189 -0.14011310018649251 0 -0.40856248037929488 -0.15238598682744689 0 -0.41899126830346761 -0.1504527797196214 0 -0.41473337947229189 -0.14011310018649251 0 -0.41899126830346761 -0.1504527797196214 0 -0.42641355146893489 -0.13952204595193141 0 -0.42731571773431493 -0.15870539804226019 0 -0.44534265680647211 -0.13749472944714031 0 -0.42731571773431493 -0.15870539804226019 0 -0.41899126830346761 -0.1504527797196214 0 -0.42641355146893489 -0.13952204595193141 0 -0.42731571773431493 -0.15870539804226019 0 -0.42641355146893489 -0.13952204595193141 0 -0.44534265680647211 -0.13749472944714031 0 -0.43127301825398939 -0.12551177574996891 0 -0.42641355146893489 -0.13952204595193141 0 -0.44534265680647211 -0.13749472944714031 0 -0.41858497058187871 -0.1265104183566792 0 -0.43127301825398939 -0.12551177574996891 0 -0.42641355146893489 -0.13952204595193141 0 -0.43127301825398939 -0.12551177574996891 0 -0.44534265680647211 -0.13749472944714031 0 -0.44198817408939339 -0.11308865940685089 0 -0.42731571773431493 -0.15870539804226019 0 -0.44972367200118862 -0.15227594436379771 0 -0.42731571773431493 -0.15870539804226019 0 -0.44534265680647211 -0.13749472944714031 0 -0.44972367200118862 -0.15227594436379771 0 -0.44972367200118862 -0.15227594436379771 0 -0.45467756160269518 -0.15085453822641329 0 -0.44534265680647211 -0.13749472944714031 0 -0.44972367200118862 -0.15227594436379771 0 -0.45772489982664122 -0.13950346781275921 0 -0.45467756160269518 -0.15085453822641329 0 -0.45772489982664122 -0.13950346781275921 0 -0.44972367200118862 -0.15227594436379771 0 -0.45467756160269518 -0.15085453822641329 0 -0.45772489982664122 -0.13950346781275921 0 -0.45689040995097269 -0.15021961163815181 0 -0.45946751339527359 -0.13672170838427619 0 -0.45689040995097269 -0.15021961163815181 0 -0.45772489982664122 -0.13950346781275921 0 -0.45946751339527359 -0.13672170838427619 0 -0.44972367200118862 -0.15227594436379771 0 -0.45772489982664122 -0.13950346781275921 0 -0.45467756160269518 -0.15085453822641329 0 -0.45689040995097269 -0.15021961163815181 0 -0.45772489982664122 -0.13950346781275921 0 -0.45467756160269518 -0.15085453822641329 0 -0.45689040995097269 -0.15021961163815181 0 -0.45689040995097269 -0.15021961163815181 0 -0.45946751339527359 -0.13672170838427619 0 -0.47307343807950991 -0.13292895081547429 0 -0.44534265680647211 -0.13749472944714031 0 -0.45772489982664122 -0.13950346781275921 0 -0.46191961509160318 -0.12387851749920301 0 -0.44534265680647211 -0.13749472944714031 0 -0.46423032691481653 -0.1152713164984131 0 -0.46191961509160318 -0.12387851749920301 0 -0.45946751339527359 -0.13672170838427619 0 -0.47307343807950991 -0.13292895081547429 0 -0.47054932777894559 -0.1190316466279922 0 -0.45946751339527359 -0.13672170838427619 0 -0.46191961509160318 -0.12387851749920301 0 -0.47054932777894559 -0.1190316466279922 0 -0.44534265680647211 -0.13749472944714031 0 -0.46423032691481653 -0.1152713164984131 0 -0.45946751339527359 -0.13672170838427619 0 -0.47054932777894559 -0.1190316466279922 0 -0.45772489982664122 -0.13950346781275921 0 -0.45946751339527359 -0.13672170838427619 0 -0.46191961509160318 -0.12387851749920301 0 -0.45772489982664122 -0.13950346781275921 0 -0.45946751339527359 -0.13672170838427619 0 -0.45772489982664122 -0.13950346781275921 0 -0.46191961509160318 -0.12387851749920301 0 -0.45946751339527359 -0.13672170838427619 0 -0.46191961509160318 -0.12387851749920301 0 -0.47307343807950991 -0.13292895081547429 0 -0.48282769070819631 -0.131746624010248 0 -0.47054932777894559 -0.1190316466279922 0 -0.47307343807950991 -0.13292895081547429 0 -0.48282769070819631 -0.131746624010248 0 -0.48333891750384778 -0.14263081293969029 0 -0.5 -0.1314421164252422 0 -0.4975741327315783 -0.14231394482148621 0 -0.48960263744709948 -0.12182776484659701 0 -0.48282769070819631 -0.131746624010248 0 -0.4975741327315783 -0.14231394482148621 0 -0.48960263744709948 -0.12182776484659701 0 -0.4975741327315783 -0.14231394482148621 0 -0.48960263744709948 -0.12182776484659701 0 -0.48282769070819631 -0.131746624010248 0 -0.4975741327315783 -0.14231394482148621 0 -0.48333891750384778 -0.14263081293969029 0 -0.5 -0.1314421164252422 0 -0.4975741327315783 -0.14231394482148621 0 -0.5 -0.1605709857909938 0 -0.4975741327315783 -0.14231394482148621 0 -0.48866244411988607 -0.1558248045200292 0 -0.5 -0.1605709857909938 0 -0.4975741327315783 -0.14231394482148621 0 -0.48866244411988607 -0.1558248045200292 0 -0.48333891750384778 -0.14263081293969029 0 -0.45689040995097269 -0.15021961163815181 0 -0.47307343807950991 -0.13292895081547429 0 -0.48333891750384778 -0.14263081293969029 0 -0.45689040995097269 -0.15021961163815181 0 -0.48333891750384778 -0.14263081293969029 0 -0.45689040995097269 -0.15021961163815181 0 -0.48333891750384778 -0.14263081293969029 0 -0.47456225926209872 -0.16192598767714991 0 -0.48866244411988607 -0.1558248045200292 0 -0.48333891750384778 -0.14263081293969029 0 -0.47456225926209872 -0.16192598767714991 0 -0.48866244411988607 -0.1558248045200292 0 -0.47456225926209872 -0.16192598767714991 0 -0.48783691110190608 -0.17168229137082591 0 -0.48866244411988607 -0.1558248045200292 0 -0.5 -0.1605709857909938 0 -0.48783691110190608 -0.17168229137082591 0 -0.48783691110190608 -0.17168229137082591 0 -0.47594046487034042 -0.1830786245657979 0 -0.49999999999999289 -0.18969985515674551 0 -0.5 -0.1605709857909938 0 -0.48783691110190608 -0.17168229137082591 0 -0.49999999999999289 -0.18969985515674551 0 -0.47594046487034042 -0.1830786245657979 0 -0.49999999999999289 -0.18969985515674551 0 -0.47456225926209872 -0.16192598767714991 0 -0.48783691110190608 -0.17168229137082591 0 -0.47594046487034042 -0.1830786245657979 0 -0.4608303048420791 -0.18735785681731701 0 -0.45188092974068828 -0.17645739397484889 0 -0.44880569403300719 -0.19256432757772571 0 -0.47456225926209872 -0.16192598767714991 0 -0.47594046487034042 -0.1830786245657979 0 -0.45188092974068828 -0.17645739397484889 0 -0.47594046487034042 -0.1830786245657979 0 -0.4608303048420791 -0.18735785681731701 0 -0.45188092974068828 -0.17645739397484889 0 -0.47594046487034042 -0.1830786245657979 0 -0.45188092974068828 -0.17645739397484889 0 -0.45467756160269518 -0.15085453822641329 0 -0.45689040995097269 -0.15021961163815181 0 -0.45188092974068828 -0.17645739397484889 0 -0.45689040995097269 -0.15021961163815181 0 -0.47456225926209872 -0.16192598767714991 0 -0.45188092974068828 -0.17645739397484889 0 -0.45689040995097269 -0.15021961163815181 0 -0.45188092974068828 -0.17645739397484889 0 -0.44972367200118862 -0.15227594436379771 0 -0.45467756160269518 -0.15085453822641329 0 -0.44808462782947428 -0.17541264434807791 0 -0.45467756160269518 -0.15085453822641329 0 -0.44808462782947428 -0.17541264434807791 0 -0.4371201132985455 -0.17239518874738191 0 -0.44972367200118862 -0.15227594436379771 0 -0.4371201132985455 -0.17239518874738191 0 -0.44972367200118862 -0.15227594436379771 0 -0.44808462782947428 -0.17541264434807791 0 -0.4371201132985455 -0.17239518874738191 0 -0.42731571773431493 -0.15870539804226019 0 -0.44972367200118862 -0.15227594436379771 0 -0.45467756160269518 -0.15085453822641329 0 -0.45188092974068828 -0.17645739397484889 0 -0.44808462782947428 -0.17541264434807791 0 -0.45188092974068828 -0.17645739397484889 0 -0.44808462782947428 -0.17541264434807791 0 -0.44880569403300719 -0.19256432757772571 0 -0.43336024338209372 -0.17839712387414869 0 -0.4371201132985455 -0.17239518874738191 0 -0.44808462782947428 -0.17541264434807791 0 -0.43336024338209372 -0.17839712387414869 0 -0.44808462782947428 -0.17541264434807791 0 -0.44065120196926161 -0.2031015105496714 0 -0.4371201132985455 -0.17239518874738191 0 -0.44808462782947428 -0.17541264434807791 0 -0.45188092974068828 -0.17645739397484889 0 -0.44880569403300719 -0.19256432757772571 0 -0.45188092974068828 -0.17645739397484889 0 -0.44808462782947428 -0.17541264434807791 0 -0.44808462782947428 -0.17541264434807791 0 -0.44065120196926161 -0.2031015105496714 0 -0.44808462782947428 -0.17541264434807791 0 -0.44880569403300719 -0.19256432757772571 0 -0.44065120196926161 -0.2031015105496714 0 -0.44880569403300719 -0.19256432757772571 0 -0.44065120196926161 -0.2031015105496714 0 -0.44573045832532798 -0.20867126118060281 0 -0.44880569403300719 -0.19256432757772571 0 -0.44573045832532798 -0.20867126118060281 0 -0.44880569403300719 -0.19256432757772571 0 -0.44573045832532798 -0.20867126118060281 0 -0.45893605170269941 -0.2083296529180686 0 -0.44573045832532798 -0.20867126118060281 0 -0.44219737925291308 -0.2271762069612013 0 -0.43408840815871008 -0.22754734792616829 0 -0.44065120196926161 -0.2031015105496714 0 -0.44573045832532798 -0.20867126118060281 0 -0.44065120196926161 -0.2031015105496714 0 -0.44573045832532798 -0.20867126118060281 0 -0.44573045832532798 -0.20867126118060281 0 -0.45798348984397608 -0.22210754500792149 0 -0.45893605170269941 -0.2083296529180686 0 -0.46669413072428029 -0.19733108115089601 0 -0.47683904782743819 -0.21445474700580819 0 -0.45893605170269941 -0.2083296529180686 0 -0.47683904782743819 -0.21445474700580819 0 -0.45798348984397608 -0.22210754500792149 0 -0.44573045832532798 -0.20867126118060281 0 -0.45893605170269941 -0.2083296529180686 0 -0.45798348984397608 -0.22210754500792149 0 -0.44880569403300719 -0.19256432757772571 0 -0.45893605170269941 -0.2083296529180686 0 -0.46669413072428029 -0.19733108115089601 0 -0.4608303048420791 -0.18735785681731701 0 -0.44880569403300719 -0.19256432757772571 0 -0.46669413072428029 -0.19733108115089601 0 -0.47594046487034042 -0.1830786245657979 0 -0.4608303048420791 -0.18735785681731701 0 -0.46669413072428029 -0.19733108115089601 0 -0.47594046487034042 -0.1830786245657979 0 -0.46669413072428029 -0.19733108115089601 0 -0.48344157429224971 -0.19336566517637779 0 -0.46669413072428029 -0.19733108115089601 0 -0.48344157429224971 -0.19336566517637779 0 -0.47683904782743819 -0.21445474700580819 0 -0.48344157429224971 -0.19336566517637779 0 -0.49999999999999289 -0.18969985515674551 0 -0.48780872097702471 -0.20631101613254979 0 -0.49999999999999289 -0.18969985515674551 0 -0.48780872097702471 -0.20631101613254979 0 -0.5 -0.2124776033028388 0 -0.47594046487034042 -0.1830786245657979 0 -0.48344157429224971 -0.19336566517637779 0 -0.49999999999999289 -0.18969985515674551 0 -0.48780872097702471 -0.20631101613254979 0 -0.5 -0.2124776033028388 0 -0.48277299782599448 -0.2250840614151054 0 -0.48344157429224971 -0.19336566517637779 0 -0.47683904782743819 -0.21445474700580819 0 -0.48780872097702471 -0.20631101613254979 0 -0.47683904782743819 -0.21445474700580819 0 -0.48277299782599448 -0.2250840614151054 0 -0.48344157429224971 -0.19336566517637779 0 -0.48780872097702471 -0.20631101613254979 0 -0.47683904782743819 -0.21445474700580819 0 -0.47683904782743819 -0.21445474700580819 0 -0.47023652136262623 -0.23554382883523831 0 -0.47683904782743819 -0.21445474700580819 0 -0.48277299782599448 -0.2250840614151054 0 -0.47023652136262623 -0.23554382883523831 0 -0.48277299782599448 -0.2250840614151054 0 -0.4806985303723581 -0.2353897470646418 0 -0.47023652136262623 -0.23554382883523831 0 -0.5 -0.2124776033028388 0 -0.48277299782599448 -0.2250840614151054 0 -0.48993198513493791 -0.23212904946361371 0 -0.5 -0.2124776033028388 0 -0.48993198513493791 -0.23212904946361371 0 -0.5 -0.23525535144893209 0 -0.48277299782599448 -0.2250840614151054 0 -0.48993198513493791 -0.23212904946361371 0 -0.4806985303723581 -0.2353897470646418 0 -0.5 -0.25803309959502541 0 -0.5 -0.23525535144893209 0 -0.48399429817233702 -0.2410877380670973 0 -0.48993198513493791 -0.23212904946361371 0 -0.5 -0.23525535144893209 0 -0.48399429817233702 -0.2410877380670973 0 -0.48993198513493791 -0.23212904946361371 0 -0.4806985303723581 -0.2353897470646418 0 -0.48399429817233702 -0.2410877380670973 0 -0.47244310207800461 -0.25075377537078691 0 -0.48399429817233702 -0.2410877380670973 0 -0.47640242233154778 -0.24230515931443361 0 -0.4806985303723581 -0.2353897470646418 0 -0.48399429817233702 -0.2410877380670973 0 -0.47640242233154778 -0.24230515931443361 0 -0.4806985303723581 -0.2353897470646418 0 -0.47023652136262623 -0.23554382883523831 0 -0.47640242233154778 -0.24230515931443361 0 -0.47023652136262623 -0.23554382883523831 0 -0.47640242233154778 -0.24230515931443361 0 -0.47244310207800461 -0.25075377537078691 0 -0.47023652136262623 -0.23554382883523831 0 -0.47640242233154778 -0.24230515931443361 0 -0.46155187019882182 -0.26328341004398592 0 -0.47244310207800461 -0.25075377537078691 0 -0.47023652136262623 -0.23554382883523831 0 -0.46155187019882182 -0.26328341004398592 0 -0.47023652136262623 -0.23554382883523831 0 -0.45396786575014159 -0.2499289980016984 0 -0.47023652136262623 -0.23554382883523831 0 -0.45396786575014159 -0.2499289980016984 0 -0.45053194150881848 -0.23592249724201311 0 -0.46155187019882182 -0.26328341004398592 0 -0.47023652136262623 -0.23554382883523831 0 -0.47023652136262623 -0.23554382883523831 0 -0.45798348984397608 -0.22210754500792149 0 -0.45053194150881848 -0.23592249724201311 0 -0.47683904782743819 -0.21445474700580819 0 -0.47023652136262623 -0.23554382883523831 0 -0.45798348984397608 -0.22210754500792149 0 -0.47023652136262623 -0.23554382883523831 0 -0.45798348984397608 -0.22210754500792149 0 -0.45798348984397608 -0.22210754500792149 0 -0.44219737925291308 -0.2271762069612013 0 -0.45053194150881848 -0.23592249724201311 0 -0.44573045832532798 -0.20867126118060281 0 -0.45798348984397608 -0.22210754500792149 0 -0.44219737925291308 -0.2271762069612013 0 -0.43408840815871008 -0.22754734792616829 0 -0.44573045832532798 -0.20867126118060281 0 -0.44219737925291308 -0.2271762069612013 0 -0.43408840815871008 -0.22754734792616829 0 -0.44219737925291308 -0.2271762069612013 0 -0.43751304390905338 -0.25171100218643983 0 -0.43408840815871008 -0.22754734792616829 0 -0.44219737925291308 -0.2271762069612013 0 -0.43751304390905338 -0.25171100218643983 0 -0.44219737925291308 -0.2271762069612013 0 -0.43751304390905338 -0.25171100218643983 0 -0.44219737925291308 -0.2271762069612013 0 -0.45053194150881848 -0.23592249724201311 0 -0.43751304390905338 -0.25171100218643983 0 -0.45396786575014159 -0.2499289980016984 0 -0.45053194150881848 -0.23592249724201311 0 -0.41491107973841168 -0.040703382945583171 0 -0.42396102105416622 -0.054467343957152178 0 -0.42520625017771019 -0.033834392471626423 0 -0.41491107973841168 -0.040703382945583171 0 -0.42520625017771019 -0.033834392471626423 0 -0.41306579633036361 -0.030506527531161291 0 -0.41491107973841168 -0.040703382945583171 0 -0.41306579633036361 -0.030506527531161291 0 -0.40415805205703331 -0.036635682720548103 0 -0.41491107973841168 -0.040703382945583171 0 -0.40769729738567939 -0.048795226019560663 0 -0.40415805205703331 -0.036635682720548103 0 -0.41479838493410082 -0.062110557627146679 0 -0.42396102105416622 -0.054467343957152178 0 -0.4229753066787364 -0.07080023924709257 0 -0.41479838493410082 -0.062110557627146679 0 -0.42396102105416622 -0.054467343957152178 0 -0.39497149237167523 -0.047160296395736753 0 -0.41491107973841168 -0.040703382945583171 0 -0.40769729738567939 -0.048795226019560663 0 -0.42396102105416622 -0.054467343957152178 0 -0.42396102105416622 -0.054467343957152178 0 -0.39497149237167523 -0.047160296395736753 0 -0.40769729738567939 -0.048795226019560663 0 -0.42396102105416622 -0.054467343957152178 0 -0.39497149237167523 -0.047160296395736753 0 -0.42396102105416622 -0.054467343957152178 0 -0.43008001049542671 -0.051508902097207182 0 -0.42978638747360481 -0.045501640212227051 0 -0.42396102105416622 -0.054467343957152178 0 -0.42693298363229643 -0.05521645140719026 0 -0.4229753066787364 -0.07080023924709257 0 -0.42396102105416622 -0.054467343957152178 0 -0.42693298363229643 -0.05521645140719026 0 -0.43008001049542671 -0.051508902097207182 0 -0.42693298363229643 -0.05521645140719026 0 -0.43089528669446958 -0.054463848780161833 0 -0.43008001049542671 -0.051508902097207182 0 -0.42396102105416622 -0.054467343957152178 0 -0.42693298363229643 -0.05521645140719026 0 -0.42693298363229643 -0.05521645140719026 0 -0.43289842097968062 -0.057913264098210959 0 -0.43096380618348051 -0.065269765600305354 0 -0.42693298363229643 -0.05521645140719026 0 -0.43289842097968062 -0.057913264098210959 0 -0.43089528669446958 -0.054463848780161833 0 -0.43289842097968062 -0.057913264098210959 0 -0.43089528669446958 -0.054463848780161833 0 -0.43509207210421069 -0.05295781863431772 0 -0.43652325505264228 -0.057032510808195103 0 -0.43509207210421069 -0.05295781863431772 0 -0.44039031255556171 -0.0558008911761185 0 -0.43289842097968062 -0.057913264098210959 0 -0.43652325505264228 -0.057032510808195103 0 -0.43509207210421069 -0.05295781863431772 0 -0.43289842097968062 -0.057913264098210959 0 -0.43096380618348051 -0.065269765600305354 0 -0.43771221457111631 -0.061458069324133217 0 -0.43289842097968062 -0.057913264098210959 0 -0.43652325505264228 -0.057032510808195103 0 -0.43771221457111631 -0.061458069324133217 0 -0.43008001049542671 -0.051508902097207182 0 -0.4341979212819328 -0.048214665209403623 0 -0.42978638747360481 -0.045501640212227051 0 -0.43089528669446958 -0.054463848780161833 0 -0.43008001049542671 -0.051508902097207182 0 -0.43509207210421069 -0.05295781863431772 0 -0.43008001049542671 -0.051508902097207182 0 -0.43509207210421069 -0.05295781863431772 0 -0.4341979212819328 -0.048214665209403623 0 -0.43509207210421069 -0.05295781863431772 0 -0.4341979212819328 -0.048214665209403623 0 -0.43950090740363379 -0.051322486629672461 0 -0.4341979212819328 -0.048214665209403623 0 -0.43872500735636488 -0.046391146798755223 0 -0.43950090740363379 -0.051322486629672461 0 -0.43568854239011451 -0.040186616888877293 0 -0.42978638747360481 -0.045501640212227051 0 -0.42520625017771019 -0.033834392471626423 0 -0.4341979212819328 -0.048214665209403623 0 -0.43568854239011451 -0.040186616888877293 0 -0.42978638747360481 -0.045501640212227051 0 -0.4341979212819328 -0.048214665209403623 0 -0.43568854239011451 -0.040186616888877293 0 -0.43872500735636488 -0.046391146798755223 0 -0.42396102105416622 -0.054467343957152178 0 -0.42520625017771019 -0.033834392471626423 0 -0.42396102105416622 -0.054467343957152178 0 -0.42978638747360481 -0.045501640212227051 0 -0.42520625017771019 -0.033834392471626423 0 -0.43568854239011451 -0.040186616888877293 0 -0.42520625017771019 -0.033834392471626423 0 -0.43941487492107612 -0.028408305423005639 0 -0.42520625017771019 -0.033834392471626423 0 -0.43307933665379761 -0.021152824348590959 0 -0.43941487492107612 -0.028408305423005639 0 -0.42520625017771019 -0.033834392471626423 0 -0.43307933665379761 -0.021152824348590959 0 -0.42645147930125421 -0.013201440986100731 0 -0.42520625017771019 -0.033834392471626423 0 -0.42645147930125421 -0.013201440986100731 0 -0.42520625017771019 -0.033834392471626423 0 -0.42645147930125421 -0.013201440986100731 0 -0.41799104492781758 -0.018704393200219761 0 -0.43307933665379761 -0.021152824348590959 0 -0.43449459786842631 -0.0127581595954342 0 -0.42645147930125421 -0.013201440986100731 0 -0.43307933665379761 -0.021152824348590959 0 -0.43449459786842631 -0.0127581595954342 0 -0.44001583351499057 -0.018069667058806201 0 -0.43347961392146023 -0.0028595802463400339 0 -0.43944672595062889 -0.0085072853373330815 0 -0.43921605888514031 0.0076621840151965513 0 -0.42645147930125421 -0.013201440986100731 0 -0.42769670842479812 0.0074315104994249342 0 -0.42645147930125421 -0.013201440986100731 0 -0.42066580394347891 -0.0030686677817414981 0 -0.42769670842479812 0.0074315104994249342 0 -0.43347961392146023 -0.0028595802463400339 0 -0.42645147930125421 -0.013201440986100731 0 -0.42769670842479812 0.0074315104994249342 0 -0.43347961392146023 -0.0028595802463400339 0 -0.43449459786842631 -0.0127581595954342 0 -0.43944672595062889 -0.0085072853373330815 0 -0.43347961392146023 -0.0028595802463400339 0 -0.43449459786842631 -0.0127581595954342 0 -0.42645147930125421 -0.013201440986100731 0 -0.42066580394347891 -0.0030686677817414981 0 -0.41324663300947129 -0.0039260215443408762 0 -0.41807960538904709 0.0045558752302702768 0 -0.42066580394347891 -0.0030686677817414981 0 -0.41785459359282379 -0.010203262107961091 0 -0.41324663300947129 -0.0039260215443408762 0 -0.42645147930125421 -0.013201440986100731 0 -0.42066580394347891 -0.0030686677817414981 0 -0.41785459359282379 -0.010203262107961091 0 -0.41785459359282379 -0.010203262107961091 0 -0.41086143681905168 -0.01128531700114295 0 -0.41799104492781758 -0.018704393200219761 0 -0.42645147930125421 -0.013201440986100731 0 -0.41785459359282379 -0.010203262107961091 0 -0.41799104492781758 -0.018704393200219761 0 -0.41086143681905168 -0.01128531700114295 0 -0.41799104492781758 -0.018704393200219761 0 -0.40611238101271752 -0.016164889810707132 0 -0.41086143681905168 -0.01128531700114295 0 -0.40611238101271752 -0.016164889810707132 0 -0.40325952327647557 -0.011057425641355881 0 -0.41086143681905168 -0.01128531700114295 0 -0.40809322875059961 -0.007452665224025639 0 -0.40325952327647557 -0.011057425641355881 0 -0.41785459359282379 -0.010203262107961091 0 -0.41086143681905168 -0.01128531700114295 0 -0.41324663300947129 -0.0039260215443408762 0 -0.41324663300947129 -0.0039260215443408762 0 -0.40809322875059961 -0.007452665224025639 0 -0.40500532189739991 -0.0035418967092628521 0 -0.41324663300947129 -0.0039260215443408762 0 -0.40500532189739991 -0.0035418967092628521 0 -0.41088443635769267 0.0024351128412023102 0 -0.41086143681905168 -0.01128531700114295 0 -0.41324663300947129 -0.0039260215443408762 0 -0.40809322875059961 -0.007452665224025639 0 -0.41799104492781758 -0.018704393200219761 0 -0.4014486830129117 -0.023760375245290039 0 -0.40611238101271752 -0.016164889810707132 0 -0.41799104492781758 -0.018704393200219761 0 -0.41306579633036361 -0.030506527531161291 0 -0.4014486830129117 -0.023760375245290039 0 -0.41799104492781758 -0.018704393200219761 0 -0.4014486830129117 -0.023760375245290039 0 -0.42520625017771019 -0.033834392471626423 0 -0.41799104492781758 -0.018704393200219761 0 -0.41306579633036361 -0.030506527531161291 0 -0.4014486830129117 -0.023760375245290039 0 -0.38490632109800571 -0.028816357290359921 0 -0.39535830444393172 -0.033169749486068968 0 -0.4014486830129117 -0.023760375245290039 0 -0.39535830444393172 -0.033169749486068968 0 -0.40415805205703331 -0.036635682720548103 0 -0.4014486830129117 -0.023760375245290039 0 -0.38490632109800571 -0.028816357290359921 0 -0.38921936398251872 -0.02074844418085612 0 -0.4014486830129117 -0.023760375245290039 0 -0.38490632109800571 -0.028816357290359921 0 -0.41306579633036361 -0.030506527531161291 0 -0.4014486830129117 -0.023760375245290039 0 -0.40415805205703331 -0.036635682720548103 0 -0.4014486830129117 -0.023760375245290039 0 -0.40611238101271752 -0.016164889810707132 0 -0.39700121702733049 -0.016016937965527021 0 -0.4014486830129117 -0.023760375245290039 0 -0.39700121702733049 -0.016016937965527021 0 -0.38921936398251872 -0.02074844418085612 0 -0.39700121702733049 -0.016016937965527021 0 -0.38940517544862402 -0.01486314185727154 0 -0.38921936398251872 -0.02074844418085612 0 -0.40500532189739991 -0.0035418967092628521 0 -0.39736802626032253 -0.008296188452792664 0 -0.40202812620624517 0.00663764390047911 0 -0.40809322875059961 -0.007452665224025639 0 -0.40500532189739991 -0.0035418967092628521 0 -0.40325952327647557 -0.011057425641355881 0 -0.40500532189739991 -0.0035418967092628521 0 -0.40325952327647557 -0.011057425641355881 0 -0.39736802626032253 -0.008296188452792664 0 -0.40611238101271752 -0.016164889810707132 0 -0.39700121702733049 -0.016016937965527021 0 -0.40325952327647557 -0.011057425641355881 0 -0.39700121702733049 -0.016016937965527021 0 -0.40325952327647557 -0.011057425641355881 0 -0.39736802626032253 -0.008296188452792664 0 -0.39736802626032253 -0.008296188452792664 0 -0.38821830950628222 -0.0088111278812710685 0 -0.38940517544862402 -0.01486314185727154 0 -0.39700121702733049 -0.016016937965527021 0 -0.39736802626032253 -0.008296188452792664 0 -0.38940517544862402 -0.01486314185727154 0 -0.38821830950628222 -0.0088111278812710685 0 -0.40202812620624517 0.00663764390047911 0 -0.39736802626032253 -0.008296188452792664 0 -0.38821830950628222 -0.0088111278812710685 0 -0.40202812620624517 0.00663764390047911 0 -0.36933859948822412 -0.0004439302888986224 0 -0.38821830950628222 -0.0088111278812710685 0 -0.37936430061871951 -0.018715934413416849 0 -0.38821830950628222 -0.0088111278812710685 0 -0.38940517544862402 -0.01486314185727154 0 -0.37936430061871951 -0.018715934413416849 0 -0.38821830950628222 -0.0088111278812710685 0 -0.37936430061871951 -0.018715934413416849 0 -0.38821830950628222 -0.0088111278812710685 0 -0.38940517544862402 -0.01486314185727154 0 -0.36759445675048202 -0.034107528875047463 0 -0.38490632109800571 -0.028816357290359921 0 -0.37936430061871951 -0.018715934413416849 0 -0.38940517544862402 -0.01486314185727154 0 -0.38921936398251872 -0.02074844418085612 0 -0.37936430061871951 -0.018715934413416849 0 -0.38490632109800571 -0.028816357290359921 0 -0.38921936398251872 -0.02074844418085612 0 -0.37936430061871951 -0.018715934413416849 0 -0.38490632109800571 -0.028816357290359921 0 -0.37936430061871951 -0.018715934413416849 0 -0.36759445675048202 -0.034107528875047463 0 -0.39289363881887129 -0.043373374344814628 0 -0.37822729992581983 -0.042939785882461369 0 -0.39497149237167523 -0.047160296395736753 0 -0.36759445675048202 -0.034107528875047463 0 -0.37822729992581983 -0.042939785882461369 0 -0.39289363881887129 -0.043373374344814628 0 -0.36759445675048202 -0.034107528875047463 0 -0.38490632109800571 -0.028816357290359921 0 -0.36759445675048202 -0.034107528875047463 0 -0.38490632109800571 -0.028816357290359921 0 -0.39289363881887129 -0.043373374344814628 0 -0.37822729992581983 -0.042939785882461369 0 -0.39289363881887129 -0.043373374344814628 0 -0.39497149237167523 -0.047160296395736753 0 -0.38490632109800571 -0.028816357290359921 0 -0.39289363881887129 -0.043373374344814628 0 -0.38490632109800571 -0.028816357290359921 0 -0.39535830444393172 -0.033169749486068968 0 -0.39289363881887129 -0.043373374344814628 0 -0.39535830444393172 -0.033169749486068968 0 -0.39289363881887129 -0.043373374344814628 0 -0.40415805205703331 -0.036635682720548103 0 -0.39289363881887129 -0.043373374344814628 0 -0.39497149237167523 -0.047160296395736753 0 -0.40769729738567939 -0.048795226019560663 0 -0.39289363881887129 -0.043373374344814628 0 -0.39497149237167523 -0.047160296395736753 0 -0.40769729738567939 -0.048795226019560663 0 -0.39289363881887129 -0.043373374344814628 0 -0.40415805205703331 -0.036635682720548103 0 -0.40769729738567939 -0.048795226019560663 0 -0.39289363881887129 -0.043373374344814628 0 -0.41479838493410082 -0.062110557627146679 0 -0.40287858604889759 -0.061571103819843813 0 -0.39497149237167523 -0.047160296395736753 0 -0.40287858604889759 -0.061571103819843813 0 -0.39497149237167523 -0.047160296395736753 0 -0.40287858604889759 -0.061571103819843813 0 -0.39497149237167523 -0.047160296395736753 0 -0.39104779187559091 -0.05848678819876249 0 -0.37822729992581983 -0.042939785882461369 0 -0.39497149237167523 -0.047160296395736753 0 -0.38297522181069582 -0.052491663448312159 0 -0.39104779187559091 -0.05848678819876249 0 -0.38297522181069582 -0.052491663448312159 0 -0.38044591036779662 -0.061570901268900517 0 -0.39497149237167523 -0.047160296395736753 0 -0.39104779187559091 -0.05848678819876249 0 -0.38297522181069582 -0.052491663448312159 0 -0.37018361451259613 -0.0523005454956997 0 -0.37822729992581983 -0.042939785882461369 0 -0.38297522181069582 -0.052491663448312159 0 -0.37018361451259613 -0.0523005454956997 0 -0.38297522181069582 -0.052491663448312159 0 -0.38044591036779662 -0.061570901268900517 0 -0.36947373707469872 -0.063985249966456478 0 -0.38044591036779662 -0.061570901268900517 0 -0.37647484402476228 -0.072677937837527018 0 -0.39104779187559091 -0.05848678819876249 0 -0.38044591036779662 -0.061570901268900517 0 -0.39173087979180032 -0.071577688901310721 0 -0.38044591036779662 -0.061570901268900517 0 -0.37647484402476228 -0.072677937837527018 0 -0.39173087979180032 -0.071577688901310721 0 -0.37647484402476228 -0.072677937837527018 0 -0.38363999066006932 -0.081744832760173664 0 -0.39173087979180032 -0.071577688901310721 0 -0.36987620287596668 -0.084754769908034683 0 -0.37647484402476228 -0.072677937837527018 0 -0.38363999066006932 -0.081744832760173664 0 -0.38363999066006932 -0.081744832760173664 0 -0.39646488843759442 -0.089320107305594754 0 -0.39173087979180032 -0.071577688901310721 0 -0.36987620287596668 -0.084754769908034683 0 -0.37974365793776149 -0.090047199299109523 0 -0.38363999066006932 -0.081744832760173664 0 -0.37974365793776149 -0.090047199299109523 0 -0.38705062807724733 -0.089891182830622141 0 -0.38363999066006932 -0.081744832760173664 0 -0.37974365793776149 -0.090047199299109523 0 -0.38705062807724733 -0.089891182830622141 0 -0.38416094054066802 -0.098770797811139927 0 -0.38705062807724733 -0.089891182830622141 0 -0.38363999066006932 -0.081744832760173664 0 -0.39646488843759442 -0.089320107305594754 0 -0.38705062807724733 -0.089891182830622141 0 -0.39646488843759442 -0.089320107305594754 0 -0.38416094054066802 -0.098770797811139927 0 -0.39646488843759442 -0.089320107305594754 0 -0.39173087979180032 -0.071577688901310721 0 -0.40781369414880903 -0.07731993238432934 0 -0.40287858604889759 -0.061571103819843813 0 -0.39173087979180032 -0.071577688901310721 0 -0.40781369414880903 -0.07731993238432934 0 -0.40287858604889759 -0.061571103819843813 0 -0.39104779187559091 -0.05848678819876249 0 -0.39173087979180032 -0.071577688901310721 0 -0.37908192940485258 -0.11372123791496561 0 -0.39825962679784982 -0.10548023103136039 0 -0.37086364155792689 -0.1265431919395642 0 -0.38739544009950189 -0.1211537574222683 0 -0.37908192940485258 -0.11372123791496561 0 -0.3870618917417426 -0.1143326311701983 0 -0.39825962679784982 -0.10548023103136039 0 -0.37456545992351081 -0.12153932669336311 0 -0.37086364155792689 -0.1265431919395642 0 -0.38739544009950189 -0.1211537574222683 0 -0.37951593695145991 -0.1327340406700106 0 -0.38739544009950189 -0.1211537574222683 0 -0.38885818713676112 -0.12067689585437411 0 -0.38739544009950189 -0.1211537574222683 0 -0.37908192940485258 -0.11372123791496561 0 -0.38739544009950189 -0.1211537574222683 0 -0.38885818713676112 -0.12067689585437411 0 -0.3870618917417426 -0.1143326311701983 0 -0.38739544009950189 -0.1211537574222683 0 -0.38885818713676112 -0.12067689585437411 0 -0.37456545992351081 -0.12153932669336311 0 -0.38739544009950189 -0.1211537574222683 0 -0.37908192940485258 -0.11372123791496561 0 -0.38739544009950189 -0.1211537574222683 0 -0.37908192940485258 -0.11372123791496561 0 -0.3870618917417426 -0.1143326311701983 0 -0.37908192940485258 -0.11372123791496561 0 -0.38416094054066802 -0.098770797811139927 0 -0.39825962679784982 -0.10548023103136039 0 -0.37436088789708721 -0.1011039431900262 0 -0.37908192940485258 -0.11372123791496561 0 -0.38416094054066802 -0.098770797811139927 0 -0.37399052753485651 -0.095074413185577189 0 -0.37974365793776149 -0.090047199299109523 0 -0.38416094054066802 -0.098770797811139927 0 -0.37399052753485651 -0.095074413185577189 0 -0.37436088789708721 -0.1011039431900262 0 -0.38416094054066802 -0.098770797811139927 0 -0.39646488843759442 -0.089320107305594754 0 -0.38416094054066802 -0.098770797811139927 0 -0.39825962679784982 -0.10548023103136039 0 -0.39646488843759442 -0.089320107305594754 0 -0.39825962679784982 -0.10548023103136039 0 -0.41743732419084739 -0.097239224147756279 0 -0.39825962679784982 -0.10548023103136039 0 -0.40214040049602318 -0.11245840106869399 0 -0.4101525699399689 -0.1100367409634788 0 -0.38885818713676112 -0.12067689585437411 0 -0.3870618917417426 -0.1143326311701983 0 -0.39694609915862272 -0.11023860480355931 0 -0.38885818713676112 -0.12067689585437411 0 -0.39694609915862272 -0.11023860480355931 0 -0.3870618917417426 -0.1143326311701983 0 -0.39825962679784982 -0.10548023103136039 0 -0.39694609915862272 -0.11023860480355931 0 -0.38885818713676112 -0.12067689585437411 0 -0.39694609915862272 -0.11023860480355931 0 -0.39901245976820032 -0.1173665610907207 0 -0.40214040049602318 -0.11245840106869399 0 -0.40611615914915211 -0.11727304098301521 0 -0.4101525699399689 -0.1100367409634788 0 -0.39825962679784982 -0.10548023103136039 0 -0.39694609915862272 -0.11023860480355931 0 -0.40214040049602318 -0.11245840106869399 0 -0.40214040049602318 -0.11245840106869399 0 -0.39901245976820032 -0.1173665610907207 0 -0.40611615914915211 -0.11727304098301521 0 -0.39694609915862272 -0.11023860480355931 0 -0.40214040049602318 -0.11245840106869399 0 -0.39901245976820032 -0.1173665610907207 0 -0.39901245976820032 -0.1173665610907207 0 -0.40611615914915211 -0.11727304098301521 0 -0.40155420383366469 -0.1223210862885489 0 -0.40611615914915211 -0.11727304098301521 0 -0.40155420383366469 -0.1223210862885489 0 -0.40933528710360068 -0.1241950508824432 0 -0.39086993047885182 -0.12689081738553831 0 -0.38885818713676112 -0.12067689585437411 0 -0.39901245976820032 -0.1173665610907207 0 -0.38885818713676112 -0.12067689585437411 0 -0.39901245976820032 -0.1173665610907207 0 -0.39086993047885182 -0.12689081738553831 0 -0.39901245976820032 -0.1173665610907207 0 -0.40155420383366469 -0.1223210862885489 0 -0.41858497058187871 -0.1265104183566792 0 -0.41364494501957372 -0.1177916553545718 0 -0.42403573832326807 -0.1109430255872428 0 -0.41858497058187871 -0.1265104183566792 0 -0.40933528710360068 -0.1241950508824432 0 -0.41364494501957372 -0.1177916553545718 0 -0.40611615914915211 -0.11727304098301521 0 -0.40933528710360068 -0.1241950508824432 0 -0.41364494501957372 -0.1177916553545718 0 -0.40611615914915211 -0.11727304098301521 0 -0.41364494501957372 -0.1177916553545718 0 -0.4101525699399689 -0.1100367409634788 0 -0.41364494501957372 -0.1177916553545718 0 -0.4101525699399689 -0.1100367409634788 0 -0.42403573832326807 -0.1109430255872428 0 -0.39825962679784982 -0.10548023103136039 0 -0.41743732419084739 -0.097239224147756279 0 -0.39825962679784982 -0.10548023103136039 0 -0.4101525699399689 -0.1100367409634788 0 -0.41743732419084739 -0.097239224147756279 0 -0.4101525699399689 -0.1100367409634788 0 -0.41743732419084739 -0.097239224147756279 0 -0.42403573832326807 -0.1109430255872428 0 -0.42403573832326807 -0.1109430255872428 0 -0.43661502158384502 -0.088998217264152191 0 -0.44198817408939339 -0.11308865940685089 0 -0.41743732419084739 -0.097239224147756279 0 -0.42403573832326807 -0.1109430255872428 0 -0.43661502158384502 -0.088998217264152191 0 -0.43127301825398939 -0.12551177574996891 0 -0.42403573832326807 -0.1109430255872428 0 -0.44198817408939339 -0.11308865940685089 0 -0.41858497058187871 -0.1265104183566792 0 -0.43127301825398939 -0.12551177574996891 0 -0.42403573832326807 -0.1109430255872428 0 -0.41479838493410082 -0.062110557627146679 0 -0.40287858604889759 -0.061571103819843813 0 -0.40781369414880903 -0.07731993238432934 0 -0.40781369414880903 -0.07731993238432934 0 -0.42192027867989029 -0.082828261205239298 0 -0.4229753066787364 -0.07080023924709257 0 -0.41479838493410082 -0.062110557627146679 0 -0.40781369414880903 -0.07731993238432934 0 -0.4229753066787364 -0.07080023924709257 0 -0.41743732419084739 -0.097239224147756279 0 -0.40781369414880903 -0.07731993238432934 0 -0.42192027867989029 -0.082828261205239298 0 -0.39646488843759442 -0.089320107305594754 0 -0.41743732419084739 -0.097239224147756279 0 -0.40781369414880903 -0.07731993238432934 0 -0.41743732419084739 -0.097239224147756279 0 -0.42192027867989029 -0.082828261205239298 0 -0.43661502158384502 -0.088998217264152191 0 -0.41743732419084739 -0.097239224147756279 0 -0.43661502158384502 -0.088998217264152191 0 -0.42192027867989029 -0.082828261205239298 0 -0.43661502158384502 -0.088998217264152191 0 -0.43577781035403751 -0.074649190691552375 0 -0.42396102105416622 -0.054467343957152178 0 -0.4229753066787364 -0.07080023924709257 0 -0.42192027867989029 -0.082828261205239298 0 -0.43577781035403751 -0.074649190691552375 0 -0.4229753066787364 -0.07080023924709257 0 -0.42693298363229643 -0.05521645140719026 0 -0.4229753066787364 -0.07080023924709257 0 -0.43096380618348051 -0.065269765600305354 0 -0.43577781035403751 -0.074649190691552375 0 -0.43096380618348051 -0.065269765600305354 0 -0.43771221457111631 -0.061458069324133217 0 -0.43577781035403751 -0.074649190691552375 0 -0.4229753066787364 -0.07080023924709257 0 -0.43096380618348051 -0.065269765600305354 0 -0.43577781035403751 -0.074649190691552375 0 -0.44774958503984669 -0.067414492045691693 0 -0.43771221457111631 -0.061458069324133217 0 -0.43577781035403751 -0.074649190691552375 0 -0.44774958503984669 -0.067414492045691693 0 -0.45293563009701793 -0.081484057809695296 0 -0.44774958503984669 -0.067414492045691693 0 -0.43771221457111631 -0.061458069324133217 0 -0.44546101795533788 -0.058791564158321603 0 -0.44774958503984669 -0.067414492045691693 0 -0.45293563009701793 -0.081484057809695296 0 -0.45780331253909212 -0.065089095927913551 0 -0.44774958503984669 -0.067414492045691693 0 -0.45780331253909212 -0.065089095927913551 0 -0.4525534630820921 -0.058361535651268677 0 -0.43661502158384502 -0.088998217264152191 0 -0.45293563009701793 -0.081484057809695296 0 -0.45244808411754078 -0.099077094409647237 0 -0.43661502158384502 -0.088998217264152191 0 -0.43577781035403751 -0.074649190691552375 0 -0.45293563009701793 -0.081484057809695296 0 -0.45293563009701793 -0.081484057809695296 0 -0.45244808411754078 -0.099077094409647237 0 -0.46733199893883393 -0.095530476715524698 0 -0.45293563009701793 -0.081484057809695296 0 -0.46733199893883393 -0.095530476715524698 0 -0.47129440199905009 -0.074776892579035664 0 -0.45293563009701793 -0.081484057809695296 0 -0.45780331253909212 -0.065089095927913551 0 -0.47129440199905009 -0.074776892579035664 0 -0.44534265680647211 -0.13749472944714031 0 -0.44198817408939339 -0.11308865940685089 0 -0.46423032691481653 -0.1152713164984131 0 -0.44198817408939339 -0.11308865940685089 0 -0.45244808411754078 -0.099077094409647237 0 -0.46423032691481653 -0.1152713164984131 0 -0.43661502158384502 -0.088998217264152191 0 -0.44198817408939339 -0.11308865940685089 0 -0.45244808411754078 -0.099077094409647237 0 -0.46733199893883393 -0.095530476715524698 0 -0.46423032691481653 -0.1152713164984131 0 -0.46888879113743698 -0.097918941565136114 0 -0.46733199893883393 -0.095530476715524698 0 -0.46423032691481653 -0.1152713164984131 0 -0.45244808411754078 -0.099077094409647237 0 -0.46733199893883393 -0.095530476715524698 0 -0.46423032691481653 -0.1152713164984131 0 -0.46423032691481653 -0.1152713164984131 0 -0.46888879113743698 -0.097918941565136114 0 -0.46423032691481653 -0.1152713164984131 0 -0.46191961509160318 -0.12387851749920301 0 -0.47054932777894559 -0.1190316466279922 0 -0.46423032691481653 -0.1152713164984131 0 -0.46191961509160318 -0.12387851749920301 0 -0.46423032691481653 -0.1152713164984131 0 -0.47054932777894559 -0.1190316466279922 0 -0.48163114216261838 -0.1013415848717087 0 -0.48282769070819631 -0.131746624010248 0 -0.47054932777894559 -0.1190316466279922 0 -0.48960263744709948 -0.12182776484659701 0 -0.47054932777894559 -0.1190316466279922 0 -0.48163114216261838 -0.1013415848717087 0 -0.47054932777894559 -0.1190316466279922 0 -0.48163114216261838 -0.1013415848717087 0 -0.48960263744709948 -0.12182776484659701 0 -0.46423032691481653 -0.1152713164984131 0 -0.47988440101823893 -0.096852583476567361 0 -0.46423032691481653 -0.1152713164984131 0 -0.46888879113743698 -0.097918941565136114 0 -0.47988440101823893 -0.096852583476567361 0 -0.46423032691481653 -0.1152713164984131 0 -0.47988440101823893 -0.096852583476567361 0 -0.48163114216261838 -0.1013415848717087 0 -0.47988440101823893 -0.096852583476567361 0 -0.48163114216261838 -0.1013415848717087 0 -0.48163114216261838 -0.1013415848717087 0 -0.5 -0.10231324705949039 0 -0.48960263744709948 -0.12182776484659701 0 -0.5 -0.1314421164252422 0 -0.5 -0.10231324705949039 0 -0.48960263744709948 -0.12182776484659701 0 -0.48163114216261838 -0.1013415848717087 0 -0.48960263744709948 -0.12182776484659701 0 -0.47837845588033912 -0.066351382798094674 0 -0.47129440199905009 -0.074776892579035664 0 -0.47607866833254531 -0.049718696233414447 0 -0.47905802494758187 -0.076208881445555571 0 -0.48227636370817201 -0.071860041171849937 0 -0.47563663577889831 -0.072783805903577498 0 -0.48227636370817201 -0.071860041171849937 0 -0.47837845588033912 -0.066351382798094674 0 -0.47563663577889831 -0.072783805903577498 0 -0.47905802494758187 -0.076208881445555571 0 -0.48227636370817201 -0.071860041171849937 0 -0.48477184494319853 -0.079625112074935139 0 -0.48227636370817201 -0.071860041171849937 0 -0.47837845588033912 -0.066351382798094674 0 -0.48660620958302619 -0.062617478102595187 0 -0.47837845588033912 -0.066351382798094674 0 -0.47563663577889831 -0.072783805903577498 0 -0.47129440199905009 -0.074776892579035664 0 -0.47563663577889831 -0.072783805903577498 0 -0.47354725536005932 -0.080566566631859571 0 -0.47905802494758187 -0.076208881445555571 0 -0.47563663577889831 -0.072783805903577498 0 -0.47354725536005932 -0.080566566631859571 0 -0.47563663577889831 -0.072783805903577498 0 -0.47129440199905009 -0.074776892579035664 0 -0.47354725536005932 -0.080566566631859571 0 -0.47129440199905009 -0.074776892579035664 0 -0.47354725536005932 -0.080566566631859571 0 -0.46888879113743698 -0.097918941565136114 0 -0.47354725536005932 -0.080566566631859571 0 -0.46888879113743698 -0.097918941565136114 0 -0.47988440101823893 -0.096852583476567361 0 -0.47354725536005932 -0.080566566631859571 0 -0.47988440101823893 -0.096852583476567361 0 -0.47354725536005932 -0.080566566631859571 0 -0.48477184494319853 -0.079625112074935139 0 -0.46733199893883393 -0.095530476715524698 0 -0.47129440199905009 -0.074776892579035664 0 -0.46733199893883393 -0.095530476715524698 0 -0.47129440199905009 -0.074776892579035664 0 -0.47354725536005932 -0.080566566631859571 0 -0.46733199893883393 -0.095530476715524698 0 -0.46888879113743698 -0.097918941565136114 0 -0.47354725536005932 -0.080566566631859571 0 -0.47988440101823893 -0.096852583476567361 0 -0.47354725536005932 -0.080566566631859571 0 -0.47905802494758187 -0.076208881445555571 0 -0.47354725536005932 -0.080566566631859571 0 -0.48477184494319853 -0.079625112074935139 0 -0.47988440101823893 -0.096852583476567361 0 -0.49722360194399889 -0.076451114149563029 0 -0.48163114216261838 -0.1013415848717087 0 -0.49722360194399889 -0.076451114149563029 0 -0.47988440101823893 -0.096852583476567361 0 -0.48163114216261838 -0.1013415848717087 0 -0.49722360194399889 -0.076451114149563029 0 -0.5 -0.10231324705949039 0 -0.49722360194399889 -0.076451114149563029 0 -0.49999999999999928 -0.07318437769373877 0 -0.48163114216261838 -0.1013415848717087 0 -0.5 -0.10231324705949039 0 -0.49722360194399889 -0.076451114149563029 0 -0.47988440101823893 -0.096852583476567361 0 -0.48477184494319853 -0.079625112074935139 0 -0.49722360194399889 -0.076451114149563029 0 -0.49722360194399889 -0.076451114149563029 0 -0.48903889571405362 -0.071240052483750524 0 -0.49431645839187238 -0.065646516919809272 0 -0.49722360194399889 -0.076451114149563029 0 -0.49999999999999928 -0.07318437769373877 0 -0.49431645839187238 -0.065646516919809272 0 -0.49722360194399889 -0.076451114149563029 0 -0.49999999999999928 -0.07318437769373877 0 -0.48477184494319853 -0.079625112074935139 0 -0.49722360194399889 -0.076451114149563029 0 -0.48903889571405362 -0.071240052483750524 0 -0.48227636370817201 -0.071860041171849937 0 -0.48477184494319853 -0.079625112074935139 0 -0.48903889571405362 -0.071240052483750524 0 -0.48227636370817201 -0.071860041171849937 0 -0.48903889571405362 -0.071240052483750524 0 -0.48660620958302619 -0.062617478102595187 0 -0.48903889571405362 -0.071240052483750524 0 -0.48660620958302619 -0.062617478102595187 0 -0.49431645839187238 -0.065646516919809272 0 -0.49999999999999928 -0.07318437769373877 0 -0.49431645839187238 -0.065646516919809272 0 -0.5 -0.043433045056052062 0 -0.48660620958302619 -0.062617478102595187 0 -0.49431645839187238 -0.065646516919809272 0 -0.5 -0.043433045056052062 0 -0.48660620958302619 -0.062617478102595187 0 -0.5 -0.043433045056052062 0 -0.47607866833254531 -0.049718696233414447 0 -0.5 -0.043433045056052062 0 -0.47607866833254531 -0.049718696233414447 0 -0.48086293466603669 -0.024660499887792561 0 -0.47607866833254531 -0.049718696233414447 0 -0.46870748437107013 -0.041074989663931818 0 -0.48086293466603669 -0.024660499887792561 0 -0.46870748437107013 -0.041074989663931818 0 -0.46812195261041212 -0.029269558455512251 0 -0.48086293466603669 -0.024660499887792561 0 -0.47607866833254531 -0.049718696233414447 0 -0.48086293466603669 -0.024660499887792561 0 -0.47129440199905009 -0.074776892579035664 0 -0.47607866833254531 -0.049718696233414447 0 -0.4691705439159366 -0.053216944714335482 0 -0.47837845588033912 -0.066351382798094674 0 -0.48660620958302619 -0.062617478102595187 0 -0.47607866833254531 -0.049718696233414447 0 -0.47129440199905009 -0.074776892579035664 0 -0.47607866833254531 -0.049718696233414447 0 -0.47607866833254531 -0.049718696233414447 0 -0.4691705439159366 -0.053216944714335482 0 -0.46870748437107013 -0.041074989663931818 0 -0.45780331253909212 -0.065089095927913551 0 -0.47129440199905009 -0.074776892579035664 0 -0.46060162096107748 -0.047297200380959359 0 -0.47129440199905009 -0.074776892579035664 0 -0.4691705439159366 -0.053216944714335482 0 -0.46060162096107748 -0.047297200380959359 0 -0.47129440199905009 -0.074776892579035664 0 -0.46060162096107748 -0.047297200380959359 0 -0.45780331253909212 -0.065089095927913551 0 -0.45554668633737322 -0.053789703236714302 0 -0.46060162096107748 -0.047297200380959359 0 -0.45780331253909212 -0.065089095927913551 0 -0.45554668633737322 -0.053789703236714302 0 -0.4525534630820921 -0.058361535651268677 0 -0.45554668633737322 -0.053789703236714302 0 -0.4525534630820921 -0.058361535651268677 0 -0.45220615914202039 -0.053855530378238058 0 -0.45554668633737322 -0.053789703236714302 0 -0.45511778892428573 -0.046792051096874732 0 -0.45173134154106848 -0.049242703946497698 0 -0.45554668633737322 -0.053789703236714302 0 -0.45220615914202039 -0.053855530378238058 0 -0.45173134154106848 -0.049242703946497698 0 -0.45554668633737322 -0.053789703236714302 0 -0.46060162096107748 -0.047297200380959359 0 -0.45511778892428573 -0.046792051096874732 0 -0.4691705439159366 -0.053216944714335482 0 -0.46060162096107748 -0.047297200380959359 0 -0.46870748437107013 -0.041074989663931818 0 -0.45904500350922589 -0.043296803450063009 0 -0.45546830435127839 -0.019632508941909939 0 -0.45904500350922589 -0.043296803450063009 0 -0.45520763503149059 -0.041380965711721507 0 -0.44990883992310893 -0.019817508182881371 0 -0.46060162096107748 -0.047297200380959359 0 -0.46870748437107013 -0.041074989663931818 0 -0.45904500350922589 -0.043296803450063009 0 -0.46275031027664282 -0.031342310798615672 0 -0.45904500350922589 -0.043296803450063009 0 -0.45546830435127839 -0.019632508941909939 0 -0.45904500350922589 -0.043296803450063009 0 -0.44990883992310893 -0.019817508182881371 0 -0.46870748437107013 -0.041074989663931818 0 -0.46275031027664282 -0.031342310798615672 0 -0.46812195261041212 -0.029269558455512251 0 -0.46870748437107013 -0.041074989663931818 0 -0.46275031027664282 -0.031342310798615672 0 -0.45904500350922589 -0.043296803450063009 0 -0.46060162096107748 -0.047297200380959359 0 -0.45904500350922589 -0.043296803450063009 0 -0.46060162096107748 -0.047297200380959359 0 -0.45904500350922589 -0.043296803450063009 0 -0.45520763503149059 -0.041380965711721507 0 -0.46060162096107748 -0.047297200380959359 0 -0.45520763503149059 -0.041380965711721507 0 -0.45511778892428573 -0.046792051096874732 0 -0.45520763503149059 -0.041380965711721507 0 -0.45511778892428573 -0.046792051096874732 0 -0.45108627778213001 -0.04432386800332147 0 -0.45520763503149059 -0.041380965711721507 0 -0.44971284848492121 -0.033128378974699273 0 -0.44990883992310893 -0.019817508182881371 0 -0.45108627778213001 -0.04432386800332147 0 -0.44806394296249108 -0.046825479193565667 0 -0.45173134154106848 -0.049242703946497698 0 -0.45511778892428573 -0.046792051096874732 0 -0.45108627778213001 -0.04432386800332147 0 -0.45173134154106848 -0.049242703946497698 0 -0.45520763503149059 -0.041380965711721507 0 -0.45108627778213001 -0.04432386800332147 0 -0.44929454089594661 -0.039869529518004918 0 -0.45108627778213001 -0.04432386800332147 0 -0.44929454089594661 -0.039869529518004918 0 -0.44611131737774667 -0.042900129458570288 0 -0.44929454089594661 -0.039869529518004918 0 -0.44611131737774667 -0.042900129458570288 0 -0.44290015651447701 -0.037373668158733261 0 -0.45108627778213001 -0.04432386800332147 0 -0.44611131737774667 -0.042900129458570288 0 -0.44806394296249108 -0.046825479193565667 0 -0.44611131737774667 -0.042900129458570288 0 -0.44806394296249108 -0.046825479193565667 0 -0.44370027315684663 -0.046878109954266667 0 -0.45520763503149059 -0.041380965711721507 0 -0.44929454089594661 -0.039869529518004918 0 -0.44971284848492121 -0.033128378974699273 0 -0.44929454089594661 -0.039869529518004918 0 -0.44763590753137322 -0.035153093427814433 0 -0.44290015651447701 -0.037373668158733261 0 -0.44929454089594661 -0.039869529518004918 0 -0.44971284848492121 -0.033128378974699273 0 -0.44763590753137322 -0.035153093427814433 0 -0.44763590753137322 -0.035153093427814433 0 -0.4446417573113548 -0.032515955546767783 0 -0.44651731904268621 -0.029420798033074059 0 -0.44971284848492121 -0.033128378974699273 0 -0.44763590753137322 -0.035153093427814433 0 -0.44651731904268621 -0.029420798033074059 0 -0.43568854239011451 -0.040186616888877293 0 -0.44290015651447701 -0.037373668158733261 0 -0.43941487492107612 -0.028408305423005639 0 -0.4446417573113548 -0.032515955546767783 0 -0.44290015651447701 -0.037373668158733261 0 -0.43941487492107612 -0.028408305423005639 0 -0.44763590753137322 -0.035153093427814433 0 -0.4446417573113548 -0.032515955546767783 0 -0.44290015651447701 -0.037373668158733261 0 -0.44611131737774667 -0.042900129458570288 0 -0.44127695376749132 -0.04239011168598994 0 -0.44370027315684663 -0.046878109954266667 0 -0.44611131737774667 -0.042900129458570288 0 -0.44290015651447701 -0.037373668158733261 0 -0.44127695376749132 -0.04239011168598994 0 -0.43568854239011451 -0.040186616888877293 0 -0.44290015651447701 -0.037373668158733261 0 -0.44127695376749132 -0.04239011168598994 0 -0.43568854239011451 -0.040186616888877293 0 -0.44127695376749132 -0.04239011168598994 0 -0.43872500735636488 -0.046391146798755223 0 -0.44127695376749132 -0.04239011168598994 0 -0.43872500735636488 -0.046391146798755223 0 -0.44370027315684663 -0.046878109954266667 0 -0.43872500735636488 -0.046391146798755223 0 -0.4410899662589125 -0.048616130873553959 0 -0.44370027315684663 -0.046878109954266667 0 -0.4410899662589125 -0.048616130873553959 0 -0.44353460261337629 -0.050650439179039858 0 -0.43950090740363379 -0.051322486629672461 0 -0.43872500735636488 -0.046391146798755223 0 -0.4410899662589125 -0.048616130873553959 0 -0.43950090740363379 -0.051322486629672461 0 -0.4410899662589125 -0.048616130873553959 0 -0.44353460261337629 -0.050650439179039858 0 -0.44370027315684663 -0.046878109954266667 0 -0.44353460261337629 -0.050650439179039858 0 -0.44370027315684663 -0.046878109954266667 0 -0.44711909448592518 -0.050526330040812778 0 -0.44353460261337629 -0.050650439179039858 0 -0.44439448879102428 -0.054496530657860691 0 -0.43950090740363379 -0.051322486629672461 0 -0.44439448879102428 -0.054496530657860691 0 -0.43950090740363379 -0.051322486629672461 0 -0.44039031255556171 -0.0558008911761185 0 -0.44353460261337629 -0.050650439179039858 0 -0.44439448879102428 -0.054496530657860691 0 -0.44711909448592518 -0.050526330040812778 0 -0.43509207210421069 -0.05295781863431772 0 -0.43950090740363379 -0.051322486629672461 0 -0.44039031255556171 -0.0558008911761185 0 -0.43652325505264228 -0.057032510808195103 0 -0.44039031255556171 -0.0558008911761185 0 -0.43771221457111631 -0.061458069324133217 0 -0.44039031255556171 -0.0558008911761185 0 -0.43771221457111631 -0.061458069324133217 0 -0.44546101795533788 -0.058791564158321603 0 -0.44439448879102428 -0.054496530657860691 0 -0.44039031255556171 -0.0558008911761185 0 -0.44546101795533788 -0.058791564158321603 0 -0.44439448879102428 -0.054496530657860691 0 -0.44546101795533788 -0.058791564158321603 0 -0.44899314560754799 -0.054028178678471622 0 -0.44774958503984669 -0.067414492045691693 0 -0.44546101795533788 -0.058791564158321603 0 -0.4525534630820921 -0.058361535651268677 0 -0.44546101795533788 -0.058791564158321603 0 -0.4525534630820921 -0.058361535651268677 0 -0.44899314560754799 -0.054028178678471622 0 -0.4525534630820921 -0.058361535651268677 0 -0.45220615914202039 -0.053855530378238058 0 -0.44899314560754799 -0.054028178678471622 0 -0.45220615914202039 -0.053855530378238058 0 -0.45173134154106848 -0.049242703946497698 0 -0.44899314560754799 -0.054028178678471622 0 -0.45173134154106848 -0.049242703946497698 0 -0.44711909448592518 -0.050526330040812778 0 -0.44899314560754799 -0.054028178678471622 0 -0.44806394296249108 -0.046825479193565667 0 -0.45173134154106848 -0.049242703946497698 0 -0.44711909448592518 -0.050526330040812778 0 -0.44806394296249108 -0.046825479193565667 0 -0.44370027315684663 -0.046878109954266667 0 -0.44711909448592518 -0.050526330040812778 0 -0.44439448879102428 -0.054496530657860691 0 -0.44711909448592518 -0.050526330040812778 0 -0.44899314560754799 -0.054028178678471622 0 -0.44990883992310893 -0.019817508182881371 0 -0.45546830435127839 -0.019632508941909939 0 -0.45172434592421962 0.0039667023503073863 0 -0.44990883992310893 -0.019817508182881371 0 -0.43921605888514031 0.0076621840151965513 0 -0.44990883992310893 -0.019817508182881371 0 -0.45172434592421962 0.0039667023503073863 0 -0.43921605888514031 0.0076621840151965513 0 -0.43944672595062889 -0.0085072853373330815 0 -0.44990883992310893 -0.019817508182881371 0 -0.43921605888514031 0.0076621840151965513 0 -0.43944672595062889 -0.0085072853373330815 0 -0.44001583351499057 -0.018069667058806201 0 -0.44990883992310893 -0.019817508182881371 0 -0.43449459786842631 -0.0127581595954342 0 -0.43944672595062889 -0.0085072853373330815 0 -0.44001583351499057 -0.018069667058806201 0 -0.43307933665379761 -0.021152824348590959 0 -0.44001583351499057 -0.018069667058806201 0 -0.43941487492107612 -0.028408305423005639 0 -0.44001583351499057 -0.018069667058806201 0 -0.44404543068113622 -0.02328815037124142 0 -0.44990883992310893 -0.019817508182881371 0 -0.44001583351499057 -0.018069667058806201 0 -0.44404543068113622 -0.02328815037124142 0 -0.43941487492107612 -0.028408305423005639 0 -0.44404543068113622 -0.02328815037124142 0 -0.43941487492107612 -0.028408305423005639 0 -0.44651731904268621 -0.029420798033074059 0 -0.4446417573113548 -0.032515955546767783 0 -0.43941487492107612 -0.028408305423005639 0 -0.44651731904268621 -0.029420798033074059 0 -0.44971284848492121 -0.033128378974699273 0 -0.44651731904268621 -0.029420798033074059 0 -0.44990883992310893 -0.019817508182881371 0 -0.44404543068113622 -0.02328815037124142 0 -0.44651731904268621 -0.029420798033074059 0 -0.44990883992310893 -0.019817508182881371 0 -0.45904500350922589 -0.043296803450063009 0 -0.44990883992310893 -0.019817508182881371 0 -0.45546830435127839 -0.019632508941909939 0 -0.45546830435127839 -0.019632508941909939 0 -0.46285864521464942 -0.022768606714111749 0 -0.4622596377357327 -0.01039186637922356 0 -0.46275031027664282 -0.031342310798615672 0 -0.45546830435127839 -0.019632508941909939 0 -0.46285864521464942 -0.022768606714111749 0 -0.46812195261041212 -0.029269558455512251 0 -0.46865509122334031 -0.01968277307456787 0 -0.46285864521464942 -0.022768606714111749 0 -0.46275031027664282 -0.031342310798615672 0 -0.46812195261041212 -0.029269558455512251 0 -0.46285864521464942 -0.022768606714111749 0 -0.46865509122334031 -0.01968277307456787 0 -0.46285864521464942 -0.022768606714111749 0 -0.4622596377357327 -0.01039186637922356 0 -0.45546830435127839 -0.019632508941909939 0 -0.4622596377357327 -0.01039186637922356 0 -0.45172434592421962 0.0039667023503073863 0 -0.4622596377357327 -0.01039186637922356 0 -0.46513498956741689 0.0054319295304713858 0 -0.45172434592421962 0.0039667023503073863 0 -0.46865509122334031 -0.01968277307456787 0 -0.4622596377357327 -0.01039186637922356 0 -0.47165288971761832 -0.0095033177399844945 0 -0.45546830435127839 -0.019632508941909939 0 -0.45172434592421962 0.0039667023503073863 0 -0.4622596377357327 -0.01039186637922356 0 -0.47165288971761832 -0.0095033177399844945 0 -0.46513498956741689 0.0054319295304713858 0 -0.48086293466603669 -0.024660499887792561 0 -0.48564720099952818 0.00039769645782924973 0 -0.47165288971761832 -0.0095033177399844945 0 -0.48086293466603669 -0.024660499887792561 0 -0.48564720099952818 0.00039769645782924973 0 -0.47165288971761832 -0.0095033177399844945 0 -0.48564720099952818 0.00039769645782924973 0 -0.46513498956741689 0.0054319295304713858 0 -0.46812195261041212 -0.029269558455512251 0 -0.46865509122334031 -0.01968277307456787 0 -0.48086293466603669 -0.024660499887792561 0 -0.46865509122334031 -0.01968277307456787 0 -0.47165288971761832 -0.0095033177399844945 0 -0.48086293466603669 -0.024660499887792561 0 -0.5 -0.043433045056052062 0 -0.48086293466603669 -0.024660499887792561 0 -0.5 -0.01368171241836535 0 -0.48086293466603669 -0.024660499887792561 0 -0.5 -0.01368171241836535 0 -0.48564720099952818 0.00039769645782924973 0 -0.48564720099952818 0.00039769645782924973 0 -0.49043146733301968 0.02545589280345107 0 -0.5 0.016069620219321349 0 -0.48564720099952818 0.00039769645782924973 0 -0.49043146733301968 0.02545589280345107 0 -0.5 -0.01368171241836535 0 -0.48564720099952818 0.00039769645782924973 0 -0.5 0.016069620219321349 0 -0.49043146733301968 0.02545589280345107 0 -0.5 0.016069620219321349 0 -0.5 0.045820952857008053 0 -0.49043146733301968 0.02545589280345107 0 -0.47154547553024168 0.02055644885137501 0 -0.46985267389567631 0.043359265524659421 0 -0.48564720099952818 0.00039769645782924973 0 -0.47154547553024168 0.02055644885137501 0 -0.46513498956741689 0.0054319295304713858 0 -0.48564720099952818 0.00039769645782924973 0 -0.49043146733301968 0.02545589280345107 0 -0.47154547553024168 0.02055644885137501 0 -0.49521573366651123 0.050514089149072842 0 -0.5 0.045820952857008053 0 -0.50000000000000133 0.075572285494694733 0 -0.49043146733301968 0.02545589280345107 0 -0.49521573366651123 0.050514089149072842 0 -0.46985267389567631 0.043359265524659421 0 -0.49043146733301968 0.02545589280345107 0 -0.49521573366651123 0.050514089149072842 0 -0.49043146733301968 0.02545589280345107 0 -0.49521573366651123 0.050514089149072842 0 -0.5 0.045820952857008053 0 -0.46985267389567631 0.043359265524659421 0 -0.46053043879344002 0.067780695342168462 0 -0.48223773754410337 0.06806861768027081 0 -0.49521573366651123 0.050514089149072842 0 -0.46985267389567631 0.043359265524659421 0 -0.48223773754410337 0.06806861768027081 0 -0.46985267389567631 0.043359265524659421 0 -0.44423642907010019 0.051165124934741728 0 -0.46053043879344002 0.067780695342168462 0 -0.46985267389567631 0.043359265524659421 0 -0.44423642907010019 0.051165124934741728 0 -0.44798038749716101 0.027565913642524718 0 -0.44423642907010019 0.051165124934741728 0 -0.44798038749716101 0.027565913642524718 0 -0.4285232778471707 0.035141876213274137 0 -0.44423642907010019 0.051165124934741728 0 -0.44798038749716101 0.027565913642524718 0 -0.44423642907010019 0.051165124934741728 0 -0.42988104689921819 0.059721479963476563 0 -0.44045095793754441 0.075026002355863583 0 -0.44423642907010019 0.051165124934741728 0 -0.46053043879344002 0.067780695342168462 0 -0.46513498956741689 0.0054319295304713858 0 -0.44798038749716101 0.027565913642524718 0 -0.45172434592421962 0.0039667023503073863 0 -0.47154547553024168 0.02055644885137501 0 -0.46985267389567631 0.043359265524659421 0 -0.44798038749716101 0.027565913642524718 0 -0.47154547553024168 0.02055644885137501 0 -0.46513498956741689 0.0054319295304713858 0 -0.44798038749716101 0.027565913642524718 0 -0.44798038749716101 0.027565913642524718 0 -0.45172434592421962 0.0039667023503073863 0 -0.44798038749716101 0.027565913642524718 0 -0.43921605888514031 0.0076621840151965513 0 -0.4285232778471707 0.035141876213274137 0 -0.44798038749716101 0.027565913642524718 0 -0.45172434592421962 0.0039667023503073863 0 -0.43921605888514031 0.0076621840151965513 0 -0.43347961392146023 -0.0028595802463400339 0 -0.43921605888514031 0.0076621840151965513 0 -0.42769670842479812 0.0074315104994249342 0 -0.43921605888514031 0.0076621840151965513 0 -0.42769670842479812 0.0074315104994249342 0 -0.42631583724651989 0.017231800576312881 0 -0.42769670842479812 0.0074315104994249342 0 -0.42030519816928252 0.01383701647143927 0 -0.42631583724651989 0.017231800576312881 0 -0.42769670842479812 0.0074315104994249342 0 -0.41807960538904709 0.0045558752302702768 0 -0.42030519816928252 0.01383701647143927 0 -0.42066580394347891 -0.0030686677817414981 0 -0.42769670842479812 0.0074315104994249342 0 -0.41807960538904709 0.0045558752302702768 0 -0.41324663300947129 -0.0039260215443408762 0 -0.41807960538904709 0.0045558752302702768 0 -0.41088443635769267 0.0024351128412023102 0 -0.41807960538904709 0.0045558752302702768 0 -0.41384122967312309 0.010276749598516001 0 -0.41088443635769267 0.0024351128412023102 0 -0.42030519816928252 0.01383701647143927 0 -0.41384122967312309 0.010276749598516001 0 -0.4158379429062079 0.0220864156822295 0 -0.41807960538904709 0.0045558752302702768 0 -0.42030519816928252 0.01383701647143927 0 -0.41384122967312309 0.010276749598516001 0 -0.41384122967312309 0.010276749598516001 0 -0.4158379429062079 0.0220864156822295 0 -0.40202812620624517 0.00663764390047911 0 -0.4158379429062079 0.0220864156822295 0 -0.40202812620624517 0.00663764390047911 0 -0.4158379429062079 0.0220864156822295 0 -0.40202812620624517 0.00663764390047911 0 -0.40563828413620878 0.011805249395549529 0 -0.41384122967312309 0.010276749598516001 0 -0.41088443635769267 0.0024351128412023102 0 -0.40202812620624517 0.00663764390047911 0 -0.40990192290887839 0.028450715102047549 0 -0.4158379429062079 0.0220864156822295 0 -0.4061243330763914 0.020807500736806841 0 -0.40990192290887839 0.028450715102047549 0 -0.4158379429062079 0.0220864156822295 0 -0.41594848676733898 0.035260759025987007 0 -0.4158379429062079 0.0220864156822295 0 -0.40563828413620878 0.011805249395549529 0 -0.4158379429062079 0.0220864156822295 0 -0.40563828413620878 0.011805249395549529 0 -0.4061243330763914 0.020807500736806841 0 -0.42030519816928252 0.01383701647143927 0 -0.4158379429062079 0.0220864156822295 0 -0.42631583724651989 0.017231800576312881 0 -0.4158379429062079 0.0220864156822295 0 -0.4285232778471707 0.035141876213274137 0 -0.41594848676733898 0.035260759025987007 0 -0.4158379429062079 0.0220864156822295 0 -0.4285232778471707 0.035141876213274137 0 -0.43921605888514031 0.0076621840151965513 0 -0.4285232778471707 0.035141876213274137 0 -0.4158379429062079 0.0220864156822295 0 -0.42631583724651989 0.017231800576312881 0 -0.4285232778471707 0.035141876213274137 0 -0.43921605888514031 0.0076621840151965513 0 -0.42631583724651989 0.017231800576312881 0 -0.4285232778471707 0.035141876213274137 0 -0.44423642907010019 0.051165124934741728 0 -0.42520172428921771 0.043678034306094217 0 -0.4285232778471707 0.035141876213274137 0 -0.44423642907010019 0.051165124934741728 0 -0.4285232778471707 0.035141876213274137 0 -0.42520172428921771 0.043678034306094217 0 -0.4285232778471707 0.035141876213274137 0 -0.42520172428921771 0.043678034306094217 0 -0.4285232778471707 0.035141876213274137 0 -0.41594848676733898 0.035260759025987007 0 -0.42520172428921771 0.043678034306094217 0 -0.42988104689921819 0.059721479963476563 0 -0.41956848002898089 0.053255167948343472 0 -0.44423642907010019 0.051165124934741728 0 -0.42520172428921771 0.043678034306094217 0 -0.42988104689921819 0.059721479963476563 0 -0.42988104689921819 0.059721479963476563 0 -0.41956848002898089 0.053255167948343472 0 -0.4152957655729394 0.067879774962012085 0 -0.41956848002898089 0.053255167948343472 0 -0.40943258713107472 0.053894841354227223 0 -0.4152957655729394 0.067879774962012085 0 -0.41956848002898089 0.053255167948343472 0 -0.40943258713107472 0.053894841354227223 0 -0.41511497582208001 0.044941194741276308 0 -0.42520172428921771 0.043678034306094217 0 -0.41956848002898089 0.053255167948343472 0 -0.41511497582208001 0.044941194741276308 0 -0.40943258713107472 0.053894841354227223 0 -0.4024433618565933 0.063578594603827573 0 -0.4152957655729394 0.067879774962012085 0 -0.42520172428921771 0.043678034306094217 0 -0.41594848676733898 0.035260759025987007 0 -0.41511497582208001 0.044941194741276308 0 -0.40943258713107472 0.053894841354227223 0 -0.41511497582208001 0.044941194741276308 0 -0.40396545067860018 0.040536913864414187 0 -0.41594848676733898 0.035260759025987007 0 -0.41511497582208001 0.044941194741276308 0 -0.40396545067860018 0.040536913864414187 0 -0.40990192290887839 0.028450715102047549 0 -0.41594848676733898 0.035260759025987007 0 -0.40396545067860018 0.040536913864414187 0 -0.40396545067860018 0.040536913864414187 0 -0.39147601000786142 0.031366159184906428 0 -0.38950979462312679 0.048532684559943279 0 -0.40396545067860018 0.040536913864414187 0 -0.39147601000786142 0.031366159184906428 0 -0.4014490664325493 0.027678683795938741 0 -0.40990192290887839 0.028450715102047549 0 -0.40396545067860018 0.040536913864414187 0 -0.4014490664325493 0.027678683795938741 0 -0.40943258713107472 0.053894841354227223 0 -0.39910835117081678 0.053907579673227297 0 -0.4024433618565933 0.063578594603827573 0 -0.40943258713107472 0.053894841354227223 0 -0.40396545067860018 0.040536913864414187 0 -0.39910835117081678 0.053907579673227297 0 -0.40396545067860018 0.040536913864414187 0 -0.39910835117081678 0.053907579673227297 0 -0.38950979462312679 0.048532684559943279 0 -0.39910835117081678 0.053907579673227297 0 -0.38956013603508438 0.063239770527187239 0 -0.4024433618565933 0.063578594603827573 0 -0.39910835117081678 0.053907579673227297 0 -0.38950979462312679 0.048532684559943279 0 -0.38956013603508438 0.063239770527187239 0 -0.378823189839815 0.03909604806771539 0 -0.37412563000658372 0.063049636042209145 0 -0.38950979462312679 0.048532684559943279 0 -0.378823189839815 0.03909604806771539 0 -0.37412563000658372 0.063049636042209145 0 -0.38950979462312679 0.048532684559943279 0 -0.38956013603508438 0.063239770527187239 0 -0.37412563000658372 0.063049636042209145 0 -0.39147601000786142 0.031366159184906428 0 -0.38950979462312679 0.048532684559943279 0 -0.378823189839815 0.03909604806771539 0 -0.39147601000786142 0.031366159184906428 0 -0.378823189839815 0.03909604806771539 0 -0.38352074967304828 0.015142460093222071 0 -0.378823189839815 0.03909604806771539 0 -0.38352074967304828 0.015142460093222071 0 -0.378823189839815 0.03909604806771539 0 -0.38352074967304828 0.015142460093222071 0 -0.37240583582309161 0.025400119615024142 0 -0.39147601000786142 0.031366159184906428 0 -0.38352074967304828 0.015142460093222071 0 -0.39488149505859088 0.01547523039383081 0 -0.36933859948822412 -0.0004439302888986224 0 -0.38821830950628222 -0.0088111278812710685 0 -0.38352074967304828 0.015142460093222071 0 -0.38821830950628222 -0.0088111278812710685 0 -0.38352074967304828 0.015142460093222071 0 -0.38821830950628222 -0.0088111278812710685 0 -0.38352074967304828 0.015142460093222071 0 -0.39488149505859088 0.01547523039383081 0 -0.38821830950628222 -0.0088111278812710685 0 -0.39488149505859088 0.01547523039383081 0 -0.40202812620624517 0.00663764390047911 0 -0.40500532189739991 -0.0035418967092628521 0 -0.41088443635769267 0.0024351128412023102 0 -0.40202812620624517 0.00663764390047911 0 -0.39488149505859088 0.01547523039383081 0 -0.40202812620624517 0.00663764390047911 0 -0.40563828413620878 0.011805249395549529 0 -0.39488149505859088 0.01547523039383081 0 -0.4061243330763914 0.020807500736806841 0 -0.4014490664325493 0.027678683795938741 0 -0.39488149505859088 0.01547523039383081 0 -0.40563828413620878 0.011805249395549529 0 -0.4061243330763914 0.020807500736806841 0 -0.39147601000786142 0.031366159184906428 0 -0.39488149505859088 0.01547523039383081 0 -0.4014490664325493 0.027678683795938741 0 -0.40990192290887839 0.028450715102047549 0 -0.4061243330763914 0.020807500736806841 0 -0.4014490664325493 0.027678683795938741 0 -0.39974501216309732 0.10634675778754921 0 -0.39126987539350838 0.092023655603444943 0 -0.40857924578105392 0.099391750598595591 0 -0.39974501216309732 0.10634675778754921 0 -0.39275843411867328 0.1170839100002684 0 -0.39126987539350838 0.092023655603444943 0 -0.39275843411867328 0.1170839100002684 0 -0.39126987539350838 0.092023655603444943 0 -0.39974501216309732 0.10634675778754921 0 -0.39126987539350838 0.092023655603444943 0 -0.39974501216309732 0.10634675778754921 0 -0.40857924578105392 0.099391750598595591 0 -0.40933818870613081 0.1097356457976169 0 -0.39974501216309732 0.10634675778754921 0 -0.40822014893268682 0.120669859971653 0 -0.40933818870613081 0.1097356457976169 0 -0.39974501216309732 0.10634675778754921 0 -0.39275843411867328 0.1170839100002684 0 -0.40822014893268682 0.120669859971653 0 -0.39275843411867328 0.1170839100002684 0 -0.40822014893268682 0.120669859971653 0 -0.41033554470758682 0.12820438943905521 0 -0.39974501216309732 0.10634675778754921 0 -0.40822014893268682 0.120669859971653 0 -0.39275843411867328 0.1170839100002684 0 -0.37853037782034571 0.11479208822673689 0 -0.37437258627236542 0.12890371469479259 0 -0.39275843411867328 0.1170839100002684 0 -0.37853037782034571 0.11479208822673689 0 -0.37761936588316741 0.1004094566761367 0 -0.39275843411867328 0.1170839100002684 0 -0.37761936588316741 0.1004094566761367 0 -0.39126987539350838 0.092023655603444943 0 -0.37761936588316741 0.1004094566761367 0 -0.38027383380681551 0.089140916853956212 0 -0.39126987539350838 0.092023655603444943 0 -0.37761936588316741 0.1004094566761367 0 -0.38027383380681551 0.089140916853956212 0 -0.3695083412505395 0.086593909313416401 0 -0.38027383380681551 0.089140916853956212 0 -0.38269775270004641 0.077536645822826877 0 -0.3695083412505395 0.086593909313416401 0 -0.38269775270004641 0.077536645822826877 0 -0.39126987539350838 0.092023655603444943 0 -0.38027383380681551 0.089140916853956212 0 -0.38269775270004641 0.077536645822826877 0 -0.39126987539350838 0.092023655603444943 0 -0.38269775270004641 0.077536645822826877 0 -0.37412563000658372 0.063049636042209145 0 -0.3695083412505395 0.086593909313416401 0 -0.38956013603508438 0.063239770527187239 0 -0.39126987539350838 0.092023655603444943 0 -0.38269775270004641 0.077536645822826877 0 -0.38956013603508438 0.063239770527187239 0 -0.39126987539350838 0.092023655603444943 0 -0.38269775270004641 0.077536645822826877 0 -0.38956013603508438 0.063239770527187239 0 -0.37412563000658372 0.063049636042209145 0 -0.38269775270004641 0.077536645822826877 0 -0.37412563000658372 0.063049636042209145 0 -0.38956013603508438 0.063239770527187239 0 -0.40141988574119392 0.075047284515241813 0 -0.39126987539350838 0.092023655603444943 0 -0.38956013603508438 0.063239770527187239 0 -0.40141988574119392 0.075047284515241813 0 -0.4024433618565933 0.063578594603827573 0 -0.39126987539350838 0.092023655603444943 0 -0.40983024803191548 0.086552765886116073 0 -0.40857924578105392 0.099391750598595591 0 -0.40141988574119392 0.075047284515241813 0 -0.39126987539350838 0.092023655603444943 0 -0.40983024803191548 0.086552765886116073 0 -0.40983024803191548 0.086552765886116073 0 -0.4152957655729394 0.067879774962012085 0 -0.42657684505021348 0.083357347047406605 0 -0.40983024803191548 0.086552765886116073 0 -0.42657684505021348 0.083357347047406605 0 -0.4189129809442293 0.098190971370056446 0 -0.40141988574119392 0.075047284515241813 0 -0.40983024803191548 0.086552765886116073 0 -0.4152957655729394 0.067879774962012085 0 -0.40141988574119392 0.075047284515241813 0 -0.4024433618565933 0.063578594603827573 0 -0.4152957655729394 0.067879774962012085 0 -0.42988104689921819 0.059721479963476563 0 -0.4152957655729394 0.067879774962012085 0 -0.42657684505021348 0.083357347047406605 0 -0.42988104689921819 0.059721479963476563 0 -0.42657684505021348 0.083357347047406605 0 -0.44045095793754441 0.075026002355863583 0 -0.42657684505021348 0.083357347047406605 0 -0.43126845361929728 0.10010452027074281 0 -0.4413655972566517 0.089987031503718784 0 -0.42657684505021348 0.083357347047406605 0 -0.44045095793754441 0.075026002355863583 0 -0.4413655972566517 0.089987031503718784 0 -0.42657684505021348 0.083357347047406605 0 -0.43126845361929728 0.10010452027074281 0 -0.4189129809442293 0.098190971370056446 0 -0.43126845361929728 0.10010452027074281 0 -0.42417955623431008 0.110633902559287 0 -0.43664339076383379 0.1119759113111297 0 -0.43126845361929728 0.10010452027074281 0 -0.4189129809442293 0.098190971370056446 0 -0.42417955623431008 0.110633902559287 0 -0.4189129809442293 0.098190971370056446 0 -0.41487903430584738 0.1072465081225729 0 -0.42417955623431008 0.110633902559287 0 -0.4189129809442293 0.098190971370056446 0 -0.41487903430584738 0.1072465081225729 0 -0.40857924578105392 0.099391750598595591 0 -0.41487903430584738 0.1072465081225729 0 -0.40857924578105392 0.099391750598595591 0 -0.40933818870613081 0.1097356457976169 0 -0.40983024803191548 0.086552765886116073 0 -0.4189129809442293 0.098190971370056446 0 -0.40857924578105392 0.099391750598595591 0 -0.41382272674787102 0.12121241662844449 0 -0.40822014893268682 0.120669859971653 0 -0.41526750234796872 0.1150233525077137 0 -0.41382272674787102 0.12121241662844449 0 -0.40822014893268682 0.120669859971653 0 -0.41033554470758682 0.12820438943905521 0 -0.40822014893268682 0.120669859971653 0 -0.40933818870613081 0.1097356457976169 0 -0.41526750234796872 0.1150233525077137 0 -0.41487903430584738 0.1072465081225729 0 -0.40933818870613081 0.1097356457976169 0 -0.41526750234796872 0.1150233525077137 0 -0.41526750234796872 0.1150233525077137 0 -0.42314147291976012 0.12054477068340499 0 -0.42417955623431008 0.110633902559287 0 -0.41487903430584738 0.1072465081225729 0 -0.41526750234796872 0.1150233525077137 0 -0.42417955623431008 0.110633902559287 0 -0.41382272674787102 0.12121241662844449 0 -0.41526750234796872 0.1150233525077137 0 -0.42314147291976012 0.12054477068340499 0 -0.41382272674787102 0.12121241662844449 0 -0.42314147291976012 0.12054477068340499 0 -0.41033554470758682 0.12820438943905521 0 -0.42314147291976012 0.12054477068340499 0 -0.427578916598015 0.12738546973202461 0 -0.43661566594034812 0.12695629774809031 0 -0.42314147291976012 0.12054477068340499 0 -0.42417955623431008 0.110633902559287 0 -0.43206522228774952 0.11789721821460659 0 -0.42417955623431008 0.110633902559287 0 -0.43664339076383379 0.1119759113111297 0 -0.43206522228774952 0.11789721821460659 0 -0.43664339076383379 0.1119759113111297 0 -0.43206522228774952 0.11789721821460659 0 -0.43920023284636373 0.1190903202846807 0 -0.42314147291976012 0.12054477068340499 0 -0.43206522228774952 0.11789721821460659 0 -0.43661566594034812 0.12695629774809031 0 -0.43206522228774952 0.11789721821460659 0 -0.43920023284636373 0.1190903202846807 0 -0.43661566594034812 0.12695629774809031 0 -0.4493808082944602 0.11843788207696571 0 -0.46289578717310931 0.12570820605712549 0 -0.43661566594034812 0.12695629774809031 0 -0.43920023284636373 0.1190903202846807 0 -0.4493808082944602 0.11843788207696571 0 -0.43661566594034812 0.12695629774809031 0 -0.4493808082944602 0.11843788207696571 0 -0.44496915391188169 0.1042578449849189 0 -0.45810496010314 0.1085597584265106 0 -0.43664339076383379 0.1119759113111297 0 -0.43920023284636373 0.1190903202846807 0 -0.4493808082944602 0.11843788207696571 0 -0.43664339076383379 0.1119759113111297 0 -0.4493808082944602 0.11843788207696571 0 -0.44496915391188169 0.1042578449849189 0 -0.43126845361929728 0.10010452027074281 0 -0.43664339076383379 0.1119759113111297 0 -0.44496915391188169 0.1042578449849189 0 -0.43126845361929728 0.10010452027074281 0 -0.44496915391188169 0.1042578449849189 0 -0.4413655972566517 0.089987031503718784 0 -0.44496915391188169 0.1042578449849189 0 -0.45305171343390732 0.096481966320445922 0 -0.4413655972566517 0.089987031503718784 0 -0.44496915391188169 0.1042578449849189 0 -0.45305171343390732 0.096481966320445922 0 -0.45810496010314 0.1085597584265106 0 -0.45305171343390732 0.096481966320445922 0 -0.45810496010314 0.1085597584265106 0 -0.46725129378938141 0.097364381519026572 0 -0.45810496010314 0.1085597584265106 0 -0.46725129378938141 0.097364381519026572 0 -0.47271179145628278 0.1112154712472103 0 -0.4493808082944602 0.11843788207696571 0 -0.45810496010314 0.1085597584265106 0 -0.46289578717310931 0.12570820605712549 0 -0.45810496010314 0.1085597584265106 0 -0.47271179145628278 0.1112154712472103 0 -0.46289578717310931 0.12570820605712549 0 -0.44423642907010019 0.051165124934741728 0 -0.44045095793754441 0.075026002355863583 0 -0.46053043879344002 0.067780695342168462 0 -0.44045095793754441 0.075026002355863583 0 -0.45670781539259531 0.085023117861200675 0 -0.46053043879344002 0.067780695342168462 0 -0.44423642907010019 0.051165124934741728 0 -0.44045095793754441 0.075026002355863583 0 -0.44045095793754441 0.075026002355863583 0 -0.4413655972566517 0.089987031503718784 0 -0.45670781539259531 0.085023117861200675 0 -0.45305171343390732 0.096481966320445922 0 -0.4413655972566517 0.089987031503718784 0 -0.45670781539259531 0.085023117861200675 0 -0.46725129378938141 0.097364381519026572 0 -0.45670781539259531 0.085023117861200675 0 -0.47682444851678052 0.084396265749594301 0 -0.45670781539259531 0.085023117861200675 0 -0.46053043879344002 0.067780695342168462 0 -0.47682444851678052 0.084396265749594301 0 -0.45305171343390732 0.096481966320445922 0 -0.46725129378938141 0.097364381519026572 0 -0.45670781539259531 0.085023117861200675 0 -0.46053043879344002 0.067780695342168462 0 -0.47682444851678052 0.084396265749594301 0 -0.46053043879344002 0.067780695342168462 0 -0.48223773754410337 0.06806861768027081 0 -0.47682444851678052 0.084396265749594301 0 -0.48223773754410337 0.06806861768027081 0 -0.47682444851678052 0.084396265749594301 0 -0.49100313039221011 0.086789104821435412 0 -0.47682444851678052 0.084396265749594301 0 -0.49311845824012102 0.1010118361570201 0 -0.49100313039221011 0.086789104821435412 0 -0.50000000000000133 0.075572285494694733 0 -0.5 0.099871286315795504 0 -0.47682444851678052 0.084396265749594301 0 -0.49100313039221011 0.086789104821435412 0 -0.49311845824012102 0.1010118361570201 0 -0.49521573366651123 0.050514089149072842 0 -0.50000000000000133 0.075572285494694733 0 -0.49521573366651123 0.050514089149072842 0 -0.48223773754410337 0.06806861768027081 0 -0.50000000000000133 0.075572285494694733 0 -0.48223773754410337 0.06806861768027081 0 -0.49100313039221011 0.086789104821435412 0 -0.50000000000000133 0.075572285494694733 0 -0.4817247595326275 0.115780353691101 0 -0.47271179145628278 0.1112154712472103 0 -0.46289578717310931 0.12570820605712549 0 -0.4817247595326275 0.115780353691101 0 -0.48917590840587039 0.1244601143661606 0 -0.46289578717310931 0.12570820605712549 0 -0.4817247595326275 0.115780353691101 0 -0.47271179145628278 0.1112154712472103 0 -0.48165776429706858 0.10368009070121149 0 -0.46725129378938141 0.097364381519026572 0 -0.47271179145628278 0.1112154712472103 0 -0.48165776429706858 0.10368009070121149 0 -0.47682444851678052 0.084396265749594301 0 -0.48165776429706858 0.10368009070121149 0 -0.49311845824012102 0.1010118361570201 0 -0.46725129378938141 0.097364381519026572 0 -0.47682444851678052 0.084396265749594301 0 -0.48165776429706858 0.10368009070121149 0 -0.48165776429706858 0.10368009070121149 0 -0.49311845824012102 0.1010118361570201 0 -0.49290423690789659 0.1125818568500636 0 -0.49100313039221011 0.086789104821435412 0 -0.49311845824012102 0.1010118361570201 0 -0.5 0.099871286315795504 0 -0.49311845824012102 0.1010118361570201 0 -0.5 0.099871286315795504 0 -0.49290423690789659 0.1125818568500636 0 -0.5 0.099871286315795504 0 -0.49290423690789659 0.1125818568500636 0 -0.5 0.1241702871368963 0 -0.4817247595326275 0.115780353691101 0 -0.48165776429706858 0.10368009070121149 0 -0.49290423690789659 0.1125818568500636 0 -0.4817247595326275 0.115780353691101 0 -0.49290423690789659 0.1125818568500636 0 -0.48917590840587039 0.1244601143661606 0 -0.49290423690789659 0.1125818568500636 0 -0.48917590840587039 0.1244601143661606 0 -0.5 0.1241702871368963 0 -0.5 0.1241702871368963 0 -0.48876393788881017 0.13627598938008259 0 -0.49999999999999889 0.1484692879579971 0 -0.48917590840587039 0.1244601143661606 0 -0.5 0.1241702871368963 0 -0.48876393788881017 0.13627598938008259 0 -0.48917590840587039 0.1244601143661606 0 -0.48876393788881017 0.13627598938008259 0 -0.47565453053980361 0.13505565514675269 0 -0.48917590840587039 0.1244601143661606 0 -0.47565453053980361 0.13505565514675269 0 -0.46289578717310931 0.12570820605712549 0 -0.48917590840587039 0.1244601143661606 0 -0.46289578717310931 0.12570820605712549 0 -0.48876393788881017 0.13627598938008259 0 -0.47565453053980361 0.13505565514675269 0 -0.47898925049837687 0.1492246022926064 0 -0.47565453053980361 0.13505565514675269 0 -0.47898925049837687 0.1492246022926064 0 -0.45971588570656319 0.13823391472163121 0 -0.47898925049837687 0.1492246022926064 0 -0.47064342762859818 0.16123738568058019 0 -0.45797850099675502 0.1499799166272158 0 -0.48876393788881017 0.13627598938008259 0 -0.47898925049837687 0.1492246022926064 0 -0.49999999999999889 0.1484692879579971 0 -0.47898925049837687 0.1492246022926064 0 -0.49999999999999889 0.1484692879579971 0 -0.48479590795340138 0.1666199720225478 0 -0.47898925049837687 0.1492246022926064 0 -0.49999999999999889 0.1484692879579971 0 -0.49999999999999889 0.1484692879579971 0 -0.48479590795340138 0.1666199720225478 0 -0.5 0.1780109851791519 0 -0.48479590795340138 0.1666199720225478 0 -0.5 0.1780109851791519 0 -0.4846580174193772 0.18657565287103331 0 -0.48479590795340138 0.1666199720225478 0 -0.4846580174193772 0.18657565287103331 0 -0.47232378645303491 0.175673182389746 0 -0.4846580174193772 0.18657565287103331 0 -0.47232378645303491 0.175673182389746 0 -0.47209416157927198 0.19118928130106549 0 -0.47898925049837687 0.1492246022926064 0 -0.48479590795340138 0.1666199720225478 0 -0.47064342762859818 0.16123738568058019 0 -0.48479590795340138 0.1666199720225478 0 -0.47232378645303491 0.175673182389746 0 -0.47064342762859818 0.16123738568058019 0 -0.47064342762859818 0.16123738568058019 0 -0.45912969224142319 0.1646892550707848 0 -0.45797850099675502 0.1499799166272158 0 -0.47232378645303491 0.175673182389746 0 -0.47064342762859818 0.16123738568058019 0 -0.45912969224142319 0.1646892550707848 0 -0.45912969224142319 0.1646892550707848 0 -0.44593796407678449 0.16106457269121341 0 -0.45797850099675502 0.1499799166272158 0 -0.45912969224142319 0.1646892550707848 0 -0.45916214133762062 0.18472443469785321 0 -0.44795994817827178 0.17948381793247231 0 -0.47232378645303491 0.175673182389746 0 -0.45912969224142319 0.1646892550707848 0 -0.45916214133762062 0.18472443469785321 0 -0.47232378645303491 0.175673182389746 0 -0.45916214133762062 0.18472443469785321 0 -0.47209416157927198 0.19118928130106549 0 -0.44065200127261023 0.1895907383390022 0 -0.43675118487313519 0.17120178642013789 0 -0.44795994817827178 0.17948381793247231 0 -0.44065200127261023 0.1895907383390022 0 -0.43675118487313519 0.17120178642013789 0 -0.45916214133762062 0.18472443469785321 0 -0.44795994817827178 0.17948381793247231 0 -0.45004238882164982 0.18753143321897511 0 -0.44795994817827178 0.17948381793247231 0 -0.45004238882164982 0.18753143321897511 0 -0.44065200127261023 0.1895907383390022 0 -0.45912969224142319 0.1646892550707848 0 -0.44795994817827178 0.17948381793247231 0 -0.43675118487313519 0.17120178642013789 0 -0.45912969224142319 0.1646892550707848 0 -0.44593796407678449 0.16106457269121341 0 -0.43675118487313519 0.17120178642013789 0 -0.45912969224142319 0.1646892550707848 0 -0.43675118487313519 0.17120178642013789 0 -0.44593796407678449 0.16106457269121341 0 -0.43696775149513312 0.15073523096182531 0 -0.43675118487313519 0.17120178642013789 0 -0.44593796407678449 0.16106457269121341 0 -0.45797850099675502 0.1499799166272158 0 -0.43696775149513312 0.15073523096182531 0 -0.44413150755175868 0.1448158388456077 0 -0.45797850099675502 0.1499799166272158 0 -0.43696775149513312 0.15073523096182531 0 -0.45797850099675502 0.1499799166272158 0 -0.43696775149513312 0.15073523096182531 0 -0.44881471318470839 0.1412513929177418 0 -0.44413150755175868 0.1448158388456077 0 -0.45797850099675502 0.1499799166272158 0 -0.44881471318470839 0.1412513929177418 0 -0.44413150755175868 0.1448158388456077 0 -0.44016466233856749 0.13839256695714949 0 -0.44413150755175868 0.1448158388456077 0 -0.43673190974362919 0.14372008676410589 0 -0.43696775149513312 0.15073523096182531 0 -0.44413150755175868 0.1448158388456077 0 -0.44016466233856749 0.13839256695714949 0 -0.43673190974362919 0.14372008676410589 0 -0.44964134286865942 0.1341084756803477 0 -0.46289578717310931 0.12570820605712549 0 -0.43661566594034812 0.12695629774809031 0 -0.44016466233856749 0.13839256695714949 0 -0.44964134286865942 0.1341084756803477 0 -0.43661566594034812 0.12695629774809031 0 -0.46289578717310931 0.12570820605712549 0 -0.43661566594034812 0.12695629774809031 0 -0.44881471318470839 0.1412513929177418 0 -0.44964134286865942 0.1341084756803477 0 -0.45971588570656319 0.13823391472163121 0 -0.44881471318470839 0.1412513929177418 0 -0.44016466233856749 0.13839256695714949 0 -0.44964134286865942 0.1341084756803477 0 -0.47565453053980361 0.13505565514675269 0 -0.45971588570656319 0.13823391472163121 0 -0.46289578717310931 0.12570820605712549 0 -0.44964134286865942 0.1341084756803477 0 -0.45971588570656319 0.13823391472163121 0 -0.46289578717310931 0.12570820605712549 0 -0.47898925049837687 0.1492246022926064 0 -0.45797850099675502 0.1499799166272158 0 -0.47898925049837687 0.1492246022926064 0 -0.45971588570656319 0.13823391472163121 0 -0.45797850099675502 0.1499799166272158 0 -0.44881471318470839 0.1412513929177418 0 -0.45971588570656319 0.13823391472163121 0 -0.45797850099675502 0.1499799166272158 0 -0.47535244210990601 0.24950426809701751 0 -0.48913205550528949 0.23449748088061281 0 -0.45981304281472068 0.2444485708445272 0 -0.48913205550528949 0.23449748088061281 0 -0.46247166188482508 0.2281269714749749 0 -0.45981304281472068 0.2444485708445272 0 -0.47535244210990601 0.24950426809701751 0 -0.48913205550528949 0.23449748088061281 0 -0.48916327443797081 0.247883965171216 0 -0.50000000000000133 0.2370943796214616 0 -0.5 0.25574299280684493 0 -0.47535244210990601 0.24950426809701751 0 -0.48916327443797081 0.247883965171216 0 -0.48913205550528949 0.23449748088061281 0 -0.48916327443797081 0.247883965171216 0 -0.50000000000000133 0.2370943796214616 0 -0.48913205550528949 0.23449748088061281 0 -0.50000000000000133 0.2370943796214616 0 -0.48913205550528949 0.23449748088061281 0 -0.48913205550528949 0.23449748088061281 0 -0.49823006080766091 0.22458923267735481 0 -0.48712395297058081 0.22356961644454229 0 -0.50000000000000133 0.2370943796214616 0 -0.49823006080766091 0.22458923267735481 0 -0.5 0.2075526824003068 0 -0.50000000000000133 0.2370943796214616 0 -0.48913205550528949 0.23449748088061281 0 -0.49823006080766091 0.22458923267735481 0 -0.48913205550528949 0.23449748088061281 0 -0.49823006080766091 0.22458923267735481 0 -0.48712395297058081 0.22356961644454229 0 -0.48129471542447028 0.21816990210354251 0 -0.48832705446352948 0.21463773068666239 0 -0.49823006080766091 0.22458923267735481 0 -0.48712395297058081 0.22356961644454229 0 -0.48832705446352948 0.21463773068666239 0 -0.48913205550528949 0.23449748088061281 0 -0.46247166188482508 0.2281269714749749 0 -0.48712395297058081 0.22356961644454229 0 -0.47592652655421658 0.2235602604955757 0 -0.48129471542447028 0.21816990210354251 0 -0.48913205550528949 0.23449748088061281 0 -0.47592652655421658 0.2235602604955757 0 -0.46247166188482508 0.2281269714749749 0 -0.48913205550528949 0.23449748088061281 0 -0.48712395297058081 0.22356961644454229 0 -0.47592652655421658 0.2235602604955757 0 -0.47592652655421658 0.2235602604955757 0 -0.47065795684773332 0.2141351833743638 0 -0.46352414064353292 0.22166567100593651 0 -0.47592652655421658 0.2235602604955757 0 -0.47065795684773332 0.2141351833743638 0 -0.48129471542447028 0.21816990210354251 0 -0.47065795684773332 0.2141351833743638 0 -0.47177572500571918 0.20383043836760331 0 -0.47895022051893038 0.21054959099960829 0 -0.47065795684773332 0.2141351833743638 0 -0.47177572500571918 0.20383043836760331 0 -0.46381914049172751 0.20715883129709819 0 -0.47895022051893038 0.21054959099960829 0 -0.48832705446352948 0.21463773068666239 0 -0.48332175116813242 0.2024225431444068 0 -0.47177572500571918 0.20383043836760331 0 -0.47895022051893038 0.21054959099960829 0 -0.48332175116813242 0.2024225431444068 0 -0.47895022051893038 0.21054959099960829 0 -0.48129471542447028 0.21816990210354251 0 -0.48832705446352948 0.21463773068666239 0 -0.47065795684773332 0.2141351833743638 0 -0.47895022051893038 0.21054959099960829 0 -0.48129471542447028 0.21816990210354251 0 -0.49823006080766091 0.22458923267735481 0 -0.48832705446352948 0.21463773068666239 0 -0.5 0.2075526824003068 0 -0.48832705446352948 0.21463773068666239 0 -0.5 0.2075526824003068 0 -0.48332175116813242 0.2024225431444068 0 -0.5 0.1780109851791519 0 -0.4846580174193772 0.18657565287103331 0 -0.5 0.2075526824003068 0 -0.4846580174193772 0.18657565287103331 0 -0.5 0.2075526824003068 0 -0.48332175116813242 0.2024225431444068 0 -0.4846580174193772 0.18657565287103331 0 -0.48332175116813242 0.2024225431444068 0 -0.47209416157927198 0.19118928130106549 0 -0.47177572500571918 0.20383043836760331 0 -0.48332175116813242 0.2024225431444068 0 -0.47209416157927198 0.19118928130106549 0 -0.45916214133762062 0.18472443469785321 0 -0.47209416157927198 0.19118928130106549 0 -0.46212416958598629 0.1977511214283465 0 -0.47177572500571918 0.20383043836760331 0 -0.47209416157927198 0.19118928130106549 0 -0.46212416958598629 0.1977511214283465 0 -0.47177572500571918 0.20383043836760331 0 -0.46212416958598629 0.1977511214283465 0 -0.46381914049172751 0.20715883129709819 0 -0.46212416958598629 0.1977511214283465 0 -0.45239546449809681 0.1963267419065727 0 -0.45377957441429118 0.20835911934547041 0 -0.45916214133762062 0.18472443469785321 0 -0.45004238882164982 0.18753143321897511 0 -0.45239546449809681 0.1963267419065727 0 -0.45916214133762062 0.18472443469785321 0 -0.46212416958598629 0.1977511214283465 0 -0.45239546449809681 0.1963267419065727 0 -0.44065200127261023 0.1895907383390022 0 -0.4445528176720851 0.2079796902578665 0 -0.44065200127261023 0.1895907383390022 0 -0.45239546449809681 0.1963267419065727 0 -0.4445528176720851 0.2079796902578665 0 -0.45004238882164982 0.18753143321897511 0 -0.44065200127261023 0.1895907383390022 0 -0.45239546449809681 0.1963267419065727 0 -0.44065200127261023 0.1895907383390022 0 -0.4445528176720851 0.2079796902578665 0 -0.43533406178714218 0.2010584620775146 0 -0.44191055461502771 0.2192074648305965 0 -0.43533406178714218 0.2010584620775146 0 -0.4445528176720851 0.2079796902578665 0 -0.44191055461502771 0.2192074648305965 0 -0.43533406178714218 0.2010584620775146 0 -0.45239546449809681 0.1963267419065727 0 -0.4445528176720851 0.2079796902578665 0 -0.45377957441429118 0.20835911934547041 0 -0.4445528176720851 0.2079796902578665 0 -0.44708305801073939 0.214753503808046 0 -0.45377957441429118 0.20835911934547041 0 -0.4445528176720851 0.2079796902578665 0 -0.44708305801073939 0.214753503808046 0 -0.44191055461502771 0.2192074648305965 0 -0.44191055461502771 0.2192074648305965 0 -0.4346325954034036 0.21182820830243321 0 -0.43662175963524952 0.21751620842581371 0 -0.44708305801073939 0.214753503808046 0 -0.45254288085315358 0.21604929707436649 0 -0.44357568469493142 0.22361177180723479 0 -0.44708305801073939 0.214753503808046 0 -0.45254288085315358 0.21604929707436649 0 -0.45377957441429118 0.20835911934547041 0 -0.45254288085315358 0.21604929707436649 0 -0.4604336476160048 0.21417488075949989 0 -0.4570371858773008 0.22035120544260639 0 -0.45254288085315358 0.21604929707436649 0 -0.4604336476160048 0.21417488075949989 0 -0.45377957441429118 0.20835911934547041 0 -0.4604336476160048 0.21417488075949989 0 -0.46352414064353292 0.22166567100593651 0 -0.4570371858773008 0.22035120544260639 0 -0.4604336476160048 0.21417488075949989 0 -0.45377957441429118 0.20835911934547041 0 -0.46381914049172751 0.20715883129709819 0 -0.46212416958598629 0.1977511214283465 0 -0.45377957441429118 0.20835911934547041 0 -0.46381914049172751 0.20715883129709819 0 -0.47065795684773332 0.2141351833743638 0 -0.4604336476160048 0.21417488075949989 0 -0.46381914049172751 0.20715883129709819 0 -0.47065795684773332 0.2141351833743638 0 -0.4604336476160048 0.21417488075949989 0 -0.46352414064353292 0.22166567100593651 0 -0.46247166188482508 0.2281269714749749 0 -0.4570371858773008 0.22035120544260639 0 -0.44357568469493142 0.22361177180723479 0 -0.47592652655421658 0.2235602604955757 0 -0.46352414064353292 0.22166567100593651 0 -0.46247166188482508 0.2281269714749749 0 -0.46352414064353292 0.22166567100593651 0 -0.46247166188482508 0.2281269714749749 0 -0.4570371858773008 0.22035120544260639 0 -0.46352414064353292 0.22166567100593651 0 -0.46247166188482508 0.2281269714749749 0 -0.44357568469493142 0.22361177180723479 0 -0.45036505421977402 0.24219097101065759 0 -0.46247166188482508 0.2281269714749749 0 -0.44357568469493142 0.22361177180723479 0 -0.45036505421977402 0.24219097101065759 0 -0.44357568469493142 0.22361177180723479 0 -0.440724559039954 0.22293049443900601 0 -0.43379821853527623 0.24467338397315699 0 -0.46247166188482508 0.2281269714749749 0 -0.44357568469493142 0.22361177180723479 0 -0.45254288085315358 0.21604929707436649 0 -0.4570371858773008 0.22035120544260639 0 -0.44357568469493142 0.22361177180723479 0 -0.44191055461502771 0.2192074648305965 0 -0.44357568469493142 0.22361177180723479 0 -0.440724559039954 0.22293049443900601 0 -0.44191055461502771 0.2192074648305965 0 -0.44357568469493142 0.22361177180723479 0 -0.44708305801073939 0.214753503808046 0 -0.44191055461502771 0.2192074648305965 0 -0.44357568469493142 0.22361177180723479 0 -0.44357568469493142 0.22361177180723479 0 -0.440724559039954 0.22293049443900601 0 -0.44191055461502771 0.2192074648305965 0 -0.440724559039954 0.22293049443900601 0 -0.43662175963524952 0.21751620842581371 0 -0.44191055461502771 0.2192074648305965 0 -0.440724559039954 0.22293049443900601 0 -0.44357568469493142 0.22361177180723479 0 -0.45036505421977402 0.24219097101065759 0 -0.43379821853527623 0.24467338397315699 0 -0.45036505421977402 0.24219097101065759 0 -0.43379821853527623 0.24467338397315699 0 -0.44462105563271109 0.25670510479446867 0 -0.46247166188482508 0.2281269714749749 0 -0.45036505421977402 0.24219097101065759 0 -0.45981304281472068 0.2444485708445272 0 -0.45036505421977402 0.24219097101065759 0 -0.45981304281472068 0.2444485708445272 0 -0.45715442374461801 0.26077017021407978 0 -0.46247166188482508 0.2281269714749749 0 -0.45981304281472068 0.2444485708445272 0 -0.41605306156336558 0.24779447805732691 0 -0.41294193147069319 0.2267772894132272 0 -0.3961318641724631 0.23358944961267999 0 -0.41605306156336558 0.24779447805732691 0 -0.4262491595760578 0.23079924826144221 0 -0.41294193147069319 0.2267772894132272 0 -0.41605306156336558 0.24779447805732691 0 -0.43379821853527623 0.24467338397315699 0 -0.4262491595760578 0.23079924826144221 0 -0.440724559039954 0.22293049443900601 0 -0.43379821853527623 0.24467338397315699 0 -0.4262491595760578 0.23079924826144221 0 -0.440724559039954 0.22293049443900601 0 -0.43379821853527623 0.24467338397315699 0 -0.440724559039954 0.22293049443900601 0 -0.4262491595760578 0.23079924826144221 0 -0.43179034560845841 0.220795661341357 0 -0.440724559039954 0.22293049443900601 0 -0.43179034560845841 0.220795661341357 0 -0.440724559039954 0.22293049443900601 0 -0.43179034560845841 0.220795661341357 0 -0.43662175963524952 0.21751620842581371 0 -0.4262491595760578 0.23079924826144221 0 -0.43179034560845841 0.220795661341357 0 -0.42220967221947281 0.2213187177956826 0 -0.4262491595760578 0.23079924826144221 0 -0.42220967221947281 0.2213187177956826 0 -0.41294193147069319 0.2267772894132272 0 -0.42220967221947281 0.2213187177956826 0 -0.41294193147069319 0.2267772894132272 0 -0.41400885315821973 0.20741635465681371 0 -0.41294193147069319 0.2267772894132272 0 -0.41400885315821973 0.20741635465681371 0 -0.40372495515928231 0.21921191496369891 0 -0.42220967221947281 0.2213187177956826 0 -0.41400885315821973 0.20741635465681371 0 -0.42638245386016771 0.21362339499484939 0 -0.43179034560845841 0.220795661341357 0 -0.42220967221947281 0.2213187177956826 0 -0.42638245386016771 0.21362339499484939 0 -0.44191055461502771 0.2192074648305965 0 -0.4346325954034036 0.21182820830243321 0 -0.43533406178714218 0.2010584620775146 0 -0.43179034560845841 0.220795661341357 0 -0.4346325954034036 0.21182820830243321 0 -0.43662175963524952 0.21751620842581371 0 -0.43179034560845841 0.220795661341357 0 -0.42638245386016771 0.21362339499484939 0 -0.4346325954034036 0.21182820830243321 0 -0.4346325954034036 0.21182820830243321 0 -0.42649191782211121 0.20590885433536921 0 -0.43533406178714218 0.2010584620775146 0 -0.42638245386016771 0.21362339499484939 0 -0.4346325954034036 0.21182820830243321 0 -0.42649191782211121 0.20590885433536921 0 -0.41400885315821973 0.20741635465681371 0 -0.42638245386016771 0.21362339499484939 0 -0.42649191782211121 0.20590885433536921 0 -0.42649191782211121 0.20590885433536921 0 -0.4221016249016229 0.19561785164523501 0 -0.43533406178714218 0.2010584620775146 0 -0.43533406178714218 0.2010584620775146 0 -0.42870845667701257 0.1829274063537267 0 -0.4221016249016229 0.19561785164523501 0 -0.43533406178714218 0.2010584620775146 0 -0.42870845667701257 0.1829274063537267 0 -0.44065200127261023 0.1895907383390022 0 -0.43533406178714218 0.2010584620775146 0 -0.42870845667701257 0.1829274063537267 0 -0.4221016249016229 0.19561785164523501 0 -0.40460562730583838 0.19546372891946071 0 -0.41061722383557708 0.17880721951443909 0 -0.41400885315821973 0.20741635465681371 0 -0.4221016249016229 0.19561785164523501 0 -0.40460562730583838 0.19546372891946071 0 -0.41400885315821973 0.20741635465681371 0 -0.42649191782211121 0.20590885433536921 0 -0.4221016249016229 0.19561785164523501 0 -0.40460562730583838 0.19546372891946071 0 -0.39181717183575288 0.20906456617207461 0 -0.3844832627980192 0.18641265260874079 0 -0.37511823529975852 0.20315917371936049 0 -0.39181717183575288 0.20906456617207461 0 -0.3844832627980192 0.18641265260874079 0 -0.37511823529975852 0.20315917371936049 0 -0.39181717183575288 0.20906456617207461 0 -0.38010721481574627 0.2214306265789831 0 -0.41400885315821973 0.20741635465681371 0 -0.40460562730583838 0.19546372891946071 0 -0.39181717183575288 0.20906456617207461 0 -0.41400885315821973 0.20741635465681371 0 -0.39181717183575288 0.20906456617207461 0 -0.40372495515928231 0.21921191496369891 0 -0.39181717183575288 0.20906456617207461 0 -0.3961318641724631 0.23358944961267999 0 -0.41294193147069319 0.2267772894132272 0 -0.40372495515928231 0.21921191496369891 0 -0.3961318641724631 0.23358944961267999 0 -0.39181717183575288 0.20906456617207461 0 -0.40372495515928231 0.21921191496369891 0 -0.3961318641724631 0.23358944961267999 0 -0.39181717183575288 0.20906456617207461 0 -0.3961318641724631 0.23358944961267999 0 -0.38010721481574627 0.2214306265789831 0 -0.3961318641724631 0.23358944961267999 0 -0.38010721481574627 0.2214306265789831 0 -0.38310929377983571 0.2368749301038639 0 -0.38010721481574627 0.2214306265789831 0 -0.38310929377983571 0.2368749301038639 0 -0.37064371362837262 0.23132679369821199 0 -0.3961318641724631 0.23358944961267999 0 -0.38310929377983571 0.2368749301038639 0 -0.38932782258989462 0.24452898672213899 0 -0.38310929377983571 0.2368749301038639 0 -0.37762357589810641 0.24953723411872661 0 -0.37064371362837262 0.23132679369821199 0 -0.38310929377983571 0.2368749301038639 0 -0.37762357589810641 0.24953723411872661 0 -0.38932782258989462 0.24452898672213899 0 -0.41605306156336558 0.24779447805732691 0 -0.3961318641724631 0.23358944961267999 0 -0.40044655650917238 0.25811433305328563 0 -0.3961318641724631 0.23358944961267999 0 -0.38932782258989462 0.24452898672213899 0 -0.40044655650917238 0.25811433305328563 0 -0.3961318641724631 0.23358944961267999 0 -0.40044655650917238 0.25811433305328563 0 -0.41845610516243692 0.1420321326122326 0 -0.42098279092789043 0.15052849100161689 0 -0.42492558058631569 0.1456786098448446 0 -0.41845610516243692 0.1420321326122326 0 -0.42098279092789043 0.15052849100161689 0 -0.40911667806008473 0.1488664674034324 0 -0.42098279092789043 0.15052849100161689 0 -0.42631487585071598 0.15460757127004329 0 -0.41587863874702202 0.16021150046382121 0 -0.42098279092789043 0.15052849100161689 0 -0.40911667806008473 0.1488664674034324 0 -0.41587863874702202 0.16021150046382121 0 -0.41845610516243692 0.1420321326122326 0 -0.40911667806008473 0.1488664674034324 0 -0.41006058297246217 0.13927886751481389 0 -0.41033554470758682 0.12820438943905521 0 -0.427578916598015 0.12738546973202461 0 -0.41006058297246217 0.13927886751481389 0 -0.41033554470758682 0.12820438943905521 0 -0.41814759408836538 0.13514718372225731 0 -0.41033554470758682 0.12820438943905521 0 -0.41814759408836538 0.13514718372225731 0 -0.427578916598015 0.12738546973202461 0 -0.42314147291976012 0.12054477068340499 0 -0.41033554470758682 0.12820438943905521 0 -0.427578916598015 0.12738546973202461 0 -0.41845610516243692 0.1420321326122326 0 -0.41006058297246217 0.13927886751481389 0 -0.41814759408836538 0.13514718372225731 0 -0.41845610516243692 0.1420321326122326 0 -0.41814759408836538 0.13514718372225731 0 -0.42424517056402511 0.1395916182187126 0 -0.427578916598015 0.12738546973202461 0 -0.43218270635689932 0.14966538911911739 0 -0.42424517056402511 0.1395916182187126 0 -0.427578916598015 0.12738546973202461 0 -0.43218270635689932 0.14966538911911739 0 -0.41814759408836538 0.13514718372225731 0 -0.42424517056402511 0.1395916182187126 0 -0.427578916598015 0.12738546973202461 0 -0.427578916598015 0.12738546973202461 0 -0.43466183444402151 0.13737266648131211 0 -0.43218270635689932 0.14966538911911739 0 -0.427578916598015 0.12738546973202461 0 -0.43661566594034812 0.12695629774809031 0 -0.43466183444402151 0.13737266648131211 0 -0.427578916598015 0.12738546973202461 0 -0.43661566594034812 0.12695629774809031 0 -0.44016466233856749 0.13839256695714949 0 -0.43661566594034812 0.12695629774809031 0 -0.43466183444402151 0.13737266648131211 0 -0.44016466233856749 0.13839256695714949 0 -0.43466183444402151 0.13737266648131211 0 -0.43673190974362919 0.14372008676410589 0 -0.43466183444402151 0.13737266648131211 0 -0.43673190974362919 0.14372008676410589 0 -0.43218270635689932 0.14966538911911739 0 -0.43673190974362919 0.14372008676410589 0 -0.43218270635689932 0.14966538911911739 0 -0.43696775149513312 0.15073523096182531 0 -0.42424517056402511 0.1395916182187126 0 -0.42492558058631569 0.1456786098448446 0 -0.43218270635689932 0.14966538911911739 0 -0.41845610516243692 0.1420321326122326 0 -0.42424517056402511 0.1395916182187126 0 -0.42492558058631569 0.1456786098448446 0 -0.42631487585071598 0.15460757127004329 0 -0.43218270635689932 0.14966538911911739 0 -0.42882397802768052 0.16163062067305331 0 -0.42098279092789043 0.15052849100161689 0 -0.42610148843045542 0.15012001530890551 0 -0.42631487585071598 0.15460757127004329 0 -0.42098279092789043 0.15052849100161689 0 -0.42492558058631569 0.1456786098448446 0 -0.42610148843045542 0.15012001530890551 0 -0.42610148843045542 0.15012001530890551 0 -0.42631487585071598 0.15460757127004329 0 -0.43218270635689932 0.14966538911911739 0 -0.42492558058631569 0.1456786098448446 0 -0.42610148843045542 0.15012001530890551 0 -0.43218270635689932 0.14966538911911739 0 -0.43675118487313519 0.17120178642013789 0 -0.42882397802768052 0.16163062067305331 0 -0.41061722383557708 0.17880721951443909 0 -0.43218270635689932 0.14966538911911739 0 -0.43675118487313519 0.17120178642013789 0 -0.43218270635689932 0.14966538911911739 0 -0.43696775149513312 0.15073523096182531 0 -0.43675118487313519 0.17120178642013789 0 -0.43218270635689932 0.14966538911911739 0 -0.43675118487313519 0.17120178642013789 0 -0.42882397802768052 0.16163062067305331 0 -0.42631487585071598 0.15460757127004329 0 -0.42882397802768052 0.16163062067305331 0 -0.41587863874702202 0.16021150046382121 0 -0.44065200127261023 0.1895907383390022 0 -0.43675118487313519 0.17120178642013789 0 -0.42870845667701257 0.1829274063537267 0 -0.43675118487313519 0.17120178642013789 0 -0.42870845667701257 0.1829274063537267 0 -0.41061722383557708 0.17880721951443909 0 -0.43675118487313519 0.17120178642013789 0 -0.41061722383557708 0.17880721951443909 0 -0.4221016249016229 0.19561785164523501 0 -0.42870845667701257 0.1829274063537267 0 -0.41061722383557708 0.17880721951443909 0 -0.41061722383557708 0.17880721951443909 0 -0.41587863874702202 0.16021150046382121 0 -0.39504861851220668 0.1605037294226426 0 -0.42882397802768052 0.16163062067305331 0 -0.41061722383557708 0.17880721951443909 0 -0.41587863874702202 0.16021150046382121 0 -0.40911667806008473 0.1488664674034324 0 -0.41587863874702202 0.16021150046382121 0 -0.39504861851220668 0.1605037294226426 0 -0.41061722383557708 0.17880721951443909 0 -0.39504861851220668 0.1605037294226426 0 -0.3844832627980192 0.18641265260874079 0 -0.40460562730583838 0.19546372891946071 0 -0.41061722383557708 0.17880721951443909 0 -0.3844832627980192 0.18641265260874079 0 -0.41061722383557708 0.17880721951443909 0 -0.3844832627980192 0.18641265260874079 0 -0.39504861851220668 0.1605037294226426 0 -0.3844832627980192 0.18641265260874079 0 -0.37237860194242078 0.1605319093611092 0 -0.39504861851220668 0.1605037294226426 0 -0.37884871657146379 0.14602894298995181 0 -0.37237860194242078 0.1605319093611092 0 -0.39504861851220668 0.1605037294226426 0 -0.37884871657146379 0.14602894298995181 0 -0.39424699284383752 0.14214416439709199 0 -0.40911667806008473 0.1488664674034324 0 -0.39504861851220668 0.1605037294226426 0 -0.39424699284383752 0.14214416439709199 0 -0.40911667806008473 0.1488664674034324 0 -0.41006058297246217 0.13927886751481389 0 -0.39424699284383752 0.14214416439709199 0 -0.41006058297246217 0.13927886751481389 0 -0.41033554470758682 0.12820438943905521 0 -0.39424699284383752 0.14214416439709199 0 -0.39275843411867328 0.1170839100002684 0 -0.39424699284383752 0.14214416439709199 0 -0.39275843411867328 0.1170839100002684 0 -0.41033554470758682 0.12820438943905521 0 -0.39424699284383752 0.14214416439709199 0 -0.37884871657146379 0.14602894298995181 0 -0.39424699284383752 0.14214416439709199 0 -0.37437258627236542 0.12890371469479259 0 -0.39275843411867328 0.1170839100002684 0 -0.39424699284383752 0.14214416439709199 0 -0.37437258627236542 0.12890371469479259 0 -0.37884871657146379 0.14602894298995181 0 -0.37437258627236542 0.12890371469479259 0 -0.36370712971512958 0.1435894069765756 0 -0.37437258627236542 0.12890371469479259 0 -0.34899953175928211 0.12694253498055411 0 -0.36370712971512958 0.1435894069765756 0 -0.34899953175928211 0.12694253498055411 0 -0.34564644908257869 0.15299870548450989 0 -0.36370712971512958 0.1435894069765756 0 -0.37884871657146379 0.14602894298995181 0 -0.36370712971512958 0.1435894069765756 0 -0.37237860194242078 0.1605319093611092 0 -0.34564644908257869 0.15299870548450989 0 -0.36370712971512958 0.1435894069765756 0 -0.37237860194242078 0.1605319093611092 0 -0.34564644908257869 0.15299870548450989 0 -0.37237860194242078 0.1605319093611092 0 -0.36085444111495718 0.1753857021061101 0 -0.3844832627980192 0.18641265260874079 0 -0.37237860194242078 0.1605319093611092 0 -0.36085444111495718 0.1753857021061101 0 -0.3844832627980192 0.18641265260874079 0 -0.36085444111495718 0.1753857021061101 0 -0.35834930176046143 0.1940180857030426 0 -0.36085444111495718 0.1753857021061101 0 -0.33968278222427728 0.1770401652297168 0 -0.35834930176046143 0.1940180857030426 0 -0.34564644908257869 0.15299870548450989 0 -0.36085444111495718 0.1753857021061101 0 -0.33968278222427728 0.1770401652297168 0 -0.33140876683948511 0.16260067918260609 0 -0.33968278222427728 0.1770401652297168 0 -0.31846244455725531 0.17073107261740031 0 -0.34564644908257869 0.15299870548450989 0 -0.33140876683948511 0.16260067918260609 0 -0.33968278222427728 0.1770401652297168 0 -0.33968278222427728 0.1770401652297168 0 -0.32160972613096589 0.1869020899259973 0 -0.31846244455725531 0.17073107261740031 0 -0.32160972613096589 0.1869020899259973 0 -0.31846244455725531 0.17073107261740031 0 -0.3016637250851274 0.1862604527146563 0 -0.31846244455725531 0.17073107261740031 0 -0.32184339149382868 0.14963277339879741 0 -0.30247613355515868 0.16479353289604479 0 -0.33140876683948511 0.16260067918260609 0 -0.31846244455725531 0.17073107261740031 0 -0.32184339149382868 0.14963277339879741 0 -0.32184339149382868 0.14963277339879741 0 -0.32540106173061079 0.12928329294269461 0 -0.30735137396352707 0.13221906943945599 0 -0.34899953175928211 0.12694253498055411 0 -0.34564644908257869 0.15299870548450989 0 -0.32540106173061079 0.12928329294269461 0 -0.34564644908257869 0.15299870548450989 0 -0.32184339149382868 0.14963277339879741 0 -0.32540106173061079 0.12928329294269461 0 -0.34564644908257869 0.15299870548450989 0 -0.33140876683948511 0.16260067918260609 0 -0.32184339149382868 0.14963277339879741 0 -0.354800595287041 0.2409601351841657 0 -0.3399396116739396 0.22678050595944479 0 -0.33788940549799379 0.24380658160696719 0 -0.354800595287041 0.2409601351841657 0 -0.33788940549799379 0.24380658160696719 0 -0.35340254031448232 0.25560690021648391 0 -0.37762357589810641 0.24953723411872661 0 -0.354800595287041 0.2409601351841657 0 -0.37762357589810641 0.24953723411872661 0 -0.354800595287041 0.2409601351841657 0 -0.37064371362837262 0.23132679369821199 0 -0.354800595287041 0.2409601351841657 0 -0.37064371362837262 0.23132679369821199 0 -0.35724455417959922 0.22826397538780499 0 -0.37064371362837262 0.23132679369821199 0 -0.35724455417959922 0.22826397538780499 0 -0.3635942961290437 0.21398846670939739 0 -0.38010721481574627 0.2214306265789831 0 -0.37064371362837262 0.23132679369821199 0 -0.3635942961290437 0.21398846670939739 0 -0.354800595287041 0.2409601351841657 0 -0.35724455417959922 0.22826397538780499 0 -0.3399396116739396 0.22678050595944479 0 -0.35724455417959922 0.22826397538780499 0 -0.3635942961290437 0.21398846670939739 0 -0.3399396116739396 0.22678050595944479 0 -0.3635942961290437 0.21398846670939739 0 -0.3399396116739396 0.22678050595944479 0 -0.34666550792471718 0.21095103381863761 0 -0.3635942961290437 0.21398846670939739 0 -0.3399396116739396 0.22678050595944479 0 -0.34666550792471718 0.21095103381863761 0 -0.3635942961290437 0.21398846670939739 0 -0.35834930176046143 0.1940180857030426 0 -0.37511823529975852 0.20315917371936049 0 -0.3635942961290437 0.21398846670939739 0 -0.35834930176046143 0.1940180857030426 0 -0.37511823529975852 0.20315917371936049 0 -0.38010721481574627 0.2214306265789831 0 -0.3635942961290437 0.21398846670939739 0 -0.3844832627980192 0.18641265260874079 0 -0.35834930176046143 0.1940180857030426 0 -0.37511823529975852 0.20315917371936049 0 -0.3844832627980192 0.18641265260874079 0 -0.35834930176046143 0.1940180857030426 0 -0.34666550792471718 0.21095103381863761 0 -0.35834930176046143 0.1940180857030426 0 -0.3322153407229036 0.2016235187973443 0 -0.35834930176046143 0.1940180857030426 0 -0.3322153407229036 0.2016235187973443 0 -0.33968278222427728 0.1770401652297168 0 -0.35834930176046143 0.1940180857030426 0 -0.3322153407229036 0.2016235187973443 0 -0.33968278222427728 0.1770401652297168 0 -0.32160972613096589 0.1869020899259973 0 -0.3322153407229036 0.2016235187973443 0 -0.32160972613096589 0.1869020899259973 0 -0.3322153407229036 0.2016235187973443 0 -0.3118804771884186 0.19919437202805421 0 -0.32279744800827831 0.2162709251782258 0 -0.30578263988251009 0.21328130060021519 0 -0.3118804771884186 0.19919437202805421 0 -0.3322153407229036 0.2016235187973443 0 -0.32279744800827831 0.2162709251782258 0 -0.3118804771884186 0.19919437202805421 0 -0.34666550792471718 0.21095103381863761 0 -0.32279744800827831 0.2162709251782258 0 -0.3399396116739396 0.22678050595944479 0 -0.34666550792471718 0.21095103381863761 0 -0.3322153407229036 0.2016235187973443 0 -0.32279744800827831 0.2162709251782258 0 -0.32279744800827831 0.2162709251782258 0 -0.31628492721883539 0.23957254520949231 0 -0.30630482823392868 0.22479286098863899 0 -0.32279744800827831 0.2162709251782258 0 -0.3399396116739396 0.22678050595944479 0 -0.31628492721883539 0.23957254520949231 0 -0.3399396116739396 0.22678050595944479 0 -0.31628492721883539 0.23957254520949231 0 -0.31628492721883539 0.23957254520949231 0 -0.33788940549799379 0.24380658160696719 0 -0.31675628104696218 0.25816396337405889 0 -0.3399396116739396 0.22678050595944479 0 -0.31628492721883539 0.23957254520949231 0 -0.33788940549799379 0.24380658160696719 0 -0.28953809350711668 0.23582384755491001 0 -0.29263024276373129 0.25236458445954002 0 -0.28953809350711668 0.23582384755491001 0 -0.28056281431753932 0.24436326559548641 0 -0.29263024276373129 0.25236458445954002 0 -0.28953809350711668 0.23582384755491001 0 -0.27951610468914678 0.23595674179173851 0 -0.28056281431753932 0.24436326559548641 0 -0.31628492721883539 0.23957254520949231 0 -0.28953809350711668 0.23582384755491001 0 -0.29263024276373129 0.25236458445954002 0 -0.31628492721883539 0.23957254520949231 0 -0.29263024276373129 0.25236458445954002 0 -0.31628492721883539 0.23957254520949231 0 -0.28953809350711668 0.23582384755491001 0 -0.30630482823392868 0.22479286098863899 0 -0.28953809350711668 0.23582384755491001 0 -0.30630482823392868 0.22479286098863899 0 -0.2963224594072153 0.21939569551335331 0 -0.30630482823392868 0.22479286098863899 0 -0.2963224594072153 0.21939569551335331 0 -0.30578263988251009 0.21328130060021519 0 -0.28953809350711668 0.23582384755491001 0 -0.2963224594072153 0.21939569551335331 0 -0.28644594425050141 0.21928311065028 0 -0.28953809350711668 0.23582384755491001 0 -0.28644594425050141 0.21928311065028 0 -0.28953809350711668 0.23582384755491001 0 -0.28392592649920873 0.23054426920506241 0 -0.28644594425050141 0.21928311065028 0 -0.28953809350711668 0.23582384755491001 0 -0.28392592649920873 0.23054426920506241 0 -0.27951610468914678 0.23595674179173851 0 -0.28392592649920873 0.23054426920506241 0 -0.28364703771469152 0.2228441012119147 0 -0.27737966712738499 0.2284136078854235 0 -0.28392592649920873 0.23054426920506241 0 -0.28644594425050141 0.21928311065028 0 -0.28364703771469152 0.2228441012119147 0 -0.28644594425050141 0.21928311065028 0 -0.29059038014931837 0.21135197160129721 0 -0.26930028311021809 0.22350957117454021 0 -0.28264033799195282 0.20376448852662951 0 -0.29059038014931837 0.21135197160129721 0 -0.2792070856005755 0.21242422506037401 0 -0.28264033799195282 0.20376448852662951 0 -0.29059038014931837 0.21135197160129721 0 -0.29452911505391127 0.19839102252728141 0 -0.2963224594072153 0.21939569551335331 0 -0.28644594425050141 0.21928311065028 0 -0.29059038014931837 0.21135197160129721 0 -0.29059038014931837 0.21135197160129721 0 -0.30578263988251009 0.21328130060021519 0 -0.3118804771884186 0.19919437202805421 0 -0.29059038014931837 0.21135197160129721 0 -0.3118804771884186 0.19919437202805421 0 -0.32279744800827831 0.2162709251782258 0 -0.30630482823392868 0.22479286098863899 0 -0.30578263988251009 0.21328130060021519 0 -0.2963224594072153 0.21939569551335331 0 -0.29059038014931837 0.21135197160129721 0 -0.30578263988251009 0.21328130060021519 0 -0.29059038014931837 0.21135197160129721 0 -0.3118804771884186 0.19919437202805421 0 -0.29452911505391127 0.19839102252728141 0 -0.32160972613096589 0.1869020899259973 0 -0.3118804771884186 0.19919437202805421 0 -0.3016637250851274 0.1862604527146563 0 -0.3118804771884186 0.19919437202805421 0 -0.29452911505391127 0.19839102252728141 0 -0.3016637250851274 0.1862604527146563 0 -0.29452911505391127 0.19839102252728141 0 -0.28587065485473928 0.1913838277657699 0 -0.3016637250851274 0.1862604527146563 0 -0.28264033799195282 0.20376448852662951 0 -0.28587065485473928 0.1913838277657699 0 -0.27612779653814512 0.1950273158445901 0 -0.28264033799195282 0.20376448852662951 0 -0.29452911505391127 0.19839102252728141 0 -0.28587065485473928 0.1913838277657699 0 -0.28587065485473928 0.1913838277657699 0 -0.27612779653814512 0.1950273158445901 0 -0.27375998203997298 0.18440088484611569 0 -0.28264033799195282 0.20376448852662951 0 -0.27612779653814512 0.1950273158445901 0 -0.27070696005872991 0.20089434960754221 0 -0.27612779653814512 0.1950273158445901 0 -0.27070696005872991 0.20089434960754221 0 -0.26370506754215789 0.1929982117449037 0 -0.27612779653814512 0.1950273158445901 0 -0.26370506754215789 0.1929982117449037 0 -0.27375998203997298 0.18440088484611569 0 -0.26370506754215789 0.1929982117449037 0 -0.25346129445857718 0.19861817783096619 0 -0.24878729217559289 0.18841596133959801 0 -0.27070696005872991 0.20089434960754221 0 -0.26370506754215789 0.1929982117449037 0 -0.26102220092174261 0.20404015118323821 0 -0.26370506754215789 0.1929982117449037 0 -0.25346129445857718 0.19861817783096619 0 -0.26102220092174261 0.20404015118323821 0 -0.26102220092174261 0.20404015118323821 0 -0.26200442130901008 0.21179952794854459 0 -0.26743222623665258 0.2083937308163793 0 -0.26102220092174261 0.20404015118323821 0 -0.26200442130901008 0.21179952794854459 0 -0.24882323592532751 0.21153690915109311 0 -0.25346129445857718 0.19861817783096619 0 -0.26102220092174261 0.20404015118323821 0 -0.24882323592532751 0.21153690915109311 0 -0.2554876032892458 0.21554233830853251 0 -0.26200442130901008 0.21179952794854459 0 -0.24882323592532751 0.21153690915109311 0 -0.2554876032892458 0.21554233830853251 0 -0.25513340228505632 0.22342102262153321 0 -0.24882323592532751 0.21153690915109311 0 -0.2554876032892458 0.21554233830853251 0 -0.26200442130901008 0.21179952794854459 0 -0.26215907758600338 0.21804332980454821 0 -0.26200442130901008 0.21179952794854459 0 -0.26215907758600338 0.21804332980454821 0 -0.26733068654657288 0.2146420051879723 0 -0.26200442130901008 0.21179952794854459 0 -0.26733068654657288 0.2146420051879723 0 -0.26743222623665258 0.2083937308163793 0 -0.29059038014931837 0.21135197160129721 0 -0.2792070856005755 0.21242422506037401 0 -0.26930028311021809 0.22350957117454021 0 -0.29059038014931837 0.21135197160129721 0 -0.26930028311021809 0.22350957117454021 0 -0.26733068654657288 0.2146420051879723 0 -0.27429734115081261 0.21107086893902929 0 -0.26930028311021809 0.22350957117454021 0 -0.26215907758600338 0.21804332980454821 0 -0.26733068654657288 0.2146420051879723 0 -0.26930028311021809 0.22350957117454021 0 -0.26733068654657288 0.2146420051879723 0 -0.26743222623665258 0.2083937308163793 0 -0.27429734115081261 0.21107086893902929 0 -0.27070696005872991 0.20089434960754221 0 -0.26743222623665258 0.2083937308163793 0 -0.27429734115081261 0.21107086893902929 0 -0.27070696005872991 0.20089434960754221 0 -0.26102220092174261 0.20404015118323821 0 -0.26743222623665258 0.2083937308163793 0 -0.28264033799195282 0.20376448852662951 0 -0.2792070856005755 0.21242422506037401 0 -0.27429734115081261 0.21107086893902929 0 -0.28264033799195282 0.20376448852662951 0 -0.27070696005872991 0.20089434960754221 0 -0.27429734115081261 0.21107086893902929 0 -0.2792070856005755 0.21242422506037401 0 -0.27429734115081261 0.21107086893902929 0 -0.26930028311021809 0.22350957117454021 0 -0.28364703771469152 0.2228441012119147 0 -0.26582861189290469 0.2292556359798488 0 -0.26930028311021809 0.22350957117454021 0 -0.28644594425050141 0.21928311065028 0 -0.28364703771469152 0.2228441012119147 0 -0.26930028311021809 0.22350957117454021 0 -0.28364703771469152 0.2228441012119147 0 -0.26582861189290469 0.2292556359798488 0 -0.28364703771469152 0.2228441012119147 0 -0.27737966712738499 0.2284136078854235 0 -0.26582861189290469 0.2292556359798488 0 -0.28392592649920873 0.23054426920506241 0 -0.27737966712738499 0.2284136078854235 0 -0.27611709240273541 0.23101042514486789 0 -0.27611709240273541 0.23101042514486789 0 -0.27078496666887542 0.23517667169234549 0 -0.27951610468914678 0.23595674179173851 0 -0.28392592649920873 0.23054426920506241 0 -0.27611709240273541 0.23101042514486789 0 -0.27951610468914678 0.23595674179173851 0 -0.27737966712738499 0.2284136078854235 0 -0.27611709240273541 0.23101042514486789 0 -0.26582861189290469 0.2292556359798488 0 -0.26582861189290469 0.2292556359798488 0 -0.2623339504186305 0.23499167537175319 0 -0.27078496666887542 0.23517667169234549 0 -0.27611709240273541 0.23101042514486789 0 -0.26582861189290469 0.2292556359798488 0 -0.27078496666887542 0.23517667169234549 0 -0.26582861189290469 0.2292556359798488 0 -0.24801018607111791 0.23566717074778309 0 -0.26582861189290469 0.2292556359798488 0 -0.26930028311021809 0.22350957117454021 0 -0.24801018607111791 0.23566717074778309 0 -0.26930028311021809 0.22350957117454021 0 -0.25513340228505632 0.22342102262153321 0 -0.24801018607111791 0.23566717074778309 0 -0.26582861189290469 0.2292556359798488 0 -0.2623339504186305 0.23499167537175319 0 -0.24801018607111791 0.23566717074778309 0 -0.26215907758600338 0.21804332980454821 0 -0.26930028311021809 0.22350957117454021 0 -0.25513340228505632 0.22342102262153321 0 -0.26930028311021809 0.22350957117454021 0 -0.24801018607111791 0.23566717074778309 0 -0.25513340228505632 0.22342102262153321 0 -0.2467254125811553 0.2261864474181082 0 -0.24882323592532751 0.21153690915109311 0 -0.2554876032892458 0.21554233830853251 0 -0.26215907758600338 0.21804332980454821 0 -0.25513340228505632 0.22342102262153321 0 -0.2623339504186305 0.23499167537175319 0 -0.2654835780625579 0.2406753709197223 0 -0.25783309145261651 0.23839940173774191 0 -0.2654835780625579 0.2406753709197223 0 -0.25783309145261651 0.23839940173774191 0 -0.25763099413906082 0.24544012909566779 0 -0.2623339504186305 0.23499167537175319 0 -0.25783309145261651 0.23839940173774191 0 -0.24801018607111791 0.23566717074778309 0 -0.25783309145261651 0.23839940173774191 0 -0.2524210670499249 0.24119702039500171 0 -0.24801018607111791 0.23566717074778309 0 -0.25783309145261651 0.23839940173774191 0 -0.2524210670499249 0.24119702039500171 0 -0.25763099413906082 0.24544012909566779 0 -0.2524210670499249 0.24119702039500171 0 -0.25763099413906082 0.24544012909566779 0 -0.249435427503925 0.25000056447435692 0 -0.25763099413906082 0.24544012909566779 0 -0.25704079557700088 0.2542377393705969 0 -0.249435427503925 0.25000056447435692 0 -0.25763099413906082 0.24544012909566779 0 -0.26357200518833979 0.2481306776765875 0 -0.25704079557700088 0.2542377393705969 0 -0.2654835780625579 0.2406753709197223 0 -0.25763099413906082 0.24544012909566779 0 -0.26357200518833979 0.2481306776765875 0 -0.2654835780625579 0.2406753709197223 0 -0.27127102212297499 0.24781219944000599 0 -0.27433540924344818 0.24030615961227519 0 -0.2654835780625579 0.2406753709197223 0 -0.26357200518833979 0.2481306776765875 0 -0.27127102212297499 0.24781219944000599 0 -0.2623339504186305 0.23499167537175319 0 -0.2654835780625579 0.2406753709197223 0 -0.27078496666887542 0.23517667169234549 0 -0.2654835780625579 0.2406753709197223 0 -0.27078496666887542 0.23517667169234549 0 -0.27433540924344818 0.24030615961227519 0 -0.27078496666887542 0.23517667169234549 0 -0.27433540924344818 0.24030615961227519 0 -0.27951610468914678 0.23595674179173851 0 -0.27433540924344818 0.24030615961227519 0 -0.27951610468914678 0.23595674179173851 0 -0.28056281431753932 0.24436326559548641 0 -0.27127102212297499 0.24781219944000599 0 -0.28056281431753932 0.24436326559548641 0 -0.27576790151354769 0.25417373225169149 0 -0.27127102212297499 0.24781219944000599 0 -0.27433540924344818 0.24030615961227519 0 -0.28056281431753932 0.24436326559548641 0 -0.28604175881966731 0.13901345902447379 0 -0.30060888382580458 0.14783300940381519 0 -0.28532823134413671 0.1581088227101547 0 -0.28604175881966731 0.13901345902447379 0 -0.30735137396352707 0.13221906943945599 0 -0.28654838410871292 0.1196809548513967 0 -0.28604175881966731 0.13901345902447379 0 -0.30735137396352707 0.13221906943945599 0 -0.30060888382580458 0.14783300940381519 0 -0.32184339149382868 0.14963277339879741 0 -0.30060888382580458 0.14783300940381519 0 -0.30247613355515868 0.16479353289604479 0 -0.32184339149382868 0.14963277339879741 0 -0.30735137396352707 0.13221906943945599 0 -0.30060888382580458 0.14783300940381519 0 -0.30247613355515868 0.16479353289604479 0 -0.3016637250851274 0.1862604527146563 0 -0.28695012502479972 0.17619506653144501 0 -0.31846244455725531 0.17073107261740031 0 -0.30247613355515868 0.16479353289604479 0 -0.3016637250851274 0.1862604527146563 0 -0.28587065485473928 0.1913838277657699 0 -0.3016637250851274 0.1862604527146563 0 -0.28695012502479972 0.17619506653144501 0 -0.28587065485473928 0.1913838277657699 0 -0.28695012502479972 0.17619506653144501 0 -0.27375998203997298 0.18440088484611569 0 -0.30247613355515868 0.16479353289604479 0 -0.28695012502479972 0.17619506653144501 0 -0.28532823134413671 0.1581088227101547 0 -0.30060888382580458 0.14783300940381519 0 -0.30247613355515868 0.16479353289604479 0 -0.28532823134413671 0.1581088227101547 0 -0.28695012502479972 0.17619506653144501 0 -0.28532823134413671 0.1581088227101547 0 -0.27041054030413869 0.16811620387453691 0 -0.28532823134413671 0.1581088227101547 0 -0.27041054030413869 0.16811620387453691 0 -0.26815510970455281 0.15028743953375409 0 -0.28695012502479972 0.17619506653144501 0 -0.27041054030413869 0.16811620387453691 0 -0.27375998203997298 0.18440088484611569 0 -0.27041054030413869 0.16811620387453691 0 -0.27375998203997298 0.18440088484611569 0 -0.25838158176301529 0.17966884935518021 0 -0.26370506754215789 0.1929982117449037 0 -0.27375998203997298 0.18440088484611569 0 -0.25838158176301529 0.17966884935518021 0 -0.26370506754215789 0.1929982117449037 0 -0.25838158176301529 0.17966884935518021 0 -0.24878729217559289 0.18841596133959801 0 -0.25838158176301529 0.17966884935518021 0 -0.24284285117188789 0.17505671916914031 0 -0.24878729217559289 0.18841596133959801 0 -0.27041054030413869 0.16811620387453691 0 -0.25838158176301529 0.17966884935518021 0 -0.24798754635115419 0.15984541518354681 0 -0.27041054030413869 0.16811620387453691 0 -0.26815510970455281 0.15028743953375409 0 -0.24798754635115419 0.15984541518354681 0 -0.26815510970455281 0.15028743953375409 0 -0.24702679948613401 0.13593904432249651 0 -0.24798754635115419 0.15984541518354681 0 -0.28604175881966731 0.13901345902447379 0 -0.28532823134413671 0.1581088227101547 0 -0.26815510970455281 0.15028743953375409 0 -0.28604175881966731 0.13901345902447379 0 -0.26741751376760492 0.12627490468562241 0 -0.28654838410871292 0.1196809548513967 0 -0.28604175881966731 0.13901345902447379 0 -0.26815510970455281 0.15028743953375409 0 -0.26741751376760492 0.12627490468562241 0 -0.26815510970455281 0.15028743953375409 0 -0.26741751376760492 0.12627490468562241 0 -0.24702679948613401 0.13593904432249651 0 -0.26741751376760492 0.12627490468562241 0 -0.25234779532188129 0.1106429620443504 0 -0.27069244091099248 0.104274504506114 0 -0.26741751376760492 0.12627490468562241 0 -0.25234779532188129 0.1106429620443504 0 -0.24702679948613401 0.13593904432249651 0 -0.25234779532188129 0.1106429620443504 0 -0.27069244091099248 0.104274504506114 0 -0.25766879115762881 0.085346879766204309 0 -0.25234779532188129 0.1106429620443504 0 -0.25766879115762881 0.085346879766204309 0 -0.27069244091099248 0.104274504506114 0 -0.28956548761989631 0.1033638595259942 0 -0.28037778912858607 0.089545874510506357 0 -0.26741751376760492 0.12627490468562241 0 -0.27069244091099248 0.104274504506114 0 -0.28654838410871292 0.1196809548513967 0 -0.28654838410871292 0.1196809548513967 0 -0.28956548761989631 0.1033638595259942 0 -0.30932509195253499 0.1133855600758945 0 -0.28956548761989631 0.1033638595259942 0 -0.30308678709954351 0.093744869254807961 0 -0.28037778912858607 0.089545874510506357 0 -0.27069244091099248 0.104274504506114 0 -0.28654838410871292 0.1196809548513967 0 -0.28956548761989631 0.1033638595259942 0 -0.28956548761989631 0.1033638595259942 0 -0.30932509195253499 0.1133855600758945 0 -0.30308678709954351 0.093744869254807961 0 -0.30735137396352707 0.13221906943945599 0 -0.28654838410871292 0.1196809548513967 0 -0.30932509195253499 0.1133855600758945 0 -0.30537586548509588 0.07636921710924334 0 -0.29169612894446728 0.077877822485183823 0 -0.29669797670027198 0.069083302476939917 0 -0.29669797670027198 0.069083302476939917 0 -0.29699334683450412 0.059560980331707772 0 -0.3075099059644259 0.062341610942359148 0 -0.30537586548509588 0.07636921710924334 0 -0.29669797670027198 0.069083302476939917 0 -0.3075099059644259 0.062341610942359148 0 -0.30537586548509588 0.07636921710924334 0 -0.3075099059644259 0.062341610942359148 0 -0.31673402484082391 0.071322899472689744 0 -0.30537586548509588 0.07636921710924334 0 -0.30308678709954351 0.093744869254807961 0 -0.29169612894446728 0.077877822485183823 0 -0.30537586548509588 0.07636921710924334 0 -0.30308678709954351 0.093744869254807961 0 -0.31565760967855899 0.083683454060182016 0 -0.30308678709954351 0.093744869254807961 0 -0.29169612894446728 0.077877822485183823 0 -0.28037778912858607 0.089545874510506357 0 -0.30308678709954351 0.093744869254807961 0 -0.28037778912858607 0.089545874510506357 0 -0.29169612894446728 0.077877822485183823 0 -0.28062568226775342 0.075270909233353556 0 -0.28037778912858607 0.089545874510506357 0 -0.29169612894446728 0.077877822485183823 0 -0.28630815935504711 0.065170353189075492 0 -0.28062568226775342 0.075270909233353556 0 -0.29169612894446728 0.077877822485183823 0 -0.29669797670027198 0.069083302476939917 0 -0.28630815935504711 0.065170353189075492 0 -0.29669797670027198 0.069083302476939917 0 -0.28630815935504711 0.065170353189075492 0 -0.29699334683450412 0.059560980331707772 0 -0.28630815935504711 0.065170353189075492 0 -0.28062568226775342 0.075270909233353556 0 -0.27299329597064348 0.065002333592560996 0 -0.28062568226775342 0.075270909233353556 0 -0.27299329597064348 0.065002333592560996 0 -0.27175303794002309 0.078758162389441194 0 -0.27299329597064348 0.065002333592560996 0 -0.27175303794002309 0.078758162389441194 0 -0.25947939416256299 0.071044862163915756 0 -0.27069244091099248 0.104274504506114 0 -0.28037778912858607 0.089545874510506357 0 -0.25766879115762881 0.085346879766204309 0 -0.28037778912858607 0.089545874510506357 0 -0.25766879115762881 0.085346879766204309 0 -0.28037778912858607 0.089545874510506357 0 -0.27175303794002309 0.078758162389441194 0 -0.25766879115762881 0.085346879766204309 0 -0.28062568226775342 0.075270909233353556 0 -0.28037778912858607 0.089545874510506357 0 -0.27175303794002309 0.078758162389441194 0 -0.25766879115762881 0.085346879766204309 0 -0.25947939416256299 0.071044862163915756 0 -0.24347293784451701 0.082722003339298661 0 -0.27175303794002309 0.078758162389441194 0 -0.25766879115762881 0.085346879766204309 0 -0.25947939416256299 0.071044862163915756 0 -0.25766879115762881 0.085346879766204309 0 -0.25947939416256299 0.071044862163915756 0 -0.25766879115762881 0.085346879766204309 0 -0.24347293784451701 0.082722003339298661 0 -0.25947939416256299 0.071044862163915756 0 -0.25190428147771932 0.073234116385534689 0 -0.24347293784451701 0.082722003339298661 0 -0.25947939416256299 0.071044862163915756 0 -0.25708756303328739 0.064145941896188927 0 -0.26399871830067201 0.055254325145251422 0 -0.25947939416256299 0.071044862163915756 0 -0.24347293784451701 0.082722003339298661 0 -0.25947939416256299 0.071044862163915756 0 -0.26399871830067201 0.055254325145251422 0 -0.27299329597064348 0.065002333592560996 0 -0.25947939416256299 0.071044862163915756 0 -0.26399871830067201 0.055254325145251422 0 -0.25947939416256299 0.071044862163915756 0 -0.25727969600917788 0.06890848268601836 0 -0.25708756303328739 0.064145941896188927 0 -0.25947939416256299 0.071044862163915756 0 -0.25584273887132147 0.070509885400536751 0 -0.25190428147771932 0.073234116385534689 0 -0.25190428147771932 0.073234116385534689 0 -0.25272998449871309 0.067992264760302415 0 -0.24799635201148201 0.073901566263619864 0 -0.25584273887132147 0.070509885400536751 0 -0.25190428147771932 0.073234116385534689 0 -0.25272998449871309 0.067992264760302415 0 -0.25272998449871309 0.067992264760302415 0 -0.25116776642898098 0.057890226552889897 0 -0.24630962701273121 0.067782376752368534 0 -0.25272998449871309 0.067992264760302415 0 -0.25708756303328739 0.064145941896188927 0 -0.25116776642898098 0.057890226552889897 0 -0.25584273887132147 0.070509885400536751 0 -0.25272998449871309 0.067992264760302415 0 -0.25727969600917788 0.06890848268601836 0 -0.25272998449871309 0.067992264760302415 0 -0.25727969600917788 0.06890848268601836 0 -0.25708756303328739 0.064145941896188927 0 -0.25947939416256299 0.071044862163915756 0 -0.25584273887132147 0.070509885400536751 0 -0.25727969600917788 0.06890848268601836 0 -0.25708756303328739 0.064145941896188927 0 -0.25116776642898098 0.057890226552889897 0 -0.26399871830067201 0.055254325145251422 0 -0.26399871830067201 0.055254325145251422 0 -0.25276717720812231 0.044552257542074973 0 -0.26793627276672682 0.041794969657219377 0 -0.25116776642898098 0.057890226552889897 0 -0.26399871830067201 0.055254325145251422 0 -0.25276717720812231 0.044552257542074973 0 -0.25276717720812231 0.044552257542074973 0 -0.26793627276672682 0.041794969657219377 0 -0.2482379394587918 0.029714206062630741 0 -0.26793627276672682 0.041794969657219377 0 -0.26999567457334939 0.027923507963322231 0 -0.2482379394587918 0.029714206062630741 0 -0.26793627276672682 0.041794969657219377 0 -0.27926771681344409 0.051000386147283097 0 -0.28817958803376248 0.037002692062485222 0 -0.26999567457334939 0.027923507963322231 0 -0.28817958803376248 0.037002692062485222 0 -0.26793627276672682 0.041794969657219377 0 -0.26999567457334939 0.027923507963322231 0 -0.28817958803376248 0.037002692062485222 0 -0.28630815935504711 0.065170353189075492 0 -0.27299329597064348 0.065002333592560996 0 -0.27926771681344409 0.051000386147283097 0 -0.27299329597064348 0.065002333592560996 0 -0.26399871830067201 0.055254325145251422 0 -0.27926771681344409 0.051000386147283097 0 -0.26399871830067201 0.055254325145251422 0 -0.26793627276672682 0.041794969657219377 0 -0.27926771681344409 0.051000386147283097 0 -0.27008529692414812 -0.0016724996365426871 0 -0.25413409513496882 0.01424863755994726 0 -0.24156246817162111 3.8901865961206428e-05 0 -0.27008529692414812 -0.0016724996365426871 0 -0.25413409513496882 0.01424863755994726 0 -0.26999567457334939 0.027923507963322231 0 -0.25413409513496882 0.01424863755994726 0 -0.26999567457334939 0.027923507963322231 0 -0.2482379394587918 0.029714206062630741 0 -0.27008529692414812 -0.0016724996365426871 0 -0.26999567457334939 0.027923507963322231 0 -0.29010177380800739 0.01324963621358983 0 -0.27008529692414812 -0.0016724996365426871 0 -0.29313710650179581 -0.003376988243723194 0 -0.29010177380800739 0.01324963621358983 0 -0.29010177380800739 0.01324963621358983 0 -0.3085254927697213 0.021900993765881852 0 -0.28817958803376248 0.037002692062485222 0 -0.26999567457334939 0.027923507963322231 0 -0.29010177380800739 0.01324963621358983 0 -0.28817958803376248 0.037002692062485222 0 -0.31068748404526708 -0.0022798886298844401 0 -0.3085254927697213 0.021900993765881852 0 -0.29313710650179581 -0.003376988243723194 0 -0.31068748404526708 -0.0022798886298844401 0 -0.29010177380800739 0.01324963621358983 0 -0.31068748404526708 -0.0022798886298844401 0 -0.29010177380800739 0.01324963621358983 0 -0.3085254927697213 0.021900993765881852 0 -0.29430763316198921 0.047478446600465747 0 -0.28909292297441508 0.055141684762686008 0 -0.29938920044487499 0.05182889856576952 0 -0.28909292297441508 0.055141684762686008 0 -0.29938920044487499 0.05182889856576952 0 -0.29699334683450412 0.059560980331707772 0 -0.28630815935504711 0.065170353189075492 0 -0.28909292297441508 0.055141684762686008 0 -0.29699334683450412 0.059560980331707772 0 -0.28630815935504711 0.065170353189075492 0 -0.27926771681344409 0.051000386147283097 0 -0.28909292297441508 0.055141684762686008 0 -0.27926771681344409 0.051000386147283097 0 -0.29430763316198921 0.047478446600465747 0 -0.28909292297441508 0.055141684762686008 0 -0.27926771681344409 0.051000386147283097 0 -0.29430763316198921 0.047478446600465747 0 -0.28817958803376248 0.037002692062485222 0 -0.29430763316198921 0.047478446600465747 0 -0.28817958803376248 0.037002692062485222 0 -0.30636350149417563 0.046081876161648203 0 -0.28817958803376248 0.037002692062485222 0 -0.30636350149417563 0.046081876161648203 0 -0.3085254927697213 0.021900993765881852 0 -0.30636350149417563 0.046081876161648203 0 -0.3085254927697213 0.021900993765881852 0 -0.28817958803376248 0.037002692062485222 0 -0.30636350149417563 0.046081876161648203 0 -0.3085254927697213 0.021900993765881852 0 -0.30636350149417563 0.046081876161648203 0 -0.31942896445594499 0.035062955571345693 0 -0.30636350149417563 0.046081876161648203 0 -0.30592452940623749 0.050991577950695463 0 -0.30636350149417563 0.046081876161648203 0 -0.30592452940623749 0.050991577950695463 0 -0.29938920044487499 0.05182889856576952 0 -0.29430763316198921 0.047478446600465747 0 -0.30636350149417563 0.046081876161648203 0 -0.29938920044487499 0.05182889856576952 0 -0.30592452940623749 0.050991577950695463 0 -0.29938920044487499 0.05182889856576952 0 -0.30305546314214021 0.056940205727419702 0 -0.29699334683450412 0.059560980331707772 0 -0.30305546314214021 0.056940205727419702 0 -0.3075099059644259 0.062341610942359148 0 -0.29938920044487499 0.05182889856576952 0 -0.29699334683450412 0.059560980331707772 0 -0.30305546314214021 0.056940205727419702 0 -0.30592452940623749 0.050991577950695463 0 -0.30305546314214021 0.056940205727419702 0 -0.3075099059644259 0.062341610942359148 0 -0.30636350149417563 0.046081876161648203 0 -0.3267539894745678 0.056262797592493183 0 -0.30592452940623749 0.050991577950695463 0 -0.3075099059644259 0.062341610942359148 0 -0.3267539894745678 0.056262797592493183 0 -0.30636350149417563 0.046081876161648203 0 -0.30592452940623749 0.050991577950695463 0 -0.3267539894745678 0.056262797592493183 0 -0.30636350149417563 0.046081876161648203 0 -0.3267539894745678 0.056262797592493183 0 -0.31942896445594499 0.035062955571345693 0 -0.3267539894745678 0.056262797592493183 0 -0.31942896445594499 0.035062955571345693 0 -0.33665457531158011 0.03530767912586575 0 -0.3267539894745678 0.056262797592493183 0 -0.34714447745496002 0.066443719023338205 0 -0.3267539894745678 0.056262797592493183 0 -0.34405547159010519 0.050353832715325099 0 -0.34714447745496002 0.066443719023338205 0 -0.3267539894745678 0.056262797592493183 0 -0.33665457531158011 0.03530767912586575 0 -0.34405547159010519 0.050353832715325099 0 -0.31068748404526708 -0.0022798886298844401 0 -0.3085254927697213 0.021900993765881852 0 -0.32287077353134719 0.0073081144652285199 0 -0.3085254927697213 0.021900993765881852 0 -0.32287077353134719 0.0073081144652285199 0 -0.3281311389278937 0.019570625654905131 0 -0.31942896445594499 0.035062955571345693 0 -0.33665457531158011 0.03530767912586575 0 -0.3281311389278937 0.019570625654905131 0 -0.3085254927697213 0.021900993765881852 0 -0.31942896445594499 0.035062955571345693 0 -0.3281311389278937 0.019570625654905131 0 -0.33665457531158011 0.03530767912586575 0 -0.3281311389278937 0.019570625654905131 0 -0.34486911794267522 0.01360571280719213 0 -0.32287077353134719 0.0073081144652285199 0 -0.3281311389278937 0.019570625654905131 0 -0.33824337868228571 0.0027742543799208551 0 -0.3281311389278937 0.019570625654905131 0 -0.33824337868228571 0.0027742543799208551 0 -0.34486911794267522 0.01360571280719213 0 -0.32876637323156849 -0.0054254128446808037 0 -0.32287077353134719 0.0073081144652285199 0 -0.33824337868228571 0.0027742543799208551 0 -0.33824337868228571 0.0027742543799208551 0 -0.35379291907987859 0.0036531515146394689 0 -0.34486911794267522 0.01360571280719213 0 -0.35379291907987859 0.0036531515146394689 0 -0.34486911794267522 0.01360571280719213 0 -0.35931289835773211 0.017828073835621499 0 -0.34486911794267522 0.01360571280719213 0 -0.35949737397463011 0.03832767442470033 0 -0.33665457531158011 0.03530767912586575 0 -0.34486911794267522 0.01360571280719213 0 -0.35949737397463011 0.03832767442470033 0 -0.34486911794267522 0.01360571280719213 0 -0.35931289835773211 0.017828073835621499 0 -0.35949737397463011 0.03832767442470033 0 -0.35931289835773211 0.017828073835621499 0 -0.37240583582309161 0.025400119615024142 0 -0.35949737397463011 0.03832767442470033 0 -0.38352074967304828 0.015142460093222071 0 -0.35931289835773211 0.017828073835621499 0 -0.37240583582309161 0.025400119615024142 0 -0.36933859948822412 -0.0004439302888986224 0 -0.35931289835773211 0.017828073835621499 0 -0.36933859948822412 -0.0004439302888986224 0 -0.35379291907987859 0.0036531515146394689 0 -0.35931289835773211 0.017828073835621499 0 -0.36933859948822412 -0.0004439302888986224 0 -0.38352074967304828 0.015142460093222071 0 -0.35931289835773211 0.017828073835621499 0 -0.34405547159010519 0.050353832715325099 0 -0.35745999798806488 0.056821110297827382 0 -0.34714447745496002 0.066443719023338205 0 -0.34405547159010519 0.050353832715325099 0 -0.35745999798806488 0.056821110297827382 0 -0.35949737397463011 0.03832767442470033 0 -0.33665457531158011 0.03530767912586575 0 -0.34405547159010519 0.050353832715325099 0 -0.35949737397463011 0.03832767442470033 0 -0.378823189839815 0.03909604806771539 0 -0.37240583582309161 0.025400119615024142 0 -0.35949737397463011 0.03832767442470033 0 -0.378823189839815 0.03909604806771539 0 -0.35949737397463011 0.03832767442470033 0 -0.37412563000658372 0.063049636042209145 0 -0.35745999798806488 0.056821110297827382 0 -0.35949737397463011 0.03832767442470033 0 -0.37412563000658372 0.063049636042209145 0 -0.35745999798806488 0.056821110297827382 0 -0.37412563000658372 0.063049636042209145 0 -0.36156626772124018 0.065734776454389493 0 -0.35949737397463011 0.03832767442470033 0 -0.37412563000658372 0.063049636042209145 0 -0.37412563000658372 0.063049636042209145 0 -0.3695083412505395 0.086593909313416401 0 -0.37412563000658372 0.063049636042209145 0 -0.3675349654353523 0.076624640454183254 0 -0.36156626772124018 0.065734776454389493 0 -0.37412563000658372 0.063049636042209145 0 -0.3675349654353523 0.076624640454183254 0 -0.3695083412505395 0.086593909313416401 0 -0.3675349654353523 0.076624640454183254 0 -0.36156626772124018 0.065734776454389493 0 -0.34714447745496002 0.066443719023338205 0 -0.3675349654353523 0.076624640454183254 0 -0.34714447745496002 0.066443719023338205 0 -0.35702653106516902 0.082410930972139154 0 -0.3675349654353523 0.076624640454183254 0 -0.34714447745496002 0.066443719023338205 0 -0.35745999798806488 0.056821110297827382 0 -0.36156626772124018 0.065734776454389493 0 -0.34714447745496002 0.066443719023338205 0 -0.34714447745496002 0.066443719023338205 0 -0.34407184476484548 0.087747414081418729 0 -0.35702653106516902 0.082410930972139154 0 -0.34407184476484548 0.087747414081418729 0 -0.35702653106516902 0.082410930972139154 0 -0.35687302642014779 0.094644971988339224 0 -0.35702653106516902 0.082410930972139154 0 -0.3695083412505395 0.086593909313416401 0 -0.35687302642014779 0.094644971988339224 0 -0.3675349654353523 0.076624640454183254 0 -0.35702653106516902 0.082410930972139154 0 -0.3695083412505395 0.086593909313416401 0 -0.37761936588316741 0.1004094566761367 0 -0.3695083412505395 0.086593909313416401 0 -0.36489105249449738 0.11013818258462391 0 -0.3695083412505395 0.086593909313416401 0 -0.36489105249449738 0.11013818258462391 0 -0.3695083412505395 0.086593909313416401 0 -0.36489105249449738 0.11013818258462391 0 -0.35687302642014779 0.094644971988339224 0 -0.37853037782034571 0.11479208822673689 0 -0.37761936588316741 0.1004094566761367 0 -0.36489105249449738 0.11013818258462391 0 -0.37437258627236542 0.12890371469479259 0 -0.34899953175928211 0.12694253498055411 0 -0.36489105249449738 0.11013818258462391 0 -0.37853037782034571 0.11479208822673689 0 -0.37437258627236542 0.12890371469479259 0 -0.36489105249449738 0.11013818258462391 0 -0.34899953175928211 0.12694253498055411 0 -0.36489105249449738 0.11013818258462391 0 -0.34567692745287781 0.1054922003633196 0 -0.34407184476484548 0.087747414081418729 0 -0.34567692745287781 0.1054922003633196 0 -0.35687302642014779 0.094644971988339224 0 -0.36489105249449738 0.11013818258462391 0 -0.34567692745287781 0.1054922003633196 0 -0.35687302642014779 0.094644971988339224 0 -0.34567692745287781 0.1054922003633196 0 -0.33110235222149947 0.1133837925860197 0 -0.32579578507050072 0.097943863999109565 0 -0.34407184476484548 0.087747414081418729 0 -0.34567692745287781 0.1054922003633196 0 -0.32579578507050072 0.097943863999109565 0 -0.34899953175928211 0.12694253498055411 0 -0.32540106173061079 0.12928329294269461 0 -0.33110235222149947 0.1133837925860197 0 -0.34899953175928211 0.12694253498055411 0 -0.34567692745287781 0.1054922003633196 0 -0.33110235222149947 0.1133837925860197 0 -0.32540106173061079 0.12928329294269461 0 -0.30735137396352707 0.13221906943945599 0 -0.30932509195253499 0.1133855600758945 0 -0.32540106173061079 0.12928329294269461 0 -0.30932509195253499 0.1133855600758945 0 -0.33110235222149947 0.1133837925860197 0 -0.30932509195253499 0.1133855600758945 0 -0.33110235222149947 0.1133837925860197 0 -0.32579578507050072 0.097943863999109565 0 -0.30932509195253499 0.1133855600758945 0 -0.30308678709954351 0.093744869254807961 0 -0.32579578507050072 0.097943863999109565 0 -0.30308678709954351 0.093744869254807961 0 -0.32579578507050072 0.097943863999109565 0 -0.32579578507050072 0.097943863999109565 0 -0.31565760967855899 0.083683454060182016 0 -0.32944992130611078 0.076878414853282506 0 -0.30308678709954351 0.093744869254807961 0 -0.32579578507050072 0.097943863999109565 0 -0.31565760967855899 0.083683454060182016 0 -0.30537586548509588 0.07636921710924334 0 -0.31565760967855899 0.083683454060182016 0 -0.31673402484082391 0.071322899472689744 0 -0.3075099059644259 0.062341610942359148 0 -0.3267539894745678 0.056262797592493183 0 -0.31673402484082391 0.071322899472689744 0 -0.3267539894745678 0.056262797592493183 0 -0.31673402484082391 0.071322899472689744 0 -0.32944992130611078 0.076878414853282506 0 -0.31565760967855899 0.083683454060182016 0 -0.31673402484082391 0.071322899472689744 0 -0.32944992130611078 0.076878414853282506 0 -0.34714447745496002 0.066443719023338205 0 -0.34407184476484548 0.087747414081418729 0 -0.32944992130611078 0.076878414853282506 0 -0.3267539894745678 0.056262797592493183 0 -0.34714447745496002 0.066443719023338205 0 -0.32944992130611078 0.076878414853282506 0 -0.34407184476484548 0.087747414081418729 0 -0.32579578507050072 0.097943863999109565 0 -0.32944992130611078 0.076878414853282506 0 -0.38004119447167473 0.5 0 -0.40144598658735797 0.45639365525664533 0 -0.37105357443984133 0.46430303421273489 0 -0.37935242010599618 0.44071850896710518 0 -0.40144598658735797 0.45639365525664533 0 -0.40815779377537781 0.42331444172143279 0 -0.37935242010599618 0.44071850896710518 0 -0.40144598658735797 0.45639365525664533 0 -0.37105357443984133 0.46430303421273489 0 -0.40144598658735797 0.45639365525664533 0 -0.43868982565468229 0.46919677018466283 0 -0.44151031805047608 0.43389604525709558 0 -0.40144598658735797 0.45639365525664533 0 -0.44151031805047608 0.43389604525709558 0 -0.40815779377537781 0.42331444172143279 0 -0.38004119447167473 0.5 0 -0.40144598658735797 0.45639365525664533 0 -0.43868982565468229 0.46919677018466283 0 -0.38004119447167473 0.5 0 -0.43868982565468229 0.46919677018466283 0 -0.5 0.5 0 -0.43868982565468229 0.46919677018466283 0 -0.5 0.5 0 -0.47045162916390282 0.45569415040957312 0 -0.5 0.5 0 -0.47045162916390282 0.45569415040957312 0 -0.5 0.46098350244823749 0 -0.47045162916390282 0.45569415040957312 0 -0.5 0.46098350244823749 0 -0.47333664445486912 0.42717377998972711 0 -0.47045162916390282 0.45569415040957312 0 -0.44151031805047608 0.43389604525709558 0 -0.47333664445486912 0.42717377998972711 0 -0.43868982565468229 0.46919677018466283 0 -0.47045162916390282 0.45569415040957312 0 -0.44151031805047608 0.43389604525709558 0 -0.44151031805047608 0.43389604525709558 0 -0.47333664445486912 0.42717377998972711 0 -0.45305641546656872 0.4028152879681669 0 -0.44151031805047608 0.43389604525709558 0 -0.45305641546656872 0.4028152879681669 0 -0.42862352686567828 0.39764169790538312 0 -0.47333664445486912 0.42717377998972711 0 -0.47494289786125032 0.40449320305179431 0 -0.45305641546656872 0.4028152879681669 0 -0.5 0.46098350244823749 0 -0.47333664445486912 0.42717377998972711 0 -0.50000000000000022 0.40630833158888569 0 -0.47333664445486912 0.42717377998972711 0 -0.50000000000000022 0.40630833158888569 0 -0.47494289786125032 0.40449320305179431 0 -0.50000000000000022 0.37801765443503049 0 -0.48327612692995559 0.38905392358275981 0 -0.48273601746649741 0.3698857754784371 0 -0.50000000000000022 0.40630833158888569 0 -0.48327612692995559 0.38905392358275981 0 -0.50000000000000022 0.40630833158888569 0 -0.50000000000000022 0.37801765443503049 0 -0.48327612692995559 0.38905392358275981 0 -0.50000000000000022 0.40630833158888569 0 -0.47494289786125032 0.40449320305179431 0 -0.48327612692995559 0.38905392358275981 0 -0.47494289786125032 0.40449320305179431 0 -0.48327612692995559 0.38905392358275981 0 -0.46523084502349721 0.38981232346873329 0 -0.48327612692995559 0.38905392358275981 0 -0.46655225385991111 0.37179951557663399 0 -0.48327612692995559 0.38905392358275981 0 -0.46655225385991111 0.37179951557663399 0 -0.48273601746649741 0.3698857754784371 0 -0.48327612692995559 0.38905392358275981 0 -0.46523084502349721 0.38981232346873329 0 -0.46655225385991111 0.37179951557663399 0 -0.46523084502349721 0.38981232346873329 0 -0.44845528579802219 0.38169594497092257 0 -0.46655225385991111 0.37179951557663399 0 -0.47494289786125032 0.40449320305179431 0 -0.46523084502349721 0.38981232346873329 0 -0.45305641546656872 0.4028152879681669 0 -0.46523084502349721 0.38981232346873329 0 -0.45305641546656872 0.4028152879681669 0 -0.44845528579802219 0.38169594497092257 0 -0.45305641546656872 0.4028152879681669 0 -0.44845528579802219 0.38169594497092257 0 -0.42862352686567828 0.39764169790538312 0 -0.44845528579802219 0.38169594497092257 0 -0.42862352686567828 0.39764169790538312 0 -0.42744029278261242 0.37356173733610981 0 -0.40505220477535708 0.39257836710170962 0 -0.40688636955313201 0.37131471231572333 0 -0.42744029278261242 0.37356173733610981 0 -0.42862352686567828 0.39764169790538312 0 -0.40505220477535708 0.39257836710170962 0 -0.42744029278261242 0.37356173733610981 0 -0.40505220477535708 0.39257836710170962 0 -0.42744029278261242 0.37356173733610981 0 -0.42862352686567828 0.39764169790538312 0 -0.40815779377537781 0.42331444172143279 0 -0.40505220477535708 0.39257836710170962 0 -0.44151031805047608 0.43389604525709558 0 -0.42862352686567828 0.39764169790538312 0 -0.40815779377537781 0.42331444172143279 0 -0.40815779377537781 0.42331444172143279 0 -0.38266411676810169 0.41159499686730933 0 -0.40505220477535708 0.39257836710170962 0 -0.37935242010599618 0.44071850896710518 0 -0.40815779377537781 0.42331444172143279 0 -0.38266411676810169 0.41159499686730933 0 -0.38266411676810169 0.41159499686730933 0 -0.38212343750332289 0.38854718054588178 0 -0.36856188385864808 0.39801797795947791 0 -0.38266411676810169 0.41159499686730933 0 -0.38212343750332289 0.38854718054588178 0 -0.40505220477535708 0.39257836710170962 0 -0.38212343750332289 0.38854718054588178 0 -0.38752378813381583 0.37201545498575489 0 -0.3700817685325466 0.37979505833716981 0 -0.38212343750332289 0.38854718054588178 0 -0.40505220477535708 0.39257836710170962 0 -0.38752378813381583 0.37201545498575489 0 -0.40505220477535708 0.39257836710170962 0 -0.38752378813381583 0.37201545498575489 0 -0.40688636955313201 0.37131471231572333 0 -0.38266411676810169 0.41159499686730933 0 -0.40505220477535708 0.39257836710170962 0 -0.39919111385473632 0.35598313712109703 0 -0.3907308603588967 0.34451455003393228 0 -0.40728425845483163 0.34056357847230478 0 -0.39919111385473632 0.35598313712109703 0 -0.3907308603588967 0.34451455003393228 0 -0.38209297762938599 0.35465694138060438 0 -0.39919111385473632 0.35598313712109703 0 -0.38752378813381583 0.37201545498575489 0 -0.40688636955313201 0.37131471231572333 0 -0.39919111385473632 0.35598313712109703 0 -0.38752378813381583 0.37201545498575489 0 -0.38209297762938599 0.35465694138060438 0 -0.38752378813381583 0.37201545498575489 0 -0.38209297762938599 0.35465694138060438 0 -0.3717287424002621 0.36323611655130389 0 -0.38752378813381583 0.37201545498575489 0 -0.3717287424002621 0.36323611655130389 0 -0.3700817685325466 0.37979505833716981 0 -0.38209297762938599 0.35465694138060438 0 -0.37781694332799343 0.34069825694722561 0 -0.36556641770061149 0.35149413264431328 0 -0.3907308603588967 0.34451455003393228 0 -0.38209297762938599 0.35465694138060438 0 -0.37781694332799343 0.34069825694722561 0 -0.37781694332799343 0.34069825694722561 0 -0.38992013604823089 0.329463198427704 0 -0.37644965412025161 0.32667390061683688 0 -0.3907308603588967 0.34451455003393228 0 -0.37781694332799343 0.34069825694722561 0 -0.38992013604823089 0.329463198427704 0 -0.37644965412025161 0.32667390061683688 0 -0.38841603441457873 0.31545253070281309 0 -0.37414735523205589 0.31158160091767462 0 -0.38992013604823089 0.329463198427704 0 -0.37644965412025161 0.32667390061683688 0 -0.38841603441457873 0.31545253070281309 0 -0.38992013604823089 0.329463198427704 0 -0.40186638703887367 0.31843725645121918 0 -0.40755075726582007 0.32787903414615288 0 -0.38841603441457873 0.31545253070281309 0 -0.40186638703887367 0.31843725645121918 0 -0.39850319958813718 0.30488904003086947 0 -0.38992013604823089 0.329463198427704 0 -0.38841603441457873 0.31545253070281309 0 -0.40186638703887367 0.31843725645121918 0 -0.38992013604823089 0.329463198427704 0 -0.40186638703887367 0.31843725645121918 0 -0.3907308603588967 0.34451455003393228 0 -0.38992013604823089 0.329463198427704 0 -0.40728425845483163 0.34056357847230478 0 -0.38992013604823089 0.329463198427704 0 -0.40728425845483163 0.34056357847230478 0 -0.40755075726582007 0.32787903414615288 0 -0.40728425845483163 0.34056357847230478 0 -0.41903181225013503 0.33317945872286769 0 -0.42308930759585239 0.34324625311115942 0 -0.40728425845483163 0.34056357847230478 0 -0.41903181225013503 0.33317945872286769 0 -0.40755075726582007 0.32787903414615288 0 -0.41903181225013503 0.33317945872286769 0 -0.40755075726582007 0.32787903414615288 0 -0.41774318616480038 0.32430372752259101 0 -0.40186638703887367 0.31843725645121918 0 -0.4118548885168471 0.31510478003369408 0 -0.41381263802951562 0.30741131447473341 0 -0.40186638703887367 0.31843725645121918 0 -0.4118548885168471 0.31510478003369408 0 -0.41117476815539128 0.32031185398842421 0 -0.40186638703887367 0.31843725645121918 0 -0.41381263802951562 0.30741131447473341 0 -0.4118548885168471 0.31510478003369408 0 -0.41117476815539128 0.32031185398842421 0 -0.4169851572983172 0.3171043017175123 0 -0.40186638703887367 0.31843725645121918 0 -0.41117476815539128 0.32031185398842421 0 -0.40755075726582007 0.32787903414615288 0 -0.41117476815539128 0.32031185398842421 0 -0.40755075726582007 0.32787903414615288 0 -0.41774318616480038 0.32430372752259101 0 -0.41903181225013503 0.33317945872286769 0 -0.41774318616480038 0.32430372752259101 0 -0.42604410005288978 0.32629048402612498 0 -0.41774318616480038 0.32430372752259101 0 -0.4169851572983172 0.3171043017175123 0 -0.42254196977906089 0.31994429715136091 0 -0.41117476815539128 0.32031185398842421 0 -0.41774318616480038 0.32430372752259101 0 -0.4169851572983172 0.3171043017175123 0 -0.4169851572983172 0.3171043017175123 0 -0.42398131137488448 0.31280639406466842 0 -0.41558369743344298 0.31179393319581949 0 -0.4169851572983172 0.3171043017175123 0 -0.42398131137488448 0.31280639406466842 0 -0.42254196977906089 0.31994429715136091 0 -0.4118548885168471 0.31510478003369408 0 -0.4169851572983172 0.3171043017175123 0 -0.41558369743344298 0.31179393319581949 0 -0.42398131137488448 0.31280639406466842 0 -0.42254196977906089 0.31994429715136091 0 -0.42901752508540969 0.31973215906064401 0 -0.41774318616480038 0.32430372752259101 0 -0.42254196977906089 0.31994429715136091 0 -0.42604410005288978 0.32629048402612498 0 -0.42254196977906089 0.31994429715136091 0 -0.42901752508540969 0.31973215906064401 0 -0.42604410005288978 0.32629048402612498 0 -0.42901752508540969 0.31973215906064401 0 -0.42604410005288978 0.32629048402612498 0 -0.43502561634260462 0.32433295838133902 0 -0.42604410005288978 0.32629048402612498 0 -0.43502561634260462 0.32433295838133902 0 -0.43133824964419448 0.33359794736160242 0 -0.42398131137488448 0.31280639406466842 0 -0.42901752508540969 0.31973215906064401 0 -0.43742925905360402 0.31295939535957262 0 -0.42901752508540969 0.31973215906064401 0 -0.43502561634260462 0.32433295838133902 0 -0.43742925905360402 0.31295939535957262 0 -0.41903181225013503 0.33317945872286769 0 -0.42308930759585239 0.34324625311115942 0 -0.43133824964419448 0.33359794736160242 0 -0.41903181225013503 0.33317945872286769 0 -0.42604410005288978 0.32629048402612498 0 -0.43133824964419448 0.33359794736160242 0 -0.43133824964419448 0.33359794736160242 0 -0.43789400227309427 0.33025600036426739 0 -0.4408620077163749 0.33619204747053499 0 -0.43502561634260462 0.32433295838133902 0 -0.43133824964419448 0.33359794736160242 0 -0.43789400227309427 0.33025600036426739 0 -0.42308930759585239 0.34324625311115942 0 -0.43133824964419448 0.33359794736160242 0 -0.43590433707587162 0.34293966256795311 0 -0.43133824964419448 0.33359794736160242 0 -0.43590433707587162 0.34293966256795311 0 -0.4408620077163749 0.33619204747053499 0 -0.42308930759585239 0.34324625311115942 0 -0.43590433707587162 0.34293966256795311 0 -0.43268343360342998 0.35338737862817249 0 -0.42308930759585239 0.34324625311115942 0 -0.43268343360342998 0.35338737862817249 0 -0.415305155992721 0.35694963945439268 0 -0.40728425845483163 0.34056357847230478 0 -0.42308930759585239 0.34324625311115942 0 -0.415305155992721 0.35694963945439268 0 -0.39919111385473632 0.35598313712109703 0 -0.40728425845483163 0.34056357847230478 0 -0.415305155992721 0.35694963945439268 0 -0.39919111385473632 0.35598313712109703 0 -0.415305155992721 0.35694963945439268 0 -0.40688636955313201 0.37131471231572333 0 -0.415305155992721 0.35694963945439268 0 -0.40688636955313201 0.37131471231572333 0 -0.42744029278261242 0.37356173733610981 0 -0.43268343360342998 0.35338737862817249 0 -0.415305155992721 0.35694963945439268 0 -0.42744029278261242 0.37356173733610981 0 -0.43268343360342998 0.35338737862817249 0 -0.42744029278261242 0.37356173733610981 0 -0.44982838078986631 0.35454510757050839 0 -0.42744029278261242 0.37356173733610981 0 -0.44982838078986631 0.35454510757050839 0 -0.44845528579802219 0.38169594497092257 0 -0.42744029278261242 0.37356173733610981 0 -0.44982838078986631 0.35454510757050839 0 -0.43268343360342998 0.35338737862817249 0 -0.4445331273836568 0.34908187172891242 0 -0.44982838078986631 0.35454510757050839 0 -0.43590433707587162 0.34293966256795311 0 -0.43268343360342998 0.35338737862817249 0 -0.4445331273836568 0.34908187172891242 0 -0.43590433707587162 0.34293966256795311 0 -0.4445331273836568 0.34908187172891242 0 -0.44762338251319839 0.34123405015532371 0 -0.4445331273836568 0.34908187172891242 0 -0.44982838078986631 0.35454510757050839 0 -0.4445331273836568 0.34908187172891242 0 -0.44948374455315082 0.34690735268250228 0 -0.44762338251319839 0.34123405015532371 0 -0.44982838078986631 0.35454510757050839 0 -0.44948374455315082 0.34690735268250228 0 -0.45595008752588179 0.34276838127526488 0 -0.4445331273836568 0.34908187172891242 0 -0.44982838078986631 0.35454510757050839 0 -0.44948374455315082 0.34690735268250228 0 -0.44982838078986631 0.35454510757050839 0 -0.47284570334623899 0.3349940007002829 0 -0.45595008752588179 0.34276838127526488 0 -0.44982838078986631 0.35454510757050839 0 -0.4714582660822193 0.35578680710739757 0 -0.47284570334623899 0.3349940007002829 0 -0.44982838078986631 0.35454510757050839 0 -0.47284570334623899 0.3349940007002829 0 -0.44982838078986631 0.35454510757050839 0 -0.46655225385991111 0.37179951557663399 0 -0.4714582660822193 0.35578680710739757 0 -0.44982838078986631 0.35454510757050839 0 -0.46655225385991111 0.37179951557663399 0 -0.44845528579802219 0.38169594497092257 0 -0.44982838078986631 0.35454510757050839 0 -0.46655225385991111 0.37179951557663399 0 -0.46655225385991111 0.37179951557663399 0 -0.48273601746649741 0.3698857754784371 0 -0.4714582660822193 0.35578680710739757 0 -0.4714582660822193 0.35578680710739757 0 -0.49014006813793382 0.35103582091908969 0 -0.47284570334623899 0.3349940007002829 0 -0.48273601746649741 0.3698857754784371 0 -0.4714582660822193 0.35578680710739757 0 -0.49014006813793382 0.35103582091908969 0 -0.50000000000000022 0.37801765443503049 0 -0.5 0.35211114232432988 0 -0.49014006813793382 0.35103582091908969 0 -0.50000000000000022 0.37801765443503049 0 -0.48273601746649741 0.3698857754784371 0 -0.49014006813793382 0.35103582091908969 0 -0.50000000000000022 0.37801765443503049 0 -0.49014006813793382 0.35103582091908969 0 -0.5 0.32620463021362939 0 -0.48028013627586708 0.32405398740314878 0 -0.48605986930371448 0.30722341074840598 0 -0.49014006813793382 0.35103582091908969 0 -0.5 0.32620463021362939 0 -0.48028013627586708 0.32405398740314878 0 -0.5 0.35211114232432988 0 -0.49014006813793382 0.35103582091908969 0 -0.5 0.32620463021362939 0 -0.49014006813793382 0.35103582091908969 0 -0.48028013627586708 0.32405398740314878 0 -0.47284570334623899 0.3349940007002829 0 -0.48028013627586708 0.32405398740314878 0 -0.46319047201090091 0.32727484287737602 0 -0.49014006813793382 0.35103582091908969 0 -0.47284570334623899 0.3349940007002829 0 -0.48028013627586708 0.32405398740314878 0 -0.48028013627586708 0.32405398740314878 0 -0.46194104994715501 0.31544240544793162 0 -0.46319047201090091 0.32727484287737602 0 -0.46319047201090091 0.32727484287737602 0 -0.45411490689083811 0.32349528238146452 0 -0.45339561971969228 0.33074843129139281 0 -0.46194104994715501 0.31544240544793162 0 -0.46319047201090091 0.32727484287737602 0 -0.45411490689083811 0.32349528238146452 0 -0.46194104994715501 0.31544240544793162 0 -0.45411490689083811 0.32349528238146452 0 -0.44769725738723848 0.31710968404702888 0 -0.47284570334623899 0.3349940007002829 0 -0.45939485827529042 0.33437514589583162 0 -0.45595008752588179 0.34276838127526488 0 -0.47284570334623899 0.3349940007002829 0 -0.46319047201090091 0.32727484287737602 0 -0.45939485827529042 0.33437514589583162 0 -0.46319047201090091 0.32727484287737602 0 -0.45339561971969228 0.33074843129139281 0 -0.45939485827529042 0.33437514589583162 0 -0.45339561971969228 0.33074843129139281 0 -0.45939485827529042 0.33437514589583162 0 -0.45279783895559628 0.33672886566760057 0 -0.45939485827529042 0.33437514589583162 0 -0.45595008752588179 0.34276838127526488 0 -0.45279783895559628 0.33672886566760057 0 -0.45595008752588179 0.34276838127526488 0 -0.44762338251319839 0.34123405015532371 0 -0.45279783895559628 0.33672886566760057 0 -0.44948374455315082 0.34690735268250228 0 -0.45595008752588179 0.34276838127526488 0 -0.44762338251319839 0.34123405015532371 0 -0.44762338251319839 0.34123405015532371 0 -0.45279783895559628 0.33672886566760057 0 -0.44762524674391813 0.33451831972019003 0 -0.44762338251319839 0.34123405015532371 0 -0.44762524674391813 0.33451831972019003 0 -0.4408620077163749 0.33619204747053499 0 -0.45339561971969228 0.33074843129139281 0 -0.44762524674391813 0.33451831972019003 0 -0.44435013538920332 0.32690104824359328 0 -0.45339561971969228 0.33074843129139281 0 -0.45279783895559628 0.33672886566760057 0 -0.44762524674391813 0.33451831972019003 0 -0.44762524674391813 0.33451831972019003 0 -0.4408620077163749 0.33619204747053499 0 -0.44435013538920332 0.32690104824359328 0 -0.43789400227309427 0.33025600036426739 0 -0.4408620077163749 0.33619204747053499 0 -0.44435013538920332 0.32690104824359328 0 -0.43590433707587162 0.34293966256795311 0 -0.44762338251319839 0.34123405015532371 0 -0.4408620077163749 0.33619204747053499 0 -0.45411490689083811 0.32349528238146452 0 -0.44769725738723848 0.31710968404702888 0 -0.44435013538920332 0.32690104824359328 0 -0.45411490689083811 0.32349528238146452 0 -0.45339561971969228 0.33074843129139281 0 -0.44435013538920332 0.32690104824359328 0 -0.43502561634260462 0.32433295838133902 0 -0.44435013538920332 0.32690104824359328 0 -0.44112556704316258 0.32032577150788338 0 -0.43502561634260462 0.32433295838133902 0 -0.43789400227309427 0.33025600036426739 0 -0.44435013538920332 0.32690104824359328 0 -0.44769725738723848 0.31710968404702888 0 -0.44435013538920332 0.32690104824359328 0 -0.44112556704316258 0.32032577150788338 0 -0.43742925905360402 0.31295939535957262 0 -0.44769725738723848 0.31710968404702888 0 -0.44112556704316258 0.32032577150788338 0 -0.43502561634260462 0.32433295838133902 0 -0.43742925905360402 0.31295939535957262 0 -0.44112556704316258 0.32032577150788338 0 -0.43742925905360402 0.31295939535957262 0 -0.44769725738723848 0.31710968404702888 0 -0.45032183790163149 0.30271628052429539 0 -0.43742925905360402 0.31295939535957262 0 -0.44086832692730898 0.29716244850888912 0 -0.45032183790163149 0.30271628052429539 0 -0.45032183790163149 0.30271628052429539 0 -0.45289133249418789 0.28694182761617909 0 -0.44002068862340882 0.28798256870971439 0 -0.45289133249418789 0.28694182761617909 0 -0.45546082708674512 0.27116737470806301 0 -0.44002068862340882 0.28798256870971439 0 -0.45588178353635289 0.26858306972062762 0 -0.43436417083140172 0.28844301987093762 0 -0.44086832692730898 0.29716244850888912 0 -0.45032183790163149 0.30271628052429539 0 -0.45289133249418789 0.28694182761617909 0 -0.44086832692730898 0.29716244850888912 0 -0.44002068862340882 0.28798256870971439 0 -0.45289133249418789 0.28694182761617909 0 -0.44086832692730898 0.29716244850888912 0 -0.44002068862340882 0.28798256870971439 0 -0.43436417083140172 0.28844301987093762 0 -0.47042020441380028 0.29707215388720792 0 -0.46056027255173182 0.27009032037126768 0 -0.45032183790163149 0.30271628052429539 0 -0.45289133249418789 0.28694182761617909 0 -0.47042020441380028 0.29707215388720792 0 -0.45289133249418789 0.28694182761617909 0 -0.47042020441380028 0.29707215388720792 0 -0.46056027255173182 0.27009032037126768 0 -0.46194104994715501 0.31544240544793162 0 -0.45032183790163149 0.30271628052429539 0 -0.47042020441380028 0.29707215388720792 0 -0.46194104994715501 0.31544240544793162 0 -0.44769725738723848 0.31710968404702888 0 -0.45032183790163149 0.30271628052429539 0 -0.47042020441380028 0.29707215388720792 0 -0.48818945506275457 0.28810402338646313 0 -0.48605986930371448 0.30722341074840598 0 -0.48028013627586708 0.32405398740314878 0 -0.47042020441380028 0.29707215388720792 0 -0.48605986930371448 0.30722341074840598 0 -0.48028013627586708 0.32405398740314878 0 -0.46194104994715501 0.31544240544793162 0 -0.47042020441380028 0.29707215388720792 0 -0.48028013627586708 0.32405398740314878 0 -0.47042020441380028 0.29707215388720792 0 -0.47042020441380028 0.29707215388720792 0 -0.48818945506275457 0.28810402338646313 0 -0.48028013627586341 0.27224096318175017 0 -0.48818945506275457 0.28810402338646313 0 -0.5 0.30029811810292878 0 -0.49999999999999561 0.27439160599222812 0 -0.5 0.32620463021362939 0 -0.5 0.30029811810292878 0 -0.48605986930371448 0.30722341074840598 0 -0.48818945506275457 0.28810402338646313 0 -0.5 0.30029811810292878 0 -0.48605986930371448 0.30722341074840598 0 -0.48470493529518099 0.2598227295886173 0 -0.5 0.25574299280684493 0 -0.49999999999999561 0.27439160599222812 0 -0.48916327443797081 0.247883965171216 0 -0.48470493529518099 0.2598227295886173 0 -0.5 0.25574299280684493 0 -0.48470493529518099 0.2598227295886173 0 -0.49999999999999561 0.27439160599222812 0 -0.48028013627586341 0.27224096318175017 0 -0.49999999999999561 0.27439160599222812 0 -0.48028013627586341 0.27224096318175017 0 -0.48818945506275457 0.28810402338646313 0 -0.49999999999999561 0.27439160599222812 0 -0.48028013627586341 0.27224096318175017 0 -0.48028013627586341 0.27224096318175017 0 -0.46056027255173182 0.27009032037126768 0 -0.47042020441380028 0.29707215388720792 0 -0.48028013627586341 0.27224096318175017 0 -0.46056027255173182 0.27009032037126768 0 -0.48028013627586341 0.27224096318175017 0 -0.46868086514029889 0.25676999704804171 0 -0.46056027255173182 0.27009032037126768 0 -0.48470493529518099 0.2598227295886173 0 -0.48028013627586341 0.27224096318175017 0 -0.46868086514029889 0.25676999704804171 0 -0.47535244210990601 0.24950426809701751 0 -0.48470493529518099 0.2598227295886173 0 -0.46868086514029889 0.25676999704804171 0 -0.47535244210990601 0.24950426809701751 0 -0.48916327443797081 0.247883965171216 0 -0.48470493529518099 0.2598227295886173 0 -0.47535244210990601 0.24950426809701751 0 -0.46868086514029889 0.25676999704804171 0 -0.45036505421977402 0.24219097101065759 0 -0.45715442374461801 0.26077017021407978 0 -0.45981304281472068 0.2444485708445272 0 -0.46868086514029889 0.25676999704804171 0 -0.45715442374461801 0.26077017021407978 0 -0.47535244210990601 0.24950426809701751 0 -0.45981304281472068 0.2444485708445272 0 -0.46868086514029889 0.25676999704804171 0 -0.45981304281472068 0.2444485708445272 0 -0.45715442374461801 0.26077017021407978 0 -0.46868086514029889 0.25676999704804171 0 -0.45896842684731071 0.2657342136171198 0 -0.46056027255173182 0.27009032037126768 0 -0.46868086514029889 0.25676999704804171 0 -0.45715442374461801 0.26077017021407978 0 -0.45896842684731071 0.2657342136171198 0 -0.46868086514029889 0.25676999704804171 0 -0.45896842684731071 0.2657342136171198 0 -0.45715442374461801 0.26077017021407978 0 -0.45896842684731071 0.2657342136171198 0 -0.45588178353635289 0.26858306972062762 0 -0.45715442374461801 0.26077017021407978 0 -0.45588178353635289 0.26858306972062762 0 -0.45715442374461801 0.26077017021407978 0 -0.45896842684731071 0.2657342136171198 0 -0.45289133249418789 0.28694182761617909 0 -0.45546082708674512 0.27116737470806301 0 -0.45289133249418789 0.28694182761617909 0 -0.45546082708674512 0.27116737470806301 0 -0.46056027255173182 0.27009032037126768 0 -0.45896842684731071 0.2657342136171198 0 -0.46056027255173182 0.27009032037126768 0 -0.45896842684731071 0.2657342136171198 0 -0.45588178353635289 0.26858306972062762 0 -0.46056027255173182 0.27009032037126768 0 -0.45588178353635289 0.26858306972062762 0 -0.46056027255173182 0.27009032037126768 0 -0.45896842684731071 0.2657342136171198 0 -0.45588178353635289 0.26858306972062762 0 -0.45588178353635289 0.26858306972062762 0 -0.45546082708674512 0.27116737470806301 0 -0.45588178353635289 0.26858306972062762 0 -0.45546082708674512 0.27116737470806301 0 -0.46056027255173182 0.27009032037126768 0 -0.45588178353635289 0.26858306972062762 0 -0.42687187803059939 0.26641627350730818 0 -0.43237001904122191 0.27011148194182422 0 -0.45588178353635289 0.26858306972062762 0 -0.43436417083140172 0.28844301987093762 0 -0.44002068862340882 0.28798256870971439 0 -0.45546082708674512 0.27116737470806301 0 -0.44002068862340882 0.28798256870971439 0 -0.45588178353635289 0.26858306972062762 0 -0.45546082708674512 0.27116737470806301 0 -0.45588178353635289 0.26858306972062762 0 -0.43237001904122191 0.27011148194182422 0 -0.43436417083140172 0.28844301987093762 0 -0.45588178353635289 0.26858306972062762 0 -0.42687187803059939 0.26641627350730818 0 -0.45036505421977402 0.24219097101065759 0 -0.45715442374461801 0.26077017021407978 0 -0.44462105563271109 0.25670510479446867 0 -0.45588178353635289 0.26858306972062762 0 -0.44462105563271109 0.25670510479446867 0 -0.42687187803059939 0.26641627350730818 0 -0.45715442374461801 0.26077017021407978 0 -0.45588178353635289 0.26858306972062762 0 -0.44462105563271109 0.25670510479446867 0 -0.41605306156336558 0.24779447805732691 0 -0.43379821853527623 0.24467338397315699 0 -0.42687187803059939 0.26641627350730818 0 -0.43379821853527623 0.24467338397315699 0 -0.44462105563271109 0.25670510479446867 0 -0.42687187803059939 0.26641627350730818 0 -0.43379821853527623 0.24467338397315699 0 -0.42687187803059939 0.26641627350730818 0 -0.41605306156336558 0.24779447805732691 0 -0.42076521223890689 0.26575028224770259 0 -0.42687187803059939 0.26641627350730818 0 -0.42076521223890689 0.26575028224770259 0 -0.40141875768492008 0.26364036333665669 0 -0.40044655650917238 0.25811433305328563 0 -0.42076521223890689 0.26575028224770259 0 -0.40044655650917238 0.25811433305328563 0 -0.41605306156336558 0.24779447805732691 0 -0.42076521223890689 0.26575028224770259 0 -0.40044655650917238 0.25811433305328563 0 -0.42076521223890689 0.26575028224770259 0 -0.40141875768492008 0.26364036333665669 0 -0.41107146591579979 0.27206649530583682 0 -0.42011054146118609 0.28764118932435467 0 -0.40414049742014763 0.27911084061590902 0 -0.41107146591579979 0.27206649530583682 0 -0.42076521223890689 0.26575028224770259 0 -0.42011054146118609 0.28764118932435467 0 -0.41107146591579979 0.27206649530583682 0 -0.42076521223890689 0.26575028224770259 0 -0.40141875768492008 0.26364036333665669 0 -0.42801080507730838 0.27919138742788241 0 -0.42640844489285812 0.26787106417397671 0 -0.42011054146118609 0.28764118932435467 0 -0.42076521223890689 0.26575028224770259 0 -0.42640844489285812 0.26787106417397671 0 -0.42011054146118609 0.28764118932435467 0 -0.42640844489285812 0.26787106417397671 0 -0.42011054146118609 0.28764118932435467 0 -0.42801080507730838 0.27919138742788241 0 -0.43237001904122191 0.27011148194182422 0 -0.43436417083140172 0.28844301987093762 0 -0.42801080507730838 0.27919138742788241 0 -0.42640844489285812 0.26787106417397671 0 -0.43237001904122191 0.27011148194182422 0 -0.42076521223890689 0.26575028224770259 0 -0.42687187803059939 0.26641627350730818 0 -0.42076521223890689 0.26575028224770259 0 -0.42640844489285812 0.26787106417397671 0 -0.42687187803059939 0.26641627350730818 0 -0.42076521223890689 0.26575028224770259 0 -0.42640844489285812 0.26787106417397671 0 -0.42640844489285812 0.26787106417397671 0 -0.42687187803059939 0.26641627350730818 0 -0.43237001904122191 0.27011148194182422 0 -0.42640844489285812 0.26787106417397671 0 -0.43237001904122191 0.27011148194182422 0 -0.42640844489285812 0.26787106417397671 0 -0.42687187803059939 0.26641627350730818 0 -0.43436417083140172 0.28844301987093762 0 -0.41381263802951562 0.30741131447473341 0 -0.42011054146118609 0.28764118932435467 0 -0.44086832692730898 0.29716244850888912 0 -0.43436417083140172 0.28844301987093762 0 -0.43018267265962018 0.30393159897263528 0 -0.42801080507730838 0.27919138742788241 0 -0.43436417083140172 0.28844301987093762 0 -0.42011054146118609 0.28764118932435467 0 -0.43742925905360402 0.31295939535957262 0 -0.44086832692730898 0.29716244850888912 0 -0.43018267265962018 0.30393159897263528 0 -0.42398131137488448 0.31280639406466842 0 -0.43018267265962018 0.30393159897263528 0 -0.41381263802951562 0.30741131447473341 0 -0.43436417083140172 0.28844301987093762 0 -0.41381263802951562 0.30741131447473341 0 -0.43436417083140172 0.28844301987093762 0 -0.43018267265962018 0.30393159897263528 0 -0.41381263802951562 0.30741131447473341 0 -0.42398131137488448 0.31280639406466842 0 -0.43742925905360402 0.31295939535957262 0 -0.43018267265962018 0.30393159897263528 0 -0.41381263802951562 0.30741131447473341 0 -0.42011054146118609 0.28764118932435467 0 -0.42398131137488448 0.31280639406466842 0 -0.41558369743344298 0.31179393319581949 0 -0.41381263802951562 0.30741131447473341 0 -0.41381263802951562 0.30741131447473341 0 -0.40686223715537201 0.29458131789516168 0 -0.39850319958813718 0.30488904003086947 0 -0.4118548885168471 0.31510478003369408 0 -0.41558369743344298 0.31179393319581949 0 -0.41381263802951562 0.30741131447473341 0 -0.41381263802951562 0.30741131447473341 0 -0.42011054146118609 0.28764118932435467 0 -0.40686223715537201 0.29458131789516168 0 -0.42011054146118609 0.28764118932435467 0 -0.40686223715537201 0.29458131789516168 0 -0.40414049742014763 0.27911084061590902 0 -0.3945313373191971 0.29160111031247099 0 -0.38698471458664863 0.28081574712827129 0 -0.40414049742014763 0.27911084061590902 0 -0.40686223715537201 0.29458131789516168 0 -0.40414049742014763 0.27911084061590902 0 -0.40686223715537201 0.29458131789516168 0 -0.3945313373191971 0.29160111031247099 0 -0.40414049742014763 0.27911084061590902 0 -0.40186638703887367 0.31843725645121918 0 -0.41381263802951562 0.30741131447473341 0 -0.39850319958813718 0.30488904003086947 0 -0.40686223715537201 0.29458131789516168 0 -0.3945313373191971 0.29160111031247099 0 -0.39850319958813718 0.30488904003086947 0 -0.3945313373191971 0.29160111031247099 0 -0.39850319958813718 0.30488904003086947 0 -0.38553056357128579 0.301850710348818 0 -0.38841603441457873 0.31545253070281309 0 -0.39850319958813718 0.30488904003086947 0 -0.38553056357128579 0.301850710348818 0 -0.38553056357128579 0.301850710348818 0 -0.37335442502489302 0.29669283321319562 0 -0.37414735523205589 0.31158160091767462 0 -0.38841603441457873 0.31545253070281309 0 -0.38553056357128579 0.301850710348818 0 -0.37414735523205589 0.31158160091767462 0 -0.3945313373191971 0.29160111031247099 0 -0.38309632714991909 0.29083488048489758 0 -0.38698471458664863 0.28081574712827129 0 -0.3945313373191971 0.29160111031247099 0 -0.38553056357128579 0.301850710348818 0 -0.38309632714991909 0.29083488048489758 0 -0.38309632714991909 0.29083488048489758 0 -0.37322120776534662 0.28407307773153112 0 -0.37335442502489302 0.29669283321319562 0 -0.38553056357128579 0.301850710348818 0 -0.38309632714991909 0.29083488048489758 0 -0.37335442502489302 0.29669283321319562 0 -0.38309632714991909 0.29083488048489758 0 -0.38698471458664863 0.28081574712827129 0 -0.37322120776534662 0.28407307773153112 0 -0.38698471458664863 0.28081574712827129 0 -0.37707986127010029 0.27151455830838839 0 -0.37322120776534662 0.28407307773153112 0 -0.38698471458664863 0.28081574712827129 0 -0.39044159676440388 0.27047059327612821 0 -0.37707986127010029 0.27151455830838839 0 -0.39044159676440388 0.27047059327612821 0 -0.37707986127010029 0.27151455830838839 0 -0.38222141149610711 0.26154670614212489 0 -0.37762357589810641 0.24953723411872661 0 -0.40044655650917238 0.25811433305328563 0 -0.37762357589810641 0.24953723411872661 0 -0.38222141149610711 0.26154670614212489 0 -0.40044655650917238 0.25811433305328563 0 -0.37707986127010029 0.27151455830838839 0 -0.38222141149610711 0.26154670614212489 0 -0.36773374308549611 0.26020844267376703 0 -0.37762357589810641 0.24953723411872661 0 -0.38932782258989462 0.24452898672213899 0 -0.40044655650917238 0.25811433305328563 0 -0.37762357589810641 0.24953723411872661 0 -0.38222141149610711 0.26154670614212489 0 -0.36773374308549611 0.26020844267376703 0 -0.39044159676440388 0.27047059327612821 0 -0.38222141149610711 0.26154670614212489 0 -0.40141875768492008 0.26364036333665669 0 -0.38222141149610711 0.26154670614212489 0 -0.40141875768492008 0.26364036333665669 0 -0.38222141149610711 0.26154670614212489 0 -0.40141875768492008 0.26364036333665669 0 -0.40044655650917238 0.25811433305328563 0 -0.40141875768492008 0.26364036333665669 0 -0.40044655650917238 0.25811433305328563 0 -0.40141875768492008 0.26364036333665669 0 -0.40414049742014763 0.27911084061590902 0 -0.39044159676440388 0.27047059327612821 0 -0.40141875768492008 0.26364036333665669 0 -0.40414049742014763 0.27911084061590902 0 -0.41107146591579979 0.27206649530583682 0 -0.40141875768492008 0.26364036333665669 0 -0.40414049742014763 0.27911084061590902 0 -0.38698471458664863 0.28081574712827129 0 -0.39044159676440388 0.27047059327612821 0 -0.40414049742014763 0.27911084061590902 0 -0.36001710644037521 0.27283185920830721 0 -0.33779684838279261 0.28609816075947769 0 -0.34018326285651262 0.26080154602993127 0 -0.33788940549799379 0.24380658160696719 0 -0.35340254031448232 0.25560690021648391 0 -0.34018326285651262 0.26080154602993127 0 -0.354800595287041 0.2409601351841657 0 -0.35340254031448232 0.25560690021648391 0 -0.36773374308549611 0.26020844267376703 0 -0.35340254031448232 0.25560690021648391 0 -0.36001710644037521 0.27283185920830721 0 -0.34018326285651262 0.26080154602993127 0 -0.35340254031448232 0.25560690021648391 0 -0.36773374308549611 0.26020844267376703 0 -0.36001710644037521 0.27283185920830721 0 -0.37762357589810641 0.24953723411872661 0 -0.354800595287041 0.2409601351841657 0 -0.36773374308549611 0.26020844267376703 0 -0.37707986127010029 0.27151455830838839 0 -0.36001710644037521 0.27283185920830721 0 -0.37322120776534662 0.28407307773153112 0 -0.37707986127010029 0.27151455830838839 0 -0.36773374308549611 0.26020844267376703 0 -0.36001710644037521 0.27283185920830721 0 -0.36001710644037521 0.27283185920830721 0 -0.37322120776534662 0.28407307773153112 0 -0.35879481212014352 0.29174858804612658 0 -0.37322120776534662 0.28407307773153112 0 -0.37335442502489302 0.29669283321319562 0 -0.35879481212014352 0.29174858804612658 0 -0.37335442502489302 0.29669283321319562 0 -0.37414735523205589 0.31158160091767462 0 -0.35975862629799749 0.30478335323126249 0 -0.37335442502489302 0.29669283321319562 0 -0.35975862629799749 0.30478335323126249 0 -0.35879481212014352 0.29174858804612658 0 -0.37414735523205589 0.31158160091767462 0 -0.35975862629799749 0.30478335323126249 0 -0.36188662545293182 0.31529429906019529 0 -0.34828887442138462 0.30255211001056931 0 -0.33541043390907371 0.31139477548902439 0 -0.34968365139691632 0.31873567252695539 0 -0.35975862629799749 0.30478335323126249 0 -0.34828887442138462 0.30255211001056931 0 -0.34968365139691632 0.31873567252695539 0 -0.35975862629799749 0.30478335323126249 0 -0.34828887442138462 0.30255211001056931 0 -0.35879481212014352 0.29174858804612658 0 -0.34828887442138462 0.30255211001056931 0 -0.35879481212014352 0.29174858804612658 0 -0.33779684838279261 0.28609816075947769 0 -0.36001710644037521 0.27283185920830721 0 -0.35879481212014352 0.29174858804612658 0 -0.33779684838279261 0.28609816075947769 0 -0.33779684838279261 0.28609816075947769 0 -0.33541043390907371 0.31139477548902439 0 -0.34828887442138462 0.30255211001056931 0 -0.33779684838279261 0.28609816075947769 0 -0.33541043390907371 0.31139477548902439 0 -0.33779684838279261 0.28609816075947769 0 -0.33541043390907371 0.31139477548902439 0 -0.31784951446504062 0.30236297157796233 0 -0.33541043390907371 0.31139477548902439 0 -0.31784951446504062 0.30236297157796233 0 -0.3217462657091274 0.32064737635422041 0 -0.33541043390907371 0.31139477548902439 0 -0.31784951446504062 0.30236297157796233 0 -0.33779684838279261 0.28609816075947769 0 -0.31784951446504062 0.30236297157796233 0 -0.31709042905232671 0.27959064687520507 0 -0.31709042905232671 0.27959064687520507 0 -0.34018326285651262 0.26080154602993127 0 -0.31675628104696218 0.25816396337405889 0 -0.33779684838279261 0.28609816075947769 0 -0.34018326285651262 0.26080154602993127 0 -0.33779684838279261 0.28609816075947769 0 -0.31709042905232671 0.27959064687520507 0 -0.34018326285651262 0.26080154602993127 0 -0.33788940549799379 0.24380658160696719 0 -0.34018326285651262 0.26080154602993127 0 -0.31675628104696218 0.25816396337405889 0 -0.31628492721883539 0.23957254520949231 0 -0.31675628104696218 0.25816396337405889 0 -0.29263024276373129 0.25236458445954002 0 -0.31675628104696218 0.25816396337405889 0 -0.29645941889237332 0.27284787606321742 0 -0.29263024276373129 0.25236458445954002 0 -0.31709042905232671 0.27959064687520507 0 -0.31675628104696218 0.25816396337405889 0 -0.29645941889237332 0.27284787606321742 0 -0.28965444303604121 0.27892016551864202 0 -0.29645941889237332 0.27284787606321742 0 -0.28462976222723979 0.26633557703980448 0 -0.28965444303604121 0.27892016551864202 0 -0.28462976222723979 0.26633557703980448 0 -0.28095764949768981 0.27768346499108748 0 -0.28965444303604121 0.27892016551864202 0 -0.28095764949768981 0.27768346499108748 0 -0.28604931085245322 0.28600772296606719 0 -0.28462976222723979 0.26633557703980448 0 -0.29263024276373129 0.25236458445954002 0 -0.26694789876300162 0.26625314649527909 0 -0.28056281431753932 0.24436326559548641 0 -0.29263024276373129 0.25236458445954002 0 -0.27576790151354769 0.25417373225169149 0 -0.29645941889237332 0.27284787606321742 0 -0.29263024276373129 0.25236458445954002 0 -0.29645941889237332 0.27284787606321742 0 -0.28462976222723979 0.26633557703980448 0 -0.29263024276373129 0.25236458445954002 0 -0.29263024276373129 0.25236458445954002 0 -0.26694789876300162 0.26625314649527909 0 -0.29263024276373129 0.25236458445954002 0 -0.27576790151354769 0.25417373225169149 0 -0.26694789876300162 0.26625314649527909 0 -0.27127102212297499 0.24781219944000599 0 -0.27576790151354769 0.25417373225169149 0 -0.26546174464421152 0.25559093832545982 0 -0.26357200518833979 0.2481306776765875 0 -0.27127102212297499 0.24781219944000599 0 -0.26546174464421152 0.25559093832545982 0 -0.27576790151354769 0.25417373225169149 0 -0.26694789876300162 0.26625314649527909 0 -0.26546174464421152 0.25559093832545982 0 -0.28095764949768981 0.27768346499108748 0 -0.26610105853410998 0.27574808343626722 0 -0.28604931085245322 0.28600772296606719 0 -0.26610105853410998 0.27574808343626722 0 -0.28604931085245322 0.28600772296606719 0 -0.28462976222723979 0.26633557703980448 0 -0.27465909225551027 0.27150506799060958 0 -0.28095764949768981 0.27768346499108748 0 -0.28462976222723979 0.26633557703980448 0 -0.27465909225551027 0.27150506799060958 0 -0.26694789876300162 0.26625314649527909 0 -0.27465909225551027 0.27150506799060958 0 -0.28095764949768981 0.27768346499108748 0 -0.26610105853410998 0.27574808343626722 0 -0.27465909225551027 0.27150506799060958 0 -0.26610105853410998 0.27574808343626722 0 -0.26694789876300162 0.26625314649527909 0 -0.26610105853410998 0.27574808343626722 0 -0.24615280621576621 0.26548844390646842 0 -0.26610105853410998 0.27574808343626722 0 -0.26694789876300162 0.26625314649527909 0 -0.25956864423455489 0.26256166171682438 0 -0.26610105853410998 0.27574808343626722 0 -0.25956864423455489 0.26256166171682438 0 -0.24615280621576621 0.26548844390646842 0 -0.26130286593117402 0.28573621903864221 0 -0.24915420104852881 0.28720616524545362 0 -0.24615280621576621 0.26548844390646842 0 -0.26610105853410998 0.27574808343626722 0 -0.26130286593117402 0.28573621903864221 0 -0.24615280621576621 0.26548844390646842 0 -0.25704079557700088 0.2542377393705969 0 -0.25956864423455489 0.26256166171682438 0 -0.24615280621576621 0.26548844390646842 0 -0.25704079557700088 0.2542377393705969 0 -0.249435427503925 0.25000056447435692 0 -0.24615280621576621 0.26548844390646842 0 -0.25704079557700088 0.2542377393705969 0 -0.26546174464421152 0.25559093832545982 0 -0.25956864423455489 0.26256166171682438 0 -0.26357200518833979 0.2481306776765875 0 -0.25704079557700088 0.2542377393705969 0 -0.26546174464421152 0.25559093832545982 0 -0.26694789876300162 0.26625314649527909 0 -0.26546174464421152 0.25559093832545982 0 -0.25956864423455489 0.26256166171682438 0 -0.26525891187360168 0.30190844123559668 0 -0.25250351686746902 0.29989466443510299 0 -0.26121342260660041 0.29405981721879909 0 -0.26525891187360168 0.30190844123559668 0 -0.25250351686746902 0.29989466443510299 0 -0.2579230396276298 0.31303410818490363 0 -0.26525891187360168 0.30190844123559668 0 -0.26633353908766277 0.31093815740141878 0 -0.2579230396276298 0.31303410818490363 0 -0.25250351686746902 0.29989466443510299 0 -0.2579230396276298 0.31303410818490363 0 -0.24410435883272499 0.30730467973507741 0 -0.25250351686746902 0.29989466443510299 0 -0.26121342260660041 0.29405981721879909 0 -0.24915420104852881 0.28720616524545362 0 -0.26130286593117402 0.28573621903864221 0 -0.26121342260660041 0.29405981721879909 0 -0.24915420104852881 0.28720616524545362 0 -0.26130286593117402 0.28573621903864221 0 -0.26121342260660041 0.29405981721879909 0 -0.27128639101083041 0.29036254955448482 0 -0.26610105853410998 0.27574808343626722 0 -0.27118490658214173 0.28446364374886551 0 -0.28604931085245322 0.28600772296606719 0 -0.26121342260660041 0.29405981721879909 0 -0.27128639101083041 0.29036254955448482 0 -0.27245033075707742 0.29746328467139582 0 -0.26130286593117402 0.28573621903864221 0 -0.27128639101083041 0.29036254955448482 0 -0.27118490658214173 0.28446364374886551 0 -0.26610105853410998 0.27574808343626722 0 -0.26130286593117402 0.28573621903864221 0 -0.27118490658214173 0.28446364374886551 0 -0.27128639101083041 0.29036254955448482 0 -0.27118490658214173 0.28446364374886551 0 -0.28604931085245322 0.28600772296606719 0 -0.27128639101083041 0.29036254955448482 0 -0.28058453696013991 0.29596654379966292 0 -0.28604931085245322 0.28600772296606719 0 -0.27128639101083041 0.29036254955448482 0 -0.28058453696013991 0.29596654379966292 0 -0.27245033075707742 0.29746328467139582 0 -0.28058453696013991 0.29596654379966292 0 -0.27245033075707742 0.29746328467139582 0 -0.27757187736597938 0.30780140231922909 0 -0.26525891187360168 0.30190844123559668 0 -0.27245033075707742 0.29746328467139582 0 -0.27757187736597938 0.30780140231922909 0 -0.26525891187360168 0.30190844123559668 0 -0.26121342260660041 0.29405981721879909 0 -0.27245033075707742 0.29746328467139582 0 -0.26633353908766277 0.31093815740141878 0 -0.27757187736597938 0.30780140231922909 0 -0.27103404288107152 0.31748203656040119 0 -0.26525891187360168 0.30190844123559668 0 -0.26633353908766277 0.31093815740141878 0 -0.27757187736597938 0.30780140231922909 0 -0.29531682808224791 0.30115900637501469 0 -0.30458434531204509 0.31631028978396047 0 -0.28969416299380862 0.31788582217835382 0 -0.27757187736597938 0.30780140231922909 0 -0.29531682808224791 0.30115900637501469 0 -0.28969416299380862 0.31788582217835382 0 -0.28058453696013991 0.29596654379966292 0 -0.27757187736597938 0.30780140231922909 0 -0.29531682808224791 0.30115900637501469 0 -0.28965444303604121 0.27892016551864202 0 -0.29645941889237332 0.27284787606321742 0 -0.30028859502101002 0.29333116766689571 0 -0.28095764949768981 0.27768346499108748 0 -0.28604931085245322 0.28600772296606719 0 -0.28058453696013991 0.29596654379966292 0 -0.29531682808224791 0.30115900637501469 0 -0.28604931085245322 0.28600772296606719 0 -0.28604931085245322 0.28600772296606719 0 -0.30028859502101002 0.29333116766689571 0 -0.29531682808224791 0.30115900637501469 0 -0.28604931085245322 0.28600772296606719 0 -0.30028859502101002 0.29333116766689571 0 -0.29531682808224791 0.30115900637501469 0 -0.28604931085245322 0.28600772296606719 0 -0.28965444303604121 0.27892016551864202 0 -0.28604931085245322 0.28600772296606719 0 -0.30028859502101002 0.29333116766689571 0 -0.29645941889237332 0.27284787606321742 0 -0.30028859502101002 0.29333116766689571 0 -0.31784951446504062 0.30236297157796233 0 -0.31709042905232671 0.27959064687520507 0 -0.30028859502101002 0.29333116766689571 0 -0.31709042905232671 0.27959064687520507 0 -0.29645941889237332 0.27284787606321742 0 -0.30028859502101002 0.29333116766689571 0 -0.29531682808224791 0.30115900637501469 0 -0.30028859502101002 0.29333116766689571 0 -0.30458434531204509 0.31631028978396047 0 -0.31784951446504062 0.30236297157796233 0 -0.30028859502101002 0.29333116766689571 0 -0.30028859502101002 0.29333116766689571 0 -0.30458434531204509 0.31631028978396047 0 -0.31784951446504062 0.30236297157796233 0 -0.30028859502101002 0.29333116766689571 0 -0.30458434531204509 0.31631028978396047 0 -0.29531682808224791 0.30115900637501469 0 -0.30458434531204509 0.31631028978396047 0 -0.30458434531204509 0.31631028978396047 0 -0.31773699528048088 0.33781330103381202 0 -0.30458434531204509 0.31631028978396047 0 -0.29838890140195462 0.33174364257031491 0 -0.28969416299380862 0.31788582217835382 0 -0.30458434531204509 0.31631028978396047 0 -0.29838890140195462 0.33174364257031491 0 -0.30974136336272717 0.34389656447824729 0 -0.30458434531204509 0.31631028978396047 0 -0.30974136336272717 0.34389656447824729 0 -0.31773699528048088 0.33781330103381202 0 -0.30458434531204509 0.31631028978396047 0 -0.30974136336272717 0.34389656447824729 0 -0.29838890140195462 0.33174364257031491 0 -0.29774694638481219 0.34300877871200652 0 -0.30974136336272717 0.34389656447824729 0 -0.29838890140195462 0.33174364257031491 0 -0.28193024350727569 0.33019967796918243 0 -0.28680094178357762 0.3387887289635117 0 -0.29774694638481219 0.34300877871200652 0 -0.28680094178357762 0.3387887289635117 0 -0.29026130247215393 0.3475946345917772 0 -0.29838890140195462 0.33174364257031491 0 -0.29774694638481219 0.34300877871200652 0 -0.28680094178357762 0.3387887289635117 0 -0.28680094178357762 0.3387887289635117 0 -0.27840417713944399 0.34396159558360961 0 -0.29026130247215393 0.3475946345917772 0 -0.29838890140195462 0.33174364257031491 0 -0.28193024350727569 0.33019967796918243 0 -0.28969416299380862 0.31788582217835382 0 -0.28193024350727569 0.33019967796918243 0 -0.28969416299380862 0.31788582217835382 0 -0.279998122046764 0.32066165653919487 0 -0.27757187736597938 0.30780140231922909 0 -0.28969416299380862 0.31788582217835382 0 -0.279998122046764 0.32066165653919487 0 -0.27757187736597938 0.30780140231922909 0 -0.27103404288107152 0.31748203656040119 0 -0.279998122046764 0.32066165653919487 0 -0.26633353908766277 0.31093815740141878 0 -0.27103404288107152 0.31748203656040119 0 -0.2619699813775595 0.32067090670283022 0 -0.27103404288107152 0.31748203656040119 0 -0.279998122046764 0.32066165653919487 0 -0.26785032824016602 0.32887471985406591 0 -0.27103404288107152 0.31748203656040119 0 -0.26785032824016602 0.32887471985406591 0 -0.2619699813775595 0.32067090670283022 0 -0.28193024350727569 0.33019967796918243 0 -0.279998122046764 0.32066165653919487 0 -0.26785032824016602 0.32887471985406591 0 -0.28193024350727569 0.33019967796918243 0 -0.28680094178357762 0.3387887289635117 0 -0.27407407979582488 0.33622404435417991 0 -0.28193024350727569 0.33019967796918243 0 -0.27407407979582488 0.33622404435417991 0 -0.26785032824016602 0.32887471985406591 0 -0.28680094178357762 0.3387887289635117 0 -0.27407407979582488 0.33622404435417991 0 -0.27840417713944399 0.34396159558360961 0 -0.27407407979582488 0.33622404435417991 0 -0.2657891344612594 0.34260346541075559 0 -0.27840417713944399 0.34396159558360961 0 -0.27407407979582488 0.33622404435417991 0 -0.2657891344612594 0.34260346541075559 0 -0.26785032824016602 0.32887471985406591 0 -0.2657891344612594 0.34260346541075559 0 -0.26785032824016602 0.32887471985406591 0 -0.25765534988252359 0.33551440595186149 0 -0.26785032824016602 0.32887471985406591 0 -0.25765534988252359 0.33551440595186149 0 -0.25513146044283957 0.32598646153315808 0 -0.2657891344612594 0.34260346541075559 0 -0.25368043652116851 0.34365645987938581 0 -0.25765534988252359 0.33551440595186149 0 -0.25368043652116851 0.34365645987938581 0 -0.25765534988252359 0.33551440595186149 0 -0.24763081136529461 0.33494096372922999 0 -0.25765534988252359 0.33551440595186149 0 -0.25513146044283957 0.32598646153315808 0 -0.24763081136529461 0.33494096372922999 0 -0.25513146044283957 0.32598646153315808 0 -0.2579230396276298 0.31303410818490363 0 -0.24590158606486731 0.31892834640800533 0 -0.26633353908766277 0.31093815740141878 0 -0.2579230396276298 0.31303410818490363 0 -0.2619699813775595 0.32067090670283022 0 -0.25513146044283957 0.32598646153315808 0 -0.2579230396276298 0.31303410818490363 0 -0.2619699813775595 0.32067090670283022 0 -0.26785032824016602 0.32887471985406591 0 -0.25513146044283957 0.32598646153315808 0 -0.2619699813775595 0.32067090670283022 0 -0.26525078814191227 0.36110546955719242 0 -0.25743979375409431 0.3642842092102419 0 -0.25594486946715178 0.35704283167107043 0 -0.26525078814191227 0.36110546955719242 0 -0.26515504097039871 0.37148364879392209 0 -0.25743979375409431 0.3642842092102419 0 -0.26515504097039871 0.37148364879392209 0 -0.25470617562740888 0.3714596858883974 0 -0.2560937295827152 0.38004031966349888 0 -0.26515504097039871 0.37148364879392209 0 -0.25470617562740888 0.3714596858883974 0 -0.25743979375409431 0.3642842092102419 0 -0.25470617562740888 0.3714596858883974 0 -0.25081124317754028 0.36495989425522968 0 -0.24507155163857419 0.37309708549036119 0 -0.25470617562740888 0.3714596858883974 0 -0.2560937295827152 0.38004031966349888 0 -0.24507155163857419 0.37309708549036119 0 -0.25081124317754028 0.36495989425522968 0 -0.25743979375409431 0.3642842092102419 0 -0.25594486946715178 0.35704283167107043 0 -0.25081124317754028 0.36495989425522968 0 -0.25594486946715178 0.35704283167107043 0 -0.248255913421734 0.35836464571649412 0 -0.25470617562740888 0.3714596858883974 0 -0.25081124317754028 0.36495989425522968 0 -0.25743979375409431 0.3642842092102419 0 -0.25594486946715178 0.35704283167107043 0 -0.2585086214240499 0.34986687710485342 0 -0.2474994420061162 0.35137415341270778 0 -0.25594486946715178 0.35704283167107043 0 -0.2474994420061162 0.35137415341270778 0 -0.248255913421734 0.35836464571649412 0 -0.25368043652116851 0.34365645987938581 0 -0.2585086214240499 0.34986687710485342 0 -0.2474994420061162 0.35137415341270778 0 -0.2657891344612594 0.34260346541075559 0 -0.2585086214240499 0.34986687710485342 0 -0.26556371324638772 0.35230691355030352 0 -0.2657891344612594 0.34260346541075559 0 -0.25368043652116851 0.34365645987938581 0 -0.2585086214240499 0.34986687710485342 0 -0.25594486946715178 0.35704283167107043 0 -0.2585086214240499 0.34986687710485342 0 -0.26556371324638772 0.35230691355030352 0 -0.26525078814191227 0.36110546955719242 0 -0.25594486946715178 0.35704283167107043 0 -0.26556371324638772 0.35230691355030352 0 -0.26525078814191227 0.36110546955719242 0 -0.26556371324638772 0.35230691355030352 0 -0.27428448855606408 0.35645834139669103 0 -0.26556371324638772 0.35230691355030352 0 -0.27290001507207201 0.34940459057231349 0 -0.27428448855606408 0.35645834139669103 0 -0.2657891344612594 0.34260346541075559 0 -0.26556371324638772 0.35230691355030352 0 -0.27290001507207201 0.34940459057231349 0 -0.2657891344612594 0.34260346541075559 0 -0.27290001507207201 0.34940459057231349 0 -0.27840417713944399 0.34396159558360961 0 -0.27290001507207201 0.34940459057231349 0 -0.27840417713944399 0.34396159558360961 0 -0.28195932364824339 0.35154724259594877 0 -0.27428448855606408 0.35645834139669103 0 -0.28519135930223882 0.35987967276604388 0 -0.28195932364824339 0.35154724259594877 0 -0.27290001507207201 0.34940459057231349 0 -0.27428448855606408 0.35645834139669103 0 -0.28195932364824339 0.35154724259594877 0 -0.27428448855606408 0.35645834139669103 0 -0.27311682285737771 0.36505687272092557 0 -0.28519135930223882 0.35987967276604388 0 -0.27311682285737771 0.36505687272092557 0 -0.28057373982321288 0.37181319820896352 0 -0.28519135930223882 0.35987967276604388 0 -0.26525078814191227 0.36110546955719242 0 -0.26515504097039871 0.37148364879392209 0 -0.27311682285737771 0.36505687272092557 0 -0.26525078814191227 0.36110546955719242 0 -0.27428448855606408 0.35645834139669103 0 -0.27311682285737771 0.36505687272092557 0 -0.26515504097039871 0.37148364879392209 0 -0.27311682285737771 0.36505687272092557 0 -0.28057373982321288 0.37181319820896352 0 -0.28057373982321288 0.37181319820896352 0 -0.28519135930223882 0.35987967276604388 0 -0.29639606127656892 0.37106173439842888 0 -0.28057373982321288 0.37181319820896352 0 -0.29639606127656892 0.37106173439842888 0 -0.28892080910481849 0.38162830192451103 0 -0.28519135930223882 0.35987967276604388 0 -0.29639606127656892 0.37106173439842888 0 -0.29974777648205048 0.35562568544957229 0 -0.27840417713944399 0.34396159558360961 0 -0.28195932364824339 0.35154724259594877 0 -0.29026130247215393 0.3475946345917772 0 -0.28519135930223882 0.35987967276604388 0 -0.28195932364824339 0.35154724259594877 0 -0.29026130247215393 0.3475946345917772 0 -0.28519135930223882 0.35987967276604388 0 -0.29026130247215393 0.3475946345917772 0 -0.29974777648205048 0.35562568544957229 0 -0.29774694638481219 0.34300877871200652 0 -0.29026130247215393 0.3475946345917772 0 -0.29974777648205048 0.35562568544957229 0 -0.29974777648205048 0.35562568544957229 0 -0.30974136336272717 0.34389656447824729 0 -0.31489838141340709 0.37148283917253438 0 -0.30974136336272717 0.34389656447824729 0 -0.31489838141340709 0.37148283917253438 0 -0.29774694638481219 0.34300877871200652 0 -0.29974777648205048 0.35562568544957229 0 -0.30974136336272717 0.34389656447824729 0 -0.29639606127656892 0.37106173439842888 0 -0.29974777648205048 0.35562568544957229 0 -0.31489838141340709 0.37148283917253438 0 -0.31489838141340709 0.37148283917253438 0 -0.32610453590712452 0.37033398374484378 0 -0.32168007633979612 0.35734475152834277 0 -0.32610453590712452 0.37033398374484378 0 -0.33070953682611831 0.36122550845695689 0 -0.32168007633979612 0.35734475152834277 0 -0.32610453590712452 0.37033398374484378 0 -0.33531020706499892 0.36654340269433572 0 -0.33338984371457669 0.37613270995711873 0 -0.32610453590712452 0.37033398374484378 0 -0.33070953682611831 0.36122550845695689 0 -0.33531020706499892 0.36654340269433572 0 -0.33070953682611831 0.36122550845695689 0 -0.3308896452489184 0.35931631228366262 0 -0.33531020706499892 0.36654340269433572 0 -0.3308896452489184 0.35931631228366262 0 -0.33070953682611831 0.36122550845695689 0 -0.33531020706499892 0.36654340269433572 0 -0.3308896452489184 0.35931631228366262 0 -0.33531020706499892 0.36654340269433572 0 -0.34249884809267489 0.37060752425186289 0 -0.34240418109068299 0.35723876581172342 0 -0.33531020706499892 0.36654340269433572 0 -0.34240418109068299 0.35723876581172342 0 -0.3308896452489184 0.35931631228366262 0 -0.33531020706499892 0.36654340269433572 0 -0.34249884809267489 0.37060752425186289 0 -0.33338984371457669 0.37613270995711873 0 -0.34240418109068299 0.35723876581172342 0 -0.3308896452489184 0.35931631228366262 0 -0.33315003957899553 0.33535554388634342 0 -0.34240418109068299 0.35723876581172342 0 -0.33315003957899553 0.33535554388634342 0 -0.35122832465374448 0.34787735051578789 0 -0.3308896452489184 0.35931631228366262 0 -0.33315003957899553 0.33535554388634342 0 -0.3308896452489184 0.35931631228366262 0 -0.32168007633979612 0.35734475152834277 0 -0.31773699528048088 0.33781330103381202 0 -0.3308896452489184 0.35931631228366262 0 -0.31773699528048088 0.33781330103381202 0 -0.33315003957899553 0.33535554388634342 0 -0.30974136336272717 0.34389656447824729 0 -0.32168007633979612 0.35734475152834277 0 -0.31773699528048088 0.33781330103381202 0 -0.30974136336272717 0.34389656447824729 0 -0.31489838141340709 0.37148283917253438 0 -0.32168007633979612 0.35734475152834277 0 -0.3308896452489184 0.35931631228366262 0 -0.31773699528048088 0.33781330103381202 0 -0.33070953682611831 0.36122550845695689 0 -0.3308896452489184 0.35931631228366262 0 -0.32168007633979612 0.35734475152834277 0 -0.31773699528048088 0.33781330103381202 0 -0.3217462657091274 0.32064737635422041 0 -0.33315003957899553 0.33535554388634342 0 -0.30458434531204509 0.31631028978396047 0 -0.31773699528048088 0.33781330103381202 0 -0.3217462657091274 0.32064737635422041 0 -0.31784951446504062 0.30236297157796233 0 -0.30458434531204509 0.31631028978396047 0 -0.3217462657091274 0.32064737635422041 0 -0.33541043390907371 0.31139477548902439 0 -0.3217462657091274 0.32064737635422041 0 -0.33315003957899553 0.33535554388634342 0 -0.33541043390907371 0.31139477548902439 0 -0.33315003957899553 0.33535554388634342 0 -0.33541043390907371 0.31139477548902439 0 -0.33315003957899553 0.33535554388634342 0 -0.34968365139691632 0.31873567252695539 0 -0.33541043390907371 0.31139477548902439 0 -0.34968365139691632 0.31873567252695539 0 -0.33315003957899553 0.33535554388634342 0 -0.35162250330144518 0.3338496036482177 0 -0.34968365139691632 0.31873567252695539 0 -0.33315003957899553 0.33535554388634342 0 -0.35162250330144518 0.3338496036482177 0 -0.35122832465374448 0.34787735051578789 0 -0.35162250330144518 0.3338496036482177 0 -0.36444011866480058 0.33777830232287831 0 -0.35122832465374448 0.34787735051578789 0 -0.35162250330144518 0.3338496036482177 0 -0.34968365139691632 0.31873567252695539 0 -0.3639568688847577 0.32607656956488867 0 -0.34968365139691632 0.31873567252695539 0 -0.3639568688847577 0.32607656956488867 0 -0.34968365139691632 0.31873567252695539 0 -0.36188662545293182 0.31529429906019529 0 -0.3639568688847577 0.32607656956488867 0 -0.35975862629799749 0.30478335323126249 0 -0.34968365139691632 0.31873567252695539 0 -0.36188662545293182 0.31529429906019529 0 -0.37414735523205589 0.31158160091767462 0 -0.36188662545293182 0.31529429906019529 0 -0.3639568688847577 0.32607656956488867 0 -0.37644965412025161 0.32667390061683688 0 -0.37414735523205589 0.31158160091767462 0 -0.3639568688847577 0.32607656956488867 0 -0.35162250330144518 0.3338496036482177 0 -0.3639568688847577 0.32607656956488867 0 -0.36444011866480058 0.33777830232287831 0 -0.37644965412025161 0.32667390061683688 0 -0.3639568688847577 0.32607656956488867 0 -0.36444011866480058 0.33777830232287831 0 -0.37781694332799343 0.34069825694722561 0 -0.37644965412025161 0.32667390061683688 0 -0.36444011866480058 0.33777830232287831 0 -0.37781694332799343 0.34069825694722561 0 -0.36444011866480058 0.33777830232287831 0 -0.36556641770061149 0.35149413264431328 0 -0.38209297762938599 0.35465694138060438 0 -0.36556641770061149 0.35149413264431328 0 -0.3717287424002621 0.36323611655130389 0 -0.36444011866480058 0.33777830232287831 0 -0.36556641770061149 0.35149413264431328 0 -0.35122832465374448 0.34787735051578789 0 -0.36556641770061149 0.35149413264431328 0 -0.3717287424002621 0.36323611655130389 0 -0.35325789183830669 0.36926549755128868 0 -0.3717287424002621 0.36323611655130389 0 -0.35325789183830669 0.36926549755128868 0 -0.3700817685325466 0.37979505833716981 0 -0.34249884809267489 0.37060752425186289 0 -0.35325789183830669 0.36926549755128868 0 -0.34199887503737059 0.380772450128814 0 -0.34249884809267489 0.37060752425186289 0 -0.34240418109068299 0.35723876581172342 0 -0.35325789183830669 0.36926549755128868 0 -0.36556641770061149 0.35149413264431328 0 -0.35325789183830669 0.36926549755128868 0 -0.35122832465374448 0.34787735051578789 0 -0.34240418109068299 0.35723876581172342 0 -0.35325789183830669 0.36926549755128868 0 -0.35122832465374448 0.34787735051578789 0 -0.34473680579000171 0.40019505425397711 0 -0.36856188385864808 0.39801797795947791 0 -0.35963005199534548 0.41164505657854378 0 -0.34473680579000171 0.40019505425397711 0 -0.35637021793061519 0.38714964179772732 0 -0.36856188385864808 0.39801797795947791 0 -0.34473680579000171 0.40019505425397711 0 -0.35637021793061519 0.38714964179772732 0 -0.34199887503737059 0.380772450128814 0 -0.35325789183830669 0.36926549755128868 0 -0.35637021793061519 0.38714964179772732 0 -0.34199887503737059 0.380772450128814 0 -0.35325789183830669 0.36926549755128868 0 -0.35637021793061519 0.38714964179772732 0 -0.3700817685325466 0.37979505833716981 0 -0.38212343750332289 0.38854718054588178 0 -0.3700817685325466 0.37979505833716981 0 -0.36856188385864808 0.39801797795947791 0 -0.35637021793061519 0.38714964179772732 0 -0.3700817685325466 0.37979505833716981 0 -0.36856188385864808 0.39801797795947791 0 -0.38266411676810169 0.41159499686730933 0 -0.35963005199534548 0.41164505657854378 0 -0.36027602876084641 0.43061162663290908 0 -0.38266411676810169 0.41159499686730933 0 -0.36856188385864808 0.39801797795947791 0 -0.35963005199534548 0.41164505657854378 0 -0.38266411676810169 0.41159499686730933 0 -0.36027602876084641 0.43061162663290908 0 -0.37935242010599618 0.44071850896710518 0 -0.38266411676810169 0.41159499686730933 0 -0.36027602876084641 0.43061162663290908 0 -0.36027602876084641 0.43061162663290908 0 -0.343953131731215 0.43408179415007142 0 -0.34098677526882082 0.41726714654746139 0 -0.34473680579000171 0.40019505425397711 0 -0.35963005199534548 0.41164505657854378 0 -0.34098677526882082 0.41726714654746139 0 -0.35963005199534548 0.41164505657854378 0 -0.36027602876084641 0.43061162663290908 0 -0.34098677526882082 0.41726714654746139 0 -0.34098677526882082 0.41726714654746139 0 -0.32902716490274858 0.41009973325094801 0 -0.32430915101930108 0.42182357346540889 0 -0.34473680579000171 0.40019505425397711 0 -0.34098677526882082 0.41726714654746139 0 -0.33517908890721371 0.4049508773360308 0 -0.34098677526882082 0.41726714654746139 0 -0.32902716490274858 0.41009973325094801 0 -0.33517908890721371 0.4049508773360308 0 -0.34098677526882082 0.41726714654746139 0 -0.32430915101930108 0.42182357346540889 0 -0.33009624361327028 0.44338048662395679 0 -0.343953131731215 0.43408179415007142 0 -0.34098677526882082 0.41726714654746139 0 -0.33009624361327028 0.44338048662395679 0 -0.34098677526882082 0.41726714654746139 0 -0.33009624361327028 0.44338048662395679 0 -0.32430915101930108 0.42182357346540889 0 -0.3282595285809613 0.44295520408821359 0 -0.32430915101930108 0.42182357346540889 0 -0.3282595285809613 0.44295520408821359 0 -0.33009624361327028 0.44338048662395679 0 -0.31821964290833338 0.43477018593426348 0 -0.32430915101930108 0.42182357346540889 0 -0.30672873041261001 0.42552745449977769 0 -0.31821964290833338 0.43477018593426348 0 -0.32430915101930108 0.42182357346540889 0 -0.3282595285809613 0.44295520408821359 0 -0.32430915101930108 0.42182357346540889 0 -0.31932208979495608 0.40052500332728891 0 -0.31932208979495608 0.40052500332728891 0 -0.30672873041261001 0.42552745449977769 0 -0.31799493273674212 0.41206890259851081 0 -0.32430915101930108 0.42182357346540889 0 -0.30672873041261001 0.42552745449977769 0 -0.31799493273674212 0.41206890259851081 0 -0.31932208979495608 0.40052500332728891 0 -0.30672873041261001 0.42552745449977769 0 -0.32902716490274858 0.41009973325094801 0 -0.32430915101930108 0.42182357346540889 0 -0.31932208979495608 0.40052500332728891 0 -0.31799493273674212 0.41206890259851081 0 -0.32430915101930108 0.42182357346540889 0 -0.31932208979495608 0.40052500332728891 0 -0.32005539946408601 0.39906911386682209 0 -0.32733293219852311 0.4018150074011016 0 -0.32696037162265063 0.38536020395641918 0 -0.32005539946408601 0.39906911386682209 0 -0.31932208979495608 0.40052500332728891 0 -0.32005539946408601 0.39906911386682209 0 -0.31932208979495608 0.40052500332728891 0 -0.30625820659269309 0.38737321348770393 0 -0.32005539946408601 0.39906911386682209 0 -0.32696037162265063 0.38536020395641918 0 -0.32005539946408601 0.39906911386682209 0 -0.31932208979495608 0.40052500332728891 0 -0.32733293219852311 0.4018150074011016 0 -0.32902716490274858 0.41009973325094801 0 -0.31932208979495608 0.40052500332728891 0 -0.32733293219852311 0.4018150074011016 0 -0.31932208979495608 0.40052500332728891 0 -0.32733293219852311 0.4018150074011016 0 -0.32733293219852311 0.4018150074011016 0 -0.33532721454485342 0.39340238589559889 0 -0.32696037162265063 0.38536020395641918 0 -0.34473680579000171 0.40019505425397711 0 -0.33532721454485342 0.39340238589559889 0 -0.34199887503737059 0.380772450128814 0 -0.32733293219852311 0.4018150074011016 0 -0.33517908890721371 0.4049508773360308 0 -0.33532721454485342 0.39340238589559889 0 -0.32902716490274858 0.41009973325094801 0 -0.32733293219852311 0.4018150074011016 0 -0.33517908890721371 0.4049508773360308 0 -0.34473680579000171 0.40019505425397711 0 -0.33517908890721371 0.4049508773360308 0 -0.33532721454485342 0.39340238589559889 0 -0.34249884809267489 0.37060752425186289 0 -0.34199887503737059 0.380772450128814 0 -0.33338984371457669 0.37613270995711873 0 -0.33532721454485342 0.39340238589559889 0 -0.34199887503737059 0.380772450128814 0 -0.32696037162265063 0.38536020395641918 0 -0.34199887503737059 0.380772450128814 0 -0.33338984371457669 0.37613270995711873 0 -0.32696037162265063 0.38536020395641918 0 -0.32610453590712452 0.37033398374484378 0 -0.33338984371457669 0.37613270995711873 0 -0.32696037162265063 0.38536020395641918 0 -0.31489838141340709 0.37148283917253438 0 -0.32005539946408601 0.39906911386682209 0 -0.32696037162265063 0.38536020395641918 0 -0.31489838141340709 0.37148283917253438 0 -0.32005539946408601 0.39906911386682209 0 -0.30625820659269309 0.38737321348770393 0 -0.31489838141340709 0.37148283917253438 0 -0.32610453590712452 0.37033398374484378 0 -0.32696037162265063 0.38536020395641918 0 -0.31489838141340709 0.37148283917253438 0 -0.32005539946408601 0.39906911386682209 0 -0.29639606127656892 0.37106173439842888 0 -0.30625820659269309 0.38737321348770393 0 -0.28892080910481849 0.38162830192451103 0 -0.29639606127656892 0.37106173439842888 0 -0.31489838141340709 0.37148283917253438 0 -0.30625820659269309 0.38737321348770393 0 -0.31932208979495608 0.40052500332728891 0 -0.29027908954857712 0.39584814329857138 0 -0.30320727103978301 0.40808097963194018 0 -0.31932208979495608 0.40052500332728891 0 -0.30625820659269309 0.38737321348770393 0 -0.29027908954857712 0.39584814329857138 0 -0.31932208979495608 0.40052500332728891 0 -0.29027908954857712 0.39584814329857138 0 -0.29027908954857712 0.39584814329857138 0 -0.27886850066683327 0.4066823863111646 0 -0.30320727103978301 0.40808097963194018 0 -0.29027908954857712 0.39584814329857138 0 -0.28892080910481849 0.38162830192451103 0 -0.27370974972198658 0.38199748252655358 0 -0.30625820659269309 0.38737321348770393 0 -0.29027908954857712 0.39584814329857138 0 -0.28892080910481849 0.38162830192451103 0 -0.28057373982321288 0.37181319820896352 0 -0.28892080910481849 0.38162830192451103 0 -0.27370974972198658 0.38199748252655358 0 -0.29027908954857712 0.39584814329857138 0 -0.27370974972198658 0.38199748252655358 0 -0.26123608930219788 0.39117128326985462 0 -0.26515504097039871 0.37148364879392209 0 -0.28057373982321288 0.37181319820896352 0 -0.27370974972198658 0.38199748252655358 0 -0.26123608930219788 0.39117128326985462 0 -0.26574861793578319 0.41042474952792107 0 -0.27886850066683327 0.4066823863111646 0 -0.29027908954857712 0.39584814329857138 0 -0.26123608930219788 0.39117128326985462 0 -0.29027908954857712 0.39584814329857138 0 -0.26123608930219788 0.39117128326985462 0 -0.27886850066683327 0.4066823863111646 0 -0.26123608930219788 0.39117128326985462 0 -0.25443672127411232 0.40753113851161837 0 -0.2487540922718337 0.39786746445057958 0 -0.26123608930219788 0.39117128326985462 0 -0.25443672127411232 0.40753113851161837 0 -0.26574861793578319 0.41042474952792107 0 -0.27370974972198658 0.38199748252655358 0 -0.26123608930219788 0.39117128326985462 0 -0.2560937295827152 0.38004031966349888 0 -0.26515504097039871 0.37148364879392209 0 -0.27370974972198658 0.38199748252655358 0 -0.2560937295827152 0.38004031966349888 0 -0.26123608930219788 0.39117128326985462 0 -0.2560937295827152 0.38004031966349888 0 -0.24640294203220769 0.3818395311168023 0 -0.25992894544496009 0.42475478568301339 0 -0.26755533122200842 0.44150219003199942 0 -0.2401470957773337 0.43580564415847117 0 -0.25992894544496009 0.42475478568301339 0 -0.25443672127411232 0.40753113851161837 0 -0.24539948521445129 0.42162133900916038 0 -0.25992894544496009 0.42475478568301339 0 -0.25443672127411232 0.40753113851161837 0 -0.26574861793578319 0.41042474952792107 0 -0.26574861793578319 0.41042474952792107 0 -0.27886850066683327 0.4066823863111646 0 -0.28314824073989198 0.42283245400845931 0 -0.25992894544496009 0.42475478568301339 0 -0.26574861793578319 0.41042474952792107 0 -0.28314824073989198 0.42283245400845931 0 -0.25992894544496009 0.42475478568301339 0 -0.28314824073989198 0.42283245400845931 0 -0.26755533122200842 0.44150219003199942 0 -0.28314824073989198 0.42283245400845931 0 -0.30672873041261001 0.42552745449977769 0 -0.29413537103026188 0.45052990567226558 0 -0.27886850066683327 0.4066823863111646 0 -0.28314824073989198 0.42283245400845931 0 -0.30320727103978301 0.40808097963194018 0 -0.31932208979495608 0.40052500332728891 0 -0.30320727103978301 0.40808097963194018 0 -0.30672873041261001 0.42552745449977769 0 -0.28314824073989198 0.42283245400845931 0 -0.30320727103978301 0.40808097963194018 0 -0.30672873041261001 0.42552745449977769 0 -0.31821964290833338 0.43477018593426348 0 -0.30672873041261001 0.42552745449977769 0 -0.31037484746918098 0.44303671757187341 0 -0.30672873041261001 0.42552745449977769 0 -0.31037484746918098 0.44303671757187341 0 -0.29413537103026188 0.45052990567226558 0 -0.30672873041261001 0.42552745449977769 0 -0.29413537103026188 0.45052990567226558 0 -0.31037484746918098 0.44303671757187341 0 -0.29413537103026188 0.45052990567226558 0 -0.31920571195771991 0.46949382670045231 0 -0.29413537103026188 0.45052990567226558 0 -0.30028838623699999 0.47753303797813551 0 -0.31920571195771991 0.46949382670045231 0 -0.29413537103026188 0.45052990567226558 0 -0.274561189906114 0.45778575408508321 0 -0.2815420116479137 0.47553235684475342 0 -0.29413537103026188 0.45052990567226558 0 -0.2815420116479137 0.47553235684475342 0 -0.29413537103026188 0.45052990567226558 0 -0.2815420116479137 0.47553235684475342 0 -0.30028838623699999 0.47753303797813551 0 -0.28314824073989198 0.42283245400845931 0 -0.29413537103026188 0.45052990567226558 0 -0.26755533122200842 0.44150219003199942 0 -0.29413537103026188 0.45052990567226558 0 -0.26755533122200842 0.44150219003199942 0 -0.274561189906114 0.45778575408508321 0 -0.274561189906114 0.45778575408508321 0 -0.25501204572427211 0.46357856379131462 0 -0.2815420116479137 0.47553235684475342 0 -0.26755533122200842 0.44150219003199942 0 -0.274561189906114 0.45778575408508321 0 -0.25501204572427211 0.46357856379131462 0 -0.26755533122200842 0.44150219003199942 0 -0.25501204572427211 0.46357856379131462 0 -0.2401470957773337 0.43580564415847117 0 -0.25501204572427211 0.46357856379131462 0 -0.286154948057041 0.5 0 -0.23343930148379971 0.47568444581577191 0 -0.25501204572427211 0.46357856379131462 0 -0.286154948057041 0.5 0 -0.2815420116479137 0.47553235684475342 0 -0.286154948057041 0.5 0 -0.2815420116479137 0.47553235684475342 0 -0.30028838623699999 0.47753303797813551 0 -0.30028838623699999 0.47753303797813551 0 -0.30831518030216948 0.49560716677694738 0 -0.31920571195771991 0.46949382670045231 0 -0.286154948057041 0.5 0 -0.30028838623699999 0.47753303797813551 0 -0.30831518030216948 0.49560716677694738 0 -0.38004119447167473 0.5 0 -0.286154948057041 0.5 0 -0.30831518030216948 0.49560716677694738 0 -0.38004119447167473 0.5 0 -0.30831518030216948 0.49560716677694738 0 -0.34537086950538248 0.47239016686617308 0 -0.30831518030216948 0.49560716677694738 0 -0.31920571195771991 0.46949382670045231 0 -0.34537086950538248 0.47239016686617308 0 -0.30831518030216948 0.49560716677694738 0 -0.31920571195771991 0.46949382670045231 0 -0.31920571195771991 0.46949382670045231 0 -0.33009624361327028 0.44338048662395679 0 -0.31920571195771991 0.46949382670045231 0 -0.31931560591719232 0.44264883427353291 0 -0.3282595285809613 0.44295520408821359 0 -0.31920571195771991 0.46949382670045231 0 -0.3282595285809613 0.44295520408821359 0 -0.33009624361327028 0.44338048662395679 0 -0.31037484746918098 0.44303671757187341 0 -0.31920571195771991 0.46949382670045231 0 -0.31931560591719232 0.44264883427353291 0 -0.31821964290833338 0.43477018593426348 0 -0.31037484746918098 0.44303671757187341 0 -0.31931560591719232 0.44264883427353291 0 -0.31821964290833338 0.43477018593426348 0 -0.31931560591719232 0.44264883427353291 0 -0.3282595285809613 0.44295520408821359 0 -0.343953131731215 0.43408179415007142 0 -0.33009624361327028 0.44338048662395679 0 -0.33788794075359108 0.44962825639850879 0 -0.31920571195771991 0.46949382670045231 0 -0.33009624361327028 0.44338048662395679 0 -0.33788794075359108 0.44962825639850879 0 -0.31920571195771991 0.46949382670045231 0 -0.33788794075359108 0.44962825639850879 0 -0.34537086950538248 0.47239016686617308 0 -0.33788794075359108 0.44962825639850879 0 -0.35782455177239908 0.45118382420568298 0 -0.34537086950538248 0.47239016686617308 0 -0.35782455177239908 0.45118382420568298 0 -0.37105357443984133 0.46430303421273489 0 -0.34537086950538248 0.47239016686617308 0 -0.36027602876084641 0.43061162663290908 0 -0.33788794075359108 0.44962825639850879 0 -0.35782455177239908 0.45118382420568298 0 -0.36027602876084641 0.43061162663290908 0 -0.33788794075359108 0.44962825639850879 0 -0.36027602876084641 0.43061162663290908 0 -0.343953131731215 0.43408179415007142 0 -0.33788794075359108 0.44962825639850879 0 -0.37935242010599618 0.44071850896710518 0 -0.35782455177239908 0.45118382420568298 0 -0.37105357443984133 0.46430303421273489 0 -0.37935242010599618 0.44071850896710518 0 -0.36027602876084641 0.43061162663290908 0 -0.35782455177239908 0.45118382420568298 0 -0.38004119447167473 0.5 0 -0.37105357443984133 0.46430303421273489 0 -0.34537086950538248 0.47239016686617308 0 -0.15508226309130929 0.48596458144584759 0 -0.13590672581586691 0.49999999999999578 0 -0.21882433640643481 0.5 0 -0.15508226309130929 0.48596458144584759 0 -0.14061103173860301 0.47240595647875738 0 -0.15291596689380241 0.46775626101873108 0 -0.15508226309130929 0.48596458144584759 0 -0.14061103173860301 0.47240595647875738 0 -0.13185266503140139 0.48410183447219812 0 -0.15508226309130929 0.48596458144584759 0 -0.13590672581586691 0.49999999999999578 0 -0.15508226309130929 0.48596458144584759 0 -0.13590672581586691 0.49999999999999578 0 -0.13185266503140139 0.48410183447219812 0 -0.13590672581586691 0.49999999999999578 0 -0.13152524646030489 0.49999999999999889 0 -0.13185266503140139 0.48410183447219812 0 -0.13152524646030489 0.49999999999999889 0 -0.13185266503140139 0.48410183447219812 0 -0.1143705817159245 0.47661318690332199 0 -0.14061103173860301 0.47240595647875738 0 -0.13185266503140139 0.48410183447219812 0 -0.12646001653391509 0.46668721438350619 0 -0.12646001653391509 0.46668721438350619 0 -0.1272772443498997 0.45077262286745168 0 -0.1424908262529809 0.45504144784588979 0 -0.14061103173860301 0.47240595647875738 0 -0.12646001653391509 0.46668721438350619 0 -0.1424908262529809 0.45504144784588979 0 -0.1424908262529809 0.45504144784588979 0 -0.146736243775825 0.42824328223605279 0 -0.12996922900776969 0.43349752018555421 0 -0.1272772443498997 0.45077262286745168 0 -0.1424908262529809 0.45504144784588979 0 -0.12996922900776969 0.43349752018555421 0 -0.1424908262529809 0.45504144784588979 0 -0.1582351716154502 0.44869677905138389 0 -0.146736243775825 0.42824328223605279 0 -0.14061103173860301 0.47240595647875738 0 -0.1424908262529809 0.45504144784588979 0 -0.15291596689380241 0.46775626101873108 0 -0.1424908262529809 0.45504144784588979 0 -0.15291596689380241 0.46775626101873108 0 -0.1582351716154502 0.44869677905138389 0 -0.15291596689380241 0.46775626101873108 0 -0.16805719629047611 0.46025217826640957 0 -0.1582351716154502 0.44869677905138389 0 -0.15291596689380241 0.46775626101873108 0 -0.16805719629047611 0.46025217826640957 0 -0.1625783066605854 0.47147554590567259 0 -0.16805719629047611 0.46025217826640957 0 -0.1742578003667537 0.47192916289170228 0 -0.1625783066605854 0.47147554590567259 0 -0.16805719629047611 0.46025217826640957 0 -0.1582351716154502 0.44869677905138389 0 -0.17128141429890761 0.44879319635769549 0 -0.1582351716154502 0.44869677905138389 0 -0.17128141429890761 0.44879319635769549 0 -0.1652439778291136 0.4337418550098307 0 -0.17128141429890761 0.44879319635769549 0 -0.18432665399575501 0.43667817799187769 0 -0.1652439778291136 0.4337418550098307 0 -0.18054407176374321 0.46459699146897521 0 -0.193433337642198 0.45789374433755692 0 -0.18432665399575501 0.43667817799187769 0 -0.17128141429890761 0.44879319635769549 0 -0.18054407176374321 0.46459699146897521 0 -0.18432665399575501 0.43667817799187769 0 -0.18054407176374321 0.46459699146897521 0 -0.18432665399575501 0.43667817799187769 0 -0.1742578003667537 0.47192916289170228 0 -0.193433337642198 0.45789374433755692 0 -0.16805719629047611 0.46025217826640957 0 -0.17128141429890761 0.44879319635769549 0 -0.18054407176374321 0.46459699146897521 0 -0.18054407176374321 0.46459699146897521 0 -0.1742578003667537 0.47192916289170228 0 -0.193433337642198 0.45789374433755692 0 -0.16805719629047611 0.46025217826640957 0 -0.18054407176374321 0.46459699146897521 0 -0.1742578003667537 0.47192916289170228 0 -0.1742578003667537 0.47192916289170228 0 -0.19050353773478559 0.47765758843786071 0 -0.193433337642198 0.45789374433755692 0 -0.15508226309130929 0.48596458144584759 0 -0.1742578003667537 0.47192916289170228 0 -0.19050353773478559 0.47765758843786071 0 -0.15508226309130929 0.48596458144584759 0 -0.15291596689380241 0.46775626101873108 0 -0.1625783066605854 0.47147554590567259 0 -0.15508226309130929 0.48596458144584759 0 -0.1742578003667537 0.47192916289170228 0 -0.15508226309130929 0.48596458144584759 0 -0.1742578003667537 0.47192916289170228 0 -0.1625783066605854 0.47147554590567259 0 -0.286154948057041 0.5 0 -0.21882433640643481 0.5 0 -0.23343930148379971 0.47568444581577191 0 -0.15508226309130929 0.48596458144584759 0 -0.19050353773478559 0.47765758843786071 0 -0.21882433640643481 0.5 0 -0.19050353773478559 0.47765758843786071 0 -0.21091995116723211 0.47250045351419662 0 -0.193433337642198 0.45789374433755692 0 -0.19050353773478559 0.47765758843786071 0 -0.21091995116723211 0.47250045351419662 0 -0.21882433640643481 0.5 0 -0.21091995116723211 0.47250045351419662 0 -0.21882433640643481 0.5 0 -0.23343930148379971 0.47568444581577191 0 -0.25501204572427211 0.46357856379131462 0 -0.2200359772780788 0.45486756843485959 0 -0.2401470957773337 0.43580564415847117 0 -0.25501204572427211 0.46357856379131462 0 -0.23343930148379971 0.47568444581577191 0 -0.2200359772780788 0.45486756843485959 0 -0.21091995116723211 0.47250045351419662 0 -0.23343930148379971 0.47568444581577191 0 -0.2200359772780788 0.45486756843485959 0 -0.2200359772780788 0.45486756843485959 0 -0.21415399204139551 0.43117092131933599 0 -0.2401470957773337 0.43580564415847117 0 -0.2200359772780788 0.45486756843485959 0 -0.20176731502115269 0.44175413905293831 0 -0.21415399204139551 0.43117092131933599 0 -0.2200359772780788 0.45486756843485959 0 -0.193433337642198 0.45789374433755692 0 -0.20176731502115269 0.44175413905293831 0 -0.21091995116723211 0.47250045351419662 0 -0.2200359772780788 0.45486756843485959 0 -0.193433337642198 0.45789374433755692 0 -0.193433337642198 0.45789374433755692 0 -0.20176731502115269 0.44175413905293831 0 -0.18432665399575501 0.43667817799187769 0 -0.1989573137379585 0.42643222508220968 0 -0.18810923622776671 0.40875936451478018 0 -0.18432665399575501 0.43667817799187769 0 -0.20176731502115269 0.44175413905293831 0 -0.1989573137379585 0.42643222508220968 0 -0.18432665399575501 0.43667817799187769 0 -0.1989573137379585 0.42643222508220968 0 -0.18810923622776671 0.40875936451478018 0 -0.20642937140372261 0.41379852253211602 0 -0.20642937140372261 0.41379852253211602 0 -0.21415399204139551 0.43117092131933599 0 -0.22231650485467519 0.4184311695006514 0 -0.20642937140372261 0.41379852253211602 0 -0.22231650485467519 0.4184311695006514 0 -0.21801492073140169 0.40195426953664271 0 -0.1989573137379585 0.42643222508220968 0 -0.20642937140372261 0.41379852253211602 0 -0.21415399204139551 0.43117092131933599 0 -0.20176731502115269 0.44175413905293831 0 -0.1989573137379585 0.42643222508220968 0 -0.21415399204139551 0.43117092131933599 0 -0.21415399204139551 0.43117092131933599 0 -0.22231650485467519 0.4184311695006514 0 -0.2401470957773337 0.43580564415847117 0 -0.22231650485467519 0.4184311695006514 0 -0.23471445450358619 0.41091562903383527 0 -0.2401470957773337 0.43580564415847117 0 -0.22231650485467519 0.4184311695006514 0 -0.23471445450358619 0.41091562903383527 0 -0.21801492073140169 0.40195426953664271 0 -0.23471445450358619 0.41091562903383527 0 -0.24446726463622531 0.4065245488814066 0 -0.24539948521445129 0.42162133900916038 0 -0.25443672127411232 0.40753113851161837 0 -0.24446726463622531 0.4065245488814066 0 -0.24539948521445129 0.42162133900916038 0 -0.25992894544496009 0.42475478568301339 0 -0.24539948521445129 0.42162133900916038 0 -0.2401470957773337 0.43580564415847117 0 -0.23471445450358619 0.41091562903383527 0 -0.24539948521445129 0.42162133900916038 0 -0.2401470957773337 0.43580564415847117 0 -0.23471445450358619 0.41091562903383527 0 -0.2401470957773337 0.43580564415847117 0 -0.26123608930219788 0.39117128326985462 0 -0.23159671800447831 0.3863983882616735 0 -0.26123608930219788 0.39117128326985462 0 -0.24640294203220769 0.3818395311168023 0 -0.23159671800447831 0.3863983882616735 0 -0.23742025058172889 0.37839454391916311 0 -0.24640294203220769 0.3818395311168023 0 -0.23159671800447831 0.3863983882616735 0 -0.23742025058172889 0.37839454391916311 0 -0.23248536529626049 0.3741498274786077 0 -0.237137942874179 0.37268654133040358 0 -0.2560937295827152 0.38004031966349888 0 -0.24640294203220769 0.3818395311168023 0 -0.24507155163857419 0.37309708549036119 0 -0.23742025058172889 0.37839454391916311 0 -0.24640294203220769 0.3818395311168023 0 -0.24507155163857419 0.37309708549036119 0 -0.2487540922718337 0.39786746445057958 0 -0.23159671800447831 0.3863983882616735 0 -0.23471445450358619 0.41091562903383527 0 -0.24446726463622531 0.4065245488814066 0 -0.23159671800447831 0.3863983882616735 0 -0.26123608930219788 0.39117128326985462 0 -0.2487540922718337 0.39786746445057958 0 -0.23159671800447831 0.3863983882616735 0 -0.24446726463622531 0.4065245488814066 0 -0.23159671800447831 0.3863983882616735 0 -0.24446726463622531 0.4065245488814066 0 -0.2487540922718337 0.39786746445057958 0 -0.23159671800447831 0.3863983882616735 0 -0.25443672127411232 0.40753113851161837 0 -0.24446726463622531 0.4065245488814066 0 -0.2487540922718337 0.39786746445057958 0 -0.23471445450358619 0.41091562903383527 0 -0.2289816283852395 0.38465029664716027 0 -0.21801492073140169 0.40195426953664271 0 -0.2289816283852395 0.38465029664716027 0 -0.21682628828953601 0.39127062514643263 0 -0.21801492073140169 0.40195426953664271 0 -0.23471445450358619 0.41091562903383527 0 -0.2289816283852395 0.38465029664716027 0 -0.23471445450358619 0.41091562903383527 0 -0.2289816283852395 0.38465029664716027 0 -0.23159671800447831 0.3863983882616735 0 -0.2289816283852395 0.38465029664716027 0 -0.22783010215907801 0.37937450099982362 0 -0.2110628317511736 0.37267223749852713 0 -0.2289816283852395 0.38465029664716027 0 -0.211298722199082 0.38312975608042321 0 -0.21682628828953601 0.39127062514643263 0 -0.2289816283852395 0.38465029664716027 0 -0.211298722199082 0.38312975608042321 0 -0.2289816283852395 0.38465029664716027 0 -0.2110628317511736 0.37267223749852713 0 -0.2289816283852395 0.38465029664716027 0 -0.23159671800447831 0.3863983882616735 0 -0.22783010215907801 0.37937450099982362 0 -0.23159671800447831 0.3863983882616735 0 -0.22783010215907801 0.37937450099982362 0 -0.2289816283852395 0.38465029664716027 0 -0.23159671800447831 0.3863983882616735 0 -0.23742025058172889 0.37839454391916311 0 -0.23159671800447831 0.3863983882616735 0 -0.23248220177322251 0.37960332390968199 0 -0.23742025058172889 0.37839454391916311 0 -0.23248220177322251 0.37960332390968199 0 -0.23248536529626049 0.3741498274786077 0 -0.23248220177322251 0.37960332390968199 0 -0.22783010215907801 0.37937450099982362 0 -0.23248536529626049 0.3741498274786077 0 -0.23159671800447831 0.3863983882616735 0 -0.23248220177322251 0.37960332390968199 0 -0.22783010215907801 0.37937450099982362 0 -0.2289816283852395 0.38465029664716027 0 -0.22783010215907801 0.37937450099982362 0 -0.2289816283852395 0.38465029664716027 0 -0.211298722199082 0.38312975608042321 0 -0.2110628317511736 0.37267223749852713 0 -0.211298722199082 0.38312975608042321 0 -0.21682628828953601 0.39127062514643263 0 -0.19921251696210909 0.39604804477965611 0 -0.211298722199082 0.38312975608042321 0 -0.19200265662916621 0.38002246699149062 0 -0.2110628317511736 0.37267223749852713 0 -0.21682628828953601 0.39127062514643263 0 -0.21801492073140169 0.40195426953664271 0 -0.19921251696210909 0.39604804477965611 0 -0.20642937140372261 0.41379852253211602 0 -0.21801492073140169 0.40195426953664271 0 -0.19921251696210909 0.39604804477965611 0 -0.18810923622776671 0.40875936451478018 0 -0.19200265662916621 0.38002246699149062 0 -0.18322324318590411 0.39442576711758592 0 -0.18810923622776671 0.40875936451478018 0 -0.19921251696210909 0.39604804477965611 0 -0.19200265662916621 0.38002246699149062 0 -0.18810923622776671 0.40875936451478018 0 -0.19200265662916621 0.38002246699149062 0 -0.18810923622776671 0.40875936451478018 0 -0.20642937140372261 0.41379852253211602 0 -0.19921251696210909 0.39604804477965611 0 -0.19200265662916621 0.38002246699149062 0 -0.2110628317511736 0.37267223749852713 0 -0.211298722199082 0.38312975608042321 0 -0.19921251696210909 0.39604804477965611 0 -0.19200265662916621 0.38002246699149062 0 -0.211298722199082 0.38312975608042321 0 -0.19200265662916621 0.38002246699149062 0 -0.19200265662916621 0.38002246699149062 0 -0.1740224379994427 0.38845426973539521 0 -0.17379671726428361 0.37709072339136179 0 -0.19200265662916621 0.38002246699149062 0 -0.1740224379994427 0.38845426973539521 0 -0.18322324318590411 0.39442576711758592 0 -0.19200265662916621 0.38002246699149062 0 -0.1740224379994427 0.38845426973539521 0 -0.19200265662916621 0.38002246699149062 0 -0.17379671726428361 0.37709072339136179 0 -0.17379671726428361 0.37709072339136179 0 -0.16346290206688099 0.38443956891015302 0 -0.15559077789940101 0.37415897979123303 0 -0.16346290206688099 0.38443956891015302 0 -0.15615305753910369 0.39606798843310381 0 -0.15559077789940101 0.37415897979123303 0 -0.1740224379994427 0.38845426973539521 0 -0.16346290206688099 0.38443956891015302 0 -0.15615305753910369 0.39606798843310381 0 -0.17379671726428361 0.37709072339136179 0 -0.15559077789940101 0.37415897979123303 0 -0.1740224379994427 0.38845426973539521 0 -0.17379671726428361 0.37709072339136179 0 -0.16346290206688099 0.38443956891015302 0 -0.1740224379994427 0.38845426973539521 0 -0.15615305753910369 0.39606798843310381 0 -0.1740224379994427 0.38845426973539521 0 -0.16833431332443119 0.3998808110554265 0 -0.15615305753910369 0.39606798843310381 0 -0.16833431332443119 0.3998808110554265 0 -0.15857724357758909 0.40825208227788617 0 -0.15615305753910369 0.39606798843310381 0 -0.16833431332443119 0.3998808110554265 0 -0.1788694800566285 0.39964888318248548 0 -0.1704990924109715 0.41586719865120447 0 -0.1740224379994427 0.38845426973539521 0 -0.16833431332443119 0.3998808110554265 0 -0.1788694800566285 0.39964888318248548 0 -0.1740224379994427 0.38845426973539521 0 -0.1788694800566285 0.39964888318248548 0 -0.18322324318590411 0.39442576711758592 0 -0.18810923622776671 0.40875936451478018 0 -0.1788694800566285 0.39964888318248548 0 -0.18322324318590411 0.39442576711758592 0 -0.18810923622776671 0.40875936451478018 0 -0.1788694800566285 0.39964888318248548 0 -0.1704990924109715 0.41586719865120447 0 -0.18810923622776671 0.40875936451478018 0 -0.18432665399575501 0.43667817799187769 0 -0.1704990924109715 0.41586719865120447 0 -0.18432665399575501 0.43667817799187769 0 -0.1652439778291136 0.4337418550098307 0 -0.1704990924109715 0.41586719865120447 0 -0.18810923622776671 0.40875936451478018 0 -0.18432665399575501 0.43667817799187769 0 -0.1652439778291136 0.4337418550098307 0 -0.1704990924109715 0.41586719865120447 0 -0.146736243775825 0.42824328223605279 0 -0.1582351716154502 0.44869677905138389 0 -0.1652439778291136 0.4337418550098307 0 -0.146736243775825 0.42824328223605279 0 -0.16833431332443119 0.3998808110554265 0 -0.1704990924109715 0.41586719865120447 0 -0.15857724357758909 0.40825208227788617 0 -0.1704990924109715 0.41586719865120447 0 -0.15857724357758909 0.40825208227788617 0 -0.146736243775825 0.42824328223605279 0 -0.15857724357758909 0.40825208227788617 0 -0.146736243775825 0.42824328223605279 0 -0.15116351083761401 0.40120113101364302 0 -0.146736243775825 0.42824328223605279 0 -0.15116351083761401 0.40120113101364302 0 -0.1418994643888471 0.40871960798315649 0 -0.146736243775825 0.42824328223605279 0 -0.15116351083761401 0.40120113101364302 0 -0.1418994643888471 0.40871960798315649 0 -0.146736243775825 0.42824328223605279 0 -0.13457265184884129 0.41752639487503818 0 -0.146736243775825 0.42824328223605279 0 -0.12996922900776969 0.43349752018555421 0 -0.13457265184884129 0.41752639487503818 0 -0.12996922900776969 0.43349752018555421 0 -0.13457265184884129 0.41752639487503818 0 -0.1203746603948761 0.41251815508081607 0 -0.13457265184884129 0.41752639487503818 0 -0.13425335872459301 0.40139977936119048 0 -0.1203746603948761 0.41251815508081607 0 -0.1418994643888471 0.40871960798315649 0 -0.13457265184884129 0.41752639487503818 0 -0.13425335872459301 0.40139977936119048 0 -0.13425335872459301 0.40139977936119048 0 -0.1232329307171732 0.39081748336030991 0 -0.1203746603948761 0.41251815508081607 0 -0.1418994643888471 0.40871960798315649 0 -0.13425335872459301 0.40139977936119048 0 -0.1427715567573625 0.39522745242985818 0 -0.13425335872459301 0.40139977936119048 0 -0.13702674538908621 0.3859352177706592 0 -0.1427715567573625 0.39522745242985818 0 -0.13425335872459301 0.40139977936119048 0 -0.13702674538908621 0.3859352177706592 0 -0.1232329307171732 0.39081748336030991 0 -0.13702674538908621 0.3859352177706592 0 -0.15559077789940101 0.37415897979123303 0 -0.12796394006501099 0.36971016759926228 0 -0.13702674538908621 0.3859352177706592 0 -0.12796394006501099 0.36971016759926228 0 -0.1232329307171732 0.39081748336030991 0 -0.15116351083761401 0.40120113101364302 0 -0.15559077789940101 0.37415897979123303 0 -0.15615305753910369 0.39606798843310381 0 -0.15116351083761401 0.40120113101364302 0 -0.15559077789940101 0.37415897979123303 0 -0.15116351083761401 0.40120113101364302 0 -0.1427715567573625 0.39522745242985818 0 -0.15559077789940101 0.37415897979123303 0 -0.13702674538908621 0.3859352177706592 0 -0.1427715567573625 0.39522745242985818 0 -0.15559077789940101 0.37415897979123303 0 -0.15857724357758909 0.40825208227788617 0 -0.15615305753910369 0.39606798843310381 0 -0.15116351083761401 0.40120113101364302 0 -0.1418994643888471 0.40871960798315649 0 -0.15116351083761401 0.40120113101364302 0 -0.1427715567573625 0.39522745242985818 0 -0.14452541007402739 0.34557607129485329 0 -0.16128213292978361 0.33939566390266313 0 -0.15843645541459439 0.35677732184694838 0 -0.14452541007402739 0.34557607129485329 0 -0.1436044278846986 0.3595303602328429 0 -0.15843645541459439 0.35677732184694838 0 -0.15559077789940101 0.37415897979123303 0 -0.1436044278846986 0.3595303602328429 0 -0.12796394006501099 0.36971016759926228 0 -0.15559077789940101 0.37415897979123303 0 -0.1436044278846986 0.3595303602328429 0 -0.15843645541459439 0.35677732184694838 0 -0.15559077789940101 0.37415897979123303 0 -0.12796394006501099 0.36971016759926228 0 -0.1436044278846986 0.3595303602328429 0 -0.12796394006501099 0.36971016759926228 0 -0.13150555597045929 0.35142926063191721 0 -0.14452541007402739 0.34557607129485329 0 -0.1436044278846986 0.3595303602328429 0 -0.13150555597045929 0.35142926063191721 0 -0.14452541007402739 0.34557607129485329 0 -0.13150555597045929 0.35142926063191721 0 -0.13566624030762289 0.34033657152908869 0 -0.13248335184565271 0.33238614976276798 0 -0.13566624030762289 0.34033657152908869 0 -0.13712470336561469 0.32391964524753458 0 -0.13248335184565271 0.33238614976276798 0 -0.13712470336561469 0.32391964524753458 0 -0.118377308158662 0.32960323520238249 0 -0.13248335184565271 0.33238614976276798 0 -0.13566624030762289 0.34033657152908869 0 -0.122741643959492 0.33912597706905528 0 -0.14452541007402739 0.34557607129485329 0 -0.13566624030762289 0.34033657152908869 0 -0.13712470336561469 0.32391964524753458 0 -0.13150555597045929 0.35142926063191721 0 -0.13566624030762289 0.34033657152908869 0 -0.122741643959492 0.33912597706905528 0 -0.13248335184565271 0.33238614976276798 0 -0.118377308158662 0.32960323520238249 0 -0.13712470336561469 0.32391964524753458 0 -0.1161243536851109 0.32126165558681002 0 -0.13712470336561469 0.32391964524753458 0 -0.1147960104634634 0.30832139391327168 0 -0.13712470336561469 0.32391964524753458 0 -0.13528710567376709 0.31581649060604811 0 -0.1147960104634634 0.30832139391327168 0 -0.13712470336561469 0.32391964524753458 0 -0.15005813762593989 0.31525375646269921 0 -0.16128213292978361 0.33939566390266313 0 -0.13712470336561469 0.32391964524753458 0 -0.13528710567376709 0.31581649060604811 0 -0.15005813762593989 0.31525375646269921 0 -0.13712470336561469 0.32391964524753458 0 -0.16128213292978361 0.33939566390266313 0 -0.14452541007402739 0.34557607129485329 0 -0.13712470336561469 0.32391964524753458 0 -0.16128213292978361 0.33939566390266313 0 -0.16128213292978361 0.33939566390266313 0 -0.16505648963277081 0.31634154873297893 0 -0.18026432729818129 0.33261281114432728 0 -0.16128213292978361 0.33939566390266313 0 -0.16505648963277081 0.31634154873297893 0 -0.15005813762593989 0.31525375646269921 0 -0.16128213292978361 0.33939566390266313 0 -0.16505648963277081 0.31634154873297893 0 -0.18015237552054009 0.31644380666632538 0 -0.19354091981991059 0.32341826786166361 0 -0.18593753942008651 0.30646007121581109 0 -0.16505648963277081 0.31634154873297893 0 -0.18015237552054009 0.31644380666632538 0 -0.18026432729818129 0.33261281114432728 0 -0.18015237552054009 0.31644380666632538 0 -0.18026432729818129 0.33261281114432728 0 -0.19354091981991059 0.32341826786166361 0 -0.16128213292978361 0.33939566390266313 0 -0.18026432729818129 0.33261281114432728 0 -0.1778903996787258 0.35049768183041707 0 -0.18026432729818129 0.33261281114432728 0 -0.1778903996787258 0.35049768183041707 0 -0.1876317379332563 0.345350048859141 0 -0.1778903996787258 0.35049768183041707 0 -0.1944986664276705 0.3615996997581673 0 -0.1778903996787258 0.35049768183041707 0 -0.1712118079836599 0.36308119971963609 0 -0.1944986664276705 0.3615996997581673 0 -0.1778903996787258 0.35049768183041707 0 -0.1944986664276705 0.3615996997581673 0 -0.1876317379332563 0.345350048859141 0 -0.16128213292978361 0.33939566390266313 0 -0.1778903996787258 0.35049768183041707 0 -0.15843645541459439 0.35677732184694838 0 -0.16128213292978361 0.33939566390266313 0 -0.15843645541459439 0.35677732184694838 0 -0.16128213292978361 0.33939566390266313 0 -0.1778903996787258 0.35049768183041707 0 -0.1778903996787258 0.35049768183041707 0 -0.15843645541459439 0.35677732184694838 0 -0.1712118079836599 0.36308119971963609 0 -0.15559077789940101 0.37415897979123303 0 -0.15843645541459439 0.35677732184694838 0 -0.15559077789940101 0.37415897979123303 0 -0.15843645541459439 0.35677732184694838 0 -0.1712118079836599 0.36308119971963609 0 -0.17379671726428361 0.37709072339136179 0 -0.15559077789940101 0.37415897979123303 0 -0.1712118079836599 0.36308119971963609 0 -0.19200265662916621 0.38002246699149062 0 -0.17379671726428361 0.37709072339136179 0 -0.1944986664276705 0.3615996997581673 0 -0.17379671726428361 0.37709072339136179 0 -0.1712118079836599 0.36308119971963609 0 -0.1944986664276705 0.3615996997581673 0 -0.1944986664276705 0.3615996997581673 0 -0.2110628317511736 0.37267223749852713 0 -0.19200265662916621 0.38002246699149062 0 -0.1944986664276705 0.3615996997581673 0 -0.19200265662916621 0.38002246699149062 0 -0.1944986664276705 0.3615996997581673 0 -0.2110628317511736 0.37267223749852713 0 -0.1944986664276705 0.3615996997581673 0 -0.2073214160740704 0.34590654575438262 0 -0.197873558328447 0.33669000270365301 0 -0.1944986664276705 0.3615996997581673 0 -0.197873558328447 0.33669000270365301 0 -0.1944986664276705 0.3615996997581673 0 -0.2073214160740704 0.34590654575438262 0 -0.20665738114653409 0.36130749654331479 0 -0.1944986664276705 0.3615996997581673 0 -0.1876317379332563 0.345350048859141 0 -0.197873558328447 0.33669000270365301 0 -0.2073214160740704 0.34590654575438262 0 -0.22110191232823101 0.36839482364710119 0 -0.2073214160740704 0.34590654575438262 0 -0.20665738114653409 0.36130749654331479 0 -0.21153588532500181 0.36207027586083212 0 -0.2073214160740704 0.34590654575438262 0 -0.21153588532500181 0.36207027586083212 0 -0.22110191232823101 0.36839482364710119 0 -0.2073214160740704 0.34590654575438262 0 -0.21622846350863251 0.35299043607687708 0 -0.22110191232823101 0.36839482364710119 0 -0.2073214160740704 0.34590654575438262 0 -0.21622846350863251 0.35299043607687708 0 -0.21711209476383639 0.34203159341161249 0 -0.1944986664276705 0.3615996997581673 0 -0.20665738114653409 0.36130749654331479 0 -0.2110628317511736 0.37267223749852713 0 -0.20665738114653409 0.36130749654331479 0 -0.21153588532500181 0.36207027586083212 0 -0.2110628317511736 0.37267223749852713 0 -0.21153588532500181 0.36207027586083212 0 -0.2110628317511736 0.37267223749852713 0 -0.22110191232823101 0.36839482364710119 0 -0.2110628317511736 0.37267223749852713 0 -0.22110191232823101 0.36839482364710119 0 -0.22783010215907801 0.37937450099982362 0 -0.2110628317511736 0.37267223749852713 0 -0.22110191232823101 0.36839482364710119 0 -0.22783010215907801 0.37937450099982362 0 -0.22506504962741961 0.36670622495038913 0 -0.22783010215907801 0.37937450099982362 0 -0.22110191232823101 0.36839482364710119 0 -0.22506504962741961 0.36670622495038913 0 -0.22783010215907801 0.37937450099982362 0 -0.22110191232823101 0.36839482364710119 0 -0.22110191232823101 0.36839482364710119 0 -0.22506504962741961 0.36670622495038913 0 -0.22783010215907801 0.37937450099982362 0 -0.229501313582714 0.3707740285046483 0 -0.22506504962741961 0.36670622495038913 0 -0.22783010215907801 0.37937450099982362 0 -0.229501313582714 0.3707740285046483 0 -0.23248536529626049 0.3741498274786077 0 -0.229501313582714 0.3707740285046483 0 -0.2287302936412379 0.36514455150895953 0 -0.22506504962741961 0.36670622495038913 0 -0.229501313582714 0.3707740285046483 0 -0.23339575718957351 0.3684950375854617 0 -0.2287302936412379 0.36514455150895953 0 -0.23339575718957351 0.3684950375854617 0 -0.23248536529626049 0.3741498274786077 0 -0.237137942874179 0.37268654133040358 0 -0.229501313582714 0.3707740285046483 0 -0.23339575718957351 0.3684950375854617 0 -0.23248536529626049 0.3741498274786077 0 -0.2287302936412379 0.36514455150895953 0 -0.2289847924495747 0.35944979673795208 0 -0.23462614204162871 0.36193401622845112 0 -0.23339575718957351 0.3684950375854617 0 -0.2287302936412379 0.36514455150895953 0 -0.23462614204162871 0.36193401622845112 0 -0.2287302936412379 0.36514455150895953 0 -0.22506504962741961 0.36670622495038913 0 -0.2287302936412379 0.36514455150895953 0 -0.2289847924495747 0.35944979673795208 0 -0.2239051293727172 0.36139197149094637 0 -0.22110191232823101 0.36839482364710119 0 -0.2239051293727172 0.36139197149094637 0 -0.22154876073365579 0.35909311603687921 0 -0.21622846350863251 0.35299043607687708 0 -0.22110191232823101 0.36839482364710119 0 -0.22154876073365579 0.35909311603687921 0 -0.2287302936412379 0.36514455150895953 0 -0.2239051293727172 0.36139197149094637 0 -0.22506504962741961 0.36670622495038913 0 -0.22110191232823101 0.36839482364710119 0 -0.2239051293727172 0.36139197149094637 0 -0.22506504962741961 0.36670622495038913 0 -0.2239051293727172 0.36139197149094637 0 -0.22506504962741961 0.36670622495038913 0 -0.21622846350863251 0.35299043607687708 0 -0.22154876073365579 0.35909311603687921 0 -0.2249595377250426 0.3535952329325921 0 -0.2239051293727172 0.36139197149094637 0 -0.22154876073365579 0.35909311603687921 0 -0.2249595377250426 0.3535952329325921 0 -0.2289847924495747 0.35944979673795208 0 -0.2239051293727172 0.36139197149094637 0 -0.2249595377250426 0.3535952329325921 0 -0.21622846350863251 0.35299043607687708 0 -0.2249595377250426 0.3535952329325921 0 -0.22399557766145009 0.3446724475075314 0 -0.21622846350863251 0.35299043607687708 0 -0.22399557766145009 0.3446724475075314 0 -0.21711209476383639 0.34203159341161249 0 -0.2249595377250426 0.3535952329325921 0 -0.22399557766145009 0.3446724475075314 0 -0.23214746714678799 0.34799149612710301 0 -0.2289847924495747 0.35944979673795208 0 -0.2249595377250426 0.3535952329325921 0 -0.232702859467247 0.35518321152881138 0 -0.2249595377250426 0.3535952329325921 0 -0.23214746714678799 0.34799149612710301 0 -0.232702859467247 0.35518321152881138 0 -0.2289847924495747 0.35944979673795208 0 -0.232702859467247 0.35518321152881138 0 -0.23462614204162871 0.36193401622845112 0 -0.232702859467247 0.35518321152881138 0 -0.23708631196676869 0.35765945639158631 0 -0.23462614204162871 0.36193401622845112 0 -0.23214746714678799 0.34799149612710301 0 -0.232702859467247 0.35518321152881138 0 -0.23868609591597759 0.35227544345544881 0 -0.232702859467247 0.35518321152881138 0 -0.23708631196676869 0.35765945639158631 0 -0.23868609591597759 0.35227544345544881 0 -0.23708631196676869 0.35765945639158631 0 -0.23868609591597759 0.35227544345544881 0 -0.24197092156993499 0.35865019818147748 0 -0.23214746714678799 0.34799149612710301 0 -0.23868609591597759 0.35227544345544881 0 -0.24014865592026091 0.34488460349518613 0 -0.23868609591597759 0.35227544345544881 0 -0.24014865592026091 0.34488460349518613 0 -0.2474994420061162 0.35137415341270778 0 -0.24014865592026091 0.34488460349518613 0 -0.2474994420061162 0.35137415341270778 0 -0.24659695281660601 0.34418041765800123 0 -0.25368043652116851 0.34365645987938581 0 -0.2474994420061162 0.35137415341270778 0 -0.24659695281660601 0.34418041765800123 0 -0.23868609591597759 0.35227544345544881 0 -0.24197092156993499 0.35865019818147748 0 -0.2474994420061162 0.35137415341270778 0 -0.24197092156993499 0.35865019818147748 0 -0.2474994420061162 0.35137415341270778 0 -0.248255913421734 0.35836464571649412 0 -0.25081124317754028 0.36495989425522968 0 -0.248255913421734 0.35836464571649412 0 -0.24398077621117059 0.36424438698549588 0 -0.24197092156993499 0.35865019818147748 0 -0.248255913421734 0.35836464571649412 0 -0.24398077621117059 0.36424438698549588 0 -0.24398077621117059 0.36424438698549588 0 -0.24507155163857419 0.37309708549036119 0 -0.2384856196122109 0.36748449934990363 0 -0.25081124317754028 0.36495989425522968 0 -0.24398077621117059 0.36424438698549588 0 -0.24507155163857419 0.37309708549036119 0 -0.23742025058172889 0.37839454391916311 0 -0.24507155163857419 0.37309708549036119 0 -0.237137942874179 0.37268654133040358 0 -0.24507155163857419 0.37309708549036119 0 -0.2384856196122109 0.36748449934990363 0 -0.237137942874179 0.37268654133040358 0 -0.23339575718957351 0.3684950375854617 0 -0.2384856196122109 0.36748449934990363 0 -0.237137942874179 0.37268654133040358 0 -0.23339575718957351 0.3684950375854617 0 -0.2384856196122109 0.36748449934990363 0 -0.23462614204162871 0.36193401622845112 0 -0.2384856196122109 0.36748449934990363 0 -0.23462614204162871 0.36193401622845112 0 -0.23921977308823369 0.36277535003063738 0 -0.23708631196676869 0.35765945639158631 0 -0.23462614204162871 0.36193401622845112 0 -0.23921977308823369 0.36277535003063738 0 -0.23708631196676869 0.35765945639158631 0 -0.24197092156993499 0.35865019818147748 0 -0.23921977308823369 0.36277535003063738 0 -0.24197092156993499 0.35865019818147748 0 -0.24398077621117059 0.36424438698549588 0 -0.23921977308823369 0.36277535003063738 0 -0.24398077621117059 0.36424438698549588 0 -0.2384856196122109 0.36748449934990363 0 -0.23921977308823369 0.36277535003063738 0 -0.23849393053106641 0.32795833173514138 0 -0.2355048975007363 0.31629870412113048 0 -0.24590158606486731 0.31892834640800533 0 -0.2355048975007363 0.31629870412113048 0 -0.24590158606486731 0.31892834640800533 0 -0.24410435883272499 0.30730467973507741 0 -0.2579230396276298 0.31303410818490363 0 -0.24590158606486731 0.31892834640800533 0 -0.24410435883272499 0.30730467973507741 0 -0.25513146044283957 0.32598646153315808 0 -0.24590158606486731 0.31892834640800533 0 -0.246789447101017 0.32695352585138371 0 -0.23849393053106641 0.32795833173514138 0 -0.24590158606486731 0.31892834640800533 0 -0.246789447101017 0.32695352585138371 0 -0.25513146044283957 0.32598646153315808 0 -0.246789447101017 0.32695352585138371 0 -0.24763081136529461 0.33494096372922999 0 -0.23849393053106641 0.32795833173514138 0 -0.246789447101017 0.32695352585138371 0 -0.24763081136529461 0.33494096372922999 0 -0.24659695281660601 0.34418041765800123 0 -0.24763081136529461 0.33494096372922999 0 -0.2401371347952754 0.33758706316301113 0 -0.25368043652116851 0.34365645987938581 0 -0.24659695281660601 0.34418041765800123 0 -0.24763081136529461 0.33494096372922999 0 -0.24014865592026091 0.34488460349518613 0 -0.24659695281660601 0.34418041765800123 0 -0.2401371347952754 0.33758706316301113 0 -0.23214746714678799 0.34799149612710301 0 -0.24014865592026091 0.34488460349518613 0 -0.23239207619074989 0.33733803784304872 0 -0.24014865592026091 0.34488460349518613 0 -0.2401371347952754 0.33758706316301113 0 -0.23239207619074989 0.33733803784304872 0 -0.23849393053106641 0.32795833173514138 0 -0.24763081136529461 0.33494096372922999 0 -0.2401371347952754 0.33758706316301113 0 -0.23849393053106641 0.32795833173514138 0 -0.2401371347952754 0.33758706316301113 0 -0.23239207619074989 0.33733803784304872 0 -0.23239207619074989 0.33733803784304872 0 -0.22343300475429789 0.33584365750468509 0 -0.22787459063421209 0.32654515700405817 0 -0.23849393053106641 0.32795833173514138 0 -0.23239207619074989 0.33733803784304872 0 -0.22787459063421209 0.32654515700405817 0 -0.22399557766145009 0.3446724475075314 0 -0.23214746714678799 0.34799149612710301 0 -0.23239207619074989 0.33733803784304872 0 -0.22399557766145009 0.3446724475075314 0 -0.23239207619074989 0.33733803784304872 0 -0.22343300475429789 0.33584365750468509 0 -0.22399557766145009 0.3446724475075314 0 -0.22343300475429789 0.33584365750468509 0 -0.21711209476383639 0.34203159341161249 0 -0.22343300475429789 0.33584365750468509 0 -0.22787459063421209 0.32654515700405817 0 -0.214582011820731 0.33074488021458681 0 -0.22787459063421209 0.32654515700405817 0 -0.22256089289947889 0.31285758013840059 0 -0.214582011820731 0.33074488021458681 0 -0.23849393053106641 0.32795833173514138 0 -0.2355048975007363 0.31629870412113048 0 -0.22787459063421209 0.32654515700405817 0 -0.2355048975007363 0.31629870412113048 0 -0.22787459063421209 0.32654515700405817 0 -0.22256089289947889 0.31285758013840059 0 -0.22256089289947889 0.31285758013840059 0 -0.20814440165080289 0.31535590543381581 0 -0.214582011820731 0.33074488021458681 0 -0.20814440165080289 0.31535590543381581 0 -0.214582011820731 0.33074488021458681 0 -0.20589718734137871 0.32885639981611209 0 -0.2073214160740704 0.34590654575438262 0 -0.214582011820731 0.33074488021458681 0 -0.20589718734137871 0.32885639981611209 0 -0.2073214160740704 0.34590654575438262 0 -0.21711209476383639 0.34203159341161249 0 -0.214582011820731 0.33074488021458681 0 -0.22343300475429789 0.33584365750468509 0 -0.21711209476383639 0.34203159341161249 0 -0.214582011820731 0.33074488021458681 0 -0.2073214160740704 0.34590654575438262 0 -0.197873558328447 0.33669000270365301 0 -0.19354091981991059 0.32341826786166361 0 -0.2073214160740704 0.34590654575438262 0 -0.20589718734137871 0.32885639981611209 0 -0.19354091981991059 0.32341826786166361 0 -0.18026432729818129 0.33261281114432728 0 -0.1876317379332563 0.345350048859141 0 -0.197873558328447 0.33669000270365301 0 -0.18026432729818129 0.33261281114432728 0 -0.197873558328447 0.33669000270365301 0 -0.19354091981991059 0.32341826786166361 0 -0.2073214160740704 0.34590654575438262 0 -0.19354091981991059 0.32341826786166361 0 -0.20814440165080289 0.31535590543381581 0 -0.19354091981991059 0.32341826786166361 0 -0.1968910746106588 0.30294802942791871 0 -0.20814440165080289 0.31535590543381581 0 -0.20589718734137871 0.32885639981611209 0 -0.19354091981991059 0.32341826786166361 0 -0.19354091981991059 0.32341826786166361 0 -0.1968910746106588 0.30294802942791871 0 -0.18593753942008651 0.30646007121581109 0 -0.1968910746106588 0.30294802942791871 0 -0.18292734299439711 0.28760956803163301 0 -0.18593753942008651 0.30646007121581109 0 -0.1968910746106588 0.30294802942791871 0 -0.19959370522924999 0.28857551862397368 0 -0.18292734299439711 0.28760956803163301 0 -0.19959370522924999 0.28857551862397368 0 -0.18967870183386801 0.27333845197175088 0 -0.18292734299439711 0.28760956803163301 0 -0.1968910746106588 0.30294802942791871 0 -0.19959370522924999 0.28857551862397368 0 -0.2117316528941674 0.29884943333469738 0 -0.19959370522924999 0.28857551862397368 0 -0.2117316528941674 0.29884943333469738 0 -0.21667191069777411 0.27824766948075808 0 -0.2117316528941674 0.29884943333469738 0 -0.22652793227703991 0.29511189690331718 0 -0.21667191069777411 0.27824766948075808 0 -0.20814440165080289 0.31535590543381581 0 -0.1968910746106588 0.30294802942791871 0 -0.2117316528941674 0.29884943333469738 0 -0.22256089289947889 0.31285758013840059 0 -0.20814440165080289 0.31535590543381581 0 -0.2117316528941674 0.29884943333469738 0 -0.22256089289947889 0.31285758013840059 0 -0.23360268989923161 0.30533656225006611 0 -0.22652793227703991 0.29511189690331718 0 -0.22256089289947889 0.31285758013840059 0 -0.2117316528941674 0.29884943333469738 0 -0.22652793227703991 0.29511189690331718 0 -0.2355048975007363 0.31629870412113048 0 -0.22256089289947889 0.31285758013840059 0 -0.23360268989923161 0.30533656225006611 0 -0.23360268989923161 0.30533656225006611 0 -0.22652793227703991 0.29511189690331718 0 -0.23931536798617781 0.29510995035240489 0 -0.22652793227703991 0.29511189690331718 0 -0.23416307858718921 0.27986431622324481 0 -0.21667191069777411 0.27824766948075808 0 -0.22652793227703991 0.29511189690331718 0 -0.23931536798617781 0.29510995035240489 0 -0.23416307858718921 0.27986431622324481 0 -0.23931536798617781 0.29510995035240489 0 -0.24915420104852881 0.28720616524545362 0 -0.23416307858718921 0.27986431622324481 0 -0.25250351686746902 0.29989466443510299 0 -0.23931536798617781 0.29510995035240489 0 -0.24915420104852881 0.28720616524545362 0 -0.25250351686746902 0.29989466443510299 0 -0.23931536798617781 0.29510995035240489 0 -0.24410435883272499 0.30730467973507741 0 -0.2355048975007363 0.31629870412113048 0 -0.23360268989923161 0.30533656225006611 0 -0.24410435883272499 0.30730467973507741 0 -0.23360268989923161 0.30533656225006611 0 -0.23931536798617781 0.29510995035240489 0 -0.24410435883272499 0.30730467973507741 0 -0.2381547251009824 0.25036062724400548 0 -0.24615280621576621 0.26548844390646842 0 -0.22632201528160181 0.26194095871487422 0 -0.2381547251009824 0.25036062724400548 0 -0.249435427503925 0.25000056447435692 0 -0.24615280621576621 0.26548844390646842 0 -0.24615280621576621 0.26548844390646842 0 -0.23416307858718921 0.27986431622324481 0 -0.22632201528160181 0.26194095871487422 0 -0.24915420104852881 0.28720616524545362 0 -0.24615280621576621 0.26548844390646842 0 -0.23416307858718921 0.27986431622324481 0 -0.23416307858718921 0.27986431622324481 0 -0.22632201528160181 0.26194095871487422 0 -0.21667191069777411 0.27824766948075808 0 -0.2381547251009824 0.25036062724400548 0 -0.22632201528160181 0.26194095871487422 0 -0.22359991905300591 0.24445062206085111 0 -0.22632201528160181 0.26194095871487422 0 -0.19918965203489319 0.25323407337391712 0 -0.22359991905300591 0.24445062206085111 0 -0.22632201528160181 0.26194095871487422 0 -0.21667191069777411 0.27824766948075808 0 -0.19918965203489319 0.25323407337391712 0 -0.21667191069777411 0.27824766948075808 0 -0.18967870183386801 0.27333845197175088 0 -0.21667191069777411 0.27824766948075808 0 -0.18967870183386801 0.27333845197175088 0 -0.19918965203489319 0.25323407337391712 0 -0.19959370522924999 0.28857551862397368 0 -0.21667191069777411 0.27824766948075808 0 -0.18967870183386801 0.27333845197175088 0 -0.18967870183386801 0.27333845197175088 0 -0.19918965203489319 0.25323407337391712 0 -0.17924130513872569 0.26041200934687198 0 -0.19918965203489319 0.25323407337391712 0 -0.17924130513872569 0.26041200934687198 0 -0.18967870183386801 0.27333845197175088 0 -0.19918965203489319 0.25323407337391712 0 -0.1726052030387418 0.27023331839360992 0 -0.17672660698543041 0.2450594069896791 0 -0.17924130513872569 0.26041200934687198 0 -0.1726052030387418 0.27023331839360992 0 -0.17672660698543041 0.2450594069896791 0 -0.19918965203489319 0.25323407337391712 0 -0.17924130513872569 0.26041200934687198 0 -0.17672660698543041 0.2450594069896791 0 -0.16476888297622971 0.25602604930352812 0 -0.1726052030387418 0.27023331839360992 0 -0.15243209967297619 0.26656446402532918 0 -0.16476888297622971 0.25602604930352812 0 -0.1726052030387418 0.27023331839360992 0 -0.17672660698543041 0.2450594069896791 0 -0.1610836178181364 0.2762893869838719 0 -0.15564269798255731 0.28811390744384968 0 -0.15243209967297619 0.26656446402532918 0 -0.1610836178181364 0.2762893869838719 0 -0.1726052030387418 0.27023331839360992 0 -0.16883084633575579 0.29328743356329429 0 -0.1610836178181364 0.2762893869838719 0 -0.1726052030387418 0.27023331839360992 0 -0.15243209967297619 0.26656446402532918 0 -0.1726052030387418 0.27023331839360992 0 -0.15243209967297619 0.26656446402532918 0 -0.18967870183386801 0.27333845197175088 0 -0.1726052030387418 0.27023331839360992 0 -0.18967870183386801 0.27333845197175088 0 -0.1726052030387418 0.27023331839360992 0 -0.17851052355069061 0.28111719299007198 0 -0.18967870183386801 0.27333845197175088 0 -0.17924130513872569 0.26041200934687198 0 -0.1726052030387418 0.27023331839360992 0 -0.18967870183386801 0.27333845197175088 0 -0.17851052355069061 0.28111719299007198 0 -0.18292734299439711 0.28760956803163301 0 -0.18967870183386801 0.27333845197175088 0 -0.18292734299439711 0.28760956803163301 0 -0.1726052030387418 0.27023331839360992 0 -0.17851052355069061 0.28111719299007198 0 -0.16883084633575579 0.29328743356329429 0 -0.18292734299439711 0.28760956803163301 0 -0.176175984154926 0.30188068409151497 0 -0.18292734299439711 0.28760956803163301 0 -0.176175984154926 0.30188068409151497 0 -0.16883084633575579 0.29328743356329429 0 -0.17851052355069061 0.28111719299007198 0 -0.18292734299439711 0.28760956803163301 0 -0.16883084633575579 0.29328743356329429 0 -0.18292734299439711 0.28760956803163301 0 -0.18593753942008651 0.30646007121581109 0 -0.176175984154926 0.30188068409151497 0 -0.18015237552054009 0.31644380666632538 0 -0.18593753942008651 0.30646007121581109 0 -0.176175984154926 0.30188068409151497 0 -0.16505648963277081 0.31634154873297893 0 -0.18015237552054009 0.31644380666632538 0 -0.176175984154926 0.30188068409151497 0 -0.16505648963277081 0.31634154873297893 0 -0.176175984154926 0.30188068409151497 0 -0.16883084633575579 0.29328743356329429 0 -0.16505648963277081 0.31634154873297893 0 -0.16883084633575579 0.29328743356329429 0 -0.16505648963277081 0.31634154873297893 0 -0.16883084633575579 0.29328743356329429 0 -0.1548031483610689 0.30324951582385901 0 -0.15005813762593989 0.31525375646269921 0 -0.16505648963277081 0.31634154873297893 0 -0.1548031483610689 0.30324951582385901 0 -0.1726052030387418 0.27023331839360992 0 -0.16883084633575579 0.29328743356329429 0 -0.1610836178181364 0.2762893869838719 0 -0.16883084633575579 0.29328743356329429 0 -0.15564269798255731 0.28811390744384968 0 -0.16883084633575579 0.29328743356329429 0 -0.15564269798255731 0.28811390744384968 0 -0.1548031483610689 0.30324951582385901 0 -0.15564269798255731 0.28811390744384968 0 -0.14678045925907779 0.29680204395800303 0 -0.1548031483610689 0.30324951582385901 0 -0.14206035996479041 0.28912345579663279 0 -0.14678045925907779 0.29680204395800303 0 -0.1397947742064381 0.29913891173837709 0 -0.15564269798255731 0.28811390744384968 0 -0.14206035996479041 0.28912345579663279 0 -0.14678045925907779 0.29680204395800303 0 -0.15564269798255731 0.28811390744384968 0 -0.14206035996479041 0.28912345579663279 0 -0.14154353395585409 0.27800723532345228 0 -0.15005813762593989 0.31525375646269921 0 -0.1548031483610689 0.30324951582385901 0 -0.14462508507352129 0.30524255006214629 0 -0.14678045925907779 0.29680204395800303 0 -0.1548031483610689 0.30324951582385901 0 -0.14462508507352129 0.30524255006214629 0 -0.14678045925907779 0.29680204395800303 0 -0.14462508507352129 0.30524255006214629 0 -0.1397947742064381 0.29913891173837709 0 -0.13528710567376709 0.31581649060604811 0 -0.15005813762593989 0.31525375646269921 0 -0.14462508507352129 0.30524255006214629 0 -0.13528710567376709 0.31581649060604811 0 -0.12926835532243419 0.30075690948640388 0 -0.13022086106103389 0.28871001826905551 0 -0.13528710567376709 0.31581649060604811 0 -0.1397947742064381 0.29913891173837709 0 -0.13022086106103389 0.28871001826905551 0 -0.13528710567376709 0.31581649060604811 0 -0.13022086106103389 0.28871001826905551 0 -0.13528710567376709 0.31581649060604811 0 -0.14462508507352129 0.30524255006214629 0 -0.1397947742064381 0.29913891173837709 0 -0.13528710567376709 0.31581649060604811 0 -0.12926835532243419 0.30075690948640388 0 -0.1147960104634634 0.30832139391327168 0 -0.14206035996479041 0.28912345579663279 0 -0.13022086106103389 0.28871001826905551 0 -0.14154353395585409 0.27800723532345228 0 -0.14206035996479041 0.28912345579663279 0 -0.1397947742064381 0.29913891173837709 0 -0.13022086106103389 0.28871001826905551 0 -0.12926835532243419 0.30075690948640388 0 -0.13022086106103389 0.28871001826905551 0 -0.1167690343654553 0.29370753043912179 0 -0.13022086106103389 0.28871001826905551 0 -0.1323331887336478 0.26290910293088432 0 -0.14154353395585409 0.27800723532345228 0 -0.13022086106103389 0.28871001826905551 0 -0.12515461644829939 0.26160354593206298 0 -0.12030084411280979 0.27696641295795332 0 -0.13022086106103389 0.28871001826905551 0 -0.12515461644829939 0.26160354593206298 0 -0.13022086106103389 0.28871001826905551 0 -0.12515461644829939 0.26160354593206298 0 -0.1323331887336478 0.26290910293088432 0 -0.1323331887336478 0.26290910293088432 0 -0.1386323871262797 0.23956516594961019 0 -0.12515461644829939 0.26160354593206298 0 -0.1323331887336478 0.26290910293088432 0 -0.12515461644829939 0.26160354593206298 0 -0.1323331887336478 0.26290910293088432 0 -0.12907737633496441 0.24962857445301059 0 -0.1323331887336478 0.26290910293088432 0 -0.1386323871262797 0.23956516594961019 0 -0.12907737633496441 0.24962857445301059 0 -0.12515461644829939 0.26160354593206298 0 -0.12907737633496441 0.24962857445301059 0 -0.1212830836163822 0.24088926827038079 0 -0.1323331887336478 0.26290910293088432 0 -0.15243209967297619 0.26656446402532918 0 -0.14868184259594561 0.24139284649683301 0 -0.15243209967297619 0.26656446402532918 0 -0.14868184259594561 0.24139284649683301 0 -0.16476888297622971 0.25602604930352812 0 -0.15243209967297619 0.26656446402532918 0 -0.14868184259594561 0.24139284649683301 0 -0.1323331887336478 0.26290910293088432 0 -0.15243209967297619 0.26656446402532918 0 -0.15564269798255731 0.28811390744384968 0 -0.15243209967297619 0.26656446402532918 0 -0.1323331887336478 0.26290910293088432 0 -0.15243209967297619 0.26656446402532918 0 -0.14154353395585409 0.27800723532345228 0 -0.15564269798255731 0.28811390744384968 0 -0.15243209967297619 0.26656446402532918 0 -0.14154353395585409 0.27800723532345228 0 -0.1009275834509456 0.26867340665007389 0 -0.10903011336986559 0.28162300019745062 0 -0.093055835147581936 0.27830993635481338 0 -0.1009275834509456 0.26867340665007389 0 -0.1157426567319621 0.26744421432395449 0 -0.10903011336986559 0.28162300019745062 0 -0.1009275834509456 0.26867340665007389 0 -0.10903011336986559 0.28162300019745062 0 -0.1009275834509456 0.26867340665007389 0 -0.090035611100586166 0.26680364507765603 0 -0.093055835147581936 0.27830993635481338 0 -0.1009275834509456 0.26867340665007389 0 -0.10898983499016381 0.25866367951737868 0 -0.092825053532027996 0.25572381310269582 0 -0.10898983499016381 0.25866367951737868 0 -0.092825053532027996 0.25572381310269582 0 -0.1009275834509456 0.26867340665007389 0 -0.092825053532027996 0.25572381310269582 0 -0.1009275834509456 0.26867340665007389 0 -0.090035611100586166 0.26680364507765603 0 -0.092825053532027996 0.25572381310269582 0 -0.10898983499016381 0.25866367951737868 0 -0.092825053532027996 0.25572381310269582 0 -0.09788140403950131 0.24634004413176361 0 -0.092803926884228172 0.25053040598172899 0 -0.092825053532027996 0.25572381310269582 0 -0.09788140403950131 0.24634004413176361 0 -0.1009275834509456 0.26867340665007389 0 -0.10898983499016381 0.25866367951737868 0 -0.1157426567319621 0.26744421432395449 0 -0.12515461644829939 0.26160354593206298 0 -0.10898983499016381 0.25866367951737868 0 -0.12515461644829939 0.26160354593206298 0 -0.115970302515576 0.25098152906068399 0 -0.1212830836163822 0.24088926827038079 0 -0.12515461644829939 0.26160354593206298 0 -0.10898983499016381 0.25866367951737868 0 -0.1157426567319621 0.26744421432395449 0 -0.12515461644829939 0.26160354593206298 0 -0.1212830836163822 0.24088926827038079 0 -0.10898983499016381 0.25866367951737868 0 -0.115970302515576 0.25098152906068399 0 -0.1084536750074588 0.24276962252291351 0 -0.12515461644829939 0.26160354593206298 0 -0.10898983499016381 0.25866367951737868 0 -0.115970302515576 0.25098152906068399 0 -0.12515461644829939 0.26160354593206298 0 -0.1157426567319621 0.26744421432395449 0 -0.12030084411280979 0.27696641295795332 0 -0.1157426567319621 0.26744421432395449 0 -0.12030084411280979 0.27696641295795332 0 -0.10903011336986559 0.28162300019745062 0 -0.13022086106103389 0.28871001826905551 0 -0.12030084411280979 0.27696641295795332 0 -0.1190802132272912 0.2852517404658953 0 -0.13022086106103389 0.28871001826905551 0 -0.1190802132272912 0.2852517404658953 0 -0.1167690343654553 0.29370753043912179 0 -0.12030084411280979 0.27696641295795332 0 -0.1190802132272912 0.2852517404658953 0 -0.10903011336986559 0.28162300019745062 0 -0.1190802132272912 0.2852517404658953 0 -0.1167690343654553 0.29370753043912179 0 -0.10903011336986559 0.28162300019745062 0 -0.1167690343654553 0.29370753043912179 0 -0.1147960104634634 0.30832139391327168 0 -0.097491782498826549 0.29675415140728062 0 -0.12926835532243419 0.30075690948640388 0 -0.1167690343654553 0.29370753043912179 0 -0.1147960104634634 0.30832139391327168 0 -0.12926835532243419 0.30075690948640388 0 -0.1147960104634634 0.30832139391327168 0 -0.1147960104634634 0.30832139391327168 0 -0.097491782498826549 0.29675415140728062 0 -0.09512400400460716 0.31860366592608508 0 -0.1147960104634634 0.30832139391327168 0 -0.097491782498826549 0.29675415140728062 0 -0.1167690343654553 0.29370753043912179 0 -0.097491782498826549 0.29675415140728062 0 -0.10903011336986559 0.28162300019745062 0 -0.097491782498826549 0.29675415140728062 0 -0.10903011336986559 0.28162300019745062 0 -0.093055835147581936 0.27830993635481338 0 -0.097491782498826549 0.29675415140728062 0 -0.080187554534190311 0.28518690890128851 0 -0.082180653803224438 0.30238691344433472 0 -0.097491782498826549 0.29675415140728062 0 -0.080187554534190311 0.28518690890128851 0 -0.093055835147581936 0.27830993635481338 0 -0.097491782498826549 0.29675415140728062 0 -0.080187554534190311 0.28518690890128851 0 -0.097491782498826549 0.29675415140728062 0 -0.082180653803224438 0.30238691344433472 0 -0.09512400400460716 0.31860366592608508 0 -0.082180653803224438 0.30238691344433472 0 -0.070435224019783207 0.31547883596211101 0 -0.09512400400460716 0.31860366592608508 0 -0.069910016508989037 0.29693434480645542 0 -0.058333626216541187 0.30353905419620569 0 -0.070435224019783207 0.31547883596211101 0 -0.082180653803224438 0.30238691344433472 0 -0.069910016508989037 0.29693434480645542 0 -0.070435224019783207 0.31547883596211101 0 -0.058333626216541187 0.30353905419620569 0 -0.060493970586394052 0.31422058315953461 0 -0.070435224019783207 0.31547883596211101 0 -0.058333626216541187 0.30353905419620569 0 -0.070435224019783207 0.31547883596211101 0 -0.080187554534190311 0.28518690890128851 0 -0.082180653803224438 0.30238691344433472 0 -0.069910016508989037 0.29693434480645542 0 -0.080187554534190311 0.28518690890128851 0 -0.06252571920817282 0.28477070812665461 0 -0.071836522049402579 0.27679401152849781 0 -0.069910016508989037 0.29693434480645542 0 -0.06252571920817282 0.28477070812665461 0 -0.058333626216541187 0.30353905419620569 0 -0.080187554534190311 0.28518690890128851 0 -0.069910016508989037 0.29693434480645542 0 -0.06252571920817282 0.28477070812665461 0 -0.06252571920817282 0.28477070812665461 0 -0.063493306409347777 0.274175895010561 0 -0.071836522049402579 0.27679401152849781 0 -0.063493306409347777 0.274175895010561 0 -0.069217857229412538 0.26882375785545892 0 -0.059176626246956077 0.26742431868950373 0 -0.063493306409347777 0.274175895010561 0 -0.069217857229412538 0.26882375785545892 0 -0.071836522049402579 0.27679401152849781 0 -0.069217857229412538 0.26882375785545892 0 -0.063808532278066044 0.26096950509128769 0 -0.059176626246956077 0.26742431868950373 0 -0.069217857229412538 0.26882375785545892 0 -0.071836522049402579 0.27679401152849781 0 -0.080662365931077271 0.27081850589513068 0 -0.069217857229412538 0.26882375785545892 0 -0.080662365931077271 0.27081850589513068 0 -0.074622406796695032 0.26128246331223082 0 -0.080187554534190311 0.28518690890128851 0 -0.071836522049402579 0.27679401152849781 0 -0.080662365931077271 0.27081850589513068 0 -0.080187554534190311 0.28518690890128851 0 -0.080662365931077271 0.27081850589513068 0 -0.093055835147581936 0.27830993635481338 0 -0.080662365931077271 0.27081850589513068 0 -0.090035611100586166 0.26680364507765603 0 -0.083535837439683819 0.25977536041333599 0 -0.080662365931077271 0.27081850589513068 0 -0.090035611100586166 0.26680364507765603 0 -0.093055835147581936 0.27830993635481338 0 -0.092825053532027996 0.25572381310269582 0 -0.083535837439683819 0.25977536041333599 0 -0.076267965387558284 0.25271259841433158 0 -0.092825053532027996 0.25572381310269582 0 -0.076267965387558284 0.25271259841433158 0 -0.089436495014079617 0.25030816441543419 0 -0.076267965387558284 0.25271259841433158 0 -0.073135677888041331 0.24923235374733829 0 -0.089436495014079617 0.25030816441543419 0 -0.092825053532027996 0.25572381310269582 0 -0.076267965387558284 0.25271259841433158 0 -0.089436495014079617 0.25030816441543419 0 -0.092803926884228172 0.25053040598172899 0 -0.092825053532027996 0.25572381310269582 0 -0.089436495014079617 0.25030816441543419 0 -0.092825053532027996 0.25572381310269582 0 -0.089436495014079617 0.25030816441543419 0 -0.092803926884228172 0.25053040598172899 0 -0.090035611100586166 0.26680364507765603 0 -0.092825053532027996 0.25572381310269582 0 -0.083535837439683819 0.25977536041333599 0 -0.083535837439683819 0.25977536041333599 0 -0.07624210973768572 0.25719067581913219 0 -0.074622406796695032 0.26128246331223082 0 -0.080662365931077271 0.27081850589513068 0 -0.083535837439683819 0.25977536041333599 0 -0.074622406796695032 0.26128246331223082 0 -0.083535837439683819 0.25977536041333599 0 -0.076267965387558284 0.25271259841433158 0 -0.07624210973768572 0.25719067581913219 0 -0.070542229326805775 0.25499228113663053 0 -0.073135677888041331 0.24923235374733829 0 -0.056834860762002989 0.24815654307924351 0 -0.076267965387558284 0.25271259841433158 0 -0.07624210973768572 0.25719067581913219 0 -0.070542229326805775 0.25499228113663053 0 -0.076267965387558284 0.25271259841433158 0 -0.070542229326805775 0.25499228113663053 0 -0.073135677888041331 0.24923235374733829 0 -0.07624210973768572 0.25719067581913219 0 -0.070542229326805775 0.25499228113663053 0 -0.074622406796695032 0.26128246331223082 0 -0.070542229326805775 0.25499228113663053 0 -0.074622406796695032 0.26128246331223082 0 -0.063808532278066044 0.26096950509128769 0 -0.069217857229412538 0.26882375785545892 0 -0.074622406796695032 0.26128246331223082 0 -0.063808532278066044 0.26096950509128769 0 -0.070542229326805775 0.25499228113663053 0 -0.063808532278066044 0.26096950509128769 0 -0.056834860762002989 0.24815654307924351 0 -0.052396398897271677 0.2663421458675399 0 -0.043429986064867067 0.25593886148048639 0 -0.056834860762002989 0.24815654307924351 0 -0.063808532278066044 0.26096950509128769 0 -0.052396398897271677 0.2663421458675399 0 -0.056834860762002989 0.24815654307924351 0 -0.052396398897271677 0.2663421458675399 0 -0.056834860762002989 0.24815654307924351 0 -0.063808532278066044 0.26096950509128769 0 -0.059176626246956077 0.26742431868950373 0 -0.052396398897271677 0.2663421458675399 0 -0.052396398897271677 0.2663421458675399 0 -0.046232028413296107 0.29159927243030348 0 -0.06252571920817282 0.28477070812665461 0 -0.052396398897271677 0.2663421458675399 0 -0.046232028413296107 0.29159927243030348 0 -0.06252571920817282 0.28477070812665461 0 -0.063493306409347777 0.274175895010561 0 -0.052396398897271677 0.2663421458675399 0 -0.063493306409347777 0.274175895010561 0 -0.059176626246956077 0.26742431868950373 0 -0.052396398897271677 0.2663421458675399 0 -0.059176626246956077 0.26742431868950373 0 -0.052396398897271677 0.2663421458675399 0 -0.052396398897271677 0.2663421458675399 0 -0.033692763614023291 0.27922767591532449 0 -0.027943398718329439 0.26243927198965761 0 -0.052396398897271677 0.2663421458675399 0 -0.033692763614023291 0.27922767591532449 0 -0.046232028413296107 0.29159927243030348 0 -0.052396398897271677 0.2663421458675399 0 -0.043429986064867067 0.25593886148048639 0 -0.027943398718329439 0.26243927198965761 0 -0.052396398897271677 0.2663421458675399 0 -0.027943398718329439 0.26243927198965761 0 -0.043429986064867067 0.25593886148048639 0 -0.036545285881863981 0.2468174849855049 0 -0.056834860762002989 0.24815654307924351 0 -0.043429986064867067 0.25593886148048639 0 -0.027943398718329439 0.26243927198965761 0 -0.036545285881863981 0.2468174849855049 0 -0.027943398718329439 0.26243927198965761 0 -0.036545285881863981 0.2468174849855049 0 -0.016255711001725019 0.24547842689176669 0 -0.027943398718329439 0.26243927198965761 0 -0.0034903985393868221 0.25853639811177698 0 -0.016255711001725019 0.24547842689176669 0 -0.027943398718329439 0.26243927198965761 0 -0.0034903985393868221 0.25853639811177698 0 -0.027943398718329439 0.26243927198965761 0 -0.02087470435408539 0.27415397068469499 0 -0.0034903985393868221 0.25853639811177698 0 -0.033692763614023291 0.27922767591532449 0 -0.027943398718329439 0.26243927198965761 0 -0.02087470435408539 0.27415397068469499 0 -0.0091796179168699803 0.28065720455182208 0 -0.0034903985393868221 0.25853639811177698 0 0.01235737625438715 0.27566787937973941 0 -0.02087470435408539 0.27415397068469499 0 -0.0091796179168699803 0.28065720455182208 0 -0.0034903985393868221 0.25853639811177698 0 -0.01127632507762838 0.29599024991135331 0 -0.016587983717251609 0.3095217014027225 0 0.0075209757127229632 0.30476535896382217 0 -0.016587983717251609 0.3095217014027225 0 0.0075209757127229632 0.30476535896382217 0 -0.0091796179168699803 0.28065720455182208 0 -0.01127632507762838 0.29599024991135331 0 0.0059730323149553791 0.28997367436947741 0 -0.01127632507762838 0.29599024991135331 0 -0.027342374190062479 0.29067306321841357 0 -0.023486676678597079 0.30025973808487011 0 -0.02087470435408539 0.27415397068469499 0 -0.0091796179168699803 0.28065720455182208 0 -0.027342374190062479 0.29067306321841357 0 -0.033692763614023291 0.27922767591532449 0 -0.02087470435408539 0.27415397068469499 0 -0.027342374190062479 0.29067306321841357 0 -0.0091796179168699803 0.28065720455182208 0 -0.01127632507762838 0.29599024991135331 0 -0.027342374190062479 0.29067306321841357 0 -0.027342374190062479 0.29067306321841357 0 -0.023486676678597079 0.30025973808487011 0 -0.033462243323422187 0.29975083894690918 0 -0.016587983717251609 0.3095217014027225 0 -0.040696943147226293 0.31427804384162272 0 -0.023486676678597079 0.30025973808487011 0 -0.03011694568268046 0.3060609687348908 0 -0.033462243323422187 0.29975083894690918 0 -0.016587983717251609 0.3095217014027225 0 -0.03011694568268046 0.3060609687348908 0 -0.040696943147226293 0.31427804384162272 0 -0.01127632507762838 0.29599024991135331 0 -0.023486676678597079 0.30025973808487011 0 -0.016587983717251609 0.3095217014027225 0 -0.023486676678597079 0.30025973808487011 0 -0.016587983717251609 0.3095217014027225 0 -0.03011694568268046 0.3060609687348908 0 -0.03011694568268046 0.3060609687348908 0 -0.03780693982600776 0.30479574344446841 0 -0.040696943147226293 0.31427804384162272 0 -0.03011694568268046 0.3060609687348908 0 -0.03780693982600776 0.30479574344446841 0 -0.033462243323422187 0.29975083894690918 0 -0.033462243323422187 0.29975083894690918 0 -0.041330946399602997 0.30079916065489692 0 -0.036412071188081048 0.29241000223316937 0 -0.03780693982600776 0.30479574344446841 0 -0.033462243323422187 0.29975083894690918 0 -0.041330946399602997 0.30079916065489692 0 -0.041330946399602997 0.30079916065489692 0 -0.043427620577108042 0.30308970504402261 0 -0.046232028413296107 0.29159927243030348 0 -0.03780693982600776 0.30479574344446841 0 -0.041330946399602997 0.30079916065489692 0 -0.043427620577108042 0.30308970504402261 0 -0.043427620577108042 0.30308970504402261 0 -0.046232028413296107 0.29159927243030348 0 -0.041330946399602997 0.30079916065489692 0 -0.043427620577108042 0.30308970504402261 0 -0.03780693982600776 0.30479574344446841 0 -0.043427620577108042 0.30308970504402261 0 -0.040696943147226293 0.31427804384162272 0 -0.043427620577108042 0.30308970504402261 0 -0.040696943147226293 0.31427804384162272 0 -0.033692763614023291 0.27922767591532449 0 -0.027342374190062479 0.29067306321841357 0 -0.036412071188081048 0.29241000223316937 0 -0.033692763614023291 0.27922767591532449 0 -0.036412071188081048 0.29241000223316937 0 -0.046232028413296107 0.29159927243030348 0 -0.027342374190062479 0.29067306321841357 0 -0.033462243323422187 0.29975083894690918 0 -0.036412071188081048 0.29241000223316937 0 -0.041330946399602997 0.30079916065489692 0 -0.036412071188081048 0.29241000223316937 0 -0.046232028413296107 0.29159927243030348 0 -0.033692763614023291 0.27922767591532449 0 -0.046232028413296107 0.29159927243030348 0 -0.06252571920817282 0.28477070812665461 0 -0.046232028413296107 0.29159927243030348 0 -0.058333626216541187 0.30353905419620569 0 -0.043427620577108042 0.30308970504402261 0 -0.05652784284900117 0.31740124707717637 0 -0.040696943147226293 0.31427804384162272 0 -0.043427620577108042 0.30308970504402261 0 -0.05652784284900117 0.31740124707717637 0 -0.043427620577108042 0.30308970504402261 0 -0.058333626216541187 0.30353905419620569 0 -0.05652784284900117 0.31740124707717637 0 -0.043427620577108042 0.30308970504402261 0 -0.046232028413296107 0.29159927243030348 0 -0.058333626216541187 0.30353905419620569 0 -0.046232028413296107 0.29159927243030348 0 -0.058333626216541187 0.30353905419620569 0 -0.058333626216541187 0.30353905419620569 0 -0.060493970586394052 0.31422058315953461 0 -0.05652784284900117 0.31740124707717637 0 -0.060493970586394052 0.31422058315953461 0 -0.05652784284900117 0.31740124707717637 0 -0.070435224019783207 0.31547883596211101 0 -0.053949199910575903 0.33095622381377332 0 -0.038695296552776662 0.32247934217392432 0 -0.063097214898758275 0.32457805997929129 0 -0.038695296552776662 0.32247934217392432 0 -0.063097214898758275 0.32457805997929129 0 -0.05652784284900117 0.31740124707717637 0 -0.040696943147226293 0.31427804384162272 0 -0.05652784284900117 0.31740124707717637 0 -0.038695296552776662 0.32247934217392432 0 -0.063097214898758275 0.32457805997929129 0 -0.05652784284900117 0.31740124707717637 0 -0.063097214898758275 0.32457805997929129 0 -0.053460837060086523 0.34038039807259329 0 -0.069762562575301196 0.33185972295100452 0 -0.053949199910575903 0.33095622381377332 0 -0.069762562575301196 0.33185972295100452 0 -0.063097214898758275 0.32457805997929129 0 -0.053949199910575903 0.33095622381377332 0 -0.053460837060086523 0.34038039807259329 0 -0.069762562575301196 0.33185972295100452 0 -0.053949199910575903 0.33095622381377332 0 -0.053460837060086523 0.34038039807259329 0 -0.044730088465956643 0.33548359589205418 0 -0.053460837060086523 0.34038039807259329 0 -0.044730088465956643 0.33548359589205418 0 -0.043763960751531182 0.34417121486810792 0 -0.044730088465956643 0.33548359589205418 0 -0.034100778548388007 0.34130435002076248 0 -0.038695296552776662 0.32247934217392432 0 -0.034100778548388007 0.34130435002076248 0 -0.038695296552776662 0.32247934217392432 0 -0.034100778548388007 0.34130435002076248 0 -0.038695296552776662 0.32247934217392432 0 -0.030511742196305369 0.32177550524619708 0 -0.034100778548388007 0.34130435002076248 0 -0.030511742196305369 0.32177550524619708 0 -0.032296131655756691 0.35014490670097193 0 -0.030511742196305369 0.32177550524619708 0 -0.032296131655756691 0.35014490670097193 0 -0.044730088465956643 0.33548359589205418 0 -0.034100778548388007 0.34130435002076248 0 -0.043763960751531182 0.34417121486810792 0 -0.053949199910575903 0.33095622381377332 0 -0.044730088465956643 0.33548359589205418 0 -0.038695296552776662 0.32247934217392432 0 -0.05652784284900117 0.31740124707717637 0 -0.040696943147226293 0.31427804384162272 0 -0.038695296552776662 0.32247934217392432 0 -0.040696943147226293 0.31427804384162272 0 -0.038695296552776662 0.32247934217392432 0 -0.038695296552776662 0.32247934217392432 0 -0.033476053198191302 0.31771390019135048 0 -0.030511742196305369 0.32177550524619708 0 -0.038695296552776662 0.32247934217392432 0 -0.030511742196305369 0.32177550524619708 0 -0.040696943147226293 0.31427804384162272 0 -0.038695296552776662 0.32247934217392432 0 -0.033476053198191302 0.31771390019135048 0 -0.033476053198191302 0.31771390019135048 0 -0.02534719022929903 0.32133132143179249 0 -0.030511742196305369 0.32177550524619708 0 -0.016587983717251609 0.3095217014027225 0 -0.040696943147226293 0.31427804384162272 0 -0.033476053198191302 0.31771390019135048 0 -0.016587983717251609 0.3095217014027225 0 -0.033476053198191302 0.31771390019135048 0 -0.02534719022929903 0.32133132143179249 0 -0.016587983717251609 0.3095217014027225 0 -0.017134382125609599 0.32078890628859352 0 -0.02534719022929903 0.32133132143179249 0 -0.01952096879434586 0.32674557664147802 0 -0.017134382125609599 0.32078890628859352 0 -0.02534719022929903 0.32133132143179249 0 -0.01952096879434586 0.32674557664147802 0 -0.02534719022929903 0.32133132143179249 0 -0.030511742196305369 0.32177550524619708 0 -0.02534719022929903 0.32133132143179249 0 -0.030511742196305369 0.32177550524619708 0 -0.030511742196305369 0.32177550524619708 0 -0.01972516732872899 0.33793190566565429 0 -0.032296131655756691 0.35014490670097193 0 -0.01952096879434586 0.32674557664147802 0 -0.030511742196305369 0.32177550524619708 0 -0.01972516732872899 0.33793190566565429 0 -0.01952096879434586 0.32674557664147802 0 -0.01972516732872899 0.33793190566565429 0 -0.007659023569372596 0.32388775754765192 0 -0.01972516732872899 0.33793190566565429 0 -0.007659023569372596 0.32388775754765192 0 0.0045422153079443823 0.33974475314486291 0 -0.016587983717251609 0.3095217014027225 0 -0.007659023569372596 0.32388775754765192 0 0.0075209757127229632 0.30476535896382217 0 -0.016587983717251609 0.3095217014027225 0 -0.017134382125609599 0.32078890628859352 0 -0.007659023569372596 0.32388775754765192 0 -0.01952096879434586 0.32674557664147802 0 -0.017134382125609599 0.32078890628859352 0 -0.007659023569372596 0.32388775754765192 0 -0.0045426006561533408 0.37315282105005088 0 -0.012589133325050361 0.35629326518858673 0 0.010567405497599351 0.35827089641423382 0 -0.01972516732872899 0.33793190566565429 0 -0.012589133325050361 0.35629326518858673 0 0.0045422153079443823 0.33974475314486291 0 -0.01972516732872899 0.33793190566565429 0 -0.012589133325050361 0.35629326518858673 0 -0.032296131655756691 0.35014490670097193 0 -0.012589133325050361 0.35629326518858673 0 -0.032296131655756691 0.35014490670097193 0 -0.034080521115206881 0.37851430815574671 0 -0.0045426006561533408 0.37315282105005088 0 -0.012589133325050361 0.35629326518858673 0 -0.034080521115206881 0.37851430815574671 0 -0.032296131655756691 0.35014490670097193 0 -0.034080521115206881 0.37851430815574671 0 -0.032296131655756691 0.35014490670097193 0 -0.05289439062466203 0.35762154823580239 0 -0.034080521115206881 0.37851430815574671 0 -0.032296131655756691 0.35014490670097193 0 -0.043763960751531182 0.34417121486810792 0 -0.05289439062466203 0.35762154823580239 0 -0.034100778548388007 0.34130435002076248 0 -0.032296131655756691 0.35014490670097193 0 -0.043763960751531182 0.34417121486810792 0 -0.053460837060086523 0.34038039807259329 0 -0.05289439062466203 0.35762154823580239 0 -0.065670960331832395 0.34625609997416612 0 -0.053460837060086523 0.34038039807259329 0 -0.043763960751531182 0.34417121486810792 0 -0.05289439062466203 0.35762154823580239 0 -0.05289439062466203 0.35762154823580239 0 -0.070899961949904777 0.36052102611724862 0 -0.05289439062466203 0.35762154823580239 0 -0.070899961949904777 0.36052102611724862 0 -0.060850739561521622 0.37996687948229863 0 -0.05289439062466203 0.35762154823580239 0 -0.060850739561521622 0.37996687948229863 0 -0.034080521115206881 0.37851430815574671 0 -0.070899961949904777 0.36052102611724862 0 -0.060850739561521622 0.37996687948229863 0 -0.070899961949904777 0.36052102611724862 0 -0.076315094498247679 0.37414400683445298 0 -0.060850739561521622 0.37996687948229863 0 -0.070899961949904777 0.36052102611724862 0 -0.089768302905147479 0.36355943774391392 0 -0.070899961949904777 0.36052102611724862 0 -0.076315094498247679 0.37414400683445298 0 -0.089768302905147479 0.36355943774391392 0 -0.070899961949904777 0.36052102611724862 0 -0.089768302905147479 0.36355943774391392 0 -0.091587997054771109 0.35570325907290168 0 -0.089768302905147479 0.36355943774391392 0 -0.091587997054771109 0.35570325907290168 0 -0.070899961949904777 0.36052102611724862 0 -0.091587997054771109 0.35570325907290168 0 -0.07995644325806224 0.34299618680973798 0 -0.091587997054771109 0.35570325907290168 0 -0.093934845268146314 0.34557119436200701 0 -0.091587997054771109 0.35570325907290168 0 -0.08822359836096319 0.34354535834216587 0 -0.093934845268146314 0.34557119436200701 0 -0.091587997054771109 0.35570325907290168 0 -0.07995644325806224 0.34299618680973798 0 -0.08822359836096319 0.34354535834216587 0 -0.091587997054771109 0.35570325907290168 0 -0.07995644325806224 0.34299618680973798 0 -0.070899961949904777 0.36052102611724862 0 -0.07995644325806224 0.34299618680973798 0 -0.070899961949904777 0.36052102611724862 0 -0.065670960331832395 0.34625609997416612 0 -0.07995644325806224 0.34299618680973798 0 -0.05289439062466203 0.35762154823580239 0 -0.070899961949904777 0.36052102611724862 0 -0.065670960331832395 0.34625609997416612 0 -0.053460837060086523 0.34038039807259329 0 -0.065670960331832395 0.34625609997416612 0 -0.069762562575301196 0.33185972295100452 0 -0.069762562575301196 0.33185972295100452 0 -0.063097214898758275 0.32457805997929129 0 -0.069762562575301196 0.33185972295100452 0 -0.080783578508548115 0.32609919801826648 0 -0.069762562575301196 0.33185972295100452 0 -0.07995644325806224 0.34299618680973798 0 -0.079019282631744056 0.332702813596087 0 -0.069762562575301196 0.33185972295100452 0 -0.080783578508548115 0.32609919801826648 0 -0.079019282631744056 0.332702813596087 0 -0.069762562575301196 0.33185972295100452 0 -0.07995644325806224 0.34299618680973798 0 -0.065670960331832395 0.34625609997416612 0 -0.069762562575301196 0.33185972295100452 0 -0.07995644325806224 0.34299618680973798 0 -0.05652784284900117 0.31740124707717637 0 -0.076346634981989778 0.32131120272597569 0 -0.070435224019783207 0.31547883596211101 0 -0.05652784284900117 0.31740124707717637 0 -0.063097214898758275 0.32457805997929129 0 -0.076346634981989778 0.32131120272597569 0 -0.069762562575301196 0.33185972295100452 0 -0.063097214898758275 0.32457805997929129 0 -0.080783578508548115 0.32609919801826648 0 -0.063097214898758275 0.32457805997929129 0 -0.076346634981989778 0.32131120272597569 0 -0.080783578508548115 0.32609919801826648 0 -0.063097214898758275 0.32457805997929129 0 -0.080783578508548115 0.32609919801826648 0 -0.05652784284900117 0.31740124707717637 0 -0.076346634981989778 0.32131120272597569 0 -0.060493970586394052 0.31422058315953461 0 -0.070435224019783207 0.31547883596211101 0 -0.076346634981989778 0.32131120272597569 0 -0.070435224019783207 0.31547883596211101 0 -0.070435224019783207 0.31547883596211101 0 -0.09512400400460716 0.31860366592608508 0 -0.080783578508548115 0.32609919801826648 0 -0.098591778497473109 0.3276308147488996 0 -0.076346634981989778 0.32131120272597569 0 -0.070435224019783207 0.31547883596211101 0 -0.09512400400460716 0.31860366592608508 0 -0.080783578508548115 0.32609919801826648 0 -0.086218037865840938 0.32325868505528488 0 -0.098591778497473109 0.3276308147488996 0 -0.076346634981989778 0.32131120272597569 0 -0.086218037865840938 0.32325868505528488 0 -0.09512400400460716 0.31860366592608508 0 -0.076346634981989778 0.32131120272597569 0 -0.086218037865840938 0.32325868505528488 0 -0.076346634981989778 0.32131120272597569 0 -0.080783578508548115 0.32609919801826648 0 -0.086218037865840938 0.32325868505528488 0 -0.076346634981989778 0.32131120272597569 0 -0.080783578508548115 0.32609919801826648 0 -0.080783578508548115 0.32609919801826648 0 -0.086218037865840938 0.32325868505528488 0 -0.086218037865840938 0.32325868505528488 0 -0.09512400400460716 0.31860366592608508 0 -0.080783578508548115 0.32609919801826648 0 -0.092284118840694762 0.33703557914836868 0 -0.098591778497473109 0.3276308147488996 0 -0.083354587383140194 0.33642057231781519 0 -0.07995644325806224 0.34299618680973798 0 -0.08822359836096319 0.34354535834216587 0 -0.083354587383140194 0.33642057231781519 0 -0.07995644325806224 0.34299618680973798 0 -0.079019282631744056 0.332702813596087 0 -0.083354587383140194 0.33642057231781519 0 -0.07995644325806224 0.34299618680973798 0 -0.080783578508548115 0.32609919801826648 0 -0.083354587383140194 0.33642057231781519 0 -0.079019282631744056 0.332702813596087 0 -0.080783578508548115 0.32609919801826648 0 -0.083354587383140194 0.33642057231781519 0 -0.092284118840694762 0.33703557914836868 0 -0.080783578508548115 0.32609919801826648 0 -0.092284118840694762 0.33703557914836868 0 -0.083354587383140194 0.33642057231781519 0 -0.092284118840694762 0.33703557914836868 0 -0.08822359836096319 0.34354535834216587 0 -0.092284118840694762 0.33703557914836868 0 -0.08822359836096319 0.34354535834216587 0 -0.093934845268146314 0.34557119436200701 0 -0.1052980038644945 0.33894621453504031 0 -0.098591778497473109 0.3276308147488996 0 -0.1159443155612791 0.3291232416141866 0 -0.098591778497473109 0.3276308147488996 0 -0.1159443155612791 0.3291232416141866 0 -0.092284118840694762 0.33703557914836868 0 -0.1052980038644945 0.33894621453504031 0 -0.093934845268146314 0.34557119436200701 0 -0.092284118840694762 0.33703557914836868 0 -0.1052980038644945 0.33894621453504031 0 -0.098591778497473109 0.3276308147488996 0 -0.1147960104634634 0.30832139391327168 0 -0.09512400400460716 0.31860366592608508 0 -0.1147960104634634 0.30832139391327168 0 -0.09512400400460716 0.31860366592608508 0 -0.1161243536851109 0.32126165558681002 0 -0.086218037865840938 0.32325868505528488 0 -0.09512400400460716 0.31860366592608508 0 -0.1159443155612791 0.3291232416141866 0 -0.09512400400460716 0.31860366592608508 0 -0.1161243536851109 0.32126165558681002 0 -0.1159443155612791 0.3291232416141866 0 -0.086218037865840938 0.32325868505528488 0 -0.098591778497473109 0.3276308147488996 0 -0.1159443155612791 0.3291232416141866 0 -0.086218037865840938 0.32325868505528488 0 -0.1159443155612791 0.3291232416141866 0 -0.09512400400460716 0.31860366592608508 0 -0.1161243536851109 0.32126165558681002 0 -0.13712470336561469 0.32391964524753458 0 -0.1161243536851109 0.32126165558681002 0 -0.118377308158662 0.32960323520238249 0 -0.13712470336561469 0.32391964524753458 0 -0.1147960104634634 0.30832139391327168 0 -0.1161243536851109 0.32126165558681002 0 -0.1161243536851109 0.32126165558681002 0 -0.1159443155612791 0.3291232416141866 0 -0.118377308158662 0.32960323520238249 0 -0.1052980038644945 0.33894621453504031 0 -0.122741643959492 0.33912597706905528 0 -0.11478268076750379 0.35206942212872511 0 -0.1052980038644945 0.33894621453504031 0 -0.1159443155612791 0.3291232416141866 0 -0.122741643959492 0.33912597706905528 0 -0.1159443155612791 0.3291232416141866 0 -0.118377308158662 0.32960323520238249 0 -0.13248335184565271 0.33238614976276798 0 -0.118377308158662 0.32960323520238249 0 -0.122741643959492 0.33912597706905528 0 -0.1159443155612791 0.3291232416141866 0 -0.118377308158662 0.32960323520238249 0 -0.122741643959492 0.33912597706905528 0 -0.12796394006501099 0.36971016759926228 0 -0.13150555597045929 0.35142926063191721 0 -0.11478268076750379 0.35206942212872511 0 -0.13150555597045929 0.35142926063191721 0 -0.122741643959492 0.33912597706905528 0 -0.11478268076750379 0.35206942212872511 0 -0.12796394006501099 0.36971016759926228 0 -0.11478268076750379 0.35206942212872511 0 -0.1003371022306211 0.3652613554072911 0 -0.12796394006501099 0.36971016759926228 0 -0.1003371022306211 0.3652613554072911 0 -0.11266105448221971 0.37872484915592258 0 -0.12796394006501099 0.36971016759926228 0 -0.1003371022306211 0.3652613554072911 0 -0.1003371022306211 0.3652613554072911 0 -0.11266105448221971 0.37872484915592258 0 -0.1003371022306211 0.3652613554072911 0 -0.098519283332364274 0.37849628923692291 0 -0.11266105448221971 0.37872484915592258 0 -0.089768302905147479 0.36355943774391392 0 -0.1003371022306211 0.3652613554072911 0 -0.098519283332364274 0.37849628923692291 0 -0.091587997054771109 0.35570325907290168 0 -0.1003371022306211 0.3652613554072911 0 -0.089768302905147479 0.36355943774391392 0 -0.091587997054771109 0.35570325907290168 0 -0.1003371022306211 0.3652613554072911 0 -0.089768302905147479 0.36355943774391392 0 -0.1003371022306211 0.3652613554072911 0 -0.091587997054771109 0.35570325907290168 0 -0.1003371022306211 0.3652613554072911 0 -0.1017038881607014 0.3519379759486575 0 -0.091587997054771109 0.35570325907290168 0 -0.093934845268146314 0.34557119436200701 0 -0.1017038881607014 0.3519379759486575 0 -0.1052980038644945 0.33894621453504031 0 -0.093934845268146314 0.34557119436200701 0 -0.1017038881607014 0.3519379759486575 0 -0.1052980038644945 0.33894621453504031 0 -0.11478268076750379 0.35206942212872511 0 -0.1017038881607014 0.3519379759486575 0 -0.11478268076750379 0.35206942212872511 0 -0.1003371022306211 0.3652613554072911 0 -0.1017038881607014 0.3519379759486575 0 -0.1062038381056192 0.39485867101187172 0 -0.099923345832045846 0.41560824843269573 0 -0.083626118938213853 0.3900771328656143 0 -0.1062038381056192 0.39485867101187172 0 -0.098519283332364274 0.37849628923692291 0 -0.083626118938213853 0.3900771328656143 0 -0.1062038381056192 0.39485867101187172 0 -0.098519283332364274 0.37849628923692291 0 -0.11266105448221971 0.37872484915592258 0 -0.1062038381056192 0.39485867101187172 0 -0.11266105448221971 0.37872484915592258 0 -0.1232329307171732 0.39081748336030991 0 -0.12796394006501099 0.36971016759926228 0 -0.11266105448221971 0.37872484915592258 0 -0.1232329307171732 0.39081748336030991 0 -0.1062038381056192 0.39485867101187172 0 -0.1232329307171732 0.39081748336030991 0 -0.1203746603948761 0.41251815508081607 0 -0.1203746603948761 0.41251815508081607 0 -0.11120801991973291 0.43703896361145472 0 -0.099923345832045846 0.41560824843269573 0 -0.12996922900776969 0.43349752018555421 0 -0.1203746603948761 0.41251815508081607 0 -0.11120801991973291 0.43703896361145472 0 -0.11120801991973291 0.43703896361145472 0 -0.099923345832045846 0.41560824843269573 0 -0.089871677374432093 0.43386133156577228 0 -0.1062038381056192 0.39485867101187172 0 -0.1203746603948761 0.41251815508081607 0 -0.099923345832045846 0.41560824843269573 0 -0.099923345832045846 0.41560824843269573 0 -0.077483934971280144 0.41659482798731462 0 -0.083626118938213853 0.3900771328656143 0 -0.099923345832045846 0.41560824843269573 0 -0.089871677374432093 0.43386133156577228 0 -0.077483934971280144 0.41659482798731462 0 -0.089871677374432093 0.43386133156577228 0 -0.077483934971280144 0.41659482798731462 0 -0.071341751004346421 0.44311252310901511 0 -0.065383313845563409 0.43421625499203198 0 -0.077483934971280144 0.41659482798731462 0 -0.06005183717116052 0.42723826647083418 0 -0.077483934971280144 0.41659482798731462 0 -0.071341751004346421 0.44311252310901511 0 -0.065383313845563409 0.43421625499203198 0 -0.077483934971280144 0.41659482798731462 0 -0.071341751004346421 0.44311252310901511 0 -0.077483934971280144 0.41659482798731462 0 -0.055290111237088747 0.414051890947991 0 -0.06005183717116052 0.42723826647083418 0 -0.077483934971280144 0.41659482798731462 0 -0.066728440221001356 0.40107828336712281 0 -0.055290111237088747 0.414051890947991 0 -0.077483934971280144 0.41659482798731462 0 -0.066728440221001356 0.40107828336712281 0 -0.083626118938213853 0.3900771328656143 0 -0.077483934971280144 0.41659482798731462 0 -0.083626118938213853 0.3900771328656143 0 -0.076315094498247679 0.37414400683445298 0 -0.089768302905147479 0.36355943774391392 0 -0.083626118938213853 0.3900771328656143 0 -0.089768302905147479 0.36355943774391392 0 -0.083626118938213853 0.3900771328656143 0 -0.089768302905147479 0.36355943774391392 0 -0.098519283332364274 0.37849628923692291 0 -0.083626118938213853 0.3900771328656143 0 -0.076315094498247679 0.37414400683445298 0 -0.083626118938213853 0.3900771328656143 0 -0.060850739561521622 0.37996687948229863 0 -0.066728440221001356 0.40107828336712281 0 -0.083626118938213853 0.3900771328656143 0 -0.060850739561521622 0.37996687948229863 0 -0.060850739561521622 0.37996687948229863 0 -0.050801517173141013 0.39941273284734991 0 -0.060850739561521622 0.37996687948229863 0 -0.050801517173141013 0.39941273284734991 0 -0.034080521115206881 0.37851430815574671 0 -0.066728440221001356 0.40107828336712281 0 -0.050801517173141013 0.39941273284734991 0 -0.055290111237088747 0.414051890947991 0 -0.066728440221001356 0.40107828336712281 0 -0.060850739561521622 0.37996687948229863 0 -0.050801517173141013 0.39941273284734991 0 -0.034080521115206881 0.37851430815574671 0 -0.035864910574657072 0.40688370961052162 0 -0.050801517173141013 0.39941273284734991 0 -0.034080521115206881 0.37851430815574671 0 -0.035864910574657072 0.40688370961052162 0 -0.034080521115206881 0.37851430815574671 0 -0.0073143073136647503 0.39745635484607128 0 -0.035864910574657072 0.40688370961052162 0 -0.0045426006561533408 0.37315282105005088 0 -0.034080521115206881 0.37851430815574671 0 -0.0073143073136647503 0.39745635484607128 0 -0.0040682684714412696 0.42417482241573168 0 -0.015782937492065951 0.43554010381058977 0 -0.0049807791518667174 0.44616128958802082 0 -0.0040682684714412696 0.42417482241573168 0 -0.019107250757187139 0.4176064176722506 0 -0.015782937492065951 0.43554010381058977 0 -0.0073143073136647503 0.39745635484607128 0 -0.0040682684714412696 0.42417482241573168 0 -0.019107250757187139 0.4176064176722506 0 -0.019107250757187139 0.4176064176722506 0 -0.02656500704299854 0.4325989637187696 0 -0.035864910574657072 0.40688370961052162 0 -0.0073143073136647503 0.39745635484607128 0 -0.019107250757187139 0.4176064176722506 0 -0.035864910574657072 0.40688370961052162 0 -0.019107250757187139 0.4176064176722506 0 -0.015782937492065951 0.43554010381058977 0 -0.02656500704299854 0.4325989637187696 0 -0.015782937492065951 0.43554010381058977 0 -0.02656500704299854 0.4325989637187696 0 -0.023675093468530781 0.44402859556799201 0 -0.02656500704299854 0.4325989637187696 0 -0.037649300034107269 0.43525311106529641 0 -0.035864910574657072 0.40688370961052162 0 -0.037649300034107269 0.43525311106529641 0 -0.040752294784760362 0.4188585862124013 0 -0.048474037110131409 0.42958265343806668 0 -0.02656500704299854 0.4325989637187696 0 -0.037649300034107269 0.43525311106529641 0 -0.034523192171998299 0.44075821237917812 0 -0.037649300034107269 0.43525311106529641 0 -0.048474037110131409 0.42958265343806668 0 -0.046103454652248188 0.44423988733506659 0 -0.050801517173141013 0.39941273284734991 0 -0.040752294784760362 0.4188585862124013 0 -0.037649300034107269 0.43525311106529641 0 -0.035864910574657072 0.40688370961052162 0 -0.037649300034107269 0.43525311106529641 0 -0.035864910574657072 0.40688370961052162 0 -0.040752294784760362 0.4188585862124013 0 -0.050801517173141013 0.39941273284734991 0 -0.035864910574657072 0.40688370961052162 0 -0.040752294784760362 0.4188585862124013 0 -0.050801517173141013 0.39941273284734991 0 -0.040752294784760362 0.4188585862124013 0 -0.055290111237088747 0.414051890947991 0 -0.040752294784760362 0.4188585862124013 0 -0.055290111237088747 0.414051890947991 0 -0.048474037110131409 0.42958265343806668 0 -0.055290111237088747 0.414051890947991 0 -0.048474037110131409 0.42958265343806668 0 -0.06005183717116052 0.42723826647083418 0 -0.065383313845563409 0.43421625499203198 0 -0.06005183717116052 0.42723826647083418 0 -0.056003875674400627 0.44065376515210219 0 -0.048474037110131409 0.42958265343806668 0 -0.06005183717116052 0.42723826647083418 0 -0.056003875674400627 0.44065376515210219 0 -0.065383313845563409 0.43421625499203198 0 -0.056003875674400627 0.44065376515210219 0 -0.06287247633919027 0.44319610961936079 0 -0.056003875674400627 0.44065376515210219 0 -0.058179896233418182 0.4505115193336458 0 -0.06287247633919027 0.44319610961936079 0 -0.056003875674400627 0.44065376515210219 0 -0.058179896233418182 0.4505115193336458 0 -0.051042475487784678 0.4532538888978343 0 -0.056003875674400627 0.44065376515210219 0 -0.051042475487784678 0.4532538888978343 0 -0.046103454652248188 0.44423988733506659 0 -0.048474037110131409 0.42958265343806668 0 -0.056003875674400627 0.44065376515210219 0 -0.046103454652248188 0.44423988733506659 0 -0.058179896233418182 0.4505115193336458 0 -0.05434534618376094 0.46905332145074818 0 -0.067472613414515326 0.44611472892665049 0 -0.058179896233418182 0.4505115193336458 0 -0.051042475487784678 0.4532538888978343 0 -0.05434534618376094 0.46905332145074818 0 -0.051042475487784678 0.4532538888978343 0 -0.03943368949355746 0.46362251252007131 0 -0.05434534618376094 0.46905332145074818 0 -0.05434534618376094 0.46905332145074818 0 -0.067472613414515326 0.44611472892665049 0 -0.05434534618376094 0.46905332145074818 0 -0.06519956703741267 0.4696302182307156 0 -0.067472613414515326 0.44611472892665049 0 -0.029853594842888988 0.45173519517568939 0 -0.028903662133188238 0.45988144744529869 0 -0.035334068008208652 0.47037910618958828 0 -0.03943368949355746 0.46362251252007131 0 -0.034523192171998299 0.44075821237917812 0 -0.035334068008208652 0.47037910618958828 0 -0.034523192171998299 0.44075821237917812 0 -0.029853594842888988 0.45173519517568939 0 -0.035334068008208652 0.47037910618958828 0 -0.034523192171998299 0.44075821237917812 0 -0.035334068008208652 0.47037910618958828 0 -0.051042475487784678 0.4532538888978343 0 -0.03943368949355746 0.46362251252007131 0 -0.046103454652248188 0.44423988733506659 0 -0.037649300034107269 0.43525311106529641 0 -0.03943368949355746 0.46362251252007131 0 -0.037649300034107269 0.43525311106529641 0 -0.03943368949355746 0.46362251252007131 0 -0.046103454652248188 0.44423988733506659 0 -0.037649300034107269 0.43525311106529641 0 -0.03943368949355746 0.46362251252007131 0 -0.034523192171998299 0.44075821237917812 0 -0.02656500704299854 0.4325989637187696 0 -0.034523192171998299 0.44075821237917812 0 -0.028997254779897039 0.44295092291603899 0 -0.034523192171998299 0.44075821237917812 0 -0.028997254779897039 0.44295092291603899 0 -0.029853594842888988 0.45173519517568939 0 -0.02656500704299854 0.4325989637187696 0 -0.023675093468530781 0.44402859556799201 0 -0.028997254779897039 0.44295092291603899 0 -0.015782937492065951 0.43554010381058977 0 -0.023675093468530781 0.44402859556799201 0 -0.016013913773140868 0.44694064644226822 0 -0.016013913773140868 0.44694064644226822 0 -0.023510305137849359 0.45362514901992429 0 -0.01433842468709174 0.45509930100057761 0 -0.023675093468530781 0.44402859556799201 0 -0.016013913773140868 0.44694064644226822 0 -0.023510305137849359 0.45362514901992429 0 -0.023675093468530781 0.44402859556799201 0 -0.028997254779897039 0.44295092291603899 0 -0.029853594842888988 0.45173519517568939 0 -0.023675093468530781 0.44402859556799201 0 -0.029853594842888988 0.45173519517568939 0 -0.023510305137849359 0.45362514901992429 0 -0.029853594842888988 0.45173519517568939 0 -0.023510305137849359 0.45362514901992429 0 -0.028903662133188238 0.45988144744529869 0 -0.023510305137849359 0.45362514901992429 0 -0.028903662133188238 0.45988144744529869 0 -0.02024587318469839 0.46173495204913262 0 -0.028903662133188238 0.45988144744529869 0 -0.026678086131145081 0.46715933272864602 0 -0.035334068008208652 0.47037910618958828 0 -0.028903662133188238 0.45988144744529869 0 -0.026678086131145081 0.46715933272864602 0 -0.02024587318469839 0.46173495204913262 0 -0.02024587318469839 0.46173495204913262 0 -0.0076889094467738816 0.46478000118795137 0 -0.02035585157214204 0.4698644809123983 0 -0.026678086131145081 0.46715933272864602 0 -0.02024587318469839 0.46173495204913262 0 -0.02035585157214204 0.4698644809123983 0 -0.023510305137849359 0.45362514901992429 0 -0.02024587318469839 0.46173495204913262 0 -0.01433842468709174 0.45509930100057761 0 -0.01433842468709174 0.45509930100057761 0 -0.0076889094467738816 0.46478000118795137 0 -0.0049807791518667174 0.44616128958802082 0 -0.0076889094467738816 0.46478000118795137 0 -0.0049807791518667174 0.44616128958802082 0 0.0067190561514857416 0.45457892549911538 0 -0.02024587318469839 0.46173495204913262 0 -0.01433842468709174 0.45509930100057761 0 -0.0076889094467738816 0.46478000118795137 0 -0.015782937492065951 0.43554010381058977 0 -0.016013913773140868 0.44694064644226822 0 -0.0049807791518667174 0.44616128958802082 0 -0.016013913773140868 0.44694064644226822 0 -0.01433842468709174 0.45509930100057761 0 -0.0049807791518667174 0.44616128958802082 0 -0.01067909684907253 0.5 0 -0.0156062486182605 0.47973855648976349 0 0.0017979149220028511 0.48165652148318122 0 -0.0076889094467738816 0.46478000118795137 0 -0.0156062486182605 0.47973855648976349 0 0.0017979149220028511 0.48165652148318122 0 -0.0076889094467738816 0.46478000118795137 0 -0.0156062486182605 0.47973855648976349 0 -0.02035585157214204 0.4698644809123983 0 -0.0156062486182605 0.47973855648976349 0 -0.02035585157214204 0.4698644809123983 0 -0.025993513961239261 0.47423678715391149 0 -0.026678086131145081 0.46715933272864602 0 -0.025993513961239261 0.47423678715391149 0 -0.035334068008208652 0.47037910618958828 0 -0.026678086131145081 0.46715933272864602 0 -0.02035585157214204 0.4698644809123983 0 -0.025993513961239261 0.47423678715391149 0 -0.025993513961239261 0.47423678715391149 0 -0.029084936037789871 0.4853717228145033 0 -0.035334068008208652 0.47037910618958828 0 -0.0156062486182605 0.47973855648976349 0 -0.025993513961239261 0.47423678715391149 0 -0.029084936037789871 0.4853717228145033 0 -0.01067909684907253 0.5 0 -0.0156062486182605 0.47973855648976349 0 -0.029084936037789871 0.4853717228145033 0 -0.01067909684907253 0.5 0 -0.029084936037789871 0.4853717228145033 0 -0.036144943844418992 0.49999999999999872 0 -0.029084936037789871 0.4853717228145033 0 -0.036144943844418992 0.49999999999999872 0 -0.035334068008208652 0.47037910618958828 0 -0.036144943844418992 0.49999999999999872 0 -0.041218078953006998 0.49199191397484621 0 -0.035334068008208652 0.47037910618958828 0 -0.036144943844418992 0.49999999999999872 0 -0.035334068008208652 0.47037910618958828 0 -0.036144943844418992 0.49999999999999872 0 -0.041218078953006998 0.49199191397484621 0 -0.041218078953006998 0.49199191397484621 0 -0.044078524422878518 0.5 0 -0.041721774609626561 0.49999999999999811 0 -0.036144943844418992 0.49999999999999872 0 -0.041218078953006998 0.49199191397484621 0 -0.041721774609626561 0.49999999999999811 0 -0.041218078953006998 0.49199191397484621 0 -0.041721774609626561 0.49999999999999811 0 -0.03943368949355746 0.46362251252007131 0 -0.041218078953006998 0.49199191397484621 0 -0.035334068008208652 0.47037910618958828 0 -0.03943368949355746 0.46362251252007131 0 -0.041218078953006998 0.49199191397484621 0 -0.03943368949355746 0.46362251252007131 0 -0.041218078953006998 0.49199191397484621 0 -0.05434534618376094 0.46905332145074818 0 -0.0590573830704786 0.49614791335241581 0 -0.06519956703741267 0.4696302182307156 0 -0.041218078953006998 0.49199191397484621 0 -0.05434534618376094 0.46905332145074818 0 -0.054955093811165062 0.4817058417521814 0 -0.0590573830704786 0.49614791335241581 0 -0.06519956703741267 0.4696302182307156 0 -0.041218078953006998 0.49199191397484621 0 -0.05434534618376094 0.46905332145074818 0 -0.054955093811165062 0.4817058417521814 0 -0.05434534618376094 0.46905332145074818 0 -0.054955093811165062 0.4817058417521814 0 -0.06519956703741267 0.4696302182307156 0 -0.041218078953006998 0.49199191397484621 0 -0.054955093811165062 0.4817058417521814 0 -0.0590573830704786 0.49614791335241581 0 -0.041218078953006998 0.49199191397484621 0 -0.044078524422878518 0.5 0 -0.0590573830704786 0.49614791335241581 0 -0.044078524422878518 0.5 0 -0.058165140183702127 0.50000000000000189 0 -0.0590573830704786 0.49614791335241581 0 -0.044078524422878518 0.5 0 -0.0590573830704786 0.49614791335241581 0 -0.058165140183702127 0.50000000000000189 0 -0.0590573830704786 0.49614791335241581 0 -0.0590573830704786 0.49614791335241581 0 -0.069931900117377432 0.48508350430910852 0 -0.081273071594596319 0.49043474393517239 0 -0.0590573830704786 0.49614791335241581 0 -0.082618508942569724 0.5 0 -0.081273071594596319 0.49043474393517239 0 -0.0590573830704786 0.49614791335241581 0 -0.081273071594596319 0.49043474393517239 0 -0.058165140183702127 0.50000000000000189 0 -0.0590573830704786 0.49614791335241581 0 -0.082618508942569724 0.5 0 -0.069931900117377432 0.48508350430910852 0 -0.081273071594596319 0.49043474393517239 0 -0.075958334991466092 0.4792870028873748 0 -0.081273071594596319 0.49043474393517239 0 -0.1034887601187142 0.48472157451792991 0 -0.093912603506258352 0.49353413449259642 0 -0.081273071594596319 0.49043474393517239 0 -0.1034887601187142 0.48472157451792991 0 -0.082618508942569724 0.5 0 -0.081273071594596319 0.49043474393517239 0 -0.093912603506258352 0.49353413449259642 0 -0.081273071594596319 0.49043474393517239 0 -0.088218026713187306 0.47139074348274329 0 -0.075958334991466092 0.4792870028873748 0 -0.081273071594596319 0.49043474393517239 0 -0.088218026713187306 0.47139074348274329 0 -0.1034887601187142 0.48472157451792991 0 -0.088218026713187306 0.47139074348274329 0 -0.075958334991466092 0.4792870028873748 0 -0.06519956703741267 0.4696302182307156 0 -0.0590573830704786 0.49614791335241581 0 -0.069931900117377432 0.48508350430910852 0 -0.06519956703741267 0.4696302182307156 0 -0.069931900117377432 0.48508350430910852 0 -0.075958334991466092 0.4792870028873748 0 -0.06519956703741267 0.4696302182307156 0 -0.088218026713187306 0.47139074348274329 0 -0.06519956703741267 0.4696302182307156 0 -0.071341751004346421 0.44311252310901511 0 -0.06519956703741267 0.4696302182307156 0 -0.071341751004346421 0.44311252310901511 0 -0.06519956703741267 0.4696302182307156 0 -0.067472613414515326 0.44611472892665049 0 -0.071341751004346421 0.44311252310901511 0 -0.06287247633919027 0.44319610961936079 0 -0.067472613414515326 0.44611472892665049 0 -0.071341751004346421 0.44311252310901511 0 -0.065383313845563409 0.43421625499203198 0 -0.06287247633919027 0.44319610961936079 0 -0.071341751004346421 0.44311252310901511 0 -0.058179896233418182 0.4505115193336458 0 -0.06287247633919027 0.44319610961936079 0 -0.067472613414515326 0.44611472892665049 0 -0.089871677374432093 0.43386133156577228 0 -0.071341751004346421 0.44311252310901511 0 -0.097215916971543415 0.45322637380664538 0 -0.088218026713187306 0.47139074348274329 0 -0.071341751004346421 0.44311252310901511 0 -0.097215916971543415 0.45322637380664538 0 -0.097215916971543415 0.45322637380664538 0 -0.1143705817159245 0.47661318690332199 0 -0.088218026713187306 0.47139074348274329 0 -0.097215916971543415 0.45322637380664538 0 -0.1143705817159245 0.47661318690332199 0 -0.097215916971543415 0.45322637380664538 0 -0.1148651275162057 0.45701265773121902 0 -0.1143705817159245 0.47661318690332199 0 -0.11120801991973291 0.43703896361145472 0 -0.097215916971543415 0.45322637380664538 0 -0.1148651275162057 0.45701265773121902 0 -0.11120801991973291 0.43703896361145472 0 -0.089871677374432093 0.43386133156577228 0 -0.097215916971543415 0.45322637380664538 0 -0.1272772443498997 0.45077262286745168 0 -0.11120801991973291 0.43703896361145472 0 -0.1148651275162057 0.45701265773121902 0 -0.1272772443498997 0.45077262286745168 0 -0.12996922900776969 0.43349752018555421 0 -0.11120801991973291 0.43703896361145472 0 -0.12646001653391509 0.46668721438350619 0 -0.1272772443498997 0.45077262286745168 0 -0.1148651275162057 0.45701265773121902 0 -0.12646001653391509 0.46668721438350619 0 -0.1148651275162057 0.45701265773121902 0 -0.1143705817159245 0.47661318690332199 0 -0.13185266503140139 0.48410183447219812 0 -0.12646001653391509 0.46668721438350619 0 -0.1143705817159245 0.47661318690332199 0 -0.1143705817159245 0.47661318690332199 0 -0.1141141164990952 0.49033369035531288 0 -0.1034887601187142 0.48472157451792991 0 -0.13152524646030489 0.49999999999999889 0 -0.1143705817159245 0.47661318690332199 0 -0.1141141164990952 0.49033369035531288 0 -0.13152524646030489 0.49999999999999889 0 -0.1143705817159245 0.47661318690332199 0 -0.13152524646030489 0.49999999999999889 0 -0.1141141164990952 0.49033369035531288 0 -0.10707187770143731 0.5 0 -0.082618508942569724 0.5 0 -0.10707187770143731 0.5 0 -0.093912603506258352 0.49353413449259642 0 -0.1141141164990952 0.49033369035531288 0 -0.1034887601187142 0.48472157451792991 0 -0.10707187770143731 0.5 0 -0.1034887601187142 0.48472157451792991 0 -0.10707187770143731 0.5 0 -0.093912603506258352 0.49353413449259642 0 -0.088218026713187306 0.47139074348274329 0 -0.1143705817159245 0.47661318690332199 0 -0.1034887601187142 0.48472157451792991 0 -0.1661971227857981 0.078557615014028415 0 -0.1696000463671872 0.090486790117669247 0 -0.15052620736169109 0.089586875673122943 0 -0.1661971227857981 0.078557615014028415 0 -0.1696000463671872 0.090486790117669247 0 -0.17322377873682129 0.082178747011534048 0 -0.1661971227857981 0.078557615014028415 0 -0.17466744690556341 0.072210934782529768 0 -0.16573689351737059 0.058418533155446262 0 -0.1661971227857981 0.078557615014028415 0 -0.15022012338656149 0.071613750069491541 0 -0.16573689351737059 0.058418533155446262 0 -0.1661971227857981 0.078557615014028415 0 -0.16573689351737059 0.058418533155446262 0 -0.1661971227857981 0.078557615014028415 0 -0.17466744690556341 0.072210934782529768 0 -0.17322377873682129 0.082178747011534048 0 -0.18195787630629109 0.089405519221786023 0 -0.18395297478579681 0.061834440741264707 0 -0.18904825503125969 0.074596579277287578 0 -0.17466744690556341 0.072210934782529768 0 -0.18195787630629109 0.089405519221786023 0 -0.18395297478579681 0.061834440741264707 0 -0.17466744690556341 0.072210934782529768 0 -0.16573689351737059 0.058418533155446262 0 -0.18395297478579681 0.061834440741264707 0 -0.18195787630629109 0.089405519221786023 0 -0.18395297478579681 0.061834440741264707 0 -0.17466744690556341 0.072210934782529768 0 -0.17322377873682129 0.082178747011534048 0 -0.18195787630629109 0.089405519221786023 0 -0.18195787630629109 0.089405519221786023 0 -0.1876203062103812 0.085154091553751227 0 -0.18904825503125969 0.074596579277287578 0 -0.1696000463671872 0.090486790117669247 0 -0.18195787630629109 0.089405519221786023 0 -0.17430669802228721 0.10127932723892839 0 -0.1696000463671872 0.090486790117669247 0 -0.17322377873682129 0.082178747011534048 0 -0.18195787630629109 0.089405519221786023 0 -0.18195787630629109 0.089405519221786023 0 -0.18957189966287441 0.093117068594800498 0 -0.1876203062103812 0.085154091553751227 0 -0.18195787630629109 0.089405519221786023 0 -0.17996277782678469 0.1169765977023071 0 -0.18195787630629109 0.089405519221786023 0 -0.17996277782678469 0.1169765977023071 0 -0.18751175784101981 0.1019174488126332 0 -0.18195787630629109 0.089405519221786023 0 -0.17430669802228721 0.10127932723892839 0 -0.17996277782678469 0.1169765977023071 0 -0.18195787630629109 0.089405519221786023 0 -0.18957189966287441 0.093117068594800498 0 -0.18751175784101981 0.1019174488126332 0 -0.17430669802228721 0.10127932723892839 0 -0.17996277782678469 0.1169765977023071 0 -0.17008507433928949 0.1129307387472854 0 -0.18399944287813769 0.1243110413724456 0 -0.17996277782678469 0.1169765977023071 0 -0.1915165139578541 0.12062561452203339 0 -0.17996277782678469 0.1169765977023071 0 -0.19070674849365871 0.1098036214123289 0 -0.18751175784101981 0.1019174488126332 0 -0.17996277782678469 0.1169765977023071 0 -0.1915165139578541 0.12062561452203339 0 -0.19070674849365871 0.1098036214123289 0 -0.18399944287813769 0.1243110413724456 0 -0.17996277782678469 0.1169765977023071 0 -0.17238658245394531 0.12545986635763931 0 -0.17996277782678469 0.1169765977023071 0 -0.17008507433928949 0.1129307387472854 0 -0.17238658245394531 0.12545986635763931 0 -0.17008507433928949 0.1129307387472854 0 -0.1609078447057396 0.11821543189307759 0 -0.17238658245394531 0.12545986635763931 0 -0.17008507433928949 0.1129307387472854 0 -0.1609078447057396 0.11821543189307759 0 -0.16286146868769069 0.1027224705444747 0 -0.1696000463671872 0.090486790117669247 0 -0.16286146868769069 0.1027224705444747 0 -0.15052620736169109 0.089586875673122943 0 -0.1696000463671872 0.090486790117669247 0 -0.17430669802228721 0.10127932723892839 0 -0.16286146868769069 0.1027224705444747 0 -0.17430669802228721 0.10127932723892839 0 -0.17008507433928949 0.1129307387472854 0 -0.16286146868769069 0.1027224705444747 0 -0.14483809316289209 0.10788626194089659 0 -0.12953394143352689 0.0962220954654186 0 -0.15052620736169109 0.089586875673122943 0 -0.16286146868769069 0.1027224705444747 0 -0.14483809316289209 0.10788626194089659 0 -0.15052620736169109 0.089586875673122943 0 -0.1609078447057396 0.11821543189307759 0 -0.14483809316289209 0.10788626194089659 0 -0.146422009359223 0.12588572965013881 0 -0.1609078447057396 0.11821543189307759 0 -0.16286146868769069 0.1027224705444747 0 -0.14483809316289209 0.10788626194089659 0 -0.14483809316289209 0.10788626194089659 0 -0.13007033986284439 0.11468940196259191 0 -0.146422009359223 0.12588572965013881 0 -0.13007033986284439 0.11468940196259191 0 -0.146422009359223 0.12588572965013881 0 -0.12794092556623851 0.1308087954511595 0 -0.14483809316289209 0.10788626194089659 0 -0.13007033986284439 0.11468940196259191 0 -0.12953394143352689 0.0962220954654186 0 -0.12953394143352689 0.0962220954654186 0 -0.15052620736169109 0.089586875673122943 0 -0.13065787682797539 0.074490167233760132 0 -0.15052620736169109 0.089586875673122943 0 -0.15022012338656149 0.071613750069491541 0 -0.13065787682797539 0.074490167233760132 0 -0.1661971227857981 0.078557615014028415 0 -0.15052620736169109 0.089586875673122943 0 -0.15022012338656149 0.071613750069491541 0 -0.15022012338656149 0.071613750069491541 0 -0.13065787682797539 0.074490167233760132 0 -0.14515982565357641 0.054559889730765067 0 -0.13065787682797539 0.074490167233760132 0 -0.13896875645631149 0.050392457974293377 0 -0.13065787682797539 0.074490167233760132 0 -0.13896875645631149 0.050392457974293377 0 -0.12525322860273669 0.054683915403429713 0 -0.13065787682797539 0.074490167233760132 0 -0.13896875645631149 0.050392457974293377 0 -0.14515982565357641 0.054559889730765067 0 -0.13896875645631149 0.050392457974293377 0 -0.12525322860273669 0.054683915403429713 0 -0.13112496187718059 0.044324123850062493 0 -0.12525322860273669 0.054683915403429713 0 -0.13112496187718059 0.044324123850062493 0 -0.11947386029792641 0.044699115915308937 0 -0.13112496187718059 0.044324123850062493 0 -0.13207584708741921 0.037796525428943371 0 -0.1241829150729519 0.03733201807985212 0 -0.13207584708741921 0.037796525428943371 0 -0.131833608700272 0.030524403571461269 0 -0.1241829150729519 0.03733201807985212 0 -0.131833608700272 0.030524403571461269 0 -0.12279062167827851 0.029362630448722959 0 -0.1241829150729519 0.03733201807985212 0 -0.13207584708741921 0.037796525428943371 0 -0.13748289047400489 0.031740414346278022 0 -0.131833608700272 0.030524403571461269 0 -0.13207584708741921 0.037796525428943371 0 -0.1376660792386305 0.038226945630428777 0 -0.13748289047400489 0.031740414346278022 0 -0.13896875645631149 0.050392457974293377 0 -0.13112496187718059 0.044324123850062493 0 -0.1376660792386305 0.038226945630428777 0 -0.13112496187718059 0.044324123850062493 0 -0.13207584708741921 0.037796525428943371 0 -0.1376660792386305 0.038226945630428777 0 -0.13896875645631149 0.050392457974293377 0 -0.14671443159904121 0.045399133558557639 0 -0.1472796360846475 0.026294748714826701 0 -0.14671443159904121 0.045399133558557639 0 -0.15124688017340179 0.039609834018222753 0 -0.1472796360846475 0.026294748714826701 0 -0.13896875645631149 0.050392457974293377 0 -0.1376660792386305 0.038226945630428777 0 -0.1472796360846475 0.026294748714826701 0 -0.13896875645631149 0.050392457974293377 0 -0.1472796360846475 0.026294748714826701 0 -0.1376660792386305 0.038226945630428777 0 -0.13748289047400489 0.031740414346278022 0 -0.1472796360846475 0.026294748714826701 0 -0.15377806982209841 0.031910215931445288 0 -0.15124688017340179 0.039609834018222753 0 -0.1472796360846475 0.026294748714826701 0 -0.14671443159904121 0.045399133558557639 0 -0.15124688017340179 0.039609834018222753 0 -0.15554430400163299 0.04845401766222325 0 -0.14671443159904121 0.045399133558557639 0 -0.15554430400163299 0.04845401766222325 0 -0.14515982565357641 0.054559889730765067 0 -0.15022012338656149 0.071613750069491541 0 -0.14515982565357641 0.054559889730765067 0 -0.16573689351737059 0.058418533155446262 0 -0.15554430400163299 0.04845401766222325 0 -0.14515982565357641 0.054559889730765067 0 -0.16573689351737059 0.058418533155446262 0 -0.14515982565357641 0.054559889730765067 0 -0.16573689351737059 0.058418533155446262 0 -0.13896875645631149 0.050392457974293377 0 -0.14671443159904121 0.045399133558557639 0 -0.14515982565357641 0.054559889730765067 0 -0.13082697262089341 0.0013823364580261221 0 -0.1360887568453997 0.017432280465049261 0 -0.13082697262089341 0.0013823364580261221 0 -0.13871558333384901 0.0091914915382712535 0 -0.1360887568453997 0.017432280465049261 0 -0.13082697262089341 0.0013823364580261221 0 -0.1360887568453997 0.017432280465049261 0 -0.1198791301280094 0.01256548056862198 0 -0.13082697262089341 0.0013823364580261221 0 -0.13871558333384901 0.0091914915382712535 0 -0.1430733723094596 0.0027738663656623908 0 -0.13871558333384901 0.0091914915382712535 0 -0.1360887568453997 0.017432280465049261 0 -0.1448732315596436 0.015177482864347251 0 -0.1360887568453997 0.017432280465049261 0 -0.13869379842726631 0.02537840097113014 0 -0.1360887568453997 0.017432280465049261 0 -0.13869379842726631 0.02537840097113014 0 -0.1448732315596436 0.015177482864347251 0 -0.1360887568453997 0.017432280465049261 0 -0.1448732315596436 0.015177482864347251 0 -0.1360887568453997 0.017432280465049261 0 -0.131833608700272 0.030524403571461269 0 -0.12279062167827851 0.029362630448722959 0 -0.13748289047400489 0.031740414346278022 0 -0.131833608700272 0.030524403571461269 0 -0.13869379842726631 0.02537840097113014 0 -0.1360887568453997 0.017432280465049261 0 -0.131833608700272 0.030524403571461269 0 -0.13869379842726631 0.02537840097113014 0 -0.13748289047400489 0.031740414346278022 0 -0.13869379842726631 0.02537840097113014 0 -0.1472796360846475 0.026294748714826701 0 -0.15377806982209841 0.031910215931445288 0 -0.1472796360846475 0.026294748714826701 0 -0.1561335750157348 0.026808813557556051 0 -0.1472796360846475 0.026294748714826701 0 -0.1561335750157348 0.026808813557556051 0 -0.1579328502657682 0.018159964467206611 0 -0.13869379842726631 0.02537840097113014 0 -0.1472796360846475 0.026294748714826701 0 -0.1448732315596436 0.015177482864347251 0 -0.1472796360846475 0.026294748714826701 0 -0.15559051571298349 0.0021970394553601428 0 -0.1472796360846475 0.026294748714826701 0 -0.15559051571298349 0.0021970394553601428 0 -0.1579328502657682 0.018159964467206611 0 -0.1472796360846475 0.026294748714826701 0 -0.1448732315596436 0.015177482864347251 0 -0.15559051571298349 0.0021970394553601428 0 -0.13871558333384901 0.0091914915382712535 0 -0.1448732315596436 0.015177482864347251 0 -0.1430733723094596 0.0027738663656623908 0 -0.14682546129531099 -0.0042659812654107041 0 -0.15559051571298349 0.0021970394553601428 0 -0.1430733723094596 0.0027738663656623908 0 -0.1448732315596436 0.015177482864347251 0 -0.15559051571298349 0.0021970394553601428 0 -0.1430733723094596 0.0027738663656623908 0 -0.15559051571298349 0.0021970394553601428 0 -0.1645132280666701 0.0048723978490777626 0 -0.1579328502657682 0.018159964467206611 0 -0.17142969566451249 -0.002320172152788679 0 -0.1645132280666701 0.0048723978490777626 0 -0.17409539937870841 0.0038983075190149349 0 -0.1645132280666701 0.0048723978490777626 0 -0.17573815155413611 0.010906618706079859 0 -0.17409539937870841 0.0038983075190149349 0 -0.1645132280666701 0.0048723978490777626 0 -0.1651250607920203 0.031645465502262007 0 -0.1645132280666701 0.0048723978490777626 0 -0.1579328502657682 0.018159964467206611 0 -0.1651250607920203 0.031645465502262007 0 -0.1645132280666701 0.0048723978490777626 0 -0.17573815155413611 0.010906618706079859 0 -0.1651250607920203 0.031645465502262007 0 -0.1561335750157348 0.026808813557556051 0 -0.1579328502657682 0.018159964467206611 0 -0.1651250607920203 0.031645465502262007 0 -0.15377806982209841 0.031910215931445288 0 -0.1561335750157348 0.026808813557556051 0 -0.1651250607920203 0.031645465502262007 0 -0.18189124422637781 0.014762174366335829 0 -0.18601038568932329 0.033402241493726878 0 -0.18806779659284831 0.0049700422461890943 0 -0.17719121056546441 0.022679125017101141 0 -0.18189124422637781 0.014762174366335829 0 -0.18601038568932329 0.033402241493726878 0 -0.17719121056546441 0.022679125017101141 0 -0.17573815155413611 0.010906618706079859 0 -0.1651250607920203 0.031645465502262007 0 -0.18601038568932329 0.033402241493726878 0 -0.18806779659284831 0.0049700422461890943 0 -0.17719121056546441 0.022679125017101141 0 -0.1651250607920203 0.031645465502262007 0 -0.18601038568932329 0.033402241493726878 0 -0.17719121056546441 0.022679125017101141 0 -0.17573815155413611 0.010906618706079859 0 -0.18189124422637781 0.014762174366335829 0 -0.17573815155413611 0.010906618706079859 0 -0.17889033448411179 0.0079964195331972236 0 -0.18189124422637781 0.014762174366335829 0 -0.18189124422637781 0.014762174366335829 0 -0.18273711566350151 0.0072184972263333383 0 -0.18806779659284831 0.0049700422461890943 0 -0.17889033448411179 0.0079964195331972236 0 -0.18189124422637781 0.014762174366335829 0 -0.18273711566350151 0.0072184972263333383 0 -0.18273711566350151 0.0072184972263333383 0 -0.18446886122977971 0.003824433103355296 0 -0.179989761597835 0.003196499848222149 0 -0.17889033448411179 0.0079964195331972236 0 -0.18273711566350151 0.0072184972263333383 0 -0.179989761597835 0.003196499848222149 0 -0.18273711566350151 0.0072184972263333383 0 -0.18446886122977971 0.003824433103355296 0 -0.18806779659284831 0.0049700422461890943 0 -0.18346386537279349 -0.001647984405783556 0 -0.18446886122977971 0.003824433103355296 0 -0.18806779659284831 0.0049700422461890943 0 -0.18346386537279349 -0.001647984405783556 0 -0.18446886122977971 0.003824433103355296 0 -0.179989761597835 0.003196499848222149 0 -0.17622003680225889 -0.0018283141660710069 0 -0.179989761597835 0.003196499848222149 0 -0.17409539937870841 0.0038983075190149349 0 -0.17889033448411179 0.0079964195331972236 0 -0.179989761597835 0.003196499848222149 0 -0.17409539937870841 0.0038983075190149349 0 -0.17573815155413611 0.010906618706079859 0 -0.17889033448411179 0.0079964195331972236 0 -0.17409539937870841 0.0038983075190149349 0 -0.15554430400163299 0.04845401766222325 0 -0.16573689351737059 0.058418533155446262 0 -0.1651250607920203 0.031645465502262007 0 -0.16573689351737059 0.058418533155446262 0 -0.1651250607920203 0.031645465502262007 0 -0.16573689351737059 0.058418533155446262 0 -0.1651250607920203 0.031645465502262007 0 -0.17520632869612771 0.046325170223174991 0 -0.15124688017340179 0.039609834018222753 0 -0.15554430400163299 0.04845401766222325 0 -0.1651250607920203 0.031645465502262007 0 -0.15377806982209841 0.031910215931445288 0 -0.15124688017340179 0.039609834018222753 0 -0.1651250607920203 0.031645465502262007 0 -0.1651250607920203 0.031645465502262007 0 -0.17520632869612771 0.046325170223174991 0 -0.18601038568932329 0.033402241493726878 0 -0.18601038568932329 0.033402241493726878 0 -0.18395297478579681 0.061834440741264707 0 -0.16573689351737059 0.058418533155446262 0 -0.18395297478579681 0.061834440741264707 0 -0.17520632869612771 0.046325170223174991 0 -0.18601038568932329 0.033402241493726878 0 -0.18395297478579681 0.061834440741264707 0 -0.16573689351737059 0.058418533155446262 0 -0.17520632869612771 0.046325170223174991 0 -0.18395297478579681 0.061834440741264707 0 -0.18601038568932329 0.033402241493726878 0 -0.18395297478579681 0.061834440741264707 0 -0.19432427019888721 0.047717368901783637 0 -0.18395297478579681 0.061834440741264707 0 -0.19432427019888721 0.047717368901783637 0 -0.2004398973288736 0.064926093822507414 0 -0.19432427019888721 0.047717368901783637 0 -0.20919739655702321 0.05110765976474177 0 -0.2004398973288736 0.064926093822507414 0 -0.19432427019888721 0.047717368901783637 0 -0.20919739655702321 0.05110765976474177 0 -0.20302794047968459 0.023081294018651489 0 -0.18601038568932329 0.033402241493726878 0 -0.19432427019888721 0.047717368901783637 0 -0.20302794047968459 0.023081294018651489 0 -0.20919739655702321 0.05110765976474177 0 -0.20302794047968459 0.023081294018651489 0 -0.2186503457585714 0.036191877097800897 0 -0.20919739655702321 0.05110765976474177 0 -0.20302794047968459 0.023081294018651489 0 -0.2186503457585714 0.036191877097800897 0 -0.20919739655702321 0.05110765976474177 0 -0.2186503457585714 0.036191877097800897 0 -0.20919739655702321 0.05110765976474177 0 -0.2239393004417794 0.057035151505099642 0 -0.20919739655702321 0.05110765976474177 0 -0.21274729391246061 0.067233995765417526 0 -0.20919739655702321 0.05110765976474177 0 -0.2239393004417794 0.057035151505099642 0 -0.21274729391246061 0.067233995765417526 0 -0.20919739655702321 0.05110765976474177 0 -0.21274729391246061 0.067233995765417526 0 -0.2004398973288736 0.064926093822507414 0 -0.20919739655702321 0.05110765976474177 0 -0.2004398973288736 0.064926093822507414 0 -0.19685848440234599 -0.0049450717274387504 0 -0.20302794047968459 0.023081294018651489 0 -0.19685848440234599 -0.0049450717274387504 0 -0.18806779659284831 0.0049700422461890943 0 -0.20302794047968459 0.023081294018651489 0 -0.19685848440234599 -0.0049450717274387504 0 -0.18806779659284831 0.0049700422461890943 0 -0.18601038568932329 0.033402241493726878 0 -0.18806779659284831 0.0049700422461890943 0 -0.20302794047968459 0.023081294018651489 0 -0.2186503457585714 0.036191877097800897 0 -0.20302794047968459 0.023081294018651489 0 -0.21578872032528251 0.017709636277511719 0 -0.20302794047968459 0.023081294018651489 0 -0.21578872032528251 0.017709636277511719 0 -0.21019557575314421 0.006394909686725795 0 -0.19685848440234599 -0.0049450717274387504 0 -0.20302794047968459 0.023081294018651489 0 -0.21019557575314421 0.006394909686725795 0 -0.21578872032528251 0.017709636277511719 0 -0.21019557575314421 0.006394909686725795 0 -0.22381138727050781 0.002909525995360538 0 -0.2120469589708838 -0.0066311205522630702 0 -0.21019557575314421 0.006394909686725795 0 -0.22381138727050781 0.002909525995360538 0 -0.22381138727050781 0.002909525995360538 0 -0.22810329496012 0.021276094430860339 0 -0.24156246817162111 3.8901865961206428e-05 0 -0.21578872032528251 0.017709636277511719 0 -0.22381138727050781 0.002909525995360538 0 -0.22810329496012 0.021276094430860339 0 -0.22381138727050781 0.002909525995360538 0 -0.22810329496012 0.021276094430860339 0 -0.2186503457585714 0.036191877097800897 0 -0.21578872032528251 0.017709636277511719 0 -0.22810329496012 0.021276094430860339 0 -0.2186503457585714 0.036191877097800897 0 -0.22810329496012 0.021276094430860339 0 -0.22810329496012 0.021276094430860339 0 -0.2482379394587918 0.029714206062630741 0 -0.2430094494313754 0.01631945997984989 0 -0.25413409513496882 0.01424863755994726 0 -0.2482379394587918 0.029714206062630741 0 -0.2430094494313754 0.01631945997984989 0 -0.25413409513496882 0.01424863755994726 0 -0.2430094494313754 0.01631945997984989 0 -0.24156246817162111 3.8901865961206428e-05 0 -0.22810329496012 0.021276094430860339 0 -0.2430094494313754 0.01631945997984989 0 -0.24156246817162111 3.8901865961206428e-05 0 -0.22810329496012 0.021276094430860339 0 -0.24156246817162111 3.8901865961206428e-05 0 -0.2239393004417794 0.057035151505099642 0 -0.23392784627468649 0.046201378957349278 0 -0.23975239758925179 0.071126663483838351 0 -0.2186503457585714 0.036191877097800897 0 -0.2239393004417794 0.057035151505099642 0 -0.23392784627468649 0.046201378957349278 0 -0.22810329496012 0.021276094430860339 0 -0.23392784627468649 0.046201378957349278 0 -0.2186503457585714 0.036191877097800897 0 -0.22810329496012 0.021276094430860339 0 -0.23392784627468649 0.046201378957349278 0 -0.25276717720812231 0.044552257542074973 0 -0.2482379394587918 0.029714206062630741 0 -0.23392784627468649 0.046201378957349278 0 -0.22810329496012 0.021276094430860339 0 -0.2482379394587918 0.029714206062630741 0 -0.23392784627468649 0.046201378957349278 0 -0.23392784627468649 0.046201378957349278 0 -0.24630962701273121 0.067782376752368534 0 -0.23975239758925179 0.071126663483838351 0 -0.25116776642898098 0.057890226552889897 0 -0.25276717720812231 0.044552257542074973 0 -0.23392784627468649 0.046201378957349278 0 -0.23392784627468649 0.046201378957349278 0 -0.23975239758925179 0.071126663483838351 0 -0.25116776642898098 0.057890226552889897 0 -0.23392784627468649 0.046201378957349278 0 -0.24630962701273121 0.067782376752368534 0 -0.25272998449871309 0.067992264760302415 0 -0.24630962701273121 0.067782376752368534 0 -0.24799635201148201 0.073901566263619864 0 -0.24799635201148201 0.073901566263619864 0 -0.243266688756439 0.074511835008774494 0 -0.24347293784451701 0.082722003339298661 0 -0.25190428147771932 0.073234116385534689 0 -0.24799635201148201 0.073901566263619864 0 -0.24347293784451701 0.082722003339298661 0 -0.24630962701273121 0.067782376752368534 0 -0.24799635201148201 0.073901566263619864 0 -0.243266688756439 0.074511835008774494 0 -0.24630962701273121 0.067782376752368534 0 -0.243266688756439 0.074511835008774494 0 -0.23975239758925179 0.071126663483838351 0 -0.23975239758925179 0.071126663483838351 0 -0.22936052255868389 0.070349333961449836 0 -0.23417457342052941 0.075843321837321981 0 -0.243266688756439 0.074511835008774494 0 -0.23880212932421291 0.077026565204747086 0 -0.24347293784451701 0.082722003339298661 0 -0.243266688756439 0.074511835008774494 0 -0.23975239758925179 0.071126663483838351 0 -0.23880212932421291 0.077026565204747086 0 -0.23975239758925179 0.071126663483838351 0 -0.23880212932421291 0.077026565204747086 0 -0.23417457342052941 0.075843321837321981 0 -0.25766879115762881 0.085346879766204309 0 -0.24347293784451701 0.082722003339298661 0 -0.2379383999704123 0.099852136835595309 0 -0.23880212932421291 0.077026565204747086 0 -0.24347293784451701 0.082722003339298661 0 -0.23841998103028911 0.081787689146604198 0 -0.23880212932421291 0.077026565204747086 0 -0.23841998103028911 0.081787689146604198 0 -0.23417457342052941 0.075843321837321981 0 -0.24347293784451701 0.082722003339298661 0 -0.23841998103028911 0.081787689146604198 0 -0.23841998103028911 0.081787689146604198 0 -0.2263927576408894 0.080950786320467455 0 -0.21993642918294579 0.099892520595323886 0 -0.2263927576408894 0.080950786320467455 0 -0.21634186154770299 0.083563258180370761 0 -0.21993642918294579 0.099892520595323886 0 -0.24347293784451701 0.082722003339298661 0 -0.21993642918294579 0.099892520595323886 0 -0.24347293784451701 0.082722003339298661 0 -0.23841998103028911 0.081787689146604198 0 -0.21993642918294579 0.099892520595323886 0 -0.23841998103028911 0.081787689146604198 0 -0.2263927576408894 0.080950786320467455 0 -0.23417457342052941 0.075843321837321981 0 -0.2263927576408894 0.080950786320467455 0 -0.2206779897428123 0.0749092826482608 0 -0.21634186154770299 0.083563258180370761 0 -0.22936052255868389 0.070349333961449836 0 -0.21274729391246061 0.067233995765417526 0 -0.22936052255868389 0.070349333961449836 0 -0.2206779897428123 0.0749092826482608 0 -0.21274729391246061 0.067233995765417526 0 -0.2239393004417794 0.057035151505099642 0 -0.23975239758925179 0.071126663483838351 0 -0.22936052255868389 0.070349333961449836 0 -0.2239393004417794 0.057035151505099642 0 -0.22936052255868389 0.070349333961449836 0 -0.21274729391246061 0.067233995765417526 0 -0.2263927576408894 0.080950786320467455 0 -0.22936052255868389 0.070349333961449836 0 -0.23417457342052941 0.075843321837321981 0 -0.2263927576408894 0.080950786320467455 0 -0.22936052255868389 0.070349333961449836 0 -0.2206779897428123 0.0749092826482608 0 -0.21274729391246061 0.067233995765417526 0 -0.21634186154770299 0.083563258180370761 0 -0.21274729391246061 0.067233995765417526 0 -0.21634186154770299 0.083563258180370761 0 -0.20473296819448689 0.079316544454668333 0 -0.2206779897428123 0.0749092826482608 0 -0.21274729391246061 0.067233995765417526 0 -0.21634186154770299 0.083563258180370761 0 -0.21274729391246061 0.067233995765417526 0 -0.2004398973288736 0.064926093822507414 0 -0.21274729391246061 0.067233995765417526 0 -0.20473296819448689 0.079316544454668333 0 -0.2004398973288736 0.064926093822507414 0 -0.21634186154770299 0.083563258180370761 0 -0.21993642918294579 0.099892520595323886 0 -0.21634186154770299 0.083563258180370761 0 -0.2090166835931582 0.090043566635817834 0 -0.21993642918294579 0.099892520595323886 0 -0.2090166835931582 0.090043566635817834 0 -0.20473296819448689 0.079316544454668333 0 -0.19782004329977801 0.089496679051309327 0 -0.2090166835931582 0.090043566635817834 0 -0.19782004329977801 0.089496679051309327 0 -0.2062521157408774 0.09794883089741685 0 -0.21634186154770299 0.083563258180370761 0 -0.2090166835931582 0.090043566635817834 0 -0.20473296819448689 0.079316544454668333 0 -0.20473296819448689 0.079316544454668333 0 -0.19765330375837989 0.07972335222055929 0 -0.19782004329977801 0.089496679051309327 0 -0.19782004329977801 0.089496679051309327 0 -0.18957189966287441 0.093117068594800498 0 -0.1876203062103812 0.085154091553751227 0 -0.19765330375837989 0.07972335222055929 0 -0.19782004329977801 0.089496679051309327 0 -0.1876203062103812 0.085154091553751227 0 -0.18395297478579681 0.061834440741264707 0 -0.2004398973288736 0.064926093822507414 0 -0.1876203062103812 0.085154091553751227 0 -0.18904825503125969 0.074596579277287578 0 -0.2004398973288736 0.064926093822507414 0 -0.18395297478579681 0.061834440741264707 0 -0.18904825503125969 0.074596579277287578 0 -0.2004398973288736 0.064926093822507414 0 -0.1876203062103812 0.085154091553751227 0 -0.2004398973288736 0.064926093822507414 0 -0.19765330375837989 0.07972335222055929 0 -0.1876203062103812 0.085154091553751227 0 -0.2004398973288736 0.064926093822507414 0 -0.20473296819448689 0.079316544454668333 0 -0.19765330375837989 0.07972335222055929 0 -0.2004398973288736 0.064926093822507414 0 -0.1915165139578541 0.12062561452203339 0 -0.20572647157039989 0.11025906755867849 0 -0.20573516551881479 0.1273700891938872 0 -0.1915165139578541 0.12062561452203339 0 -0.20572647157039989 0.11025906755867849 0 -0.1915165139578541 0.12062561452203339 0 -0.19070674849365871 0.1098036214123289 0 -0.20572647157039989 0.11025906755867849 0 -0.19070674849365871 0.1098036214123289 0 -0.18751175784101981 0.1019174488126332 0 -0.1953594869154904 0.1002844371319435 0 -0.18957189966287441 0.093117068594800498 0 -0.18751175784101981 0.1019174488126332 0 -0.1953594869154904 0.1002844371319435 0 -0.19782004329977801 0.089496679051309327 0 -0.18957189966287441 0.093117068594800498 0 -0.1953594869154904 0.1002844371319435 0 -0.19782004329977801 0.089496679051309327 0 -0.1953594869154904 0.1002844371319435 0 -0.2062521157408774 0.09794883089741685 0 -0.19070674849365871 0.1098036214123289 0 -0.1953594869154904 0.1002844371319435 0 -0.20572647157039989 0.11025906755867849 0 -0.1953594869154904 0.1002844371319435 0 -0.2062521157408774 0.09794883089741685 0 -0.20572647157039989 0.11025906755867849 0 -0.2062521157408774 0.09794883089741685 0 -0.20572647157039989 0.11025906755867849 0 -0.21993642918294579 0.099892520595323886 0 -0.20572647157039989 0.11025906755867849 0 -0.22371639989274039 0.11706402490529801 0 -0.21993642918294579 0.099892520595323886 0 -0.2090166835931582 0.090043566635817834 0 -0.2062521157408774 0.09794883089741685 0 -0.21993642918294579 0.099892520595323886 0 -0.20572647157039989 0.11025906755867849 0 -0.21993642918294579 0.099892520595323886 0 -0.20572647157039989 0.11025906755867849 0 -0.22371639989274039 0.11706402490529801 0 -0.20573516551881479 0.1273700891938872 0 -0.22371639989274039 0.11706402490529801 0 -0.23803867693615771 0.1218014097798229 0 -0.22799041247121521 0.13469512599485131 0 -0.22371639989274039 0.11706402490529801 0 -0.2379383999704123 0.099852136835595309 0 -0.23803867693615771 0.1218014097798229 0 -0.22371639989274039 0.11706402490529801 0 -0.21993642918294579 0.099892520595323886 0 -0.24347293784451701 0.082722003339298661 0 -0.21993642918294579 0.099892520595323886 0 -0.2379383999704123 0.099852136835595309 0 -0.22371639989274039 0.11706402490529801 0 -0.21993642918294579 0.099892520595323886 0 -0.2379383999704123 0.099852136835595309 0 -0.25234779532188129 0.1106429620443504 0 -0.25766879115762881 0.085346879766204309 0 -0.2379383999704123 0.099852136835595309 0 -0.25234779532188129 0.1106429620443504 0 -0.23803867693615771 0.1218014097798229 0 -0.24702679948613401 0.13593904432249651 0 -0.25234779532188129 0.1106429620443504 0 -0.24702679948613401 0.13593904432249651 0 -0.25234779532188129 0.1106429620443504 0 -0.2379383999704123 0.099852136835595309 0 -0.23803867693615771 0.1218014097798229 0 -0.23803867693615771 0.1218014097798229 0 -0.24702679948613401 0.13593904432249651 0 -0.22799041247121521 0.13469512599485131 0 -0.24702679948613401 0.13593904432249651 0 -0.22799041247121521 0.13469512599485131 0 -0.23256472405461259 0.14843013697506799 0 -0.22371639989274039 0.11706402490529801 0 -0.22799041247121521 0.13469512599485131 0 -0.20573516551881479 0.1273700891938872 0 -0.23256472405461259 0.14843013697506799 0 -0.22358061803701171 0.16225992021088251 0 -0.21367954882749951 0.14604350555839521 0 -0.22799041247121521 0.13469512599485131 0 -0.23256472405461259 0.14843013697506799 0 -0.21367954882749951 0.14604350555839521 0 -0.24702679948613401 0.13593904432249651 0 -0.23256472405461259 0.14843013697506799 0 -0.24798754635115419 0.15984541518354681 0 -0.23256472405461259 0.14843013697506799 0 -0.24798754635115419 0.15984541518354681 0 -0.22358061803701171 0.16225992021088251 0 -0.25838158176301529 0.17966884935518021 0 -0.24798754635115419 0.15984541518354681 0 -0.24284285117188789 0.17505671916914031 0 -0.24798754635115419 0.15984541518354681 0 -0.24284285117188789 0.17505671916914031 0 -0.22358061803701171 0.16225992021088251 0 -0.24284285117188789 0.17505671916914031 0 -0.24878729217559289 0.18841596133959801 0 -0.2325455095579794 0.1920156105778652 0 -0.22746078847163709 0.1784894408967303 0 -0.2108741751196693 0.18462551362903321 0 -0.2325455095579794 0.1920156105778652 0 -0.24284285117188789 0.17505671916914031 0 -0.22746078847163709 0.1784894408967303 0 -0.22358061803701171 0.16225992021088251 0 -0.24284285117188789 0.17505671916914031 0 -0.22746078847163709 0.1784894408967303 0 -0.2325455095579794 0.1920156105778652 0 -0.22746078847163709 0.1784894408967303 0 -0.22358061803701171 0.16225992021088251 0 -0.2108741751196693 0.18462551362903321 0 -0.22358061803701171 0.16225992021088251 0 -0.2049433530265215 0.16061588083114869 0 -0.2108741751196693 0.18462551362903321 0 -0.22358061803701171 0.16225992021088251 0 -0.2049433530265215 0.16061588083114869 0 -0.21367954882749951 0.14604350555839521 0 -0.2108741751196693 0.18462551362903321 0 -0.1890908188254993 0.16953767277788731 0 -0.18496941487880969 0.19471158418181789 0 -0.2049433530265215 0.16061588083114869 0 -0.2108741751196693 0.18462551362903321 0 -0.1890908188254993 0.16953767277788731 0 -0.2049433530265215 0.16061588083114869 0 -0.1890908188254993 0.16953767277788731 0 -0.19321222277218891 0.14436376137395671 0 -0.1890908188254993 0.16953767277788731 0 -0.19321222277218891 0.14436376137395671 0 -0.1890908188254993 0.16953767277788731 0 -0.19321222277218891 0.14436376137395671 0 -0.1852995688568064 0.14720474994801419 0 -0.19321222277218891 0.14436376137395671 0 -0.20573516551881479 0.1273700891938872 0 -0.1852995688568064 0.14720474994801419 0 -0.19029650623126329 0.13143711820087781 0 -0.20573516551881479 0.1273700891938872 0 -0.1852995688568064 0.14720474994801419 0 -0.20573516551881479 0.1273700891938872 0 -0.1852995688568064 0.14720474994801419 0 -0.18399944287813769 0.1243110413724456 0 -0.1915165139578541 0.12062561452203339 0 -0.19029650623126329 0.13143711820087781 0 -0.1915165139578541 0.12062561452203339 0 -0.19029650623126329 0.13143711820087781 0 -0.20573516551881479 0.1273700891938872 0 -0.19321222277218891 0.14436376137395671 0 -0.20573516551881479 0.1273700891938872 0 -0.21367954882749951 0.14604350555839521 0 -0.22799041247121521 0.13469512599485131 0 -0.20573516551881479 0.1273700891938872 0 -0.21367954882749951 0.14604350555839521 0 -0.2049433530265215 0.16061588083114869 0 -0.19321222277218891 0.14436376137395671 0 -0.21367954882749951 0.14604350555839521 0 -0.22359991905300591 0.24445062206085111 0 -0.23687497177736189 0.23150414832798791 0 -0.22618988828923989 0.2273314179536059 0 -0.2381547251009824 0.25036062724400548 0 -0.22359991905300591 0.24445062206085111 0 -0.2415436617167393 0.2393598459660678 0 -0.22359991905300591 0.24445062206085111 0 -0.24801018607111791 0.23566717074778309 0 -0.2415436617167393 0.2393598459660678 0 -0.22359991905300591 0.24445062206085111 0 -0.24801018607111791 0.23566717074778309 0 -0.23687497177736189 0.23150414832798791 0 -0.22359991905300591 0.24445062206085111 0 -0.24801018607111791 0.23566717074778309 0 -0.2381547251009824 0.25036062724400548 0 -0.24591301348853789 0.24331704576544311 0 -0.2415436617167393 0.2393598459660678 0 -0.2381547251009824 0.25036062724400548 0 -0.249435427503925 0.25000056447435692 0 -0.24591301348853789 0.24331704576544311 0 -0.2524210670499249 0.24119702039500171 0 -0.249435427503925 0.25000056447435692 0 -0.24591301348853789 0.24331704576544311 0 -0.2524210670499249 0.24119702039500171 0 -0.24591301348853789 0.24331704576544311 0 -0.24801018607111791 0.23566717074778309 0 -0.24591301348853789 0.24331704576544311 0 -0.24801018607111791 0.23566717074778309 0 -0.2415436617167393 0.2393598459660678 0 -0.24801018607111791 0.23566717074778309 0 -0.2415436617167393 0.2393598459660678 0 -0.23687497177736189 0.23150414832798791 0 -0.2467254125811553 0.2261864474181082 0 -0.2385505544831793 0.22259089851681441 0 -0.24801018607111791 0.23566717074778309 0 -0.23687497177736189 0.23150414832798791 0 -0.2467254125811553 0.2261864474181082 0 -0.25513340228505632 0.22342102262153321 0 -0.24801018607111791 0.23566717074778309 0 -0.2467254125811553 0.2261864474181082 0 -0.2467254125811553 0.2261864474181082 0 -0.2385505544831793 0.22259089851681441 0 -0.24882323592532751 0.21153690915109311 0 -0.2385505544831793 0.22259089851681441 0 -0.22618988828923989 0.2273314179536059 0 -0.2345365239906404 0.2107118266271652 0 -0.22618988828923989 0.2273314179536059 0 -0.2203298980247814 0.20854752786068689 0 -0.20975977502983659 0.23089080061730161 0 -0.22359991905300591 0.24445062206085111 0 -0.22618988828923989 0.2273314179536059 0 -0.20975977502983659 0.23089080061730161 0 -0.23687497177736189 0.23150414832798791 0 -0.2385505544831793 0.22259089851681441 0 -0.22618988828923989 0.2273314179536059 0 -0.2203298980247814 0.20854752786068689 0 -0.2345365239906404 0.2107118266271652 0 -0.2325455095579794 0.1920156105778652 0 -0.22618988828923989 0.2273314179536059 0 -0.2203298980247814 0.20854752786068689 0 -0.2345365239906404 0.2107118266271652 0 -0.2385505544831793 0.22259089851681441 0 -0.24882323592532751 0.21153690915109311 0 -0.2345365239906404 0.2107118266271652 0 -0.25346129445857718 0.19861817783096619 0 -0.24882323592532751 0.21153690915109311 0 -0.24330736002138159 0.19976563414728099 0 -0.24882323592532751 0.21153690915109311 0 -0.2345365239906404 0.2107118266271652 0 -0.24330736002138159 0.19976563414728099 0 -0.2345365239906404 0.2107118266271652 0 -0.24330736002138159 0.19976563414728099 0 -0.2325455095579794 0.1920156105778652 0 -0.24330736002138159 0.19976563414728099 0 -0.24878729217559289 0.18841596133959801 0 -0.2325455095579794 0.1920156105778652 0 -0.25346129445857718 0.19861817783096619 0 -0.24330736002138159 0.19976563414728099 0 -0.24878729217559289 0.18841596133959801 0 -0.2108741751196693 0.18462551362903321 0 -0.2203298980247814 0.20854752786068689 0 -0.2325455095579794 0.1920156105778652 0 -0.2108741751196693 0.18462551362903321 0 -0.2203298980247814 0.20854752786068689 0 -0.19992667255052921 0.21233891253311929 0 -0.2108741751196693 0.18462551362903321 0 -0.19992667255052921 0.21233891253311929 0 -0.18496941487880969 0.19471158418181789 0 -0.19992667255052921 0.21233891253311929 0 -0.18084801093212 0.21988549558574849 0 -0.18496941487880969 0.19471158418181789 0 -0.2203298980247814 0.20854752786068689 0 -0.19992667255052921 0.21233891253311929 0 -0.20975977502983659 0.23089080061730161 0 -0.2203298980247814 0.20854752786068689 0 -0.20975977502983659 0.23089080061730161 0 -0.19992667255052921 0.21233891253311929 0 -0.1927787613179586 0.2353725533241281 0 -0.18084801093212 0.21988549558574849 0 -0.19992667255052921 0.21233891253311929 0 -0.20975977502983659 0.23089080061730161 0 -0.1927787613179586 0.2353725533241281 0 -0.19918965203489319 0.25323407337391712 0 -0.1927787613179586 0.2353725533241281 0 -0.17672660698543041 0.2450594069896791 0 -0.19918965203489319 0.25323407337391712 0 -0.20975977502983659 0.23089080061730161 0 -0.1927787613179586 0.2353725533241281 0 -0.19918965203489319 0.25323407337391712 0 -0.22359991905300591 0.24445062206085111 0 -0.20975977502983659 0.23089080061730161 0 -0.19918965203489319 0.25323407337391712 0 -0.20975977502983659 0.23089080061730161 0 -0.19918965203489319 0.25323407337391712 0 -0.22359991905300591 0.24445062206085111 0 -0.16476888297622971 0.25602604930352812 0 -0.16409502612009411 0.24328878717079289 0 -0.14868184259594561 0.24139284649683301 0 -0.16409502612009411 0.24328878717079289 0 -0.16436325682262101 0.23053653317431089 0 -0.14868184259594561 0.24139284649683301 0 -0.16409502612009411 0.24328878717079289 0 -0.17672660698543041 0.2450594069896791 0 -0.16436325682262101 0.23053653317431089 0 -0.16476888297622971 0.25602604930352812 0 -0.16409502612009411 0.24328878717079289 0 -0.17672660698543041 0.2450594069896791 0 -0.17672660698543041 0.2450594069896791 0 -0.18084801093212 0.21988549558574849 0 -0.17672660698543041 0.2450594069896791 0 -0.18084801093212 0.21988549558574849 0 -0.16436325682262101 0.23053653317431089 0 -0.1927787613179586 0.2353725533241281 0 -0.17672660698543041 0.2450594069896791 0 -0.18084801093212 0.21988549558574849 0 -0.16436325682262101 0.23053653317431089 0 -0.1559897371102448 0.22130659102740149 0 -0.14868184259594561 0.24139284649683301 0 -0.18084801093212 0.21988549558574849 0 -0.16436325682262101 0.23053653317431089 0 -0.1665582439784892 0.20956271258860129 0 -0.16436325682262101 0.23053653317431089 0 -0.1665582439784892 0.20956271258860129 0 -0.1559897371102448 0.22130659102740149 0 -0.1665582439784892 0.20956271258860129 0 -0.1554137566352532 0.20881963390892511 0 -0.1559897371102448 0.22130659102740149 0 -0.1665582439784892 0.20956271258860129 0 -0.15935902016339959 0.19989430888723209 0 -0.1554137566352532 0.20881963390892511 0 -0.18084801093212 0.21988549558574849 0 -0.1665582439784892 0.20956271258860129 0 -0.18496941487880969 0.19471158418181789 0 -0.18084801093212 0.21988549558574849 0 -0.18496941487880969 0.19471158418181789 0 -0.1665582439784892 0.20956271258860129 0 -0.18496941487880969 0.19471158418181789 0 -0.16809049218491301 0.19293107635713549 0 -0.18496941487880969 0.19471158418181789 0 -0.16809049218491301 0.19293107635713549 0 -0.17544031540391961 0.1797377063952216 0 -0.1665582439784892 0.20956271258860129 0 -0.16809049218491301 0.19293107635713549 0 -0.15935902016339959 0.19989430888723209 0 -0.16809049218491301 0.19293107635713549 0 -0.15925409296766671 0.19077767936338921 0 -0.16448148820998909 0.18205793911320739 0 -0.16809049218491301 0.19293107635713549 0 -0.15935902016339959 0.19989430888723209 0 -0.15925409296766671 0.19077767936338921 0 -0.15925409296766671 0.19077767936338921 0 -0.14984507690878149 0.19801252585824339 0 -0.15475856829864801 0.17980382274814979 0 -0.14984507690878149 0.19801252585824339 0 -0.15475856829864801 0.17980382274814979 0 -0.14442837553278959 0.18687407145626789 0 -0.14984507690878149 0.19801252585824339 0 -0.15475856829864801 0.17980382274814979 0 -0.14236389564678001 0.19898696847216821 0 -0.13979620577464569 0.18175270797599941 0 -0.14236389564678001 0.19898696847216821 0 -0.14442837553278959 0.18687407145626789 0 -0.13979620577464569 0.18175270797599941 0 -0.15935902016339959 0.19989430888723209 0 -0.15925409296766671 0.19077767936338921 0 -0.14984507690878149 0.19801252585824339 0 -0.15935902016339959 0.19989430888723209 0 -0.14984507690878149 0.19801252585824339 0 -0.1554137566352532 0.20881963390892511 0 -0.14984507690878149 0.19801252585824339 0 -0.14236389564678001 0.19898696847216821 0 -0.14442837553278959 0.18687407145626789 0 -0.13450487708287151 0.18921428582242031 0 -0.13620945063090739 0.20979011221575081 0 -0.13979620577464569 0.18175270797599941 0 -0.13620945063090739 0.20979011221575081 0 -0.13979620577464569 0.18175270797599941 0 -0.13450487708287151 0.18921428582242031 0 -0.12953838583240601 0.19687383645675199 0 -0.13620945063090739 0.20979011221575081 0 -0.14236389564678001 0.19898696847216821 0 -0.13620945063090739 0.20979011221575081 0 -0.13979620577464569 0.18175270797599941 0 -0.12772775648191961 0.1891643003610621 0 -0.12953838583240601 0.19687383645675199 0 -0.12058679761668591 0.1942974369511673 0 -0.13450487708287151 0.18921428582242031 0 -0.12772775648191961 0.1891643003610621 0 -0.12953838583240601 0.19687383645675199 0 -0.12953838583240601 0.19687383645675199 0 -0.12653459010600179 0.20395830259826531 0 -0.12058679761668591 0.1942974369511673 0 -0.13620945063090739 0.20979011221575081 0 -0.12653459010600179 0.20395830259826531 0 -0.12409215442168731 0.2119439862754314 0 -0.12953838583240601 0.19687383645675199 0 -0.13620945063090739 0.20979011221575081 0 -0.12653459010600179 0.20395830259826531 0 -0.13620945063090739 0.20979011221575081 0 -0.12535758724892981 0.22264998485569101 0 -0.12409215442168731 0.2119439862754314 0 -0.14236389564678001 0.19898696847216821 0 -0.13620945063090739 0.20979011221575081 0 -0.14493158551891461 0.21622122896833679 0 -0.14984507690878149 0.19801252585824339 0 -0.14493158551891461 0.21622122896833679 0 -0.1554137566352532 0.20881963390892511 0 -0.14984507690878149 0.19801252585824339 0 -0.14493158551891461 0.21622122896833679 0 -0.14984507690878149 0.19801252585824339 0 -0.14236389564678001 0.19898696847216821 0 -0.14493158551891461 0.21622122896833679 0 -0.14236389564678001 0.19898696847216821 0 -0.14493158551891461 0.21622122896833679 0 -0.14493158551891461 0.21622122896833679 0 -0.1554137566352532 0.20881963390892511 0 -0.1559897371102448 0.22130659102740149 0 -0.14493158551891461 0.21622122896833679 0 -0.1386323871262797 0.23956516594961019 0 -0.14493158551891461 0.21622122896833679 0 -0.1386323871262797 0.23956516594961019 0 -0.14868184259594561 0.24139284649683301 0 -0.14493158551891461 0.21622122896833679 0 -0.14868184259594561 0.24139284649683301 0 -0.14493158551891461 0.21622122896833679 0 -0.1559897371102448 0.22130659102740149 0 -0.14868184259594561 0.24139284649683301 0 -0.14493158551891461 0.21622122896833679 0 -0.1386323871262797 0.23956516594961019 0 -0.13262269548716879 0.23782751645550221 0 -0.13620945063090739 0.20979011221575081 0 -0.14493158551891461 0.21622122896833679 0 -0.13262269548716879 0.23782751645550221 0 -0.13620945063090739 0.20979011221575081 0 -0.12535758724892981 0.22264998485569101 0 -0.13262269548716879 0.23782751645550221 0 -0.13620945063090739 0.20979011221575081 0 -0.13262269548716879 0.23782751645550221 0 -0.12535758724892981 0.22264998485569101 0 -0.13262269548716879 0.23782751645550221 0 -0.12425289891910871 0.23359296055499801 0 -0.1386323871262797 0.23956516594961019 0 -0.13262269548716879 0.23782751645550221 0 -0.1282933940016103 0.24242737913280821 0 -0.1323331887336478 0.26290910293088432 0 -0.1386323871262797 0.23956516594961019 0 -0.14868184259594561 0.24139284649683301 0 -0.13262269548716879 0.23782751645550221 0 -0.1282933940016103 0.24242737913280821 0 -0.12425289891910871 0.23359296055499801 0 -0.1386323871262797 0.23956516594961019 0 -0.12907737633496441 0.24962857445301059 0 -0.1282933940016103 0.24242737913280821 0 -0.12907737633496441 0.24962857445301059 0 -0.1282933940016103 0.24242737913280821 0 -0.1212830836163822 0.24088926827038079 0 -0.16871575145322229 0.14969033694552081 0 -0.16123777607545309 0.13610621136858139 0 -0.1556688909628586 0.15404665095293679 0 -0.16871575145322229 0.14969033694552081 0 -0.16123777607545309 0.13610621136858139 0 -0.17548335328717929 0.14089709619144039 0 -0.1609078447057396 0.11821543189307759 0 -0.16123777607545309 0.13610621136858139 0 -0.17238658245394531 0.12545986635763931 0 -0.16123777607545309 0.13610621136858139 0 -0.17238658245394531 0.12545986635763931 0 -0.17548335328717929 0.14089709619144039 0 -0.17238658245394531 0.12545986635763931 0 -0.18147810643326789 0.13229424819796479 0 -0.17548335328717929 0.14089709619144039 0 -0.19029650623126329 0.13143711820087781 0 -0.18358076706488169 0.13791082654706799 0 -0.1852995688568064 0.14720474994801419 0 -0.18399944287813769 0.1243110413724456 0 -0.17238658245394531 0.12545986635763931 0 -0.18147810643326789 0.13229424819796479 0 -0.18399944287813769 0.1243110413724456 0 -0.19029650623126329 0.13143711820087781 0 -0.18147810643326789 0.13229424819796479 0 -0.18147810643326789 0.13229424819796479 0 -0.18358076706488169 0.13791082654706799 0 -0.17548335328717929 0.14089709619144039 0 -0.19029650623126329 0.13143711820087781 0 -0.18147810643326789 0.13229424819796479 0 -0.18358076706488169 0.13791082654706799 0 -0.16871575145322229 0.14969033694552081 0 -0.1852995688568064 0.14720474994801419 0 -0.17548335328717929 0.14089709619144039 0 -0.16871575145322229 0.14969033694552081 0 -0.1852995688568064 0.14720474994801419 0 -0.16486397219479801 0.16703941070214101 0 -0.18358076706488169 0.13791082654706799 0 -0.1852995688568064 0.14720474994801419 0 -0.17548335328717929 0.14089709619144039 0 -0.1890908188254993 0.16953767277788731 0 -0.1852995688568064 0.14720474994801419 0 -0.16486397219479801 0.16703941070214101 0 -0.1852995688568064 0.14720474994801419 0 -0.16486397219479801 0.16703941070214101 0 -0.1890908188254993 0.16953767277788731 0 -0.18496941487880969 0.19471158418181789 0 -0.17544031540391961 0.1797377063952216 0 -0.1890908188254993 0.16953767277788731 0 -0.17544031540391961 0.1797377063952216 0 -0.16486397219479801 0.16703941070214101 0 -0.1890908188254993 0.16953767277788731 0 -0.18496941487880969 0.19471158418181789 0 -0.16809049218491301 0.19293107635713549 0 -0.17544031540391961 0.1797377063952216 0 -0.16448148820998909 0.18205793911320739 0 -0.17544031540391961 0.1797377063952216 0 -0.16448148820998909 0.18205793911320739 0 -0.16486397219479801 0.16703941070214101 0 -0.16448148820998909 0.18205793911320739 0 -0.16486397219479801 0.16703941070214101 0 -0.15475856829864801 0.17980382274814979 0 -0.15925409296766671 0.19077767936338921 0 -0.16448148820998909 0.18205793911320739 0 -0.15475856829864801 0.17980382274814979 0 -0.16871575145322229 0.14969033694552081 0 -0.16486397219479801 0.16703941070214101 0 -0.1556688909628586 0.15404665095293679 0 -0.16486397219479801 0.16703941070214101 0 -0.1497954440605635 0.169366134620211 0 -0.1556688909628586 0.15404665095293679 0 -0.1497954440605635 0.169366134620211 0 -0.13979620577464569 0.18175270797599941 0 -0.1432407495814593 0.15482695941974381 0 -0.1497954440605635 0.169366134620211 0 -0.1432407495814593 0.15482695941974381 0 -0.1556688909628586 0.15404665095293679 0 -0.13979620577464569 0.18175270797599941 0 -0.13921567432316551 0.17785619758757359 0 -0.1432407495814593 0.15482695941974381 0 -0.13979620577464569 0.18175270797599941 0 -0.1432407495814593 0.15482695941974381 0 -0.1497954440605635 0.169366134620211 0 -0.14442837553278959 0.18687407145626789 0 -0.13979620577464569 0.18175270797599941 0 -0.16486397219479801 0.16703941070214101 0 -0.1497954440605635 0.169366134620211 0 -0.14442837553278959 0.18687407145626789 0 -0.16486397219479801 0.16703941070214101 0 -0.14442837553278959 0.18687407145626789 0 -0.16486397219479801 0.16703941070214101 0 -0.15475856829864801 0.17980382274814979 0 -0.14442837553278959 0.18687407145626789 0 -0.13450487708287151 0.18921428582242031 0 -0.1358130723590173 0.18299489052391341 0 -0.1324281899790912 0.18085894927009269 0 -0.13450487708287151 0.18921428582242031 0 -0.13979620577464569 0.18175270797599941 0 -0.1358130723590173 0.18299489052391341 0 -0.13979620577464569 0.18175270797599941 0 -0.1365230165994607 0.18015361902714111 0 -0.1358130723590173 0.18299489052391341 0 -0.13979620577464569 0.18175270797599941 0 -0.13921567432316551 0.17785619758757359 0 -0.13979620577464569 0.18175270797599941 0 -0.1365230165994607 0.18015361902714111 0 -0.13921567432316551 0.17785619758757359 0 -0.1365230165994607 0.18015361902714111 0 -0.1358130723590173 0.18299489052391341 0 -0.1324281899790912 0.18085894927009269 0 -0.13517227170691951 0.1776918918350264 0 -0.13252220592596059 0.17189880145529821 0 -0.1324281899790912 0.18085894927009269 0 -0.1365230165994607 0.18015361902714111 0 -0.13517227170691951 0.1776918918350264 0 -0.1324281899790912 0.18085894927009269 0 -0.13517227170691951 0.1776918918350264 0 -0.13921567432316551 0.17785619758757359 0 -0.13252220592596059 0.17189880145529821 0 -0.1365230165994607 0.18015361902714111 0 -0.13517227170691951 0.1776918918350264 0 -0.13921567432316551 0.17785619758757359 0 -0.13252220592596059 0.17189880145529821 0 -0.1324281899790912 0.18085894927009269 0 -0.1237259898728903 0.1818994084390376 0 -0.12772775648191961 0.1891643003610621 0 -0.1324281899790912 0.18085894927009269 0 -0.1237259898728903 0.1818994084390376 0 -0.13450487708287151 0.18921428582242031 0 -0.12772775648191961 0.1891643003610621 0 -0.1324281899790912 0.18085894927009269 0 -0.13921567432316551 0.17785619758757359 0 -0.13252220592596059 0.17189880145529821 0 -0.1432407495814593 0.15482695941974381 0 -0.13252220592596059 0.17189880145529821 0 -0.1264709729354743 0.16016678923656219 0 -0.1432407495814593 0.15482695941974381 0 -0.13252220592596059 0.17189880145529821 0 -0.1264709729354743 0.16016678923656219 0 -0.1177564125815504 0.1708702102024765 0 -0.1273705585781979 0.14655133117890001 0 -0.1432407495814593 0.15482695941974381 0 -0.14380998939661621 0.14175275843590429 0 -0.1264709729354743 0.16016678923656219 0 -0.1273705585781979 0.14655133117890001 0 -0.1432407495814593 0.15482695941974381 0 -0.1432407495814593 0.15482695941974381 0 -0.14380998939661621 0.14175275843590429 0 -0.1556688909628586 0.15404665095293679 0 -0.16123777607545309 0.13610621136858139 0 -0.14380998939661621 0.14175275843590429 0 -0.1556688909628586 0.15404665095293679 0 -0.16123777607545309 0.13610621136858139 0 -0.14380998939661621 0.14175275843590429 0 -0.146422009359223 0.12588572965013881 0 -0.1609078447057396 0.11821543189307759 0 -0.16123777607545309 0.13610621136858139 0 -0.146422009359223 0.12588572965013881 0 -0.14380998939661621 0.14175275843590429 0 -0.146422009359223 0.12588572965013881 0 -0.12794092556623851 0.1308087954511595 0 -0.1273705585781979 0.14655133117890001 0 -0.14380998939661621 0.14175275843590429 0 -0.12794092556623851 0.1308087954511595 0 -0.1273705585781979 0.14655133117890001 0 -0.12794092556623851 0.1308087954511595 0 -0.10974542753282721 0.12941988493019499 0 -0.10974542753282721 0.12941988493019499 0 -0.095290714172933083 0.141111952959558 0 -0.07791463978225964 0.1273806028977284 0 -0.095290714172933083 0.141111952959558 0 -0.1126667885636066 0.15484330302138771 0 -0.10974542753282721 0.12941988493019499 0 -0.095290714172933083 0.141111952959558 0 -0.1126667885636066 0.15484330302138771 0 -0.095290714172933083 0.141111952959558 0 -0.1126667885636066 0.15484330302138771 0 -0.096170129396594597 0.15739719785470019 0 -0.1273705585781979 0.14655133117890001 0 -0.10974542753282721 0.12941988493019499 0 -0.1126667885636066 0.15484330302138771 0 -0.1264709729354743 0.16016678923656219 0 -0.1273705585781979 0.14655133117890001 0 -0.1126667885636066 0.15484330302138771 0 -0.1126667885636066 0.15484330302138771 0 -0.1177564125815504 0.1708702102024765 0 -0.103037108416657 0.16994393888498041 0 -0.1264709729354743 0.16016678923656219 0 -0.1126667885636066 0.15484330302138771 0 -0.1177564125815504 0.1708702102024765 0 -0.1237259898728903 0.1818994084390376 0 -0.11026248496986391 0.18409379591486499 0 -0.12058679761668591 0.1942974369511673 0 -0.1177564125815504 0.1708702102024765 0 -0.1237259898728903 0.1818994084390376 0 -0.11026248496986391 0.18409379591486499 0 -0.13252220592596059 0.17189880145529821 0 -0.1177564125815504 0.1708702102024765 0 -0.1237259898728903 0.1818994084390376 0 -0.1177564125815504 0.1708702102024765 0 -0.11026248496986391 0.18409379591486499 0 -0.103037108416657 0.16994393888498041 0 -0.11026248496986391 0.18409379591486499 0 -0.103037108416657 0.16994393888498041 0 -0.09353275242833245 0.183694077046408 0 -0.103037108416657 0.16994393888498041 0 -0.086115191607606459 0.16857145896338471 0 -0.09353275242833245 0.183694077046408 0 -0.1126667885636066 0.15484330302138771 0 -0.096170129396594597 0.15739719785470019 0 -0.103037108416657 0.16994393888498041 0 -0.096170129396594597 0.15739719785470019 0 -0.103037108416657 0.16994393888498041 0 -0.086115191607606459 0.16857145896338471 0 -0.086115191607606459 0.16857145896338471 0 -0.071570205622166178 0.16451514241004311 0 -0.083740844222169888 0.15251533544419019 0 -0.096170129396594597 0.15739719785470019 0 -0.086115191607606459 0.16857145896338471 0 -0.083740844222169888 0.15251533544419019 0 -0.086115191607606459 0.16857145896338471 0 -0.077524999160549724 0.17900739997883111 0 -0.071570205622166178 0.16451514241004311 0 -0.09353275242833245 0.183694077046408 0 -0.077524999160549724 0.17900739997883111 0 -0.079415058581209078 0.19673744734919471 0 -0.086115191607606459 0.16857145896338471 0 -0.09353275242833245 0.183694077046408 0 -0.077524999160549724 0.17900739997883111 0 -0.077524999160549724 0.17900739997883111 0 -0.071570205622166178 0.16451514241004311 0 -0.058716528685592767 0.17900066479214491 0 -0.077524999160549724 0.17900739997883111 0 -0.079415058581209078 0.19673744734919471 0 -0.058716528685592767 0.17900066479214491 0 -0.071570205622166178 0.16451514241004311 0 -0.067596123117718315 0.15084662084012049 0 -0.055727546939359981 0.15714937444158719 0 -0.067596123117718315 0.15084662084012049 0 -0.07791463978225964 0.1273806028977284 0 -0.083740844222169888 0.15251533544419019 0 -0.071570205622166178 0.16451514241004311 0 -0.067596123117718315 0.15084662084012049 0 -0.083740844222169888 0.15251533544419019 0 -0.067596123117718315 0.15084662084012049 0 -0.07791463978225964 0.1273806028977284 0 -0.057075523611279787 0.1415033920691785 0 -0.095290714172933083 0.141111952959558 0 -0.07791463978225964 0.1273806028977284 0 -0.095290714172933083 0.141111952959558 0 -0.07791463978225964 0.1273806028977284 0 -0.083740844222169888 0.15251533544419019 0 -0.095290714172933083 0.141111952959558 0 -0.096170129396594597 0.15739719785470019 0 -0.083740844222169888 0.15251533544419019 0 -0.10898983499016381 0.25866367951737868 0 -0.09788140403950131 0.24634004413176361 0 -0.1084536750074588 0.24276962252291351 0 -0.09788140403950131 0.24634004413176361 0 -0.1084536750074588 0.24276962252291351 0 -0.09333316433788108 0.22980941152379991 0 -0.09788140403950131 0.24634004413176361 0 -0.09333316433788108 0.22980941152379991 0 -0.090882769485247733 0.24054333214206711 0 -0.092803926884228172 0.25053040598172899 0 -0.09788140403950131 0.24634004413176361 0 -0.090882769485247733 0.24054333214206711 0 -0.115970302515576 0.25098152906068399 0 -0.1084536750074588 0.24276962252291351 0 -0.1212830836163822 0.24088926827038079 0 -0.1282933940016103 0.24242737913280821 0 -0.1212830836163822 0.24088926827038079 0 -0.12425289891910871 0.23359296055499801 0 -0.1212830836163822 0.24088926827038079 0 -0.1104048905081139 0.23036724624518581 0 -0.12425289891910871 0.23359296055499801 0 -0.1084536750074588 0.24276962252291351 0 -0.1212830836163822 0.24088926827038079 0 -0.1104048905081139 0.23036724624518581 0 -0.12535758724892981 0.22264998485569101 0 -0.1104048905081139 0.23036724624518581 0 -0.12425289891910871 0.23359296055499801 0 -0.12535758724892981 0.22264998485569101 0 -0.1104048905081139 0.23036724624518581 0 -0.11341166294182881 0.21784852096916679 0 -0.1104048905081139 0.23036724624518581 0 -0.1001135884768254 0.21447422990624451 0 -0.11341166294182881 0.21784852096916679 0 -0.1084536750074588 0.24276962252291351 0 -0.1104048905081139 0.23036724624518581 0 -0.09333316433788108 0.22980941152379991 0 -0.1104048905081139 0.23036724624518581 0 -0.1001135884768254 0.21447422990624451 0 -0.09333316433788108 0.22980941152379991 0 -0.1104048905081139 0.23036724624518581 0 -0.09333316433788108 0.22980941152379991 0 -0.1001135884768254 0.21447422990624451 0 -0.1054884747435865 0.19867778115645379 0 -0.079415058581209078 0.19673744734919471 0 -0.1001135884768254 0.21447422990624451 0 -0.11341166294182881 0.21784852096916679 0 -0.1054884747435865 0.19867778115645379 0 -0.11341166294182881 0.21784852096916679 0 -0.11894748118076839 0.20547301073828311 0 -0.1054884747435865 0.19867778115645379 0 -0.11341166294182881 0.21784852096916679 0 -0.12409215442168731 0.2119439862754314 0 -0.11894748118076839 0.20547301073828311 0 -0.12535758724892981 0.22264998485569101 0 -0.11341166294182881 0.21784852096916679 0 -0.12409215442168731 0.2119439862754314 0 -0.12653459010600179 0.20395830259826531 0 -0.12409215442168731 0.2119439862754314 0 -0.11894748118076839 0.20547301073828311 0 -0.11894748118076839 0.20547301073828311 0 -0.12058679761668591 0.1942974369511673 0 -0.1054884747435865 0.19867778115645379 0 -0.12653459010600179 0.20395830259826531 0 -0.11894748118076839 0.20547301073828311 0 -0.12058679761668591 0.1942974369511673 0 -0.12772775648191961 0.1891643003610621 0 -0.1237259898728903 0.1818994084390376 0 -0.12058679761668591 0.1942974369511673 0 -0.11026248496986391 0.18409379591486499 0 -0.12058679761668591 0.1942974369511673 0 -0.1054884747435865 0.19867778115645379 0 -0.11026248496986391 0.18409379591486499 0 -0.09353275242833245 0.183694077046408 0 -0.1054884747435865 0.19867778115645379 0 -0.09353275242833245 0.183694077046408 0 -0.1054884747435865 0.19867778115645379 0 -0.079415058581209078 0.19673744734919471 0 -0.079415058581209078 0.19673744734919471 0 -0.058716528685592767 0.17900066479214491 0 -0.079415058581209078 0.19673744734919471 0 -0.063460953470129408 0.20879363641823559 0 -0.058716528685592767 0.17900066479214491 0 -0.079415058581209078 0.19673744734919471 0 -0.063460953470129408 0.20879363641823559 0 -0.082655909963969418 0.21515104595148621 0 -0.063460953470129408 0.20879363641823559 0 -0.082655909963969418 0.21515104595148621 0 -0.07626143816764816 0.2292515768024139 0 -0.1001135884768254 0.21447422990624451 0 -0.079415058581209078 0.19673744734919471 0 -0.082655909963969418 0.21515104595148621 0 -0.1001135884768254 0.21447422990624451 0 -0.079415058581209078 0.19673744734919471 0 -0.09333316433788108 0.22980941152379991 0 -0.07626143816764816 0.2292515768024139 0 -0.09333316433788108 0.22980941152379991 0 -0.07626143816764816 0.2292515768024139 0 -0.090882769485247733 0.24054333214206711 0 -0.1001135884768254 0.21447422990624451 0 -0.082655909963969418 0.21515104595148621 0 -0.09333316433788108 0.22980941152379991 0 -0.082655909963969418 0.21515104595148621 0 -0.09333316433788108 0.22980941152379991 0 -0.07626143816764816 0.2292515768024139 0 -0.07626143816764816 0.2292515768024139 0 -0.05500867203951381 0.22855712266499709 0 -0.07626143816764816 0.2292515768024139 0 -0.063998046190080288 0.23595052208145709 0 -0.05500867203951381 0.22855712266499709 0 -0.063460953470129408 0.20879363641823559 0 -0.07626143816764816 0.2292515768024139 0 -0.063460953470129408 0.20879363641823559 0 -0.07626143816764816 0.2292515768024139 0 -0.05500867203951381 0.22855712266499709 0 -0.067393243976941838 0.2437428137186525 0 -0.073135677888041331 0.24923235374733829 0 -0.056834860762002989 0.24815654307924351 0 -0.07626143816764816 0.2292515768024139 0 -0.067393243976941838 0.2437428137186525 0 -0.073135677888041331 0.24923235374733829 0 -0.073135677888041331 0.24923235374733829 0 -0.056834860762002989 0.24815654307924351 0 -0.07626143816764816 0.2292515768024139 0 -0.063998046190080288 0.23595052208145709 0 -0.067393243976941838 0.2437428137186525 0 -0.063998046190080288 0.23595052208145709 0 -0.067393243976941838 0.2437428137186525 0 -0.060299001187947197 0.24016757719491261 0 -0.089436495014079617 0.25030816441543419 0 -0.07626143816764816 0.2292515768024139 0 -0.090882769485247733 0.24054333214206711 0 -0.089436495014079617 0.25030816441543419 0 -0.07626143816764816 0.2292515768024139 0 -0.073135677888041331 0.24923235374733829 0 -0.089436495014079617 0.25030816441543419 0 -0.073135677888041331 0.24923235374733829 0 -0.089436495014079617 0.25030816441543419 0 -0.07626143816764816 0.2292515768024139 0 -0.089436495014079617 0.25030816441543419 0 -0.092803926884228172 0.25053040598172899 0 -0.090882769485247733 0.24054333214206711 0 -0.036545285881863981 0.2468174849855049 0 -0.046717423499075678 0.24273165285232959 0 -0.056834860762002989 0.24815654307924351 0 -0.036545285881863981 0.2468174849855049 0 -0.056834860762002989 0.24815654307924351 0 -0.031895926198960832 0.23789204631109731 0 -0.040279042052702732 0.23980529119977709 0 -0.041573185299783183 0.23277234435221961 0 -0.036545285881863981 0.2468174849855049 0 -0.031895926198960832 0.23789204631109731 0 -0.040279042052702732 0.23980529119977709 0 -0.040279042052702732 0.23980529119977709 0 -0.048555257190820253 0.2374178558292403 0 -0.041573185299783183 0.23277234435221961 0 -0.040279042052702732 0.23980529119977709 0 -0.046717423499075678 0.24273165285232959 0 -0.048555257190820253 0.2374178558292403 0 -0.036545285881863981 0.2468174849855049 0 -0.040279042052702732 0.23980529119977709 0 -0.046717423499075678 0.24273165285232959 0 -0.046717423499075678 0.24273165285232959 0 -0.052509841951801507 0.24298189470035381 0 -0.056834860762002989 0.24815654307924351 0 -0.067393243976941838 0.2437428137186525 0 -0.056834860762002989 0.24815654307924351 0 -0.057355194675469331 0.2460245914807023 0 -0.067393243976941838 0.2437428137186525 0 -0.057355194675469331 0.2460245914807023 0 -0.060299001187947197 0.24016757719491261 0 -0.056834860762002989 0.24815654307924351 0 -0.057355194675469331 0.2460245914807023 0 -0.057355194675469331 0.2460245914807023 0 -0.060299001187947197 0.24016757719491261 0 -0.056420334248329422 0.24168367585396919 0 -0.052509841951801507 0.24298189470035381 0 -0.056834860762002989 0.24815654307924351 0 -0.057355194675469331 0.2460245914807023 0 -0.052509841951801507 0.24298189470035381 0 -0.057355194675469331 0.2460245914807023 0 -0.056420334248329422 0.24168367585396919 0 -0.063998046190080288 0.23595052208145709 0 -0.060299001187947197 0.24016757719491261 0 -0.055517299178099638 0.23756064003990821 0 -0.060299001187947197 0.24016757719491261 0 -0.056420334248329422 0.24168367585396919 0 -0.055517299178099638 0.23756064003990821 0 -0.052509841951801507 0.24298189470035381 0 -0.056420334248329422 0.24168367585396919 0 -0.055517299178099638 0.23756064003990821 0 -0.055517299178099638 0.23756064003990821 0 -0.048555257190820253 0.2374178558292403 0 -0.05500867203951381 0.22855712266499709 0 -0.052509841951801507 0.24298189470035381 0 -0.055517299178099638 0.23756064003990821 0 -0.048555257190820253 0.2374178558292403 0 -0.046717423499075678 0.24273165285232959 0 -0.052509841951801507 0.24298189470035381 0 -0.048555257190820253 0.2374178558292403 0 -0.048555257190820253 0.2374178558292403 0 -0.05500867203951381 0.22855712266499709 0 -0.041573185299783183 0.23277234435221961 0 -0.063998046190080288 0.23595052208145709 0 -0.055517299178099638 0.23756064003990821 0 -0.05500867203951381 0.22855712266499709 0 -0.05500867203951381 0.22855712266499709 0 -0.033755905911379488 0.2278626685275793 0 -0.044823540565144662 0.21470602783276521 0 -0.05500867203951381 0.22855712266499709 0 -0.041573185299783183 0.23277234435221961 0 -0.033755905911379488 0.2278626685275793 0 -0.05500867203951381 0.22855712266499709 0 -0.033755905911379488 0.2278626685275793 0 -0.031895926198960832 0.23789204631109731 0 -0.041573185299783183 0.23277234435221961 0 -0.033755905911379488 0.2278626685275793 0 -0.041573185299783183 0.23277234435221961 0 -0.033755905911379488 0.2278626685275793 0 -0.033755905911379488 0.2278626685275793 0 -0.044823540565144662 0.21470602783276521 0 -0.029146577573605999 0.2103115916447961 0 -0.044823540565144662 0.21470602783276521 0 -0.039500416256375868 0.19835812035825759 0 -0.029146577573605999 0.2103115916447961 0 -0.063460953470129408 0.20879363641823559 0 -0.05500867203951381 0.22855712266499709 0 -0.044823540565144662 0.21470602783276521 0 -0.063460953470129408 0.20879363641823559 0 -0.044823540565144662 0.21470602783276521 0 -0.039500416256375868 0.19835812035825759 0 -0.063460953470129408 0.20879363641823559 0 -0.039500416256375868 0.19835812035825759 0 -0.058716528685592767 0.17900066479214491 0 -0.039500416256375868 0.19835812035825759 0 -0.01317752082893355 0.19681828710550109 0 -0.020691642251402891 0.1807937892341285 0 -0.039500416256375868 0.19835812035825759 0 -0.01317752082893355 0.19681828710550109 0 -0.029146577573605999 0.2103115916447961 0 -0.039500416256375868 0.19835812035825759 0 -0.020691642251402891 0.1807937892341285 0 -0.01317752082893355 0.19681828710550109 0 -0.010145096427021071 0.2130337984353157 0 0.01346571305733776 0.19820492834305281 0 -0.033755905911379488 0.2278626685275793 0 -0.010145096427021071 0.2130337984353157 0 -0.029146577573605999 0.2103115916447961 0 -0.01317752082893355 0.19681828710550109 0 -0.010145096427021071 0.2130337984353157 0 -0.029146577573605999 0.2103115916447961 0 -0.033755905911379488 0.2278626685275793 0 -0.010145096427021071 0.2130337984353157 0 -0.0098889277353725498 0.22708279255087011 0 -0.033755905911379488 0.2278626685275793 0 -0.0098889277353725498 0.22708279255087011 0 -0.023240347922365609 0.23451787274387981 0 -0.033755905911379488 0.2278626685275793 0 -0.010145096427021071 0.2130337984353157 0 -0.033755905911379488 0.2278626685275793 0 -0.0098889277353725498 0.22708279255087011 0 -0.031895926198960832 0.23789204631109731 0 -0.033755905911379488 0.2278626685275793 0 -0.023240347922365609 0.23451787274387981 0 -0.010145096427021071 0.2130337984353157 0 -0.0098889277353725498 0.22708279255087011 0 0.013978050440634229 0.2263029165741601 0 -0.0034903985393868221 0.25853639811177698 0 -0.016255711001725019 0.24547842689176669 0 0.0055636717745417936 0.2409115006921535 0 -0.0098889277353725498 0.22708279255087011 0 -0.016255711001725019 0.24547842689176669 0 0.0055636717745417936 0.2409115006921535 0 -0.031895926198960832 0.23789204631109731 0 -0.016255711001725019 0.24547842689176669 0 -0.023240347922365609 0.23451787274387981 0 -0.036545285881863981 0.2468174849855049 0 -0.031895926198960832 0.23789204631109731 0 -0.016255711001725019 0.24547842689176669 0 -0.0098889277353725498 0.22708279255087011 0 -0.016255711001725019 0.24547842689176669 0 -0.023240347922365609 0.23451787274387981 0 -0.036545285881863981 0.2468174849855049 0 -0.016255711001725019 0.24547842689176669 0 -0.043113642931584727 0.14324833496996131 0 -0.038017998789976457 0.16126388223509511 0 -0.029133362338952778 0.14319444627801159 0 -0.043113642931584727 0.14324833496996131 0 -0.055727546939359981 0.15714937444158719 0 -0.038017998789976457 0.16126388223509511 0 -0.043113642931584727 0.14324833496996131 0 -0.035979705447399507 0.12799186084919251 0 -0.029133362338952778 0.14319444627801159 0 -0.043113642931584727 0.14324833496996131 0 -0.035979705447399507 0.12799186084919251 0 -0.051826104161584799 0.12844879390293071 0 -0.043113642931584727 0.14324833496996131 0 -0.051826104161584799 0.12844879390293071 0 -0.057075523611279787 0.1415033920691785 0 -0.043113642931584727 0.14324833496996131 0 -0.051826104161584799 0.12844879390293071 0 -0.07791463978225964 0.1273806028977284 0 -0.051826104161584799 0.12844879390293071 0 -0.057075523611279787 0.1415033920691785 0 -0.067596123117718315 0.15084662084012049 0 -0.057075523611279787 0.1415033920691785 0 -0.055727546939359981 0.15714937444158719 0 -0.043113642931584727 0.14324833496996131 0 -0.057075523611279787 0.1415033920691785 0 -0.055727546939359981 0.15714937444158719 0 -0.071570205622166178 0.16451514241004311 0 -0.055727546939359981 0.15714937444158719 0 -0.058716528685592767 0.17900066479214491 0 -0.055727546939359981 0.15714937444158719 0 -0.058716528685592767 0.17900066479214491 0 -0.038017998789976457 0.16126388223509511 0 -0.058716528685592767 0.17900066479214491 0 -0.038017998789976457 0.16126388223509511 0 -0.039500416256375868 0.19835812035825759 0 -0.038403657321684957 0.17891193235910041 0 -0.020691642251402891 0.1807937892341285 0 -0.039500416256375868 0.19835812035825759 0 -0.058716528685592767 0.17900066479214491 0 -0.038403657321684957 0.17891193235910041 0 -0.058716528685592767 0.17900066479214491 0 -0.038403657321684957 0.17891193235910041 0 -0.038017998789976457 0.16126388223509511 0 -0.038403657321684957 0.17891193235910041 0 -0.038017998789976457 0.16126388223509511 0 -0.023314497240787099 0.16263801041429671 0 -0.038403657321684957 0.17891193235910041 0 -0.023314497240787099 0.16263801041429671 0 -0.020691642251402891 0.1807937892341285 0 -0.020691642251402891 0.1807937892341285 0 -0.001882868246429909 0.16322945810999931 0 -0.01317752082893355 0.19681828710550109 0 -0.020691642251402891 0.1807937892341285 0 0.0069528944774667478 0.18020749461745639 0 -0.020691642251402891 0.1807937892341285 0 -0.001882868246429909 0.16322945810999931 0 0.0069528944774667478 0.18020749461745639 0 -0.023314497240787099 0.16263801041429671 0 -0.020691642251402891 0.1807937892341285 0 -0.001882868246429909 0.16322945810999931 0 -0.023314497240787099 0.16263801041429671 0 -0.001882868246429909 0.16322945810999931 0 -0.016396250213246921 0.14708269029223031 0 -0.001882868246429909 0.16322945810999931 0 -0.0059854301838424447 0.1423607794300526 0 -0.016396250213246921 0.14708269029223031 0 -0.001882868246429909 0.16322945810999931 0 -0.0059854301838424447 0.1423607794300526 0 0.0051904508739024149 0.14476521251461599 0 -0.038017998789976457 0.16126388223509511 0 -0.023314497240787099 0.16263801041429671 0 -0.029133362338952778 0.14319444627801159 0 -0.023314497240787099 0.16263801041429671 0 -0.016396250213246921 0.14708269029223031 0 -0.029133362338952778 0.14319444627801159 0 -0.035979705447399507 0.12799186084919251 0 -0.029133362338952778 0.14319444627801159 0 -0.01759377655894671 0.1278581109488037 0 -0.016396250213246921 0.14708269029223031 0 -0.029133362338952778 0.14319444627801159 0 -0.01759377655894671 0.1278581109488037 0 -0.0059854301838424447 0.1423607794300526 0 -0.01759377655894671 0.1278581109488037 0 -0.0003142905406453442 0.1318192574220213 0 -0.0059854301838424447 0.1423607794300526 0 -0.016396250213246921 0.14708269029223031 0 -0.01759377655894671 0.1278581109488037 0 -0.01759377655894671 0.1278581109488037 0 -0.0003142905406453442 0.1318192574220213 0 -0.0042797142796552976 0.1179519394458359 0 -0.0059854301838424447 0.1423607794300526 0 -0.0003142905406453442 0.1318192574220213 0 0.0051904508739024149 0.14476521251461599 0 -0.01759377655894671 0.1278581109488037 0 -0.0042797142796552976 0.1179519394458359 0 -0.015388266426666099 0.10392410588605561 0 -0.0042797142796552976 0.1179519394458359 0 -0.015388266426666099 0.10392410588605561 0 0.0057440419539671996 0.1070541674132964 0 -0.015388266426666099 0.10392410588605561 0 -0.00278832882414145 0.093432140897515836 0 0.0057440419539671996 0.1070541674132964 0 -0.015388266426666099 0.10392410588605561 0 -0.020222966824605431 0.081790066207845111 0 -0.040380766108095732 0.097719659521871893 0 -0.015388266426666099 0.10392410588605561 0 -0.03084251554004451 0.1143766496264156 0 -0.040380766108095732 0.097719659521871893 0 -0.01759377655894671 0.1278581109488037 0 -0.015388266426666099 0.10392410588605561 0 -0.03084251554004451 0.1143766496264156 0 -0.035979705447399507 0.12799186084919251 0 -0.01759377655894671 0.1278581109488037 0 -0.03084251554004451 0.1143766496264156 0 -0.020222966824605431 0.081790066207845111 0 -0.015853810636596879 0.062925156809576277 0 0.0043624206876303551 0.079126651593034655 0 -0.015853810636596879 0.062925156809576277 0 0.0062649722180432351 0.057751210548817773 0 0.0043624206876303551 0.079126651593034655 0 -0.00278832882414145 0.093432140897515836 0 -0.020222966824605431 0.081790066207845111 0 0.0043624206876303551 0.079126651593034655 0 -0.015388266426666099 0.10392410588605561 0 -0.00278832882414145 0.093432140897515836 0 -0.020222966824605431 0.081790066207845111 0 -0.020222966824605431 0.081790066207845111 0 -0.040380766108095732 0.097719659521871893 0 -0.020222966824605431 0.081790066207845111 0 -0.015853810636596879 0.062925156809576277 0 -0.037470957758676447 0.069793661932416567 0 -0.020222966824605431 0.081790066207845111 0 -0.037470957758676447 0.069793661932416567 0 -0.040380766108095732 0.097719659521871893 0 -0.037470957758676447 0.069793661932416567 0 -0.055495759758028049 0.079496875974578357 0 -0.040380766108095732 0.097719659521871893 0 -0.055495759758028049 0.079496875974578357 0 -0.040380766108095732 0.097719659521871893 0 -0.057395099407177907 0.096601294809169042 0 -0.055495759758028049 0.079496875974578357 0 -0.057395099407177907 0.096601294809169042 0 -0.07350934737728991 0.091616257152894648 0 -0.037470957758676447 0.069793661932416567 0 -0.055495759758028049 0.079496875974578357 0 -0.053754412500219402 0.056517517594490752 0 -0.055495759758028049 0.079496875974578357 0 -0.070494243644024415 0.064387713007426142 0 -0.053754412500219402 0.056517517594490752 0 -0.035979705447399507 0.12799186084919251 0 -0.051826104161584799 0.12844879390293071 0 -0.04391353132974192 0.1164372433472622 0 -0.03084251554004451 0.1143766496264156 0 -0.04391353132974192 0.1164372433472622 0 -0.040380766108095732 0.097719659521871893 0 -0.035979705447399507 0.12799186084919251 0 -0.03084251554004451 0.1143766496264156 0 -0.04391353132974192 0.1164372433472622 0 -0.040380766108095732 0.097719659521871893 0 -0.057395099407177907 0.096601294809169042 0 -0.060538565391585072 0.11364925283590011 0 -0.04391353132974192 0.1164372433472622 0 -0.040380766108095732 0.097719659521871893 0 -0.060538565391585072 0.11364925283590011 0 -0.040380766108095732 0.097719659521871893 0 -0.060538565391585072 0.11364925283590011 0 -0.051826104161584799 0.12844879390293071 0 -0.04391353132974192 0.1164372433472622 0 -0.060538565391585072 0.11364925283590011 0 -0.051826104161584799 0.12844879390293071 0 -0.060538565391585072 0.11364925283590011 0 -0.07791463978225964 0.1273806028977284 0 -0.060538565391585072 0.11364925283590011 0 -0.07791463978225964 0.1273806028977284 0 -0.060538565391585072 0.11364925283590011 0 -0.078171762161767744 0.1091954467153539 0 -0.07791463978225964 0.1273806028977284 0 -0.051826104161584799 0.12844879390293071 0 -0.060538565391585072 0.11364925283590011 0 -0.07791463978225964 0.1273806028977284 0 -0.078171762161767744 0.1091954467153539 0 -0.10687524926759261 0.109762609167841 0 -0.078171762161767744 0.1091954467153539 0 -0.092699626555879433 0.1005657399193349 0 -0.07350934737728991 0.091616257152894648 0 -0.078171762161767744 0.1091954467153539 0 -0.092699626555879433 0.1005657399193349 0 -0.10687524926759261 0.109762609167841 0 -0.060538565391585072 0.11364925283590011 0 -0.07350934737728991 0.091616257152894648 0 -0.060538565391585072 0.11364925283590011 0 -0.078171762161767744 0.1091954467153539 0 -0.07350934737728991 0.091616257152894648 0 -0.057395099407177907 0.096601294809169042 0 -0.060538565391585072 0.11364925283590011 0 -0.07350934737728991 0.091616257152894648 0 -0.055495759758028049 0.079496875974578357 0 -0.07350934737728991 0.091616257152894648 0 -0.070494243644024415 0.064387713007426142 0 -0.07350934737728991 0.091616257152894648 0 -0.070494243644024415 0.064387713007426142 0 -0.086480129362994956 0.069583261469889301 0 -0.070494243644024415 0.064387713007426142 0 -0.086480129362994956 0.069583261469889301 0 -0.086888665286464453 0.058625090010807887 0 -0.086480129362994956 0.069583261469889301 0 -0.096881957277028585 0.084193849589324535 0 -0.086888665286464453 0.058625090010807887 0 -0.096881957277028585 0.084193849589324535 0 -0.086888665286464453 0.058625090010807887 0 -0.07350934737728991 0.091616257152894648 0 -0.086480129362994956 0.069583261469889301 0 -0.096881957277028585 0.084193849589324535 0 -0.07350934737728991 0.091616257152894648 0 -0.086480129362994956 0.069583261469889301 0 -0.092699626555879433 0.1005657399193349 0 -0.07350934737728991 0.091616257152894648 0 -0.096881957277028585 0.084193849589324535 0 -0.096881957277028585 0.084193849589324535 0 -0.114235882118166 0.080917256814298982 0 -0.10687524926759261 0.109762609167841 0 -0.096881957277028585 0.084193849589324535 0 -0.10355812616660449 0.066816566697085036 0 -0.114235882118166 0.080917256814298982 0 -0.096881957277028585 0.084193849589324535 0 -0.10355812616660449 0.066816566697085036 0 -0.086888665286464453 0.058625090010807887 0 -0.10355812616660449 0.066816566697085036 0 -0.1155689013367721 0.064088044817609824 0 -0.1071004048705806 0.057292102044782182 0 -0.10355812616660449 0.066816566697085036 0 -0.1155689013367721 0.064088044817609824 0 -0.114235882118166 0.080917256814298982 0 -0.13065787682797539 0.074490167233760132 0 -0.12525322860273669 0.054683915403429713 0 -0.1155689013367721 0.064088044817609824 0 -0.13065787682797539 0.074490167233760132 0 -0.1155689013367721 0.064088044817609824 0 -0.114235882118166 0.080917256814298982 0 -0.12953394143352689 0.0962220954654186 0 -0.13065787682797539 0.074490167233760132 0 -0.114235882118166 0.080917256814298982 0 -0.13007033986284439 0.11468940196259191 0 -0.12953394143352689 0.0962220954654186 0 -0.10687524926759261 0.109762609167841 0 -0.12953394143352689 0.0962220954654186 0 -0.114235882118166 0.080917256814298982 0 -0.10687524926759261 0.109762609167841 0 -0.10974542753282721 0.12941988493019499 0 -0.07791463978225964 0.1273806028977284 0 -0.10687524926759261 0.109762609167841 0 -0.13007033986284439 0.11468940196259191 0 -0.10974542753282721 0.12941988493019499 0 -0.10687524926759261 0.109762609167841 0 -0.13007033986284439 0.11468940196259191 0 -0.12794092556623851 0.1308087954511595 0 -0.10974542753282721 0.12941988493019499 0 -0.092699626555879433 0.1005657399193349 0 -0.096881957277028585 0.084193849589324535 0 -0.10687524926759261 0.109762609167841 0 -0.096881957277028585 0.084193849589324535 0 -0.10687524926759261 0.109762609167841 0 -0.097680971997609722 0.01602634173443376 0 -0.1122919901225129 0.023540430839055791 0 -0.088495223399625775 0.029648581213061489 0 -0.1122919901225129 0.023540430839055791 0 -0.088495223399625775 0.029648581213061489 0 -0.1122919901225129 0.023540430839055791 0 -0.098427137054293123 0.035311925015822358 0 -0.088495223399625775 0.029648581213061489 0 -0.097680971997609722 0.01602634173443376 0 -0.1015133298770437 4.9595544974906723e-05 0 -0.1198791301280094 0.01256548056862198 0 -0.13082697262089341 0.0013823364580261221 0 -0.1015133298770437 4.9595544974906723e-05 0 -0.1198791301280094 0.01256548056862198 0 -0.1360887568453997 0.017432280465049261 0 -0.1198791301280094 0.01256548056862198 0 -0.1122919901225129 0.023540430839055791 0 -0.1360887568453997 0.017432280465049261 0 -0.1122919901225129 0.023540430839055791 0 -0.12279062167827851 0.029362630448722959 0 -0.1360887568453997 0.017432280465049261 0 -0.1122919901225129 0.023540430839055791 0 -0.097680971997609722 0.01602634173443376 0 -0.1198791301280094 0.01256548056862198 0 -0.1122919901225129 0.023540430839055791 0 -0.1122919901225129 0.023540430839055791 0 -0.12279062167827851 0.029362630448722959 0 -0.109555837650256 0.03798401928819635 0 -0.12279062167827851 0.029362630448722959 0 -0.1241829150729519 0.03733201807985212 0 -0.109555837650256 0.03798401928819635 0 -0.13112496187718059 0.044324123850062493 0 -0.1241829150729519 0.03733201807985212 0 -0.11947386029792641 0.044699115915308937 0 -0.1241829150729519 0.03733201807985212 0 -0.11947386029792641 0.044699115915308937 0 -0.109555837650256 0.03798401928819635 0 -0.11947386029792641 0.044699115915308937 0 -0.109555837650256 0.03798401928819635 0 -0.11260788943456961 0.050328260712302918 0 -0.12525322860273669 0.054683915403429713 0 -0.1155689013367721 0.064088044817609824 0 -0.11260788943456961 0.050328260712302918 0 -0.12525322860273669 0.054683915403429713 0 -0.11947386029792641 0.044699115915308937 0 -0.11260788943456961 0.050328260712302918 0 -0.1155689013367721 0.064088044817609824 0 -0.11260788943456961 0.050328260712302918 0 -0.1071004048705806 0.057292102044782182 0 -0.10355812616660449 0.066816566697085036 0 -0.097666651578714153 0.054357738591390203 0 -0.086888665286464453 0.058625090010807887 0 -0.10355812616660449 0.066816566697085036 0 -0.1071004048705806 0.057292102044782182 0 -0.097666651578714153 0.054357738591390203 0 -0.11260788943456961 0.050328260712302918 0 -0.1071004048705806 0.057292102044782182 0 -0.1043626929177757 0.049020655387381221 0 -0.1071004048705806 0.057292102044782182 0 -0.1043626929177757 0.049020655387381221 0 -0.097666651578714153 0.054357738591390203 0 -0.1043626929177757 0.049020655387381221 0 -0.097666651578714153 0.054357738591390203 0 -0.096330456383664845 0.044615784670338131 0 -0.097666651578714153 0.054357738591390203 0 -0.096330456383664845 0.044615784670338131 0 -0.091586987741062359 0.049592355585249062 0 -0.1122919901225129 0.023540430839055791 0 -0.109555837650256 0.03798401928819635 0 -0.098427137054293123 0.035311925015822358 0 -0.109555837650256 0.03798401928819635 0 -0.11260788943456961 0.050328260712302918 0 -0.1043626929177757 0.049020655387381221 0 -0.109555837650256 0.03798401928819635 0 -0.1043626929177757 0.049020655387381221 0 -0.096330456383664845 0.044615784670338131 0 -0.109555837650256 0.03798401928819635 0 -0.096330456383664845 0.044615784670338131 0 -0.098427137054293123 0.035311925015822358 0 -0.098427137054293123 0.035311925015822358 0 -0.08546217771540604 0.040770809068460048 0 -0.088495223399625775 0.029648581213061489 0 -0.08546217771540604 0.040770809068460048 0 -0.086888665286464453 0.058625090010807887 0 -0.07679175070062047 0.032652626761604048 0 -0.086888665286464453 0.058625090010807887 0 -0.07679175070062047 0.032652626761604048 0 -0.086888665286464453 0.058625090010807887 0 -0.074010454079176974 0.048921140551553548 0 -0.07679175070062047 0.032652626761604048 0 -0.096330456383664845 0.044615784670338131 0 -0.08546217771540604 0.040770809068460048 0 -0.091586987741062359 0.049592355585249062 0 -0.096330456383664845 0.044615784670338131 0 -0.098427137054293123 0.035311925015822358 0 -0.08546217771540604 0.040770809068460048 0 -0.08546217771540604 0.040770809068460048 0 -0.07679175070062047 0.032652626761604048 0 -0.088495223399625775 0.029648581213061489 0 -0.08546217771540604 0.040770809068460048 0 -0.086888665286464453 0.058625090010807887 0 -0.091586987741062359 0.049592355585249062 0 -0.097666651578714153 0.054357738591390203 0 -0.086888665286464453 0.058625090010807887 0 -0.091586987741062359 0.049592355585249062 0 -0.070494243644024415 0.064387713007426142 0 -0.086888665286464453 0.058625090010807887 0 -0.074010454079176974 0.048921140551553548 0 -0.070494243644024415 0.064387713007426142 0 -0.074010454079176974 0.048921140551553548 0 -0.06271496397009034 0.047483512836647292 0 -0.074010454079176974 0.048921140551553548 0 -0.07679175070062047 0.032652626761604048 0 -0.064698456676738694 0.035756731587067193 0 -0.07679175070062047 0.032652626761604048 0 -0.064698456676738694 0.035756731587067193 0 -0.074010454079176974 0.048921140551553548 0 -0.06271496397009034 0.047483512836647292 0 -0.064698456676738694 0.035756731587067193 0 -0.064698456676738694 0.035756731587067193 0 -0.063115994947373952 0.02026748138564443 0 -0.073442786595359966 0.025109898206180221 0 -0.063115994947373952 0.02026748138564443 0 -0.073442786595359966 0.025109898206180221 0 -0.07746147135770147 0.01476679863894776 0 -0.07679175070062047 0.032652626761604048 0 -0.064698456676738694 0.035756731587067193 0 -0.073442786595359966 0.025109898206180221 0 -0.097680971997609722 0.01602634173443376 0 -0.088495223399625775 0.029648581213061489 0 -0.07746147135770147 0.01476679863894776 0 -0.07679175070062047 0.032652626761604048 0 -0.088495223399625775 0.029648581213061489 0 -0.07679175070062047 0.032652626761604048 0 -0.073442786595359966 0.025109898206180221 0 -0.088495223399625775 0.029648581213061489 0 -0.073442786595359966 0.025109898206180221 0 -0.088495223399625775 0.029648581213061489 0 -0.07746147135770147 0.01476679863894776 0 -0.080113023358067775 -0.0034963713414790428 0 -0.1015133298770437 4.9595544974906723e-05 0 -0.07746147135770147 0.01476679863894776 0 -0.097680971997609722 0.01602634173443376 0 -0.1015133298770437 4.9595544974906723e-05 0 -0.07746147135770147 0.01476679863894776 0 -0.1015133298770437 4.9595544974906723e-05 0 -0.07746147135770147 0.01476679863894776 0 -0.080113023358067775 -0.0034963713414790428 0 -0.07746147135770147 0.01476679863894776 0 -0.067016117272491557 0.0064617448389865436 0 -0.063115994947373952 0.02026748138564443 0 -0.07746147135770147 0.01476679863894776 0 -0.067016117272491557 0.0064617448389865436 0 -0.063115994947373952 0.02026748138564443 0 -0.067016117272491557 0.0064617448389865436 0 -0.047480093400365117 0.0071514052909069717 0 -0.066910003298949472 -0.006380589779087396 0 -0.067016117272491557 0.0064617448389865436 0 -0.047480093400365117 0.0071514052909069717 0 -0.063115994947373952 0.02026748138564443 0 -0.047480093400365117 0.0071514052909069717 0 -0.050617252950292249 0.03183446144269883 0 -0.047480093400365117 0.0071514052909069717 0 -0.050617252950292249 0.03183446144269883 0 -0.064698456676738694 0.035756731587067193 0 -0.063115994947373952 0.02026748138564443 0 -0.050617252950292249 0.03183446144269883 0 -0.047480093400365117 0.0071514052909069717 0 -0.033781343123897689 0.028319727075923468 0 -0.050617252950292249 0.03183446144269883 0 -0.047480093400365117 0.0071514052909069717 0 -0.033781343123897689 0.028319727075923468 0 -0.022753037126858049 0.013523418070667899 0 -0.03197940571368342 -0.014345644471004631 0 -0.047480093400365117 0.0071514052909069717 0 -0.022753037126858049 0.013523418070667899 0 -0.070494243644024415 0.064387713007426142 0 -0.06271496397009034 0.047483512836647292 0 -0.053754412500219402 0.056517517594490752 0 -0.053754412500219402 0.056517517594490752 0 -0.050617252950292249 0.03183446144269883 0 -0.06271496397009034 0.047483512836647292 0 -0.064698456676738694 0.035756731587067193 0 -0.050617252950292249 0.03183446144269883 0 -0.06271496397009034 0.047483512836647292 0 -0.053754412500219402 0.056517517594490752 0 -0.050617252950292249 0.03183446144269883 0 -0.053754412500219402 0.056517517594490752 0 -0.050617252950292249 0.03183446144269883 0 -0.03452966360194034 0.047696869963003222 0 -0.033781343123897689 0.028319727075923468 0 -0.050617252950292249 0.03183446144269883 0 -0.03452966360194034 0.047696869963003222 0 -0.037470957758676447 0.069793661932416567 0 -0.053754412500219402 0.056517517594490752 0 -0.03452966360194034 0.047696869963003222 0 -0.015853810636596879 0.062925156809576277 0 -0.03452966360194034 0.047696869963003222 0 -0.01352666854003268 0.041392480612340417 0 -0.015853810636596879 0.062925156809576277 0 -0.037470957758676447 0.069793661932416567 0 -0.03452966360194034 0.047696869963003222 0 -0.033781343123897689 0.028319727075923468 0 -0.03452966360194034 0.047696869963003222 0 -0.01352666854003268 0.041392480612340417 0 -0.01352666854003268 0.041392480612340417 0 -0.0046017228383098841 0.02150879718613441 0 0.01617323494729353 0.031743731181248451 0 -0.015853810636596879 0.062925156809576277 0 -0.01352666854003268 0.041392480612340417 0 0.0062649722180432351 0.057751210548817773 0 -0.033781343123897689 0.028319727075923468 0 -0.01352666854003268 0.041392480612340417 0 -0.022753037126858049 0.013523418070667899 0 -0.01352666854003268 0.041392480612340417 0 -0.022753037126858049 0.013523418070667899 0 -0.01352666854003268 0.041392480612340417 0 -0.022753037126858049 0.013523418070667899 0 -0.0046017228383098841 0.02150879718613441 0 -0.015090251476702499 -0.003079934255059254 0 -0.022753037126858049 0.013523418070667899 0 -0.0046017228383098841 0.02150879718613441 0 -0.015090251476702499 -0.003079934255059254 0 -0.0046017228383098841 0.02150879718613441 0 0.0064513957917756229 0.0050175021511877811 0 0.0064513957917756229 0.0050175021511877811 0 0.01617323494729353 0.031743731181248451 0 -0.0046017228383098841 0.02150879718613441 0 0.0064513957917756229 0.0050175021511877811 0 0.01617323494729353 0.031743731181248451 0 0.0064513957917756229 0.0050175021511877811 0 0.024746283423928109 0.012135358359482091 0 0.01617323494729353 0.031743731181248451 0 0.024746283423928109 0.012135358359482091 0 0.01617323494729353 0.031743731181248451 0 0.041172076667347068 0.02288524704725424 0 0.0064513957917756229 0.0050175021511877811 0 0.024746283423928109 0.012135358359482091 0 0.021358438075749119 -0.01346850733666991 0 -0.01352666854003268 0.041392480612340417 0 0.0062649722180432351 0.057751210548817773 0 0.01617323494729353 0.031743731181248451 0 0.01617323494729353 0.031743731181248451 0 0.025895074102811451 0.058469960211309138 0 0.01617323494729353 0.031743731181248451 0 0.025895074102811451 0.058469960211309138 0 0.044735112818178199 0.048464709918128318 0 0.0062649722180432351 0.057751210548817773 0 0.01617323494729353 0.031743731181248451 0 0.025895074102811451 0.058469960211309138 0 0.025895074102811451 0.058469960211309138 0 0.044735112818178199 0.048464709918128318 0 0.048298148969009323 0.074044172789002452 0 0.044735112818178199 0.048464709918128318 0 0.048298148969009323 0.074044172789002452 0 0.044735112818178199 0.048464709918128318 0 0.041172076667347068 0.02288524704725424 0 0.044735112818178199 0.048464709918128318 0 0.05432588191438549 0.037505089675795869 0 0.041172076667347068 0.02288524704725424 0 0.01617323494729353 0.031743731181248451 0 0.044735112818178199 0.048464709918128318 0 0.041172076667347068 0.02288524704725424 0 0.05432588191438549 0.037505089675795869 0 0.062834062436994145 0.02393732622744342 0 0.068263696047256905 0.042341635084050568 0 0.05432588191438549 0.037505089675795869 0 0.061737886447169217 0.059380168910106557 0 0.068263696047256905 0.042341635084050568 0 0.044735112818178199 0.048464709918128318 0 0.061737886447169217 0.059380168910106557 0 0.048298148969009323 0.074044172789002452 0 0.044735112818178199 0.048464709918128318 0 0.05432588191438549 0.037505089675795869 0 0.061737886447169217 0.059380168910106557 0 0.024746283423928109 0.012135358359482091 0 0.041172076667347068 0.02288524704725424 0 0.037609040516515958 -0.002694215823619749 0 0.041172076667347068 0.02288524704725424 0 0.037609040516515958 -0.002694215823619749 0 0.041172076667347068 0.02288524704725424 0 0.051776364882943383 0.0085896918281474291 0 0.037609040516515958 -0.002694215823619749 0 0.05432588191438549 0.037505089675795869 0 0.041172076667347068 0.02288524704725424 0 0.062834062436994145 0.02393732622744342 0 0.041172076667347068 0.02288524704725424 0 0.051776364882943383 0.0085896918281474291 0 0.062834062436994145 0.02393732622744342 0 0.051776364882943383 0.0085896918281474291 0 0.065424783188372249 0.00153595686847981 0 0.062834062436994145 0.02393732622744342 0 0.051776364882943383 0.0085896918281474291 0 0.051841861605487469 -0.0027158551788205791 0 0.037609040516515958 -0.002694215823619749 0 0.051776364882943383 0.0085896918281474291 0 0.065424783188372249 0.00153595686847981 0 0.051841861605487469 -0.0027158551788205791 0 0.065424783188372249 0.00153595686847981 0 0.078557178622528062 0.020013474191852652 0 0.062834062436994145 0.02393732622744342 0 0.065424783188372249 0.00153595686847981 0 0.078557178622528062 0.020013474191852652 0 0.065424783188372249 0.00153595686847981 0 0.080134274616143808 0.0040937821631618111 0 0.078557178622528062 0.020013474191852652 0 0.080134274616143808 0.0040937821631618111 0 0.089941950092211786 0.012570042527085899 0 0.078557178622528062 0.020013474191852652 0 0.080134274616143808 0.0040937821631618111 0 0.089941950092211786 0.012570042527085899 0 0.090190712691382735 -0.002244999235090887 0 0.090657039815479498 0.02761260221752557 0 0.078557178622528062 0.020013474191852652 0 0.09168957405668382 0.038490991515225378 0 0.078557178622528062 0.020013474191852652 0 0.08140050949098257 0.034023925630769322 0 0.09168957405668382 0.038490991515225378 0 0.078557178622528062 0.020013474191852652 0 0.09168957405668382 0.038490991515225378 0 0.090657039815479498 0.02761260221752557 0 0.089336626240308581 0.020517447882289722 0 0.098183258058842843 0.022160408079909068 0 0.090657039815479498 0.02761260221752557 0 0.089336626240308581 0.020517447882289722 0 0.078557178622528062 0.020013474191852652 0 0.089941950092211786 0.012570042527085899 0 0.089336626240308581 0.020517447882289722 0 0.098183258058842843 0.022160408079909068 0 0.089941950092211786 0.012570042527085899 0 0.089336626240308581 0.020517447882289722 0 0.078557178622528062 0.020013474191852652 0 0.078557178622528062 0.020013474191852652 0 0.074802501227715271 0.033440982268584579 0 0.08140050949098257 0.034023925630769322 0 0.078557178622528062 0.020013474191852652 0 0.062834062436994145 0.02393732622744342 0 0.074802501227715271 0.033440982268584579 0 0.062834062436994145 0.02393732622744342 0 0.068263696047256905 0.042341635084050568 0 0.074802501227715271 0.033440982268584579 0 0.068263696047256905 0.042341635084050568 0 0.074802501227715271 0.033440982268584579 0 0.080552784057003141 0.044150254547414683 0 0.061737886447169217 0.059380168910106557 0 0.068263696047256905 0.042341635084050568 0 0.07456544535656473 0.057435498820888983 0 0.068263696047256905 0.042341635084050568 0 0.07456544535656473 0.057435498820888983 0 0.080552784057003141 0.044150254547414683 0 0.087703068238926749 0.054393729821081559 0 0.096059235358378847 0.037536691201763409 0 0.092140733212540488 0.065903618916232809 0 0.07456544535656473 0.057435498820888983 0 0.087703068238926749 0.054393729821081559 0 0.079346901119473581 0.071250768440399195 0 0.07456544535656473 0.057435498820888983 0 0.087703068238926749 0.054393729821081559 0 0.080552784057003141 0.044150254547414683 0 0.087703068238926749 0.054393729821081559 0 0.096059235358378847 0.037536691201763409 0 0.087703068238926749 0.054393729821081559 0 0.09168957405668382 0.038490991515225378 0 0.096059235358378847 0.037536691201763409 0 0.087703068238926749 0.054393729821081559 0 0.080552784057003141 0.044150254547414683 0 0.09168957405668382 0.038490991515225378 0 0.08140050949098257 0.034023925630769322 0 0.080552784057003141 0.044150254547414683 0 0.09168957405668382 0.038490991515225378 0 0.074802501227715271 0.033440982268584579 0 0.08140050949098257 0.034023925630769322 0 0.080552784057003141 0.044150254547414683 0 0.09168957405668382 0.038490991515225378 0 0.09327145459684992 0.03321916225880657 0 0.096059235358378847 0.037536691201763409 0 0.090657039815479498 0.02761260221752557 0 0.09168957405668382 0.038490991515225378 0 0.09327145459684992 0.03321916225880657 0 0.096059235358378847 0.037536691201763409 0 0.104639432192685 0.041230258932630527 0 0.1026100945599967 0.055505613264408747 0 0.104639432192685 0.041230258932630527 0 0.109920860497948 0.036608784364290638 0 0.11292063962577879 0.041031077726388678 0 0.096059235358378847 0.037536691201763409 0 0.104639432192685 0.041230258932630527 0 0.10678149162092319 0.031240749472272181 0 0.104639432192685 0.041230258932630527 0 0.109920860497948 0.036608784364290638 0 0.10678149162092319 0.031240749472272181 0 0.096059235358378847 0.037536691201763409 0 0.1026100945599967 0.055505613264408747 0 0.092140733212540488 0.065903618916232809 0 0.096059235358378847 0.037536691201763409 0 0.092140733212540488 0.065903618916232809 0 0.104639432192685 0.041230258932630527 0 0.1026100945599967 0.055505613264408747 0 0.1115805916839322 0.048741743490307667 0 0.1026100945599967 0.055505613264408747 0 0.1183353402422497 0.057783242689010132 0 0.1098056344569701 0.069378565114921534 0 0.1026100945599967 0.055505613264408747 0 0.1115805916839322 0.048741743490307667 0 0.1183353402422497 0.057783242689010132 0 0.1115805916839322 0.048741743490307667 0 0.1183353402422497 0.057783242689010132 0 0.11883342924132261 0.046488442517630763 0 0.1183353402422497 0.057783242689010132 0 0.11883342924132261 0.046488442517630763 0 0.12924827989677509 0.045498500018059863 0 0.11534187855240489 0.032933051325871168 0 0.11292063962577879 0.041031077726388678 0 0.1213180390941878 0.039610316036882427 0 0.11534187855240489 0.032933051325871168 0 0.109920860497948 0.036608784364290638 0 0.10678149162092319 0.031240749472272181 0 0.11534187855240489 0.032933051325871168 0 0.109920860497948 0.036608784364290638 0 0.11292063962577879 0.041031077726388678 0 0.104639432192685 0.041230258932630527 0 0.1115805916839322 0.048741743490307667 0 0.11292063962577879 0.041031077726388678 0 0.1115805916839322 0.048741743490307667 0 0.11292063962577879 0.041031077726388678 0 0.11883342924132261 0.046488442517630763 0 0.11292063962577879 0.041031077726388678 0 0.1213180390941878 0.039610316036882427 0 0.11883342924132261 0.046488442517630763 0 0.1213180390941878 0.039610316036882427 0 0.11883342924132261 0.046488442517630763 0 0.12924827989677509 0.045498500018059863 0 0.11534187855240489 0.032933051325871168 0 0.1213180390941878 0.039610316036882427 0 0.12657754096894899 0.033169311984437747 0 0.11534187855240489 0.032933051325871168 0 0.1192050179883003 0.025289878379008021 0 0.12657754096894899 0.033169311984437747 0 0.11534187855240489 0.032933051325871168 0 0.111549158247362 0.023216751289535761 0 0.10678149162092319 0.031240749472272181 0 0.11534187855240489 0.032933051325871168 0 0.1192050179883003 0.025289878379008021 0 0.111549158247362 0.023216751289535761 0 0.111549158247362 0.023216751289535761 0 0.11443592250114799 0.017584130101141932 0 0.106274661414675 0.01692893778059772 0 0.1192050179883003 0.025289878379008021 0 0.111549158247362 0.023216751289535761 0 0.11443592250114799 0.017584130101141932 0 0.1192050179883003 0.025289878379008021 0 0.11443592250114799 0.017584130101141932 0 0.1239353080246805 0.015523316410563801 0 0.1239353080246805 0.015523316410563801 0 0.1112154668307228 0.0069617666460044213 0 0.1394184874939306 0.0075857919787062364 0 0.1112154668307228 0.0069617666460044213 0 0.1394184874939306 0.0075857919787062364 0 0.1186815333657793 -0.0080996568651242658 0 0.11443592250114799 0.017584130101141932 0 0.1239353080246805 0.015523316410563801 0 0.1112154668307228 0.0069617666460044213 0 0.11443592250114799 0.017584130101141932 0 0.1112154668307228 0.0069617666460044213 0 0.106274661414675 0.01692893778059772 0 0.1112154668307228 0.0069617666460044213 0 0.1006728258854344 0.0067284981921742707 0 0.106274661414675 0.01692893778059772 0 0.106274661414675 0.01692893778059772 0 0.090190712691382735 -0.002244999235090887 0 0.089941950092211786 0.012570042527085899 0 0.106274661414675 0.01692893778059772 0 0.090190712691382735 -0.002244999235090887 0 0.1112154668307228 0.0069617666460044213 0 0.106274661414675 0.01692893778059772 0 0.1006728258854344 0.0067284981921742707 0 0.106274661414675 0.01692893778059772 0 0.090190712691382735 -0.002244999235090887 0 0.1112154668307228 0.0069617666460044213 0 0.1006728258854344 0.0067284981921742707 0 0.1112154668307228 0.0069617666460044213 0 0.1006728258854344 0.0067284981921742707 0 0.1054165138138201 -0.0048713011027633141 0 0.096059235358378847 0.037536691201763409 0 0.098183258058842843 0.022160408079909068 0 0.106274661414675 0.01692893778059772 0 0.089941950092211786 0.012570042527085899 0 0.098183258058842843 0.022160408079909068 0 0.106274661414675 0.01692893778059772 0 0.096059235358378847 0.037536691201763409 0 0.10678149162092319 0.031240749472272181 0 0.106274661414675 0.01692893778059772 0 0.096059235358378847 0.037536691201763409 0 0.106274661414675 0.01692893778059772 0 0.09327145459684992 0.03321916225880657 0 0.096059235358378847 0.037536691201763409 0 0.098183258058842843 0.022160408079909068 0 0.096059235358378847 0.037536691201763409 0 0.098183258058842843 0.022160408079909068 0 0.090657039815479498 0.02761260221752557 0 0.09327145459684992 0.03321916225880657 0 0.098183258058842843 0.022160408079909068 0 0.111549158247362 0.023216751289535761 0 0.10678149162092319 0.031240749472272181 0 0.106274661414675 0.01692893778059772 0 0.111549158247362 0.023216751289535761 0 0.106274661414675 0.01692893778059772 0 0.1068729160657173 0.1091415772908397 0 0.1063848258670575 0.097631464247106656 0 0.098107369409231718 0.1056872943054626 0 0.1063848258670575 0.097631464247106656 0 0.098901367255357725 0.098360746536220289 0 0.099621264379513838 0.090752517511206915 0 0.098901367255357725 0.098360746536220289 0 0.098107369409231718 0.1056872943054626 0 0.090405850800577281 0.10026018731825111 0 0.1063848258670575 0.097631464247106656 0 0.098901367255357725 0.098360746536220289 0 0.098107369409231718 0.1056872943054626 0 0.098901367255357725 0.098360746536220289 0 0.099621264379513838 0.090752517511206915 0 0.090405850800577281 0.10026018731825111 0 0.098107369409231718 0.1056872943054626 0 0.092947523167870846 0.10854554585519 0 0.090405850800577281 0.10026018731825111 0 0.098107369409231718 0.1056872943054626 0 0.094060648690377224 0.11210128309459449 0 0.092947523167870846 0.10854554585519 0 0.1068729160657173 0.1091415772908397 0 0.098107369409231718 0.1056872943054626 0 0.099627253813488553 0.1134470310051468 0 0.098107369409231718 0.1056872943054626 0 0.094060648690377224 0.11210128309459449 0 0.099627253813488553 0.1134470310051468 0 0.094060648690377224 0.11210128309459449 0 0.099627253813488553 0.1134470310051468 0 0.094024046965758182 0.117298107169826 0 0.099627253813488553 0.1134470310051468 0 0.094024046965758182 0.117298107169826 0 0.097732113875080517 0.12216187644950841 0 0.097732113875080517 0.12216187644950841 0 0.091896473568712569 0.1223104214677275 0 0.092941879234427649 0.12859403705842229 0 0.094024046965758182 0.117298107169826 0 0.097732113875080517 0.12216187644950841 0 0.091896473568712569 0.1223104214677275 0 0.099627253813488553 0.1134470310051468 0 0.097732113875080517 0.12216187644950841 0 0.1104450548428248 0.1198156003671198 0 0.097732113875080517 0.12216187644950841 0 0.1104450548428248 0.1198156003671198 0 0.1003664336185331 0.12938797741038191 0 0.1068729160657173 0.1091415772908397 0 0.099627253813488553 0.1134470310051468 0 0.1104450548428248 0.1198156003671198 0 0.1104450548428248 0.1198156003671198 0 0.13190173259588339 0.12673162022164239 0 0.12619853450777779 0.1078330730874123 0 0.1068729160657173 0.1091415772908397 0 0.1104450548428248 0.1198156003671198 0 0.12619853450777779 0.1078330730874123 0 0.1068729160657173 0.1091415772908397 0 0.12619853450777779 0.1078330730874123 0 0.1068729160657173 0.1091415772908397 0 0.1196566717525884 0.095935737169380891 0 0.12619853450777779 0.1078330730874123 0 0.1063848258670575 0.097631464247106656 0 0.1196566717525884 0.095935737169380891 0 0.11254258578381469 0.08804325803868028 0 0.1068729160657173 0.1091415772908397 0 0.1063848258670575 0.097631464247106656 0 0.1196566717525884 0.095935737169380891 0 0.1196566717525884 0.095935737169380891 0 0.12277357628353951 0.084307659091952911 0 0.13172932320218789 0.090527424033019929 0 0.1196566717525884 0.095935737169380891 0 0.12277357628353951 0.084307659091952911 0 0.11254258578381469 0.08804325803868028 0 0.12277357628353951 0.084307659091952911 0 0.11606835485290259 0.077247542885991075 0 0.12601201663717829 0.073782779713414431 0 0.11254258578381469 0.08804325803868028 0 0.11606835485290259 0.077247542885991075 0 0.10682976835084521 0.08057885028869459 0 0.12277357628353951 0.084307659091952911 0 0.11254258578381469 0.08804325803868028 0 0.11606835485290259 0.077247542885991075 0 0.1183353402422497 0.057783242689010132 0 0.11939743099048709 0.067795358029729025 0 0.13133004901314721 0.062710481960249712 0 0.11939743099048709 0.067795358029729025 0 0.11606835485290259 0.077247542885991075 0 0.12601201663717829 0.073782779713414431 0 0.11939743099048709 0.067795358029729025 0 0.11606835485290259 0.077247542885991075 0 0.1098056344569701 0.069378565114921534 0 0.11606835485290259 0.077247542885991075 0 0.1098056344569701 0.069378565114921534 0 0.10682976835084521 0.08057885028869459 0 0.1183353402422497 0.057783242689010132 0 0.11939743099048709 0.067795358029729025 0 0.1098056344569701 0.069378565114921534 0 0.1026100945599967 0.055505613264408747 0 0.1098056344569701 0.069378565114921534 0 0.096507972680286977 0.077882900291329951 0 0.1026100945599967 0.055505613264408747 0 0.096507972680286977 0.077882900291329951 0 0.1026100945599967 0.055505613264408747 0 0.096507972680286977 0.077882900291329951 0 0.092140733212540488 0.065903618916232809 0 0.1098056344569701 0.069378565114921534 0 0.096507972680286977 0.077882900291329951 0 0.10682976835084521 0.08057885028869459 0 0.096507972680286977 0.077882900291329951 0 0.099621264379513838 0.090752517511206915 0 0.090405850800577281 0.10026018731825111 0 0.1063848258670575 0.097631464247106656 0 0.11254258578381469 0.08804325803868028 0 0.099621264379513838 0.090752517511206915 0 0.11254258578381469 0.08804325803868028 0 0.10682976835084521 0.08057885028869459 0 0.099621264379513838 0.090752517511206915 0 0.096507972680286977 0.077882900291329951 0 0.10682976835084521 0.08057885028869459 0 0.099621264379513838 0.090752517511206915 0 0.096507972680286977 0.077882900291329951 0 0.092140733212540488 0.065903618916232809 0 0.088222231066703266 0.09427054663070239 0 0.092140733212540488 0.065903618916232809 0 0.088222231066703266 0.09427054663070239 0 0.096507972680286977 0.077882900291329951 0 0.090405850800577281 0.10026018731825111 0 0.096507972680286977 0.077882900291329951 0 0.090405850800577281 0.10026018731825111 0 0.088222231066703266 0.09427054663070239 0 0.07916600553617581 0.084034169940261444 0 0.092140733212540488 0.065903618916232809 0 0.088222231066703266 0.09427054663070239 0 0.07916600553617581 0.084034169940261444 0 0.079451916767000405 0.093117548951572482 0 0.088222231066703266 0.09427054663070239 0 0.07916600553617581 0.084034169940261444 0 0.092140733212540488 0.065903618916232809 0 0.079346901119473581 0.071250768440399195 0 0.087703068238926749 0.054393729821081559 0 0.092140733212540488 0.065903618916232809 0 0.079346901119473581 0.071250768440399195 0 0.087703068238926749 0.054393729821081559 0 0.079346901119473581 0.071250768440399195 0 0.061737886447169217 0.059380168910106557 0 0.07456544535656473 0.057435498820888983 0 0.069788336229558878 0.073096436122281325 0 0.07456544535656473 0.057435498820888983 0 0.079346901119473581 0.071250768440399195 0 0.069788336229558878 0.073096436122281325 0 0.07916600553617581 0.084034169940261444 0 0.079346901119473581 0.071250768440399195 0 0.069788336229558878 0.073096436122281325 0 0.069788336229558878 0.073096436122281325 0 0.068151406132979639 0.082692951729811323 0 0.060101149528714842 0.074061353615978862 0 0.061737886447169217 0.059380168910106557 0 0.069788336229558878 0.073096436122281325 0 0.060101149528714842 0.074061353615978862 0 0.07916600553617581 0.084034169940261444 0 0.079451916767000405 0.093117548951572482 0 0.073788158930500308 0.089778118978551785 0 0.073788158930500308 0.089778118978551785 0 0.067434982061374202 0.092085149511699521 0 0.074736484154971444 0.096960774759414073 0 0.079451916767000405 0.093117548951572482 0 0.073788158930500308 0.089778118978551785 0 0.074736484154971444 0.096960774759414073 0 0.07916600553617581 0.084034169940261444 0 0.073788158930500308 0.089778118978551785 0 0.068151406132979639 0.082692951729811323 0 0.07916600553617581 0.084034169940261444 0 0.069788336229558878 0.073096436122281325 0 0.068151406132979639 0.082692951729811323 0 0.068151406132979639 0.082692951729811323 0 0.060101149528714842 0.074061353615978862 0 0.059451472415866798 0.086463349349621549 0 0.073788158930500308 0.089778118978551785 0 0.068151406132979639 0.082692951729811323 0 0.067434982061374202 0.092085149511699521 0 0.068151406132979639 0.082692951729811323 0 0.067434982061374202 0.092085149511699521 0 0.059451472415866798 0.086463349349621549 0 0.067434982061374202 0.092085149511699521 0 0.068805539888164999 0.10023901732316889 0 0.06052727451919248 0.09676900528031912 0 0.068805539888164999 0.10023901732316889 0 0.075142511625235844 0.1043198158499633 0 0.066186447080050975 0.11106034121444849 0 0.066186447080050975 0.11106034121444849 0 0.06052727451919248 0.09676900528031912 0 0.068805539888164999 0.10023901732316889 0 0.066186447080050975 0.11106034121444849 0 0.06052727451919248 0.09676900528031912 0 0.075142511625235844 0.1043198158499633 0 0.078026257425687806 0.1114973930597328 0 0.066186447080050975 0.11106034121444849 0 0.067434982061374202 0.092085149511699521 0 0.068805539888164999 0.10023901732316889 0 0.074736484154971444 0.096960774759414073 0 0.068805539888164999 0.10023901732316889 0 0.075142511625235844 0.1043198158499633 0 0.074736484154971444 0.096960774759414073 0 0.075142511625235844 0.1043198158499633 0 0.074736484154971444 0.096960774759414073 0 0.080851470667874237 0.099506210196501868 0 0.090405850800577281 0.10026018731825111 0 0.088222231066703266 0.09427054663070239 0 0.084303728920866822 0.122637474345172 0 0.079451916767000405 0.093117548951572482 0 0.080851470667874237 0.099506210196501868 0 0.088222231066703266 0.09427054663070239 0 0.083594547686872994 0.10808540314963461 0 0.088222231066703266 0.09427054663070239 0 0.084303728920866822 0.122637474345172 0 0.080851470667874237 0.099506210196501868 0 0.083594547686872994 0.10808540314963461 0 0.088222231066703266 0.09427054663070239 0 0.079451916767000405 0.093117548951572482 0 0.074736484154971444 0.096960774759414073 0 0.080851470667874237 0.099506210196501868 0 0.088222231066703266 0.09427054663070239 0 0.084303728920866822 0.122637474345172 0 0.092947523167870846 0.10854554585519 0 0.090405850800577281 0.10026018731825111 0 0.089216223771297162 0.1161334187024516 0 0.075142511625235844 0.1043198158499633 0 0.080851470667874237 0.099506210196501868 0 0.083594547686872994 0.10808540314963461 0 0.075142511625235844 0.1043198158499633 0 0.083594547686872994 0.10808540314963461 0 0.078026257425687806 0.1114973930597328 0 0.090405850800577281 0.10026018731825111 0 0.089216223771297162 0.1161334187024516 0 0.084303728920866822 0.122637474345172 0 0.090405850800577281 0.10026018731825111 0 0.084303728920866822 0.122637474345172 0 0.088605954425768116 0.1215839084594238 0 0.089216223771297162 0.1161334187024516 0 0.084303728920866822 0.122637474345172 0 0.088605954425768116 0.1215839084594238 0 0.084303728920866822 0.122637474345172 0 0.089007391442195868 0.12525431932234421 0 0.088605954425768116 0.1215839084594238 0 0.091896473568712569 0.1223104214677275 0 0.089007391442195868 0.12525431932234421 0 0.088605954425768116 0.1215839084594238 0 0.091896473568712569 0.1223104214677275 0 0.089216223771297162 0.1161334187024516 0 0.094024046965758182 0.117298107169826 0 0.091896473568712569 0.1223104214677275 0 0.089216223771297162 0.1161334187024516 0 0.094060648690377224 0.11210128309459449 0 0.094024046965758182 0.117298107169826 0 0.089216223771297162 0.1161334187024516 0 0.094060648690377224 0.11210128309459449 0 0.092947523167870846 0.10854554585519 0 0.089216223771297162 0.1161334187024516 0 0.083594547686872994 0.10808540314963461 0 0.082816578700130219 0.1155789838255082 0 0.084303728920866822 0.122637474345172 0 0.083594547686872994 0.10808540314963461 0 0.082816578700130219 0.1155789838255082 0 0.078026257425687806 0.1114973930597328 0 0.082816578700130219 0.1155789838255082 0 0.078385618670791968 0.1186453904136909 0 0.078026257425687806 0.1114973930597328 0 0.082816578700130219 0.1155789838255082 0 0.078385618670791968 0.1186453904136909 0 0.08184329714152086 0.1199775606946808 0 0.078385618670791968 0.1186453904136909 0 0.08184329714152086 0.1199775606946808 0 0.081583977945612063 0.122515348520916 0 0.082816578700130219 0.1155789838255082 0 0.08184329714152086 0.1199775606946808 0 0.084303728920866822 0.122637474345172 0 0.08184329714152086 0.1199775606946808 0 0.084303728920866822 0.122637474345172 0 0.081583977945612063 0.122515348520916 0 0.084303728920866822 0.122637474345172 0 0.081583977945612063 0.122515348520916 0 0.078603530777755976 0.12557981141835409 0 0.066186447080050975 0.11106034121444849 0 0.055424221270671592 0.12520309853075071 0 0.071845619640909464 0.12535167714857781 0 0.074197981170891492 0.11695137923273009 0 0.066186447080050975 0.11106034121444849 0 0.071845619640909464 0.12535167714857781 0 0.081583977945612063 0.122515348520916 0 0.078603530777755976 0.12557981141835409 0 0.071845619640909464 0.12535167714857781 0 0.078385618670791968 0.1186453904136909 0 0.074197981170891492 0.11695137923273009 0 0.071845619640909464 0.12535167714857781 0 0.081583977945612063 0.122515348520916 0 0.071845619640909464 0.12535167714857781 0 0.078385618670791968 0.1186453904136909 0 0.081583977945612063 0.122515348520916 0 0.071845619640909464 0.12535167714857781 0 0.078026257425687806 0.1114973930597328 0 0.074197981170891492 0.11695137923273009 0 0.066186447080050975 0.11106034121444849 0 0.078385618670791968 0.1186453904136909 0 0.078026257425687806 0.1114973930597328 0 0.074197981170891492 0.11695137923273009 0 0.066186447080050975 0.11106034121444849 0 0.071845619640909464 0.12535167714857781 0 0.047056567666475153 0.1127632500511619 0 0.051861185119840447 0.0996236356598766 0 0.055424221270671592 0.12520309853075071 0 0.058499781997438882 0.1081640201713487 0 0.051861185119840447 0.0996236356598766 0 0.055424221270671592 0.12520309853075071 0 0.066186447080050975 0.11106034121444849 0 0.058499781997438882 0.1081640201713487 0 0.055424221270671592 0.12520309853075071 0 0.051861185119840447 0.0996236356598766 0 0.055424221270671592 0.12520309853075071 0 0.047056567666475153 0.1127632500511619 0 0.044990336119378888 0.1215935382934524 0 0.055424221270671592 0.12520309853075071 0 0.066186447080050975 0.11106034121444849 0 0.058499781997438882 0.1081640201713487 0 0.06052727451919248 0.09676900528031912 0 0.058499781997438882 0.1081640201713487 0 0.06052727451919248 0.09676900528031912 0 0.051861185119840447 0.0996236356598766 0 0.06052727451919248 0.09676900528031912 0 0.051861185119840447 0.0996236356598766 0 0.059451472415866798 0.086463349349621549 0 0.047056567666475153 0.1127632500511619 0 0.051861185119840447 0.0996236356598766 0 0.043834957280768611 0.1038325564267777 0 0.036235871832989278 0.1009334789706878 0 0.035616913258329358 0.085196189241369819 0 0.02348318981885077 0.10033662342233859 0 0.043834957280768611 0.1038325564267777 0 0.036235871832989278 0.1009334789706878 0 0.037772465249520777 0.1139359301035627 0 0.043834957280768611 0.1038325564267777 0 0.036235871832989278 0.1009334789706878 0 0.043449349950626492 0.092651504865820772 0 0.051861185119840447 0.0996236356598766 0 0.043834957280768611 0.1038325564267777 0 0.043449349950626492 0.092651504865820772 0 0.036235871832989278 0.1009334789706878 0 0.037772465249520777 0.1139359301035627 0 0.027061050510341959 0.1105975282518479 0 0.037772465249520777 0.1139359301035627 0 0.024557959906582778 0.1207113608662482 0 0.034295275469920922 0.1263429534295008 0 0.037772465249520777 0.1139359301035627 0 0.044990336119378888 0.1215935382934524 0 0.034295275469920922 0.1263429534295008 0 0.047056567666475153 0.1127632500511619 0 0.037772465249520777 0.1139359301035627 0 0.044990336119378888 0.1215935382934524 0 0.047056567666475153 0.1127632500511619 0 0.043834957280768611 0.1038325564267777 0 0.037772465249520777 0.1139359301035627 0 0.061737886447169217 0.059380168910106557 0 0.060101149528714842 0.074061353615978862 0 0.048298148969009323 0.074044172789002452 0 0.051861185119840447 0.0996236356598766 0 0.048298148969009323 0.074044172789002452 0 0.051861185119840447 0.0996236356598766 0 0.048298148969009323 0.074044172789002452 0 0.059451472415866798 0.086463349349621549 0 0.051861185119840447 0.0996236356598766 0 0.048298148969009323 0.074044172789002452 0 0.043449349950626492 0.092651504865820772 0 0.060101149528714842 0.074061353615978862 0 0.048298148969009323 0.074044172789002452 0 0.059451472415866798 0.086463349349621549 0 0.067434982061374202 0.092085149511699521 0 0.06052727451919248 0.09676900528031912 0 0.059451472415866798 0.086463349349621549 0 0.036235871832989278 0.1009334789706878 0 0.043449349950626492 0.092651504865820772 0 0.035616913258329358 0.085196189241369819 0 0.048298148969009323 0.074044172789002452 0 0.043449349950626492 0.092651504865820772 0 0.035616913258329358 0.085196189241369819 0 0.025895074102811451 0.058469960211309138 0 0.048298148969009323 0.074044172789002452 0 0.035616913258329358 0.085196189241369819 0 0.025895074102811451 0.058469960211309138 0 0.035616913258329358 0.085196189241369819 0 0.0062649722180432351 0.057751210548817773 0 0.025895074102811451 0.058469960211309138 0 0.01898689904755636 0.073610204842910532 0 0.025895074102811451 0.058469960211309138 0 0.035616913258329358 0.085196189241369819 0 0.01898689904755636 0.073610204842910532 0 0.035616913258329358 0.085196189241369819 0 0.01898689904755636 0.073610204842910532 0 0.021711875470706288 0.087206404810191471 0 0.035616913258329358 0.085196189241369819 0 0.021711875470706288 0.087206404810191471 0 0.02348318981885077 0.10033662342233859 0 0.021711875470706288 0.087206404810191471 0 0.01071928772145486 0.093491319189241362 0 0.02348318981885077 0.10033662342233859 0 0.01898689904755636 0.073610204842910532 0 0.021711875470706288 0.087206404810191471 0 0.0043624206876303551 0.079126651593034655 0 0.021711875470706288 0.087206404810191471 0 0.01071928772145486 0.093491319189241362 0 0.0043624206876303551 0.079126651593034655 0 -0.00278832882414145 0.093432140897515836 0 0.01071928772145486 0.093491319189241362 0 0.0043624206876303551 0.079126651593034655 0 0.0062649722180432351 0.057751210548817773 0 0.01898689904755636 0.073610204842910532 0 0.0043624206876303551 0.079126651593034655 0 0.017562888300967919 0.1127484468018302 0 0.024557959906582778 0.1207113608662482 0 0.027061050510341959 0.1105975282518479 0 0.017562888300967919 0.1127484468018302 0 0.024557959906582778 0.1207113608662482 0 0.010073102219326851 0.1225131567554034 0 0.024557959906582778 0.1207113608662482 0 0.010073102219326851 0.1225131567554034 0 0.021055945695268169 0.13059278844706759 0 0.037772465249520777 0.1139359301035627 0 0.024557959906582778 0.1207113608662482 0 0.027061050510341959 0.1105975282518479 0 0.036235871832989278 0.1009334789706878 0 0.027061050510341959 0.1105975282518479 0 0.02348318981885077 0.10033662342233859 0 0.017562888300967919 0.1127484468018302 0 0.027061050510341959 0.1105975282518479 0 0.02348318981885077 0.10033662342233859 0 0.017562888300967919 0.1127484468018302 0 0.02348318981885077 0.10033662342233859 0 0.0057440419539671996 0.1070541674132964 0 0.01071928772145486 0.093491319189241362 0 0.02348318981885077 0.10033662342233859 0 0.0057440419539671996 0.1070541674132964 0 -0.00278832882414145 0.093432140897515836 0 0.01071928772145486 0.093491319189241362 0 0.0057440419539671996 0.1070541674132964 0 -0.0042797142796552976 0.1179519394458359 0 0.0057440419539671996 0.1070541674132964 0 0.010073102219326851 0.1225131567554034 0 0.017562888300967919 0.1127484468018302 0 0.0057440419539671996 0.1070541674132964 0 0.010073102219326851 0.1225131567554034 0 -0.0003142905406453442 0.1318192574220213 0 -0.0042797142796552976 0.1179519394458359 0 0.010073102219326851 0.1225131567554034 0 0.01268280974215137 0.1335968898396756 0 0.02740884046290477 0.13829403405926999 0 0.0051904508739024149 0.14476521251461599 0 -0.0003142905406453442 0.1318192574220213 0 0.010073102219326851 0.1225131567554034 0 0.01268280974215137 0.1335968898396756 0 -0.0003142905406453442 0.1318192574220213 0 0.01268280974215137 0.1335968898396756 0 0.0051904508739024149 0.14476521251461599 0 0.010073102219326851 0.1225131567554034 0 0.01268280974215137 0.1335968898396756 0 0.021055945695268169 0.13059278844706759 0 0.01268280974215137 0.1335968898396756 0 0.021055945695268169 0.13059278844706759 0 0.02740884046290477 0.13829403405926999 0 0.024557959906582778 0.1207113608662482 0 0.021055945695268169 0.13059278844706759 0 0.034295275469920922 0.1263429534295008 0 0.021055945695268169 0.13059278844706759 0 0.02740884046290477 0.13829403405926999 0 0.034295275469920922 0.1263429534295008 0 0.02740884046290477 0.13829403405926999 0 0.016925905758543101 0.1456651269858702 0 0.0051904508739024149 0.14476521251461599 0 0.03104685685324678 0.15128748971905151 0 0.016925905758543101 0.1456651269858702 0 0.021647757579940329 0.16519529054774279 0 0.02740884046290477 0.13829403405926999 0 0.0051904508739024149 0.14476521251461599 0 0.02740884046290477 0.13829403405926999 0 0.03104685685324678 0.15128748971905151 0 0.016925905758543101 0.1456651269858702 0 -0.001882868246429909 0.16322945810999931 0 0.016925905758543101 0.1456651269858702 0 -0.001882868246429909 0.16322945810999931 0 0.016925905758543101 0.1456651269858702 0 0.0051904508739024149 0.14476521251461599 0 -0.001882868246429909 0.16322945810999931 0 0.016925905758543101 0.1456651269858702 0 0.021647757579940329 0.16519529054774279 0 -0.001882868246429909 0.16322945810999931 0 0.0069528944774667478 0.18020749461745639 0 0.021647757579940329 0.16519529054774279 0 0.0069528944774667478 0.18020749461745639 0 0.037076522541696737 0.1833760582507897 0 0.01346571305733776 0.19820492834305281 0 0.0069528944774667478 0.18020749461745639 0 0.021647757579940329 0.16519529054774279 0 0.037076522541696737 0.1833760582507897 0 0.03104685685324678 0.15128748971905151 0 0.021647757579940329 0.16519529054774279 0 0.041316644011420767 0.16456104136746369 0 0.021647757579940329 0.16519529054774279 0 0.041316644011420767 0.16456104136746369 0 0.037076522541696737 0.1833760582507897 0 0.041316644011420767 0.16456104136746369 0 0.037076522541696737 0.1833760582507897 0 0.060687332026055717 0.1685471881585266 0 0.037076522541696737 0.1833760582507897 0 0.060687332026055717 0.1685471881585266 0 0.037076522541696737 0.1833760582507897 0 0.060687332026055717 0.1685471881585266 0 0.063473464616501191 0.1863005182692779 0 0.041316644011420767 0.16456104136746369 0 0.060687332026055717 0.1685471881585266 0 0.054827891705841098 0.15902558629301039 0 0.041316644011420767 0.16456104136746369 0 0.054827891705841098 0.15902558629301039 0 0.046355936476888251 0.15249324902339209 0 0.060687332026055717 0.1685471881585266 0 0.054827891705841098 0.15902558629301039 0 0.0666205648069845 0.158997900528669 0 0.054827891705841098 0.15902558629301039 0 0.059158981207856211 0.15052855238700069 0 0.0666205648069845 0.158997900528669 0 0.054827891705841098 0.15902558629301039 0 0.059158981207856211 0.15052855238700069 0 0.046355936476888251 0.15249324902339209 0 0.052977132223491513 0.14227727101445431 0 0.046355936476888251 0.15249324902339209 0 0.041483199213687677 0.14323497988401829 0 0.059158981207856211 0.15052855238700069 0 0.052977132223491513 0.14227727101445431 0 0.046355936476888251 0.15249324902339209 0 0.059158981207856211 0.15052855238700069 0 0.052977132223491513 0.14227727101445431 0 0.064216705955324221 0.1413034762135888 0 0.058283682759504379 0.13697813121070121 0 0.064798142731690184 0.13367116159842229 0 0.064216705955324221 0.1413034762135888 0 0.052977132223491513 0.14227727101445431 0 0.058283682759504379 0.13697813121070121 0 0.064216705955324221 0.1413034762135888 0 0.049627230051907098 0.1318228556039239 0 0.071845619640909464 0.12535167714857781 0 0.058283682759504379 0.13697813121070121 0 0.049627230051907098 0.1318228556039239 0 0.064798142731690184 0.13367116159842229 0 0.049627230051907098 0.1318228556039239 0 0.071845619640909464 0.12535167714857781 0 0.064798142731690184 0.13367116159842229 0 0.055424221270671592 0.12520309853075071 0 0.049627230051907098 0.1318228556039239 0 0.071845619640909464 0.12535167714857781 0 0.044990336119378888 0.1215935382934524 0 0.055424221270671592 0.12520309853075071 0 0.049627230051907098 0.1318228556039239 0 0.052977132223491513 0.14227727101445431 0 0.049627230051907098 0.1318228556039239 0 0.041483199213687677 0.14323497988401829 0 0.052977132223491513 0.14227727101445431 0 0.058283682759504379 0.13697813121070121 0 0.049627230051907098 0.1318228556039239 0 0.02740884046290477 0.13829403405926999 0 0.049627230051907098 0.1318228556039239 0 0.034295275469920922 0.1263429534295008 0 0.02740884046290477 0.13829403405926999 0 0.049627230051907098 0.1318228556039239 0 0.02740884046290477 0.13829403405926999 0 0.049627230051907098 0.1318228556039239 0 0.041483199213687677 0.14323497988401829 0 0.044990336119378888 0.1215935382934524 0 0.049627230051907098 0.1318228556039239 0 0.034295275469920922 0.1263429534295008 0 0.02740884046290477 0.13829403405926999 0 0.03104685685324678 0.15128748971905151 0 0.041483199213687677 0.14323497988401829 0 0.03104685685324678 0.15128748971905151 0 0.046355936476888251 0.15249324902339209 0 0.041483199213687677 0.14323497988401829 0 0.03104685685324678 0.15128748971905151 0 0.041316644011420767 0.16456104136746369 0 0.046355936476888251 0.15249324902339209 0 0.025560123354016671 0.23451145291268399 0 0.040613191062103551 0.24305050687108271 0 0.02096260163955577 0.25463352423389651 0 0.025560123354016671 0.23451145291268399 0 0.0055636717745417936 0.2409115006921535 0 0.02096260163955577 0.25463352423389651 0 -0.0098889277353725498 0.22708279255087011 0 0.013978050440634229 0.2263029165741601 0 0.025560123354016671 0.23451145291268399 0 0.0055636717745417936 0.2409115006921535 0 0.013978050440634229 0.2263029165741601 0 -0.0098889277353725498 0.22708279255087011 0 0.0055636717745417936 0.2409115006921535 0 0.013978050440634229 0.2263029165741601 0 0.025560123354016671 0.23451145291268399 0 0.013978050440634229 0.2263029165741601 0 0.02857039565969027 0.2179844941247345 0 0.013978050440634229 0.2263029165741601 0 0.02857039565969027 0.2179844941247345 0 0.01346571305733776 0.19820492834305281 0 0.02857039565969027 0.2179844941247345 0 0.01346571305733776 0.19820492834305281 0 0.036793552239428338 0.20489479708475269 0 -0.010145096427021071 0.2130337984353157 0 0.01346571305733776 0.19820492834305281 0 -0.010145096427021071 0.2130337984353157 0 0.013978050440634229 0.2263029165741601 0 0.01346571305733776 0.19820492834305281 0 -0.01317752082893355 0.19681828710550109 0 0.0069528944774667478 0.18020749461745639 0 0.01346571305733776 0.19820492834305281 0 0.037076522541696737 0.1833760582507897 0 0.01346571305733776 0.19820492834305281 0 0.036793552239428338 0.20489479708475269 0 0.037076522541696737 0.1833760582507897 0 0.01346571305733776 0.19820492834305281 0 0.037076522541696737 0.1833760582507897 0 0.051236842595612439 0.19718077145128929 0 0.036793552239428338 0.20489479708475269 0 0.037076522541696737 0.1833760582507897 0 0.051236842595612439 0.19718077145128929 0 0.063473464616501191 0.1863005182692779 0 0.051236842595612439 0.19718077145128929 0 0.056910102454718878 0.21254075030406841 0 0.036793552239428338 0.20489479708475269 0 0.051236842595612439 0.19718077145128929 0 0.056910102454718878 0.21254075030406841 0 0.073444308258393307 0.20125128888158389 0 0.02857039565969027 0.2179844941247345 0 0.036793552239428338 0.20489479708475269 0 0.043672829547574399 0.22418577498007691 0 0.056910102454718878 0.21254075030406841 0 0.036793552239428338 0.20489479708475269 0 0.043672829547574399 0.22418577498007691 0 0.025560123354016671 0.23451145291268399 0 0.02857039565969027 0.2179844941247345 0 0.043672829547574399 0.22418577498007691 0 0.025560123354016671 0.23451145291268399 0 0.043672829547574399 0.22418577498007691 0 0.040613191062103551 0.24305050687108271 0 0.043672829547574399 0.22418577498007691 0 0.054029698577675013 0.23362545538757681 0 0.040613191062103551 0.24305050687108271 0 0.056910102454718878 0.21254075030406841 0 0.043672829547574399 0.22418577498007691 0 0.05705039134807046 0.22425137925817731 0 0.05705039134807046 0.22425137925817731 0 0.054029698577675013 0.23362545538757681 0 0.069764555973321235 0.22788985208580531 0 0.056910102454718878 0.21254075030406841 0 0.05705039134807046 0.22425137925817731 0 0.069764555973321235 0.22788985208580531 0 0.043672829547574399 0.22418577498007691 0 0.05705039134807046 0.22425137925817731 0 0.054029698577675013 0.23362545538757681 0 0.054029698577675013 0.23362545538757681 0 0.056657288182935181 0.24952246107075299 0 0.040613191062103551 0.24305050687108271 0 0.054029698577675013 0.23362545538757681 0 0.056657288182935181 0.24952246107075299 0 0.069764555973321235 0.22788985208580531 0 0.078950033264493388 0.23865579005553969 0 0.08433526990837717 0.2299046685213377 0 0.094884398846433154 0.2416421449733272 0 0.078950033264493388 0.23865579005553969 0 0.094884398846433154 0.2416421449733272 0 0.078115913588821362 0.25064488401743651 0 0.056657288182935181 0.24952246107075299 0 0.069764555973321235 0.22788985208580531 0 0.056657288182935181 0.24952246107075299 0 0.067650028005513965 0.2431974006797919 0 0.069764555973321235 0.22788985208580531 0 0.078950033264493388 0.23865579005553969 0 0.067650028005513965 0.2431974006797919 0 0.078115913588821362 0.25064488401743651 0 0.067650028005513965 0.2431974006797919 0 0.069764555973321235 0.22788985208580531 0 0.078950033264493388 0.23865579005553969 0 0.067650028005513965 0.2431974006797919 0 0.069764555973321235 0.22788985208580531 0 0.078950033264493388 0.23865579005553969 0 0.069764555973321235 0.22788985208580531 0 0.08433526990837717 0.2299046685213377 0 0.069764555973321235 0.22788985208580531 0 0.075057881503803187 0.2191535965013279 0 0.08433526990837717 0.2299046685213377 0 0.069764555973321235 0.22788985208580531 0 0.075057881503803187 0.2191535965013279 0 0.08433526990837717 0.2299046685213377 0 0.10136125596052151 0.21910564439826641 0 0.094884398846433154 0.2416421449733272 0 0.08433526990837717 0.2299046685213377 0 0.087244901815277595 0.21895151820343359 0 0.10136125596052151 0.21910564439826641 0 0.075057881503803187 0.2191535965013279 0 0.08433526990837717 0.2299046685213377 0 0.087244901815277595 0.21895151820343359 0 0.075057881503803187 0.2191535965013279 0 0.088225199888408545 0.2076421633928022 0 0.073444308258393307 0.20125128888158389 0 0.087244901815277595 0.21895151820343359 0 0.088225199888408545 0.2076421633928022 0 0.10136125596052151 0.21910564439826641 0 0.075057881503803187 0.2191535965013279 0 0.087244901815277595 0.21895151820343359 0 0.088225199888408545 0.2076421633928022 0 0.069764555973321235 0.22788985208580531 0 0.073444308258393307 0.20125128888158389 0 0.069764555973321235 0.22788985208580531 0 0.075057881503803187 0.2191535965013279 0 0.073444308258393307 0.20125128888158389 0 0.056910102454718878 0.21254075030406841 0 0.069764555973321235 0.22788985208580531 0 0.073444308258393307 0.20125128888158389 0 0.073444308258393307 0.20125128888158389 0 0.077124060543464268 0.1746127256773625 0 0.051236842595612439 0.19718077145128929 0 0.073444308258393307 0.20125128888158389 0 0.063473464616501191 0.1863005182692779 0 0.073444308258393307 0.20125128888158389 0 0.087325802838856242 0.19080075871490959 0 0.077124060543464268 0.1746127256773625 0 0.088225199888408545 0.2076421633928022 0 0.073444308258393307 0.20125128888158389 0 0.087325802838856242 0.19080075871490959 0 0.088225199888408545 0.2076421633928022 0 0.087325802838856242 0.19080075871490959 0 0.1006040938741623 0.19562285691952261 0 0.1006040938741623 0.19562285691952261 0 0.10299718948578999 0.19107462022268379 0 0.097975079283526029 0.18633355379607619 0 0.087325802838856242 0.19080075871490959 0 0.1006040938741623 0.19562285691952261 0 0.097975079283526029 0.18633355379607619 0 0.1006040938741623 0.19562285691952261 0 0.1078381130746098 0.19656914382320559 0 0.1078381130746098 0.19656914382320559 0 0.10299718948578999 0.19107462022268379 0 0.1055714717108618 0.18577292635193091 0 0.1006040938741623 0.19562285691952261 0 0.1078381130746098 0.19656914382320559 0 0.10299718948578999 0.19107462022268379 0 0.10299718948578999 0.19107462022268379 0 0.097975079283526029 0.18633355379607619 0 0.1055714717108618 0.18577292635193091 0 0.1078381130746098 0.19656914382320559 0 0.12390658127257249 0.1986710709257791 0 0.1078381130746098 0.19656914382320559 0 0.11764627623634349 0.18886065848434361 0 0.1132243453514456 0.17782751888596859 0 0.1078381130746098 0.19656914382320559 0 0.12390658127257249 0.1986710709257791 0 0.1191389408960629 0.2103128217680319 0 0.1078381130746098 0.19656914382320559 0 0.11764627623634349 0.18886065848434361 0 0.12390658127257249 0.1986710709257791 0 0.11764627623634349 0.18886065848434361 0 0.12390658127257249 0.1986710709257791 0 0.1315838303092437 0.1869937156485495 0 0.1191389408960629 0.2103128217680319 0 0.10136125596052151 0.21910564439826641 0 0.1202654117308936 0.22559744913124369 0 0.1078381130746098 0.19656914382320559 0 0.1191389408960629 0.2103128217680319 0 0.10136125596052151 0.21910564439826641 0 0.12390658127257249 0.1986710709257791 0 0.1191389408960629 0.2103128217680319 0 0.13047676572567601 0.20750739865493131 0 0.1191389408960629 0.2103128217680319 0 0.1202654117308936 0.22559744913124369 0 0.13017575062084791 0.2172098349300946 0 0.088225199888408545 0.2076421633928022 0 0.1006040938741623 0.19562285691952261 0 0.10136125596052151 0.21910564439826641 0 0.1078381130746098 0.19656914382320559 0 0.10136125596052151 0.21910564439826641 0 0.1006040938741623 0.19562285691952261 0 0.1078381130746098 0.19656914382320559 0 0.10136125596052151 0.21910564439826641 0 0.10136125596052151 0.21910564439826641 0 0.1079508969295441 0.2333838151775702 0 0.094884398846433154 0.2416421449733272 0 0.10136125596052151 0.21910564439826641 0 0.094884398846433154 0.2416421449733272 0 0.10136125596052151 0.21910564439826641 0 0.1079508969295441 0.2333838151775702 0 0.1202654117308936 0.22559744913124369 0 0.1079508969295441 0.2333838151775702 0 0.1202654117308936 0.22559744913124369 0 0.12114789904075859 0.23810251080863259 0 0.1079508969295441 0.2333838151775702 0 0.12114789904075859 0.23810251080863259 0 0.10895274041773891 0.2447373791024183 0 0.12114789904075859 0.23810251080863259 0 0.118467602947705 0.24904918409112489 0 0.10895274041773891 0.2447373791024183 0 0.118467602947705 0.24904918409112489 0 0.10895274041773891 0.2447373791024183 0 0.1094825115753742 0.25419496519862578 0 0.1079508969295441 0.2333838151775702 0 0.10895274041773891 0.2447373791024183 0 0.094884398846433154 0.2416421449733272 0 0.10895274041773891 0.2447373791024183 0 0.094884398846433154 0.2416421449733272 0 0.099659974724104566 0.25447815284378172 0 0.083140342164208417 0.14251932359315311 0 0.080803812828535368 0.14797416247314099 0 0.084808187072853605 0.13335469427271479 0 0.083140342164208417 0.14251932359315311 0 0.080803812828535368 0.14797416247314099 0 0.08785014224654851 0.14574650275247131 0 0.078598290213438171 0.1424044675639099 0 0.080803812828535368 0.14797416247314099 0 0.080803812828535368 0.14797416247314099 0 0.086613278409488278 0.16264503941182959 0 0.080803812828535368 0.14797416247314099 0 0.091555290577842688 0.15270743765646719 0 0.086613278409488278 0.16264503941182959 0 0.080803812828535368 0.14797416247314099 0 0.091555290577842688 0.15270743765646719 0 0.08785014224654851 0.14574650275247131 0 0.091555290577842688 0.15270743765646719 0 0.08785014224654851 0.14574650275247131 0 0.094789943846897179 0.1446069342275105 0 0.083140342164208417 0.14251932359315311 0 0.08785014224654851 0.14574650275247131 0 0.088961321815258954 0.1409246558120848 0 0.088961321815258954 0.1409246558120848 0 0.093384252384933794 0.13872816636909191 0 0.094789943846897179 0.1446069342275105 0 0.08785014224654851 0.14574650275247131 0 0.088961321815258954 0.1409246558120848 0 0.094789943846897179 0.1446069342275105 0 0.088961321815258954 0.1409246558120848 0 0.093384252384933794 0.13872816636909191 0 0.090032441161565502 0.1350291443210436 0 0.084303728920866822 0.122637474345172 0 0.078598290213438171 0.1424044675639099 0 0.084303728920866822 0.122637474345172 0 0.080803812828535368 0.14797416247314099 0 0.084303728920866822 0.122637474345172 0 0.078598290213438171 0.1424044675639099 0 0.080803812828535368 0.14797416247314099 0 0.084303728920866822 0.122637474345172 0 0.080803812828535368 0.14797416247314099 0 0.084808187072853605 0.13335469427271479 0 0.084303728920866822 0.122637474345172 0 0.078598290213438171 0.1424044675639099 0 0.078432759409929387 0.13008832848171209 0 0.093384252384933794 0.13872816636909191 0 0.090032441161565502 0.1350291443210436 0 0.095090873582784813 0.13384702748189201 0 0.090032441161565502 0.1350291443210436 0 0.086735573053471612 0.1379569544997491 0 0.084808187072853605 0.13335469427271479 0 0.083140342164208417 0.14251932359315311 0 0.088961321815258954 0.1409246558120848 0 0.086735573053471612 0.1379569544997491 0 0.088961321815258954 0.1409246558120848 0 0.090032441161565502 0.1350291443210436 0 0.086735573053471612 0.1379569544997491 0 0.092941879234427649 0.12859403705842229 0 0.088218725566381884 0.12897393386393941 0 0.089007391442195868 0.12525431932234421 0 0.091896473568712569 0.1223104214677275 0 0.092941879234427649 0.12859403705842229 0 0.089007391442195868 0.12525431932234421 0 0.090032441161565502 0.1350291443210436 0 0.092941879234427649 0.12859403705842229 0 0.095090873582784813 0.13384702748189201 0 0.090032441161565502 0.1350291443210436 0 0.092941879234427649 0.12859403705842229 0 0.088218725566381884 0.12897393386393941 0 0.090032441161565502 0.1350291443210436 0 0.088218725566381884 0.12897393386393941 0 0.084808187072853605 0.13335469427271479 0 0.084303728920866822 0.122637474345172 0 0.088218725566381884 0.12897393386393941 0 0.089007391442195868 0.12525431932234421 0 0.084303728920866822 0.122637474345172 0 0.088218725566381884 0.12897393386393941 0 0.084808187072853605 0.13335469427271479 0 0.084303728920866822 0.122637474345172 0 0.078432759409929387 0.13008832848171209 0 0.078603530777755976 0.12557981141835409 0 0.083140342164208417 0.14251932359315311 0 0.086735573053471612 0.1379569544997491 0 0.084808187072853605 0.13335469427271479 0 0.078598290213438171 0.1424044675639099 0 0.078432759409929387 0.13008832848171209 0 0.071845619640909464 0.12535167714857781 0 0.078598290213438171 0.1424044675639099 0 0.070328757310217149 0.1393522201272665 0 0.071845619640909464 0.12535167714857781 0 0.078598290213438171 0.1424044675639099 0 0.071845619640909464 0.12535167714857781 0 0.078432759409929387 0.13008832848171209 0 0.078603530777755976 0.12557981141835409 0 0.071845619640909464 0.12535167714857781 0 0.070328757310217149 0.1393522201272665 0 0.071845619640909464 0.12535167714857781 0 0.064798142731690184 0.13367116159842229 0 0.070328757310217149 0.1393522201272665 0 0.064798142731690184 0.13367116159842229 0 0.064216705955324221 0.1413034762135888 0 0.070328757310217149 0.1393522201272665 0 0.064216705955324221 0.1413034762135888 0 0.069979505394626579 0.14846062320260281 0 0.059158981207856211 0.15052855238700069 0 0.064216705955324221 0.1413034762135888 0 0.069979505394626579 0.14846062320260281 0 0.078598290213438171 0.1424044675639099 0 0.080803812828535368 0.14797416247314099 0 0.070328757310217149 0.1393522201272665 0 0.080803812828535368 0.14797416247314099 0 0.070328757310217149 0.1393522201272665 0 0.069979505394626579 0.14846062320260281 0 0.080803812828535368 0.14797416247314099 0 0.069979505394626579 0.14846062320260281 0 0.073631985893402682 0.1575113529704438 0 0.069979505394626579 0.14846062320260281 0 0.0666205648069845 0.158997900528669 0 0.073631985893402682 0.1575113529704438 0 0.059158981207856211 0.15052855238700069 0 0.069979505394626579 0.14846062320260281 0 0.0666205648069845 0.158997900528669 0 0.080803812828535368 0.14797416247314099 0 0.073631985893402682 0.1575113529704438 0 0.077124060543464268 0.1746127256773625 0 0.060687332026055717 0.1685471881585266 0 0.0666205648069845 0.158997900528669 0 0.077124060543464268 0.1746127256773625 0 0.0666205648069845 0.158997900528669 0 0.073631985893402682 0.1575113529704438 0 0.077124060543464268 0.1746127256773625 0 0.073444308258393307 0.20125128888158389 0 0.063473464616501191 0.1863005182692779 0 0.077124060543464268 0.1746127256773625 0 0.060687332026055717 0.1685471881585266 0 0.063473464616501191 0.1863005182692779 0 0.077124060543464268 0.1746127256773625 0 0.087325802838856242 0.19080075871490959 0 0.077124060543464268 0.1746127256773625 0 0.092422743990441036 0.1773159163505181 0 0.087325802838856242 0.19080075871490959 0 0.092422743990441036 0.1773159163505181 0 0.097975079283526029 0.18633355379607619 0 0.080803812828535368 0.14797416247314099 0 0.077124060543464268 0.1746127256773625 0 0.080803812828535368 0.14797416247314099 0 0.077124060543464268 0.1746127256773625 0 0.086613278409488278 0.16264503941182959 0 0.077124060543464268 0.1746127256773625 0 0.092422743990441036 0.1773159163505181 0 0.086613278409488278 0.16264503941182959 0 0.092422743990441036 0.1773159163505181 0 0.086613278409488278 0.16264503941182959 0 0.092422743990441036 0.1773159163505181 0 0.086613278409488278 0.16264503941182959 0 0.097158015812130086 0.1642279996531619 0 0.091555290577842688 0.15270743765646719 0 0.086613278409488278 0.16264503941182959 0 0.097158015812130086 0.1642279996531619 0 0.091555290577842688 0.15270743765646719 0 0.097158015812130086 0.1642279996531619 0 0.1019558387290859 0.15210486691999819 0 0.097158015812130086 0.1642279996531619 0 0.1074763501532815 0.16502949610107259 0 0.1029245930126412 0.175565241479086 0 0.1074763501532815 0.16502949610107259 0 0.1116064443651567 0.15339237123229671 0 0.1019558387290859 0.15210486691999819 0 0.097158015812130086 0.1642279996531619 0 0.1074763501532815 0.16502949610107259 0 0.1019558387290859 0.15210486691999819 0 0.1078381130746098 0.19656914382320559 0 0.1055714717108618 0.18577292635193091 0 0.1132243453514456 0.17782751888596859 0 0.092422743990441036 0.1773159163505181 0 0.097975079283526029 0.18633355379607619 0 0.1029245930126412 0.175565241479086 0 0.092422743990441036 0.1773159163505181 0 0.097158015812130086 0.1642279996531619 0 0.1029245930126412 0.175565241479086 0 0.1074763501532815 0.16502949610107259 0 0.1029245930126412 0.175565241479086 0 0.1132243453514456 0.17782751888596859 0 0.1029245930126412 0.175565241479086 0 0.1055714717108618 0.18577292635193091 0 0.1132243453514456 0.17782751888596859 0 0.097975079283526029 0.18633355379607619 0 0.1029245930126412 0.175565241479086 0 0.1055714717108618 0.18577292635193091 0 0.1078381130746098 0.19656914382320559 0 0.1132243453514456 0.17782751888596859 0 0.1132243453514456 0.17782751888596859 0 0.123192611147953 0.17321443326874361 0 0.1214117657612465 0.18172408157190131 0 0.11764627623634349 0.18886065848434361 0 0.1132243453514456 0.17782751888596859 0 0.1214117657612465 0.18172408157190131 0 0.11764627623634349 0.18886065848434361 0 0.1214117657612465 0.18172408157190131 0 0.1315838303092437 0.1869937156485495 0 0.1132243453514456 0.17782751888596859 0 0.123192611147953 0.17321443326874361 0 0.1186105776282813 0.15908589394873171 0 0.1074763501532815 0.16502949610107259 0 0.1132243453514456 0.17782751888596859 0 0.1186105776282813 0.15908589394873171 0 0.1132243453514456 0.17782751888596859 0 0.1186105776282813 0.15908589394873171 0 0.1074763501532815 0.16502949610107259 0 0.1186105776282813 0.15908589394873171 0 0.1116064443651567 0.15339237123229671 0 0.123192611147953 0.17321443326874361 0 0.1186105776282813 0.15908589394873171 0 0.13204592567716131 0.16909290089691831 0 0.1186105776282813 0.15908589394873171 0 0.1243800309471846 0.15285042776381211 0 0.13046594620468629 0.15877742241715781 0 0.1186105776282813 0.15908589394873171 0 0.1243800309471846 0.15285042776381211 0 0.1182793122419275 0.1469386715592986 0 0.1182793122419275 0.1469386715592986 0 0.1116064443651567 0.15339237123229671 0 0.1093694408559191 0.14479602422594329 0 0.1182793122419275 0.1469386715592986 0 0.1093694408559191 0.14479602422594329 0 0.1161973560538236 0.13727865048767349 0 0.1186105776282813 0.15908589394873171 0 0.1182793122419275 0.1469386715592986 0 0.1116064443651567 0.15339237123229671 0 0.1116064443651567 0.15339237123229671 0 0.1019558387290859 0.15210486691999819 0 0.1093694408559191 0.14479602422594329 0 0.1019558387290859 0.15210486691999819 0 0.1093694408559191 0.14479602422594329 0 0.10245063710078819 0.1427659943383279 0 0.1093694408559191 0.14479602422594329 0 0.10245063710078819 0.1427659943383279 0 0.1074086005575747 0.13482633406766739 0 0.1019558387290859 0.15210486691999819 0 0.10245063710078819 0.1427659943383279 0 0.094789943846897179 0.1446069342275105 0 0.10245063710078819 0.1427659943383279 0 0.094789943846897179 0.1446069342275105 0 0.098729361514463959 0.13749581225052021 0 0.091555290577842688 0.15270743765646719 0 0.1019558387290859 0.15210486691999819 0 0.094789943846897179 0.1446069342275105 0 0.097732113875080517 0.12216187644950841 0 0.092941879234427649 0.12859403705842229 0 0.1003664336185331 0.12938797741038191 0 0.092941879234427649 0.12859403705842229 0 0.1003664336185331 0.12938797741038191 0 0.095090873582784813 0.13384702748189201 0 0.093384252384933794 0.13872816636909191 0 0.095090873582784813 0.13384702748189201 0 0.098729361514463959 0.13749581225052021 0 0.1003664336185331 0.12938797741038191 0 0.095090873582784813 0.13384702748189201 0 0.098729361514463959 0.13749581225052021 0 0.093384252384933794 0.13872816636909191 0 0.094789943846897179 0.1446069342275105 0 0.098729361514463959 0.13749581225052021 0 0.1003664336185331 0.12938797741038191 0 0.098729361514463959 0.13749581225052021 0 0.1074086005575747 0.13482633406766739 0 0.10245063710078819 0.1427659943383279 0 0.098729361514463959 0.13749581225052021 0 0.1074086005575747 0.13482633406766739 0 0.1104450548428248 0.1198156003671198 0 0.1003664336185331 0.12938797741038191 0 0.1074086005575747 0.13482633406766739 0 0.1182793122419275 0.1469386715592986 0 0.1161973560538236 0.13727865048767349 0 0.13190173259588339 0.12673162022164239 0 0.1104450548428248 0.1198156003671198 0 0.1161415659812093 0.12989553680181759 0 0.13190173259588339 0.12673162022164239 0 0.1161415659812093 0.12989553680181759 0 0.1161973560538236 0.13727865048767349 0 0.13190173259588339 0.12673162022164239 0 0.1104450548428248 0.1198156003671198 0 0.1074086005575747 0.13482633406766739 0 0.1161415659812093 0.12989553680181759 0 0.1093694408559191 0.14479602422594329 0 0.1074086005575747 0.13482633406766739 0 0.1161973560538236 0.13727865048767349 0 0.1074086005575747 0.13482633406766739 0 0.1161415659812093 0.12989553680181759 0 0.1161973560538236 0.13727865048767349 0 0.1182793122419275 0.1469386715592986 0 0.13190173259588339 0.12673162022164239 0 0.13190173259588339 0.12673162022164239 0 0.15040551593688459 0.14365968030587239 0 0.1325441095352031 0.14436720386734861 0 0.1182793122419275 0.1469386715592986 0 0.13190173259588339 0.12673162022164239 0 0.1325441095352031 0.14436720386734861 0 0.13190173259588339 0.12673162022164239 0 0.15040551593688459 0.14365968030587239 0 0.15566547781771581 0.1200913342755673 0 0.15040551593688459 0.14365968030587239 0 0.14642666302570551 0.16035564631950441 0 0.17142690398241431 0.15889984410546859 0 0.15040551593688459 0.14365968030587239 0 0.13046594620468629 0.15877742241715781 0 0.14642666302570551 0.16035564631950441 0 0.15040551593688459 0.14365968030587239 0 0.13046594620468629 0.15877742241715781 0 0.15040551593688459 0.14365968030587239 0 0.1325441095352031 0.14436720386734861 0 0.13046594620468629 0.15877742241715781 0 0.1243800309471846 0.15285042776381211 0 0.1182793122419275 0.1469386715592986 0 0.1325441095352031 0.14436720386734861 0 0.1243800309471846 0.15285042776381211 0 0.1325441095352031 0.14436720386734861 0 0.13046594620468629 0.15877742241715781 0 0.1186105776282813 0.15908589394873171 0 0.13046594620468629 0.15877742241715781 0 0.13204592567716131 0.16909290089691831 0 0.13204592567716131 0.16909290089691831 0 0.14199592574709841 0.17613029377882289 0 0.14642666302570551 0.16035564631950441 0 0.13046594620468629 0.15877742241715781 0 0.13204592567716131 0.16909290089691831 0 0.14642666302570551 0.16035564631950441 0 0.13204592567716131 0.16909290089691831 0 0.1315838303092437 0.1869937156485495 0 0.14199592574709841 0.17613029377882289 0 0.123192611147953 0.17321443326874361 0 0.13204592567716131 0.16909290089691831 0 0.1315838303092437 0.1869937156485495 0 0.123192611147953 0.17321443326874361 0 0.1315838303092437 0.1869937156485495 0 0.123192611147953 0.17321443326874361 0 0.1214117657612465 0.18172408157190131 0 0.1315838303092437 0.1869937156485495 0 0.1315838303092437 0.1869937156485495 0 0.1451572530324764 0.1866763704657326 0 0.14199592574709841 0.17613029377882289 0 0.1451572530324764 0.1866763704657326 0 0.14199592574709841 0.17613029377882289 0 0.15887058481460239 0.17714543221290921 0 0.1451572530324764 0.1866763704657326 0 0.15887058481460239 0.17714543221290921 0 0.1533608748209026 0.19233941266002649 0 0.14199592574709841 0.17613029377882289 0 0.14642666302570551 0.16035564631950441 0 0.15887058481460239 0.17714543221290921 0 0.17142690398241431 0.15889984410546859 0 0.15887058481460239 0.17714543221290921 0 0.18251002009012271 0.17807605785514791 0 0.14642666302570551 0.16035564631950441 0 0.17142690398241431 0.15889984410546859 0 0.15887058481460239 0.17714543221290921 0 0.15887058481460239 0.17714543221290921 0 0.18251002009012271 0.17807605785514791 0 0.15887058481460239 0.17714543221290921 0 0.18251002009012271 0.17807605785514791 0 0.17117578552144461 0.1894664661520416 0 0.15887058481460239 0.17714543221290921 0 0.162098489802776 0.19170309745154779 0 0.17117578552144461 0.1894664661520416 0 0.15887058481460239 0.17714543221290921 0 0.1533608748209026 0.19233941266002649 0 0.162098489802776 0.19170309745154779 0 0.17142690398241431 0.15889984410546859 0 0.18251002009012271 0.17807605785514791 0 0.1879622090528916 0.16424354072180611 0 0.17142690398241431 0.15889984410546859 0 0.19008086165683691 0.15059846206783681 0 0.1879622090528916 0.16424354072180611 0 0.17142690398241431 0.15889984410546859 0 0.18087273719760719 0.13996272140628641 0 0.19008086165683691 0.15059846206783681 0 0.17142690398241431 0.15889984410546859 0 0.18087273719760719 0.13996272140628641 0 0.16765519519117089 0.14345397686318789 0 0.18087273719760719 0.13996272140628641 0 0.1874582289227715 0.1273740841456501 0 0.1703450856690828 0.12854193819458701 0 0.18087273719760719 0.13996272140628641 0 0.1703450856690828 0.12854193819458701 0 0.16765519519117089 0.14345397686318789 0 0.15040551593688459 0.14365968030587239 0 0.1703450856690828 0.12854193819458701 0 0.15040551593688459 0.14365968030587239 0 0.1703450856690828 0.12854193819458701 0 0.16765519519117089 0.14345397686318789 0 0.15040551593688459 0.14365968030587239 0 0.1703450856690828 0.12854193819458701 0 0.15566547781771581 0.1200913342755673 0 0.15040551593688459 0.14365968030587239 0 0.17142690398241431 0.15889984410546859 0 0.16765519519117089 0.14345397686318789 0 0.14903520139962251 0.23689281747845681 0 0.1656078887783792 0.24286487100056081 0 0.15172676458886999 0.25280479892033159 0 0.14903520139962251 0.23689281747845681 0 0.13696268387962379 0.24645699857620559 0 0.15172676458886999 0.25280479892033159 0 0.14903520139962251 0.23689281747845681 0 0.13696268387962379 0.24645699857620559 0 0.13455494172050589 0.23025582407442199 0 0.13696268387962379 0.24645699857620559 0 0.13455494172050589 0.23025582407442199 0 0.12114789904075859 0.23810251080863259 0 0.118467602947705 0.24904918409112489 0 0.13696268387962379 0.24645699857620559 0 0.12114789904075859 0.23810251080863259 0 0.13696268387962379 0.24645699857620559 0 0.13455494172050589 0.23025582407442199 0 0.1202654117308936 0.22559744913124369 0 0.12114789904075859 0.23810251080863259 0 0.13455494172050589 0.23025582407442199 0 0.1202654117308936 0.22559744913124369 0 0.13455494172050589 0.23025582407442199 0 0.13017575062084791 0.2172098349300946 0 0.13455494172050589 0.23025582407442199 0 0.14124666174094461 0.22328400113237629 0 0.13017575062084791 0.2172098349300946 0 0.14903520139962251 0.23689281747845681 0 0.15279146912445679 0.221818934514458 0 0.1656078887783792 0.24286487100056081 0 0.14124666174094461 0.22328400113237629 0 0.15279146912445679 0.221818934514458 0 0.13900066720038279 0.21376626628953449 0 0.14903520139962251 0.23689281747845681 0 0.13455494172050589 0.23025582407442199 0 0.14124666174094461 0.22328400113237629 0 0.14903520139962251 0.23689281747845681 0 0.14124666174094461 0.22328400113237629 0 0.15279146912445679 0.221818934514458 0 0.1434547364217762 0.20648701743040651 0 0.16725134579478609 0.2124949378466979 0 0.1434547364217762 0.20648701743040651 0 0.13997504947053499 0.20077299802835491 0 0.1639774133247088 0.20383273609747329 0 0.15279146912445679 0.221818934514458 0 0.1434547364217762 0.20648701743040651 0 0.16725134579478609 0.2124949378466979 0 0.1434547364217762 0.20648701743040651 0 0.13900066720038279 0.21376626628953449 0 0.13997504947053499 0.20077299802835491 0 0.1434547364217762 0.20648701743040651 0 0.13997504947053499 0.20077299802835491 0 0.15279146912445679 0.221818934514458 0 0.1434547364217762 0.20648701743040651 0 0.13900066720038279 0.21376626628953449 0 0.15279146912445679 0.221818934514458 0 0.1434547364217762 0.20648701743040651 0 0.14124666174094461 0.22328400113237629 0 0.13900066720038279 0.21376626628953449 0 0.13017575062084791 0.2172098349300946 0 0.13900066720038279 0.21376626628953449 0 0.13017575062084791 0.2172098349300946 0 0.13047676572567601 0.20750739865493131 0 0.1191389408960629 0.2103128217680319 0 0.13017575062084791 0.2172098349300946 0 0.13047676572567601 0.20750739865493131 0 0.13900066720038279 0.21376626628953449 0 0.13047676572567601 0.20750739865493131 0 0.13997504947053499 0.20077299802835491 0 0.12390658127257249 0.1986710709257791 0 0.1315838303092437 0.1869937156485495 0 0.13997504947053499 0.20077299802835491 0 0.12390658127257249 0.1986710709257791 0 0.13997504947053499 0.20077299802835491 0 0.12390658127257249 0.1986710709257791 0 0.13047676572567601 0.20750739865493131 0 0.13997504947053499 0.20077299802835491 0 0.1315838303092437 0.1869937156485495 0 0.1451572530324764 0.1866763704657326 0 0.13997504947053499 0.20077299802835491 0 0.1315838303092437 0.1869937156485495 0 0.13997504947053499 0.20077299802835491 0 0.1451572530324764 0.1866763704657326 0 0.13997504947053499 0.20077299802835491 0 0.1533608748209026 0.19233941266002649 0 0.13997504947053499 0.20077299802835491 0 0.1639774133247088 0.20383273609747329 0 0.13997504947053499 0.20077299802835491 0 0.1533608748209026 0.19233941266002649 0 0.1639774133247088 0.20383273609747329 0 0.1533608748209026 0.19233941266002649 0 0.162098489802776 0.19170309745154779 0 0.1639774133247088 0.20383273609747329 0 0.162098489802776 0.19170309745154779 0 0.17117578552144461 0.1894664661520416 0 0.1639774133247088 0.20383273609747329 0 0.18251002009012271 0.17807605785514791 0 0.17117578552144461 0.1894664661520416 0 0.1859145724301936 0.1958675937781903 0 0.1859145724301936 0.1958675937781903 0 0.18456069702556921 0.20660527648994559 0 0.1639774133247088 0.20383273609747329 0 0.17117578552144461 0.1894664661520416 0 0.1859145724301936 0.1958675937781903 0 0.1639774133247088 0.20383273609747329 0 0.1859145724301936 0.1958675937781903 0 0.1639774133247088 0.20383273609747329 0 0.16725134579478609 0.2124949378466979 0 0.1908219025480721 0.2186405183400387 0 0.18456069702556921 0.20660527648994559 0 0.16725134579478609 0.2124949378466979 0 0.1639774133247088 0.20383273609747329 0 0.18456069702556921 0.20660527648994559 0 0.16725134579478609 0.2124949378466979 0 0.1908219025480721 0.2186405183400387 0 0.18456069702556921 0.20660527648994559 0 0.1639774133247088 0.20383273609747329 0 0.1434547364217762 0.20648701743040651 0 0.16725134579478609 0.2124949378466979 0 0.1639774133247088 0.20383273609747329 0 0.15279146912445679 0.221818934514458 0 0.1656078887783792 0.24286487100056081 0 0.16546546645365251 0.22644271814046399 0 0.17621116211698801 0.22859212920013941 0 0.1656078887783792 0.24286487100056081 0 0.15279146912445679 0.221818934514458 0 0.16546546645365251 0.22644271814046399 0 0.1656078887783792 0.24286487100056081 0 0.16725134579478609 0.2124949378466979 0 0.16546546645365251 0.22644271814046399 0 0.17621116211698801 0.22859212920013941 0 0.15279146912445679 0.221818934514458 0 0.16725134579478609 0.2124949378466979 0 0.16546546645365251 0.22644271814046399 0 0.16725134579478609 0.2124949378466979 0 0.17621116211698801 0.22859212920013941 0 0.1908219025480721 0.2186405183400387 0 0.17621116211698801 0.22859212920013941 0 0.19409285738638249 0.23185535603457741 0 0.1908219025480721 0.2186405183400387 0 0.17621116211698801 0.22859212920013941 0 0.18515818986685109 0.24523198137830499 0 0.1656078887783792 0.24286487100056081 0 0.17621116211698801 0.22859212920013941 0 0.18515818986685109 0.24523198137830499 0 0.19409285738638249 0.23185535603457741 0 0.20388057309864299 0.2420260524210241 0 0.214392459301358 0.22478609883337949 0 0.22311456895561979 0.24210018387613991 0 0.20388057309864299 0.2420260524210241 0 0.22311456895561979 0.24210018387613991 0 0.21441946711031809 0.25343142140150932 0 0.18515818986685109 0.24523198137830499 0 0.20388057309864299 0.2420260524210241 0 0.19409285738638249 0.23185535603457741 0 0.18515818986685109 0.24523198137830499 0 0.20388057309864299 0.2420260524210241 0 0.2001597603643252 0.25953991024648271 0 0.19409285738638249 0.23185535603457741 0 0.214392459301358 0.22478609883337949 0 0.1908219025480721 0.2186405183400387 0 0.214392459301358 0.22478609883337949 0 0.1908219025480721 0.2186405183400387 0 0.20388057309864299 0.2420260524210241 0 0.19409285738638249 0.23185535603457741 0 0.214392459301358 0.22478609883337949 0 0.2051542730281059 0.2092991359795606 0 0.2257478490306426 0.21199299546917549 0 0.214392459301358 0.22478609883337949 0 0.2051542730281059 0.2092991359795606 0 0.2257478490306426 0.21199299546917549 0 0.214392459301358 0.22478609883337949 0 0.2051542730281059 0.2092991359795606 0 0.1908219025480721 0.2186405183400387 0 0.2051542730281059 0.2092991359795606 0 0.2136444703394772 0.19902406040407949 0 0.2257478490306426 0.21199299546917549 0 0.18456069702556921 0.20660527648994559 0 0.2051542730281059 0.2092991359795606 0 0.18456069702556921 0.20660527648994559 0 0.2051542730281059 0.2092991359795606 0 0.1908219025480721 0.2186405183400387 0 0.18456069702556921 0.20660527648994559 0 0.2051542730281059 0.2092991359795606 0 0.19412176773178141 0.20265036865301361 0 0.2051542730281059 0.2092991359795606 0 0.20085752844325711 0.1988294683643578 0 0.19412176773178141 0.20265036865301361 0 0.1859145724301936 0.1958675937781903 0 0.20085752844325711 0.1988294683643578 0 0.20785173153567851 0.18790245145890719 0 0.1859145724301936 0.1958675937781903 0 0.20785173153567851 0.18790245145890719 0 0.1859145724301936 0.1958675937781903 0 0.20785173153567851 0.18790245145890719 0 0.1946782988782447 0.1858125368520685 0 0.1859145724301936 0.1958675937781903 0 0.20085752844325711 0.1988294683643578 0 0.19412176773178141 0.20265036865301361 0 0.1859145724301936 0.1958675937781903 0 0.18456069702556921 0.20660527648994559 0 0.19412176773178141 0.20265036865301361 0 0.20085752844325711 0.1988294683643578 0 0.20785173153567851 0.18790245145890719 0 0.2136444703394772 0.19902406040407949 0 0.2051542730281059 0.2092991359795606 0 0.20085752844325711 0.1988294683643578 0 0.2136444703394772 0.19902406040407949 0 0.20785173153567851 0.18790245145890719 0 0.2136444703394772 0.19902406040407949 0 0.22057863514703391 0.19004572878947329 0 0.2235572518935548 0.19725204228771459 0 0.22882230825823141 0.18780321980362219 0 0.24670152663981329 0.2095518619195684 0 0.22057863514703391 0.19004572878947329 0 0.2235572518935548 0.19725204228771459 0 0.22882230825823141 0.18780321980362219 0 0.2136444703394772 0.19902406040407949 0 0.22057863514703391 0.19004572878947329 0 0.2235572518935548 0.19725204228771459 0 0.2136444703394772 0.19902406040407949 0 0.2235572518935548 0.19725204228771459 0 0.2257478490306426 0.21199299546917549 0 0.22882230825823141 0.18780321980362219 0 0.24246650748536 0.19450163292084799 0 0.24670152663981329 0.2095518619195684 0 0.22882230825823141 0.18780321980362219 0 0.24670152663981329 0.2095518619195684 0 0.22882230825823141 0.18780321980362219 0 0.24246650748536 0.19450163292084799 0 0.23785895048436051 0.18613779601937941 0 0.24246650748536 0.19450163292084799 0 0.24894719752453329 0.18612638269812559 0 0.25318772352235269 0.19758411353432501 0 0.24246650748536 0.19450163292084799 0 0.23785895048436051 0.18613779601937941 0 0.24894719752453329 0.18612638269812559 0 0.24246650748536 0.19450163292084799 0 0.24670152663981329 0.2095518619195684 0 0.25318772352235269 0.19758411353432501 0 0.2235572518935548 0.19725204228771459 0 0.24670152663981329 0.2095518619195684 0 0.23859066343446639 0.21961930472390831 0 0.2235572518935548 0.19725204228771459 0 0.2257478490306426 0.21199299546917549 0 0.23859066343446639 0.21961930472390831 0 0.2235572518935548 0.19725204228771459 0 0.23859066343446639 0.21961930472390831 0 0.214392459301358 0.22478609883337949 0 0.2379630160546439 0.23093167932672029 0 0.22311456895561979 0.24210018387613991 0 0.214392459301358 0.22478609883337949 0 0.23859066343446639 0.21961930472390831 0 0.2379630160546439 0.23093167932672029 0 0.214392459301358 0.22478609883337949 0 0.2257478490306426 0.21199299546917549 0 0.23859066343446639 0.21961930472390831 0 0.214392459301358 0.22478609883337949 0 0.2379630160546439 0.23093167932672029 0 0.23859066343446639 0.21961930472390831 0 0.24293490430991169 0.2356795922548468 0 0.25362407497537798 0.24198656716010189 0 0.23859066343446639 0.21961930472390831 0 0.2379630160546439 0.23093167932672029 0 0.24293490430991169 0.2356795922548468 0 0.23859066343446639 0.21961930472390831 0 0.25362407497537798 0.24198656716010189 0 0.24670152663981329 0.2095518619195684 0 0.23859066343446639 0.21961930472390831 0 0.26458074502139528 0.23130050403551469 0 0.2379630160546439 0.23093167932672029 0 0.24293490430991169 0.2356795922548468 0 0.23892470514704739 0.24618996043878821 0 0.24293490430991169 0.2356795922548468 0 0.23892470514704739 0.24618996043878821 0 0.25362407497537798 0.24198656716010189 0 0.23892470514704739 0.24618996043878821 0 0.24833316285785609 0.25613966282899547 0 0.25362407497537798 0.24198656716010189 0 0.23892470514704739 0.24618996043878821 0 0.22311456895561979 0.24210018387613991 0 0.23143636026737621 0.25829091581815028 0 0.2379630160546439 0.23093167932672029 0 0.23892470514704739 0.24618996043878821 0 0.22311456895561979 0.24210018387613991 0 0.209482326604984 0.15084602107521439 0 0.2076828374110711 0.13888776945844841 0 0.20102071552370171 0.14666203006011799 0 0.209482326604984 0.15084602107521439 0 0.20102071552370171 0.14666203006011799 0 0.20009079197176449 0.1600822806841096 0 0.209482326604984 0.15084602107521439 0 0.2193209912966799 0.14177448839356799 0 0.2187736252161564 0.15431041952742461 0 0.209482326604984 0.15084602107521439 0 0.21134660345578471 0.1612282897799939 0 0.2187736252161564 0.15431041952742461 0 0.209482326604984 0.15084602107521439 0 0.2076828374110711 0.13888776945844841 0 0.2193209912966799 0.14177448839356799 0 0.21408643943991251 0.1315545836761505 0 0.2076828374110711 0.13888776945844841 0 0.2193209912966799 0.14177448839356799 0 0.21408643943991251 0.1315545836761505 0 0.2243526157798536 0.1281753366943639 0 0.21236962900983361 0.1213060413860667 0 0.21408643943991251 0.1315545836761505 0 0.20598551444134069 0.1293379919129482 0 0.21236962900983361 0.1213060413860667 0 0.21408643943991251 0.1315545836761505 0 0.20598551444134069 0.1293379919129482 0 0.2076828374110711 0.13888776945844841 0 0.20598551444134069 0.1293379919129482 0 0.2076828374110711 0.13888776945844841 0 0.1962182618028441 0.13432337501115221 0 0.2076828374110711 0.13888776945844841 0 0.1962182618028441 0.13432337501115221 0 0.20102071552370171 0.14666203006011799 0 0.20598551444134069 0.1293379919129482 0 0.1962182618028441 0.13432337501115221 0 0.19957040454304231 0.12061819003292321 0 0.1874582289227715 0.1273740841456501 0 0.1962182618028441 0.13432337501115221 0 0.19957040454304231 0.12061819003292321 0 0.18087273719760719 0.13996272140628641 0 0.1874582289227715 0.1273740841456501 0 0.1962182618028441 0.13432337501115221 0 0.1962182618028441 0.13432337501115221 0 0.20102071552370171 0.14666203006011799 0 0.19008086165683691 0.15059846206783681 0 0.18087273719760719 0.13996272140628641 0 0.1962182618028441 0.13432337501115221 0 0.19008086165683691 0.15059846206783681 0 0.20102071552370171 0.14666203006011799 0 0.19008086165683691 0.15059846206783681 0 0.20009079197176449 0.1600822806841096 0 0.19008086165683691 0.15059846206783681 0 0.1879622090528916 0.16424354072180611 0 0.20009079197176449 0.1600822806841096 0 0.1879622090528916 0.16424354072180611 0 0.1964188055605029 0.17043902795973531 0 0.20009079197176449 0.1600822806841096 0 0.18251002009012271 0.17807605785514791 0 0.1879622090528916 0.16424354072180611 0 0.1964188055605029 0.17043902795973531 0 0.1964188055605029 0.17043902795973531 0 0.20009079197176449 0.1600822806841096 0 0.20550087996307809 0.17027529946871631 0 0.18251002009012271 0.17807605785514791 0 0.20614945536564311 0.1790066834973866 0 0.18251002009012271 0.17807605785514791 0 0.1859145724301936 0.1958675937781903 0 0.1946782988782447 0.1858125368520685 0 0.18251002009012271 0.17807605785514791 0 0.1946782988782447 0.1858125368520685 0 0.20614945536564311 0.1790066834973866 0 0.18251002009012271 0.17807605785514791 0 0.1964188055605029 0.17043902795973531 0 0.20614945536564311 0.1790066834973866 0 0.1964188055605029 0.17043902795973531 0 0.20614945536564311 0.1790066834973866 0 0.20550087996307809 0.17027529946871631 0 0.20785173153567851 0.18790245145890719 0 0.1946782988782447 0.1858125368520685 0 0.20614945536564311 0.1790066834973866 0 0.20614945536564311 0.1790066834973866 0 0.22978889064116351 0.17993730913962469 0 0.20614945536564311 0.1790066834973866 0 0.21597111053294041 0.17081635595661279 0 0.22978889064116351 0.17993730913962469 0 0.20785173153567851 0.18790245145890719 0 0.20614945536564311 0.1790066834973866 0 0.22978889064116351 0.17993730913962469 0 0.20614945536564311 0.1790066834973866 0 0.20550087996307809 0.17027529946871631 0 0.21597111053294041 0.17081635595661279 0 0.209482326604984 0.15084602107521439 0 0.20009079197176449 0.1600822806841096 0 0.21134660345578471 0.1612282897799939 0 0.20009079197176449 0.1600822806841096 0 0.20550087996307809 0.17027529946871631 0 0.21134660345578471 0.1612282897799939 0 0.20550087996307809 0.17027529946871631 0 0.21597111053294041 0.17081635595661279 0 0.21134660345578471 0.1612282897799939 0 0.21597111053294041 0.17081635595661279 0 0.21865342512527811 0.16209085720837099 0 0.21134660345578471 0.1612282897799939 0 0.21865342512527811 0.16209085720837099 0 0.21134660345578471 0.1612282897799939 0 0.2187736252161564 0.15431041952742461 0 0.21865342512527811 0.16209085720837099 0 0.22528368302780391 0.16930879134434251 0 0.22694459721967769 0.15914217780054021 0 0.21865342512527811 0.16209085720837099 0 0.22694459721967769 0.15914217780054021 0 0.2187736252161564 0.15431041952742461 0 0.21597111053294041 0.17081635595661279 0 0.21865342512527811 0.16209085720837099 0 0.22528368302780391 0.16930879134434251 0 0.22528368302780391 0.16930879134434251 0 0.2339793796296343 0.16542019843990319 0 0.22694459721967769 0.15914217780054021 0 0.22528368302780391 0.16930879134434251 0 0.23206748755666681 0.17175973890584759 0 0.2339793796296343 0.16542019843990319 0 0.2339793796296343 0.16542019843990319 0 0.22694459721967769 0.15914217780054021 0 0.23786870866578541 0.15398669782836041 0 0.20785173153567851 0.18790245145890719 0 0.22978889064116351 0.17993730913962469 0 0.20785173153567851 0.18790245145890719 0 0.22057863514703391 0.19004572878947329 0 0.22978889064116351 0.17993730913962469 0 0.22057863514703391 0.19004572878947329 0 0.22882230825823141 0.18780321980362219 0 0.22978889064116351 0.17993730913962469 0 0.21597111053294041 0.17081635595661279 0 0.22528368302780391 0.16930879134434251 0 0.22978889064116351 0.17993730913962469 0 0.23206748755666681 0.17175973890584759 0 0.22978889064116351 0.17993730913962469 0 0.23923926915253971 0.1701376690183713 0 0.22528368302780391 0.16930879134434251 0 0.23206748755666681 0.17175973890584759 0 0.22978889064116351 0.17993730913962469 0 0.22882230825823141 0.18780321980362219 0 0.22978889064116351 0.17993730913962469 0 0.23785895048436051 0.18613779601937941 0 0.22978889064116351 0.17993730913962469 0 0.25572559596713329 0.17051997537177971 0 0.22978889064116351 0.17993730913962469 0 0.23923926915253971 0.1701376690183713 0 0.25572559596713329 0.17051997537177971 0 0.22978889064116351 0.17993730913962469 0 0.24213060384150101 0.18042317162489729 0 0.25572559596713329 0.17051997537177971 0 0.22978889064116351 0.17993730913962469 0 0.24213060384150101 0.18042317162489729 0 0.23785895048436051 0.18613779601937941 0 0.22978889064116351 0.17993730913962469 0 0.24213060384150101 0.18042317162489729 0 0.24213060384150101 0.18042317162489729 0 0.24894719752453329 0.18612638269812559 0 0.25572559596713329 0.17051997537177971 0 0.24213060384150101 0.18042317162489729 0 0.23785895048436051 0.18613779601937941 0 0.24894719752453329 0.18612638269812559 0 0.23923926915253971 0.1701376690183713 0 0.2446349919681006 0.16305112323470131 0 0.25572559596713329 0.17051997537177971 0 0.2446349919681006 0.16305112323470131 0 0.23786870866578541 0.15398669782836041 0 0.25543485903957819 0.1544462132424802 0 0.2339793796296343 0.16542019843990319 0 0.2446349919681006 0.16305112323470131 0 0.23786870866578541 0.15398669782836041 0 0.2339793796296343 0.16542019843990319 0 0.23923926915253971 0.1701376690183713 0 0.2446349919681006 0.16305112323470131 0 0.23206748755666681 0.17175973890584759 0 0.2339793796296343 0.16542019843990319 0 0.23923926915253971 0.1701376690183713 0 0.24408405510780229 0.1427207021204579 0 0.23786870866578541 0.15398669782836041 0 0.25543485903957819 0.1544462132424802 0 0.24408405510780229 0.1427207021204579 0 0.23786870866578541 0.15398669782836041 0 0.23248493025238581 0.14022881032103701 0 0.22694459721967769 0.15914217780054021 0 0.23786870866578541 0.15398669782836041 0 0.22710876165340799 0.14973610245483951 0 0.23786870866578541 0.15398669782836041 0 0.22710876165340799 0.14973610245483951 0 0.23248493025238581 0.14022881032103701 0 0.22710876165340799 0.14973610245483951 0 0.2193209912966799 0.14177448839356799 0 0.23248493025238581 0.14022881032103701 0 0.22710876165340799 0.14973610245483951 0 0.2193209912966799 0.14177448839356799 0 0.2187736252161564 0.15431041952742461 0 0.22694459721967769 0.15914217780054021 0 0.22710876165340799 0.14973610245483951 0 0.2187736252161564 0.15431041952742461 0 0.2243526157798536 0.1281753366943639 0 0.23248493025238581 0.14022881032103701 0 0.24033965028705309 0.12757397417549721 0 0.21408643943991251 0.1315545836761505 0 0.2193209912966799 0.14177448839356799 0 0.2243526157798536 0.1281753366943639 0 0.2193209912966799 0.14177448839356799 0 0.2243526157798536 0.1281753366943639 0 0.23248493025238581 0.14022881032103701 0 0.24408405510780229 0.1427207021204579 0 0.23248493025238581 0.14022881032103701 0 0.24033965028705309 0.12757397417549721 0 0.24408405510780229 0.1427207021204579 0 0.24033965028705309 0.12757397417549721 0 0.25429212729420919 0.1373678150349148 0 0.24276875721605651 0.11459409499753551 0 0.2379976633094642 0.1028396245190442 0 0.22503725007466349 0.1137694800966218 0 0.24033965028705309 0.12757397417549721 0 0.24276875721605651 0.11459409499753551 0 0.22503725007466349 0.1137694800966218 0 0.24033965028705309 0.12757397417549721 0 0.24276875721605651 0.11459409499753551 0 0.25585331699957098 0.12272237909345909 0 0.24276875721605651 0.11459409499753551 0 0.2379976633094642 0.1028396245190442 0 0.25461590540953027 0.10606501710305551 0 0.2379976633094642 0.1028396245190442 0 0.24272997527991999 0.091205400909066731 0 0.25461590540953027 0.10606501710305551 0 0.2379976633094642 0.1028396245190442 0 0.22481203278121151 0.087246299868924668 0 0.24272997527991999 0.091205400909066731 0 0.2379976633094642 0.1028396245190442 0 0.2102242251334803 0.098306453972017871 0 0.2379976633094642 0.1028396245190442 0 0.2102242251334803 0.098306453972017871 0 0.22481203278121151 0.087246299868924668 0 0.2379976633094642 0.1028396245190442 0 0.22503725007466349 0.1137694800966218 0 0.2102242251334803 0.098306453972017871 0 0.2243526157798536 0.1281753366943639 0 0.24033965028705309 0.12757397417549721 0 0.22503725007466349 0.1137694800966218 0 0.2243526157798536 0.1281753366943639 0 0.22503725007466349 0.1137694800966218 0 0.21236962900983361 0.1213060413860667 0 0.22503725007466349 0.1137694800966218 0 0.21236962900983361 0.1213060413860667 0 0.20686700075453451 0.1123893393372416 0 0.21236962900983361 0.1213060413860667 0 0.20686700075453451 0.1123893393372416 0 0.19957040454304231 0.12061819003292321 0 0.20598551444134069 0.1293379919129482 0 0.21236962900983361 0.1213060413860667 0 0.19957040454304231 0.12061819003292321 0 0.22503725007466349 0.1137694800966218 0 0.20686700075453451 0.1123893393372416 0 0.2102242251334803 0.098306453972017871 0 0.2102242251334803 0.098306453972017871 0 0.19028465540128089 0.1134241960833017 0 0.2102242251334803 0.098306453972017871 0 0.182396260560336 0.093764383646148503 0 0.20686700075453451 0.1123893393372416 0 0.2102242251334803 0.098306453972017871 0 0.19028465540128089 0.1134241960833017 0 0.2102242251334803 0.098306453972017871 0 0.1883315582798675 0.1036261534992409 0 0.19028465540128089 0.1134241960833017 0 0.2102242251334803 0.098306453972017871 0 0.1883315582798675 0.1036261534992409 0 0.182396260560336 0.093764383646148503 0 0.20686700075453451 0.1123893393372416 0 0.19028465540128089 0.1134241960833017 0 0.19957040454304231 0.12061819003292321 0 0.1874582289227715 0.1273740841456501 0 0.19028465540128089 0.1134241960833017 0 0.19957040454304231 0.12061819003292321 0 0.19746843757066229 0.063390907442872652 0 0.19734936496451841 0.078239839177698417 0 0.21230246936870051 0.062715294709248054 0 0.19746843757066229 0.063390907442872652 0 0.19734936496451841 0.078239839177698417 0 0.185081987029481 0.068060442037255253 0 0.19734936496451841 0.078239839177698417 0 0.18223796886446539 0.079241054866614841 0 0.185081987029481 0.068060442037255253 0 0.2102242251334803 0.098306453972017871 0 0.19734936496451841 0.078239839177698417 0 0.182396260560336 0.093764383646148503 0 0.19734936496451841 0.078239839177698417 0 0.182396260560336 0.093764383646148503 0 0.2102242251334803 0.098306453972017871 0 0.2147190896243964 0.077783971198504734 0 0.22481203278121151 0.087246299868924668 0 0.2102242251334803 0.098306453972017871 0 0.19734936496451841 0.078239839177698417 0 0.2147190896243964 0.077783971198504734 0 0.2102242251334803 0.098306453972017871 0 0.22481203278121151 0.087246299868924668 0 0.19734936496451841 0.078239839177698417 0 0.2147190896243964 0.077783971198504734 0 0.21230246936870051 0.062715294709248054 0 0.19734936496451841 0.078239839177698417 0 0.21230246936870051 0.062715294709248054 0 0.2147190896243964 0.077783971198504734 0 0.21230246936870051 0.062715294709248054 0 0.21922930633447599 0.067954759782312898 0 0.21230246936870051 0.062715294709248054 0 0.21922930633447599 0.067954759782312898 0 0.21922930633447599 0.067954759782312898 0 0.22813775459035671 0.066665546269972009 0 0.21867321183994479 0.05610109125567081 0 0.21922930633447599 0.067954759782312898 0 0.22313545356192679 0.075395768618754327 0 0.22813775459035671 0.066665546269972009 0 0.2147190896243964 0.077783971198504734 0 0.21922930633447599 0.067954759782312898 0 0.22313545356192679 0.075395768618754327 0 0.22877908447919321 0.077328265974057286 0 0.22813775459035671 0.066665546269972009 0 0.23939984042894419 0.076186145765833435 0 0.23321791162326341 0.0682029647760828 0 0.22813775459035671 0.066665546269972009 0 0.23939984042894419 0.076186145765833435 0 0.22313545356192679 0.075395768618754327 0 0.22877908447919321 0.077328265974057286 0 0.22813775459035671 0.066665546269972009 0 0.22813775459035671 0.066665546269972009 0 0.23939984042894419 0.076186145765833435 0 0.23321791162326341 0.0682029647760828 0 0.22813775459035671 0.066665546269972009 0 0.21867321183994479 0.05610109125567081 0 0.22313545356192679 0.075395768618754327 0 0.22877908447919321 0.077328265974057286 0 0.22481203278121151 0.087246299868924668 0 0.2147190896243964 0.077783971198504734 0 0.22313545356192679 0.075395768618754327 0 0.22481203278121151 0.087246299868924668 0 0.22877908447919321 0.077328265974057286 0 0.22481203278121151 0.087246299868924668 0 0.23939984042894419 0.076186145765833435 0 0.22481203278121151 0.087246299868924668 0 0.23939984042894419 0.076186145765833435 0 0.24272997527991999 0.091205400909066731 0 0.23939984042894419 0.076186145765833435 0 0.25667270258804281 0.090788059223164463 0 0.22481203278121151 0.087246299868924668 0 0.24272997527991999 0.091205400909066731 0 0.23939984042894419 0.076186145765833435 0 0.23939984042894419 0.076186145765833435 0 0.25667270258804281 0.090788059223164463 0 0.23939984042894419 0.076186145765833435 0 0.24475928146162321 0.072122735748421596 0 0.25667270258804281 0.090788059223164463 0 0.23321791162326341 0.0682029647760828 0 0.24114624299425449 0.063902367923327347 0 0.23383885887754599 0.05988553872429403 0 0.23321791162326341 0.0682029647760828 0 0.24114624299425449 0.063902367923327347 0 0.23963081912702131 0.070103553553416298 0 0.24114624299425449 0.063902367923327347 0 0.23963081912702131 0.070103553553416298 0 0.24475928146162321 0.072122735748421596 0 0.23321791162326341 0.0682029647760828 0 0.23963081912702131 0.070103553553416298 0 0.23939984042894419 0.076186145765833435 0 0.23939984042894419 0.076186145765833435 0 0.24475928146162321 0.072122735748421596 0 0.23963081912702131 0.070103553553416298 0 0.23939984042894419 0.076186145765833435 0 0.24475928146162321 0.072122735748421596 0 0.24114624299425449 0.063902367923327347 0 0.24475928146162321 0.072122735748421596 0 0.2498958451883965 0.06385198700084381 0 0.24475928146162321 0.072122735748421596 0 0.2498958451883965 0.06385198700084381 0 0.25260649980770278 0.068686253075548681 0 0.24114624299425449 0.063902367923327347 0 0.2498958451883965 0.06385198700084381 0 0.24219402533239179 0.054650131246814337 0 0.2498958451883965 0.06385198700084381 0 0.24219402533239179 0.054650131246814337 0 0.25540203894483232 0.053078758300303452 0 0.24114624299425449 0.063902367923327347 0 0.24219402533239179 0.054650131246814337 0 0.23383885887754599 0.05988553872429403 0 0.24219402533239179 0.054650131246814337 0 0.23383885887754599 0.05988553872429403 0 0.23222961530372871 0.05328671000269708 0 0.24219402533239179 0.054650131246814337 0 0.2333457215179586 0.040867864575570192 0 0.23222961530372871 0.05328671000269708 0 0.24219402533239179 0.054650131246814337 0 0.24931080225938379 0.044873619513579023 0 0.25540203894483232 0.053078758300303452 0 0.24931080225938379 0.044873619513579023 0 0.2333457215179586 0.040867864575570192 0 0.25267133858014368 0.033426358080367632 0 0.2333457215179586 0.040867864575570192 0 0.24606589177604729 0.023412238736487911 0 0.25267133858014368 0.033426358080367632 0 0.24219402533239179 0.054650131246814337 0 0.24931080225938379 0.044873619513579023 0 0.2333457215179586 0.040867864575570192 0 0.2333457215179586 0.040867864575570192 0 0.21867321183994479 0.05610109125567081 0 0.21784305476063359 0.040073467835779392 0 0.2333457215179586 0.040867864575570192 0 0.224387406455446 0.02460240409890389 0 0.21784305476063359 0.040073467835779392 0 0.2333457215179586 0.040867864575570192 0 0.21867321183994479 0.05610109125567081 0 0.23321791162326341 0.0682029647760828 0 0.21867321183994479 0.05610109125567081 0 0.23383885887754599 0.05988553872429403 0 0.23222961530372871 0.05328671000269708 0 0.21867321183994479 0.05610109125567081 0 0.23321791162326341 0.0682029647760828 0 0.23383885887754599 0.05988553872429403 0 0.21867321183994479 0.05610109125567081 0 0.2333457215179586 0.040867864575570192 0 0.23222961530372871 0.05328671000269708 0 0.21867321183994479 0.05610109125567081 0 0.24330934550254571 0.01063109568502886 0 0.22830704903319021 0.009552556987691951 0 0.24454710423508169 -0.0040543885157620588 0 0.24330934550254571 0.01063109568502886 0 0.2600103086440948 0.0077887484030499934 0 0.24454710423508169 -0.0040543885157620588 0 0.24330934550254571 0.01063109568502886 0 0.2352311601260918 0.017984200813824101 0 0.22830704903319021 0.009552556987691951 0 0.2333457215179586 0.040867864575570192 0 0.2352311601260918 0.017984200813824101 0 0.24606589177604729 0.023412238736487911 0 0.24330934550254571 0.01063109568502886 0 0.2352311601260918 0.017984200813824101 0 0.24606589177604729 0.023412238736487911 0 0.24330934550254571 0.01063109568502886 0 0.24606589177604729 0.023412238736487911 0 0.25245314076482023 0.016273305507581552 0 0.224387406455446 0.02460240409890389 0 0.22040854931318621 0.0093777932992746577 0 0.21357971495542391 0.027094896629626091 0 0.2333457215179586 0.040867864575570192 0 0.2352311601260918 0.017984200813824101 0 0.224387406455446 0.02460240409890389 0 0.2352311601260918 0.017984200813824101 0 0.224387406455446 0.02460240409890389 0 0.22830704903319021 0.009552556987691951 0 0.22040854931318621 0.0093777932992746577 0 0.24454710423508169 -0.0040543885157620588 0 0.22830704903319021 0.009552556987691951 0 0.22040854931318621 0.0093777932992746577 0 0.24454710423508169 -0.0040543885157620588 0 0.224387406455446 0.02460240409890389 0 0.22830704903319021 0.009552556987691951 0 0.22040854931318621 0.0093777932992746577 0 0.22830704903319021 0.009552556987691951 0 0.22040854931318621 0.0093777932992746577 0 0.22040854931318621 0.0093777932992746577 0 0.20306361649223731 0.019029584467987581 0 0.193411862040101 0.0087804595257519359 0 0.22040854931318621 0.0093777932992746577 0 0.193411862040101 0.0087804595257519359 0 0.20649695332801041 -0.011123257156358399 0 0.22040854931318621 0.0093777932992746577 0 0.193411862040101 0.0087804595257519359 0 0.22040854931318621 0.0093777932992746577 0 0.20306361649223731 0.019029584467987581 0 0.22040854931318621 0.0093777932992746577 0 0.21357971495542391 0.027094896629626091 0 0.20306361649223731 0.019029584467987581 0 0.21357971495542391 0.027094896629626091 0 0.20306361649223731 0.019029584467987581 0 0.20219594775561611 0.04239123344618418 0 0.224387406455446 0.02460240409890389 0 0.21357971495542391 0.027094896629626091 0 0.21784305476063359 0.040073467835779392 0 0.20306361649223731 0.019029584467987581 0 0.1857186836712871 0.028681375636698089 0 0.20306361649223731 0.019029584467987581 0 0.20219594775561611 0.04239123344618418 0 0.1857186836712871 0.028681375636698089 0 0.19103655183180529 0.01816300107205299 0 0.20306361649223731 0.019029584467987581 0 0.1857186836712871 0.028681375636698089 0 0.19103655183180529 0.01816300107205299 0 0.20306361649223731 0.019029584467987581 0 0.193411862040101 0.0087804595257519359 0 0.19103655183180529 0.01816300107205299 0 0.193411862040101 0.0087804595257519359 0 0.18195204512359561 0.01616058465777492 0 0.21867321183994479 0.05610109125567081 0 0.20219594775561611 0.04239123344618418 0 0.21230246936870051 0.062715294709248054 0 0.19408147390000821 0.048932919026612259 0 0.21230246936870051 0.062715294709248054 0 0.21867321183994479 0.05610109125567081 0 0.20219594775561611 0.04239123344618418 0 0.21230246936870051 0.062715294709248054 0 0.21922930633447599 0.067954759782312898 0 0.21867321183994479 0.05610109125567081 0 0.21230246936870051 0.062715294709248054 0 0.21867321183994479 0.05610109125567081 0 0.21867321183994479 0.05610109125567081 0 0.21784305476063359 0.040073467835779392 0 0.20219594775561611 0.04239123344618418 0 0.21357971495542391 0.027094896629626091 0 0.21784305476063359 0.040073467835779392 0 0.20219594775561611 0.04239123344618418 0 0.20219594775561611 0.04239123344618418 0 0.18857085335167251 0.037606629154794922 0 0.1857186836712871 0.028681375636698089 0 0.20219594775561611 0.04239123344618418 0 0.1857186836712871 0.028681375636698089 0 0.20219594775561611 0.04239123344618418 0 0.18857085335167251 0.037606629154794922 0 0.19408147390000821 0.048932919026612259 0 0.21230246936870051 0.062715294709248054 0 0.20219594775561611 0.04239123344618418 0 0.19408147390000821 0.048932919026612259 0 0.19746843757066229 0.063390907442872652 0 0.21230246936870051 0.062715294709248054 0 0.19408147390000821 0.048932919026612259 0 0.19746843757066229 0.063390907442872652 0 0.19408147390000821 0.048932919026612259 0 0.18077630511812789 0.054232683145736107 0 0.19746843757066229 0.063390907442872652 0 0.18077630511812789 0.054232683145736107 0 0.185081987029481 0.068060442037255253 0 0.18077630511812789 0.054232683145736107 0 0.17586047843131589 0.035150543343976527 0 0.16063154061213489 0.056174381905899212 0 0.19408147390000821 0.048932919026612259 0 0.18077630511812789 0.054232683145736107 0 0.17586047843131589 0.035150543343976527 0 0.18857085335167251 0.037606629154794922 0 0.19408147390000821 0.048932919026612259 0 0.17586047843131589 0.035150543343976527 0 0.19408147390000821 0.048932919026612259 0 0.17586047843131589 0.035150543343976527 0 0.18857085335167251 0.037606629154794922 0 0.1857186836712871 0.028681375636698089 0 0.18293758457948511 0.03022895082368212 0 0.18857085335167251 0.037606629154794922 0 0.17586047843131589 0.035150543343976527 0 0.18293758457948511 0.03022895082368212 0 0.17586047843131589 0.035150543343976527 0 0.16063154061213489 0.056174381905899212 0 0.15563504439580611 0.039588181347732863 0 0.17586047843131589 0.035150543343976527 0 0.1576394829626237 0.02136816766134084 0 0.15563504439580611 0.039588181347732863 0 0.18077630511812789 0.054232683145736107 0 0.16063154061213489 0.056174381905899212 0 0.16885246017312111 0.071920123459970384 0 0.193411862040101 0.0087804595257519359 0 0.1664151747670157 0.0081831257522299462 0 0.193411862040101 0.0087804595257519359 0 0.18195204512359561 0.01616058465777492 0 0.1664151747670157 0.0081831257522299462 0 0.193411862040101 0.0087804595257519359 0 0.1664151747670157 0.0081831257522299462 0 0.17365852882115621 -0.0099512103645301598 0 0.18195204512359561 0.01616058465777492 0 0.1710494689959349 0.016475899876483451 0 0.1664151747670157 0.0081831257522299462 0 0.1857186836712871 0.028681375636698089 0 0.1710494689959349 0.016475899876483451 0 0.18195204512359561 0.01616058465777492 0 0.1857186836712871 0.028681375636698089 0 0.1710494689959349 0.016475899876483451 0 0.19103655183180529 0.01816300107205299 0 0.18195204512359561 0.01616058465777492 0 0.1857186836712871 0.028681375636698089 0 0.1857186836712871 0.028681375636698089 0 0.18293758457948511 0.03022895082368212 0 0.1744403844365871 0.02555935757827961 0 0.1857186836712871 0.028681375636698089 0 0.18293758457948511 0.03022895082368212 0 0.17586047843131589 0.035150543343976527 0 0.18293758457948511 0.03022895082368212 0 0.1744403844365871 0.02555935757827961 0 0.1857186836712871 0.028681375636698089 0 0.1744403844365871 0.02555935757827961 0 0.1710494689959349 0.016475899876483451 0 0.1744403844365871 0.02555935757827961 0 0.1576394829626237 0.02136816766134084 0 0.1710494689959349 0.016475899876483451 0 0.17586047843131589 0.035150543343976527 0 0.1744403844365871 0.02555935757827961 0 0.1576394829626237 0.02136816766134084 0 0.17586047843131589 0.035150543343976527 0 0.1576394829626237 0.02136816766134084 0 0.1576394829626237 0.02136816766134084 0 0.1710494689959349 0.016475899876483451 0 0.1664151747670157 0.0081831257522299462 0 0.1576394829626237 0.02136816766134084 0 0.1664151747670157 0.0081831257522299462 0 0.1394184874939306 0.0075857919787062364 0 0.1664151747670157 0.0081831257522299462 0 0.1394184874939306 0.0075857919787062364 0 0.1576394829626237 0.02136816766134084 0 0.1394184874939306 0.0075857919787062364 0 0.1664151747670157 0.0081831257522299462 0 0.1394184874939306 0.0075857919787062364 0 0.1499659599275856 -0.0028357427761619 0 0.1576394829626237 0.02136816766134084 0 0.13489757955544901 0.022762920038338141 0 0.1394184874939306 0.0075857919787062364 0 0.1576394829626237 0.02136816766134084 0 0.13489757955544901 0.022762920038338141 0 0.14086860608248869 0.035609688409989182 0 0.1192050179883003 0.025289878379008021 0 0.1239353080246805 0.015523316410563801 0 0.13489757955544901 0.022762920038338141 0 0.1192050179883003 0.025289878379008021 0 0.13489757955544901 0.022762920038338141 0 0.12657754096894899 0.033169311984437747 0 0.13489757955544901 0.022762920038338141 0 0.14086860608248869 0.035609688409989182 0 0.12657754096894899 0.033169311984437747 0 0.1112154668307228 0.0069617666460044213 0 0.1394184874939306 0.0075857919787062364 0 0.1239353080246805 0.015523316410563801 0 0.13489757955544901 0.022762920038338141 0 0.1394184874939306 0.0075857919787062364 0 0.16063154061213489 0.056174381905899212 0 0.14405331399684659 0.050771027327864218 0 0.14660636398072779 0.065044930325254532 0 0.16063154061213489 0.056174381905899212 0 0.14405331399684659 0.050771027327864218 0 0.15563504439580611 0.039588181347732863 0 0.14405331399684659 0.050771027327864218 0 0.13133004901314721 0.062710481960249712 0 0.14660636398072779 0.065044930325254532 0 0.1576394829626237 0.02136816766134084 0 0.15563504439580611 0.039588181347732863 0 0.14086860608248869 0.035609688409989182 0 0.14405331399684659 0.050771027327864218 0 0.15563504439580611 0.039588181347732863 0 0.14086860608248869 0.035609688409989182 0 0.14405331399684659 0.050771027327864218 0 0.14086860608248869 0.035609688409989182 0 0.12924827989677509 0.045498500018059863 0 0.14086860608248869 0.035609688409989182 0 0.12657754096894899 0.033169311984437747 0 0.12924827989677509 0.045498500018059863 0 0.1213180390941878 0.039610316036882427 0 0.12657754096894899 0.033169311984437747 0 0.12924827989677509 0.045498500018059863 0 0.14405331399684659 0.050771027327864218 0 0.12924827989677509 0.045498500018059863 0 0.13133004901314721 0.062710481960249712 0 0.1183353402422497 0.057783242689010132 0 0.12924827989677509 0.045498500018059863 0 0.13133004901314721 0.062710481960249712 0 0.11939743099048709 0.067795358029729025 0 0.13133004901314721 0.062710481960249712 0 0.12601201663717829 0.073782779713414431 0 0.13133004901314721 0.062710481960249712 0 0.12601201663717829 0.073782779713414431 0 0.13944808601470179 0.078198726497700696 0 0.13133004901314721 0.062710481960249712 0 0.14660636398072779 0.065044930325254532 0 0.13944808601470179 0.078198726497700696 0 0.14660636398072779 0.065044930325254532 0 0.15547642347051649 0.076013162308598489 0 0.13944808601470179 0.078198726497700696 0 0.16063154061213489 0.056174381905899212 0 0.14660636398072779 0.065044930325254532 0 0.15547642347051649 0.076013162308598489 0 0.15547642347051649 0.076013162308598489 0 0.14977700857270221 0.088440281119146702 0 0.13944808601470179 0.078198726497700696 0 0.14977700857270221 0.088440281119146702 0 0.15692861522811491 0.089607563774205062 0 0.15547642347051649 0.076013162308598489 0 0.14977700857270221 0.088440281119146702 0 0.15692861522811491 0.089607563774205062 0 0.14977700857270221 0.088440281119146702 0 0.1406164045630961 0.088301266881400414 0 0.13944808601470179 0.078198726497700696 0 0.14977700857270221 0.088440281119146702 0 0.1406164045630961 0.088301266881400414 0 0.1415112004627925 0.096038635875734371 0 0.12277357628353951 0.084307659091952911 0 0.12601201663717829 0.073782779713414431 0 0.13944808601470179 0.078198726497700696 0 0.1406164045630961 0.088301266881400414 0 0.13172932320218789 0.090527424033019929 0 0.1415112004627925 0.096038635875734371 0 0.12277357628353951 0.084307659091952911 0 0.13944808601470179 0.078198726497700696 0 0.13172932320218789 0.090527424033019929 0 0.1406164045630961 0.088301266881400414 0 0.13944808601470179 0.078198726497700696 0 0.13172932320218789 0.090527424033019929 0 0.12619853450777779 0.1078330730874123 0 0.14552415294983839 0.10652456888398559 0 0.13172932320218789 0.090527424033019929 0 0.12619853450777779 0.1078330730874123 0 0.1415112004627925 0.096038635875734371 0 0.1196566717525884 0.095935737169380891 0 0.13172932320218789 0.090527424033019929 0 0.12619853450777779 0.1078330730874123 0 0.12619853450777779 0.1078330730874123 0 0.14552415294983839 0.10652456888398559 0 0.1415112004627925 0.096038635875734371 0 0.13190173259588339 0.12673162022164239 0 0.14552415294983839 0.10652456888398559 0 0.13190173259588339 0.12673162022164239 0 0.12619853450777779 0.1078330730874123 0 0.14552415294983839 0.10652456888398559 0 0.13190173259588339 0.12673162022164239 0 0.15566547781771581 0.1200913342755673 0 0.14552415294983839 0.10652456888398559 0 0.14552415294983839 0.10652456888398559 0 0.15692861522811491 0.089607563774205062 0 0.14977700857270221 0.088440281119146702 0 0.14552415294983839 0.10652456888398559 0 0.1415112004627925 0.096038635875734371 0 0.14977700857270221 0.088440281119146702 0 0.14552415294983839 0.10652456888398559 0 0.15692861522811491 0.089607563774205062 0 0.17182071975368271 0.1047440738223813 0 0.182396260560336 0.093764383646148503 0 0.15692861522811491 0.089607563774205062 0 0.14552415294983839 0.10652456888398559 0 0.17182071975368271 0.1047440738223813 0 0.15692861522811491 0.089607563774205062 0 0.14552415294983839 0.10652456888398559 0 0.16810812436087241 0.1085985478306644 0 0.17182071975368271 0.1047440738223813 0 0.14552415294983839 0.10652456888398559 0 0.17182071975368271 0.1047440738223813 0 0.16810812436087241 0.1085985478306644 0 0.17182071975368271 0.1047440738223813 0 0.15566547781771581 0.1200913342755673 0 0.14552415294983839 0.10652456888398559 0 0.16810812436087241 0.1085985478306644 0 0.15566547781771581 0.1200913342755673 0 0.16810812436087241 0.1085985478306644 0 0.16834415181085521 0.1182094382610944 0 0.16810812436087241 0.1085985478306644 0 0.16834415181085521 0.1182094382610944 0 0.17637873106888929 0.11416330178083681 0 0.1703450856690828 0.12854193819458701 0 0.15566547781771581 0.1200913342755673 0 0.16834415181085521 0.1182094382610944 0 0.1703450856690828 0.12854193819458701 0 0.16834415181085521 0.1182094382610944 0 0.17637873106888929 0.11416330178083681 0 0.1703450856690828 0.12854193819458701 0 0.19028465540128089 0.1134241960833017 0 0.1874582289227715 0.1273740841456501 0 0.1703450856690828 0.12854193819458701 0 0.19028465540128089 0.1134241960833017 0 0.1703450856690828 0.12854193819458701 0 0.19028465540128089 0.1134241960833017 0 0.17637873106888929 0.11416330178083681 0 0.19028465540128089 0.1134241960833017 0 0.17637873106888929 0.11416330178083681 0 0.18170391612593009 0.10898943129644 0 0.1883315582798675 0.1036261534992409 0 0.17182071975368271 0.1047440738223813 0 0.182396260560336 0.093764383646148503 0 0.1883315582798675 0.1036261534992409 0 0.17182071975368271 0.1047440738223813 0 0.1883315582798675 0.1036261534992409 0 0.17182071975368271 0.1047440738223813 0 0.18170391612593009 0.10898943129644 0 0.17182071975368271 0.1047440738223813 0 0.182396260560336 0.093764383646148503 0 0.17182071975368271 0.1047440738223813 0 0.17637873106888929 0.11416330178083681 0 0.18170391612593009 0.10898943129644 0 0.16810812436087241 0.1085985478306644 0 0.17182071975368271 0.1047440738223813 0 0.17637873106888929 0.11416330178083681 0 0.1883315582798675 0.1036261534992409 0 0.19028465540128089 0.1134241960833017 0 0.18170391612593009 0.10898943129644 0 0.182396260560336 0.093764383646148503 0 0.17285984043307301 0.083731682631741799 0 0.18223796886446539 0.079241054866614841 0 0.17285984043307301 0.083731682631741799 0 0.18223796886446539 0.079241054866614841 0 0.16885246017312111 0.071920123459970384 0 0.19734936496451841 0.078239839177698417 0 0.182396260560336 0.093764383646148503 0 0.18223796886446539 0.079241054866614841 0 0.18077630511812789 0.054232683145736107 0 0.185081987029481 0.068060442037255253 0 0.16885246017312111 0.071920123459970384 0 0.18077630511812789 0.054232683145736107 0 0.16885246017312111 0.071920123459970384 0 0.18223796886446539 0.079241054866614841 0 0.185081987029481 0.068060442037255253 0 0.16885246017312111 0.071920123459970384 0 0.16063154061213489 0.056174381905899212 0 0.15547642347051649 0.076013162308598489 0 0.16885246017312111 0.071920123459970384 0 0.182396260560336 0.093764383646148503 0 0.15692861522811491 0.089607563774205062 0 0.15547642347051649 0.076013162308598489 0 0.16885246017312111 0.071920123459970384 0 0.15692861522811491 0.089607563774205062 0 0.17285984043307301 0.083731682631741799 0 0.16885246017312111 0.071920123459970384 0 0.15692861522811491 0.089607563774205062 0 0.182396260560336 0.093764383646148503 0 0.17285984043307301 0.083731682631741799 0 0.15692861522811491 0.089607563774205062 0 0.16885246017312111 0.071920123459970384 0 0.15692861522811491 0.089607563774205062 0 0.1044835014096759 0.47734756365600922 0 0.089878094677345824 0.46845281852689552 0 0.087590331635736762 0.48187231733454222 0 0.1044835014096759 0.47734756365600922 0 0.10375911119544989 0.46169208423840707 0 0.089878094677345824 0.46845281852689552 0 0.1044835014096759 0.47734756365600922 0 0.091184291132313577 0.49999999999999878 0 0.1034385873595831 0.49999999999999822 0 0.1120455250558608 0.48045706548225359 0 0.1044835014096759 0.47734756365600922 0 0.1034385873595831 0.49999999999999822 0 0.1120455250558608 0.48045706548225359 0 0.1044835014096759 0.47734756365600922 0 0.087590331635736762 0.48187231733454222 0 0.091184291132313577 0.49999999999999878 0 0.1044835014096759 0.47734756365600922 0 0.1034385873595831 0.49999999999999822 0 0.091184291132313577 0.49999999999999878 0 0.12399992399529371 0.48303337357331672 0 0.1120455250558608 0.48045706548225359 0 0.12915559468890389 0.5 0 0.1034385873595831 0.49999999999999822 0 0.1120455250558608 0.48045706548225359 0 0.12915559468890389 0.5 0 0.12399992399529371 0.48303337357331672 0 0.1120455250558608 0.48045706548225359 0 0.1232568145545315 0.47318152767312721 0 0.1044835014096759 0.47734756365600922 0 0.1120455250558608 0.48045706548225359 0 0.1206524627521391 0.46091413096450928 0 0.1120455250558608 0.48045706548225359 0 0.1206524627521391 0.46091413096450928 0 0.1120455250558608 0.48045706548225359 0 0.1232568145545315 0.47318152767312721 0 0.1206524627521391 0.46091413096450928 0 0.1232568145545315 0.47318152767312721 0 0.1206524627521391 0.46091413096450928 0 0.1303484766562954 0.46586162432778377 0 0.1044835014096759 0.47734756365600922 0 0.1177827116870388 0.45469512731202 0 0.1044835014096759 0.47734756365600922 0 0.1177827116870388 0.45469512731202 0 0.1206524627521391 0.46091413096450928 0 0.1177827116870388 0.45469512731202 0 0.1206524627521391 0.46091413096450928 0 0.1278632788434825 0.45577296128510503 0 0.1177827116870388 0.45469512731202 0 0.1085542672691443 0.45288073103457499 0 0.10375911119544989 0.46169208423840707 0 0.1177827116870388 0.45469512731202 0 0.1310819219644016 0.43204269096803077 0 0.1177827116870388 0.45469512731202 0 0.1193906732136185 0.44081408720424309 0 0.1310819219644016 0.43204269096803077 0 0.1177827116870388 0.45469512731202 0 0.1289094797012322 0.44711971241893372 0 0.1278632788434825 0.45577296128510503 0 0.1177827116870388 0.45469512731202 0 0.1193906732136185 0.44081408720424309 0 0.1133873753874745 0.44711352789891201 0 0.1177827116870388 0.45469512731202 0 0.1133873753874745 0.44711352789891201 0 0.1085542672691443 0.45288073103457499 0 0.1193906732136185 0.44081408720424309 0 0.1133873753874745 0.44711352789891201 0 0.11280312783646219 0.43748516267452098 0 0.1133873753874745 0.44711352789891201 0 0.1055620420874188 0.44634621164118382 0 0.11280312783646219 0.43748516267452098 0 0.1055620420874188 0.44634621164118382 0 0.099337691303681225 0.4374707705946943 0 0.11280312783646219 0.43748516267452098 0 0.1133873753874745 0.44711352789891201 0 0.1055620420874188 0.44634621164118382 0 0.1085542672691443 0.45288073103457499 0 0.1055620420874188 0.44634621164118382 0 0.1085542672691443 0.45288073103457499 0 0.1012109816942646 0.45379336565934708 0 0.1055620420874188 0.44634621164118382 0 0.094088013200529869 0.44889931535774519 0 0.1012109816942646 0.45379336565934708 0 0.1055620420874188 0.44634621164118382 0 0.094088013200529869 0.44889931535774519 0 0.099337691303681225 0.4374707705946943 0 0.1044835014096759 0.47734756365600922 0 0.1177827116870388 0.45469512731202 0 0.10375911119544989 0.46169208423840707 0 0.1085542672691443 0.45288073103457499 0 0.10375911119544989 0.46169208423840707 0 0.1012109816942646 0.45379336565934708 0 0.10375911119544989 0.46169208423840707 0 0.09409147471878021 0.45914848602482411 0 0.1012109816942646 0.45379336565934708 0 0.094088013200529869 0.44889931535774519 0 0.09409147471878021 0.45914848602482411 0 0.1012109816942646 0.45379336565934708 0 0.10375911119544989 0.46169208423840707 0 0.09409147471878021 0.45914848602482411 0 0.089878094677345824 0.46845281852689552 0 0.09409147471878021 0.45914848602482411 0 0.089878094677345824 0.46845281852689552 0 0.080214128666006621 0.45552629217638252 0 0.089878094677345824 0.46845281852689552 0 0.080214128666006621 0.45552629217638252 0 0.074102941378371603 0.47288946850061031 0 0.094088013200529869 0.44889931535774519 0 0.09409147471878021 0.45914848602482411 0 0.080214128666006621 0.45552629217638252 0 0.094088013200529869 0.44889931535774519 0 0.085796496059863905 0.44174499657163302 0 0.099337691303681225 0.4374707705946943 0 0.094088013200529869 0.44889931535774519 0 0.080214128666006621 0.45552629217638252 0 0.085796496059863905 0.44174499657163302 0 0.080214128666006621 0.45552629217638252 0 0.06525684597390341 0.44147936260094622 0 0.058990630125098087 0.45933022751847918 0 0.080214128666006621 0.45552629217638252 0 0.085796496059863905 0.44174499657163302 0 0.06525684597390341 0.44147936260094622 0 0.080214128666006621 0.45552629217638252 0 0.074102941378371603 0.47288946850061031 0 0.058990630125098087 0.45933022751847918 0 0.074102941378371603 0.47288946850061031 0 0.055632374657373099 0.48049688766291121 0 0.058990630125098087 0.45933022751847918 0 0.074102941378371603 0.47288946850061031 0 0.074845676588152429 0.48705173469961283 0 0.055632374657373099 0.48049688766291121 0 0.089878094677345824 0.46845281852689552 0 0.074102941378371603 0.47288946850061031 0 0.087590331635736762 0.48187231733454222 0 0.074102941378371603 0.47288946850061031 0 0.087590331635736762 0.48187231733454222 0 0.074845676588152429 0.48705173469961283 0 0.087590331635736762 0.48187231733454222 0 0.091184291132313577 0.49999999999999878 0 0.074845676588152429 0.48705173469961283 0 0.091184291132313577 0.49999999999999878 0 0.065718444136967091 0.5 0 0.074845676588152429 0.48705173469961283 0 0.065718444136967091 0.5 0 0.074845676588152429 0.48705173469961283 0 0.055632374657373099 0.48049688766291121 0 0.065718444136967091 0.5 0 0.055632374657373099 0.48049688766291121 0 0.04025259714162055 0.5 0 0.034127288248844749 0.48389355689233382 0 0.02042232855942323 0.47553651491327759 0 0.039542390739532807 0.46343438188548008 0 0.055632374657373099 0.48049688766291121 0 0.034127288248844749 0.48389355689233382 0 0.039542390739532807 0.46343438188548008 0 0.055632374657373099 0.48049688766291121 0 0.034127288248844749 0.48389355689233382 0 0.04025259714162055 0.5 0 0.034127288248844749 0.48389355689233382 0 0.04025259714162055 0.5 0 0.01478675014627406 0.5 0 0.034127288248844749 0.48389355689233382 0 0.02042232855942323 0.47553651491327759 0 0.01478675014627406 0.5 0 -0.0076889094467738816 0.46478000118795137 0 0.0017979149220028511 0.48165652148318122 0 0.0079421228958620176 0.46777507337897378 0 0.02042232855942323 0.47553651491327759 0 0.0017979149220028511 0.48165652148318122 0 0.0079421228958620176 0.46777507337897378 0 0.02042232855942323 0.47553651491327759 0 0.0017979149220028511 0.48165652148318122 0 0.01478675014627406 0.5 0 -0.01067909684907253 0.5 0 0.0017979149220028511 0.48165652148318122 0 0.01478675014627406 0.5 0 0.011312768916354391 0.43772440232287579 0 0.0067190561514857416 0.45457892549911538 0 0.023041811005143759 0.45366467292976881 0 -0.0049807791518667174 0.44616128958802082 0 0.011312768916354391 0.43772440232287579 0 0.0067190561514857416 0.45457892549911538 0 0.0067190561514857416 0.45457892549911538 0 0.0079421228958620176 0.46777507337897378 0 0.023041811005143759 0.45366467292976881 0 -0.0076889094467738816 0.46478000118795137 0 0.0067190561514857416 0.45457892549911538 0 0.0079421228958620176 0.46777507337897378 0 0.02042232855942323 0.47553651491327759 0 0.0079421228958620176 0.46777507337897378 0 0.023041811005143759 0.45366467292976881 0 0.02042232855942323 0.47553651491327759 0 0.023041811005143759 0.45366467292976881 0 0.039542390739532807 0.46343438188548008 0 0.011312768916354391 0.43772440232287579 0 0.023041811005143759 0.45366467292976881 0 0.030863212570951249 0.43098769711629731 0 0.023041811005143759 0.45366467292976881 0 0.043918160576270973 0.4455988348402663 0 0.030863212570951249 0.43098769711629731 0 0.023041811005143759 0.45366467292976881 0 0.043918160576270973 0.4455988348402663 0 0.039542390739532807 0.46343438188548008 0 0.055632374657373099 0.48049688766291121 0 0.039542390739532807 0.46343438188548008 0 0.058990630125098087 0.45933022751847918 0 0.043918160576270973 0.4455988348402663 0 0.039542390739532807 0.46343438188548008 0 0.058990630125098087 0.45933022751847918 0 0.06525684597390341 0.44147936260094622 0 0.043918160576270973 0.4455988348402663 0 0.049032727924684757 0.42871516414597882 0 0.06525684597390341 0.44147936260094622 0 0.043918160576270973 0.4455988348402663 0 0.058990630125098087 0.45933022751847918 0 0.06525684597390341 0.44147936260094622 0 0.049032727924684757 0.42871516414597882 0 0.063610358874117465 0.41791495627810887 0 0.049032727924684757 0.42871516414597882 0 0.041515061628180673 0.40759496989427513 0 0.063610358874117465 0.41791495627810887 0 0.041515061628180673 0.40759496989427513 0 0.064716269034845619 0.40131594062684278 0 0.063610358874117465 0.41791495627810887 0 0.043918160576270973 0.4455988348402663 0 0.049032727924684757 0.42871516414597882 0 0.030863212570951249 0.43098769711629731 0 0.049032727924684757 0.42871516414597882 0 0.041515061628180673 0.40759496989427513 0 0.030863212570951249 0.43098769711629731 0 0.011312768916354391 0.43772440232287579 0 0.030863212570951249 0.43098769711629731 0 0.015011072959699071 0.41747729397939609 0 0.041515061628180673 0.40759496989427513 0 0.030863212570951249 0.43098769711629731 0 0.015011072959699071 0.41747729397939609 0 0.041515061628180673 0.40759496989427513 0 0.015011072959699071 0.41747729397939609 0 0.019033898045706241 0.39766682092803818 0 -0.0073143073136647503 0.39745635484607128 0 -0.0040682684714412696 0.42417482241573168 0 0.015011072959699071 0.41747729397939609 0 -0.0040682684714412696 0.42417482241573168 0 0.011312768916354391 0.43772440232287579 0 0.015011072959699071 0.41747729397939609 0 -0.0040682684714412696 0.42417482241573168 0 -0.0049807791518667174 0.44616128958802082 0 0.011312768916354391 0.43772440232287579 0 -0.0045426006561533408 0.37315282105005088 0 -0.0073143073136647503 0.39745635484607128 0 0.014001025567275621 0.37909340418670179 0 -0.0073143073136647503 0.39745635484607128 0 0.015011072959699071 0.41747729397939609 0 0.019033898045706241 0.39766682092803818 0 -0.0073143073136647503 0.39745635484607128 0 0.014001025567275621 0.37909340418670179 0 0.019033898045706241 0.39766682092803818 0 0.014001025567275621 0.37909340418670179 0 0.036124081043280833 0.38477791248574361 0 0.030137676786885371 0.36323561939607268 0 0.014001025567275621 0.37909340418670179 0 0.019033898045706241 0.39766682092803818 0 0.036124081043280833 0.38477791248574361 0 0.041515061628180673 0.40759496989427513 0 0.019033898045706241 0.39766682092803818 0 0.036124081043280833 0.38477791248574361 0 0.041515061628180673 0.40759496989427513 0 0.036124081043280833 0.38477791248574361 0 0.057521362331255939 0.38418237138078187 0 0.041515061628180673 0.40759496989427513 0 0.057521362331255939 0.38418237138078187 0 0.064716269034845619 0.40131594062684278 0 0.036124081043280833 0.38477791248574361 0 0.057521362331255939 0.38418237138078187 0 0.051895898819732562 0.3655483780338773 0 0.057521362331255939 0.38418237138078187 0 0.076442675652300882 0.38951436985395682 0 0.072934867021814037 0.37048482413808809 0 0.076442675652300882 0.38951436985395682 0 0.091344151214667046 0.37861621337884399 0 0.072934867021814037 0.37048482413808809 0 0.076442675652300882 0.38951436985395682 0 0.091344151214667046 0.37861621337884399 0 0.09002638350580125 0.39336069720050493 0 0.09002638350580125 0.39336069720050493 0 0.084491886688373152 0.4073730357270911 0 0.10537341450262901 0.39683111517607372 0 0.076442675652300882 0.38951436985395682 0 0.09002638350580125 0.39336069720050493 0 0.084491886688373152 0.4073730357270911 0 0.076442675652300882 0.38951436985395682 0 0.064716269034845619 0.40131594062684278 0 0.084491886688373152 0.4073730357270911 0 0.057521362331255939 0.38418237138078187 0 0.076442675652300882 0.38951436985395682 0 0.064716269034845619 0.40131594062684278 0 0.064716269034845619 0.40131594062684278 0 0.063610358874117465 0.41791495627810887 0 0.084491886688373152 0.4073730357270911 0 0.063610358874117465 0.41791495627810887 0 0.084491886688373152 0.4073730357270911 0 0.06525684597390341 0.44147936260094622 0 0.063610358874117465 0.41791495627810887 0 0.090085801155198403 0.42534924212839631 0 0.06525684597390341 0.44147936260094622 0 0.090085801155198403 0.42534924212839631 0 0.085796496059863905 0.44174499657163302 0 0.090085801155198403 0.42534924212839631 0 0.099337691303681225 0.4374707705946943 0 0.085796496059863905 0.44174499657163302 0 0.06525684597390341 0.44147936260094622 0 0.090085801155198403 0.42534924212839631 0 0.063610358874117465 0.41791495627810887 0 0.090085801155198403 0.42534924212839631 0 0.084491886688373152 0.4073730357270911 0 0.090085801155198403 0.42534924212839631 0 0.1149147563364927 0.40921912165584551 0 0.090085801155198403 0.42534924212839631 0 0.084491886688373152 0.4073730357270911 0 0.1149147563364927 0.40921912165584551 0 0.090085801155198403 0.42534924212839631 0 0.10647788949289599 0.42820355227591261 0 0.1149147563364927 0.40921912165584551 0 0.090085801155198403 0.42534924212839631 0 0.099337691303681225 0.4374707705946943 0 0.10647788949289599 0.42820355227591261 0 0.099337691303681225 0.4374707705946943 0 0.10647788949289599 0.42820355227591261 0 0.11280312783646219 0.43748516267452098 0 0.11280312783646219 0.43748516267452098 0 0.1154726380132403 0.43008562952921969 0 0.12189822919271549 0.43273392716773151 0 0.10647788949289599 0.42820355227591261 0 0.11280312783646219 0.43748516267452098 0 0.1154726380132403 0.43008562952921969 0 0.10647788949289599 0.42820355227591261 0 0.1154726380132403 0.43008562952921969 0 0.11454012450913161 0.42325854988357298 0 0.1154726380132403 0.43008562952921969 0 0.11454012450913161 0.42325854988357298 0 0.1200445665086587 0.42524675917483989 0 0.1200445665086587 0.42524675917483989 0 0.12189822919271549 0.43273392716773151 0 0.12820989238683431 0.42648086894557052 0 0.1154726380132403 0.43008562952921969 0 0.1200445665086587 0.42524675917483989 0 0.12189822919271549 0.43273392716773151 0 0.1193906732136185 0.44081408720424309 0 0.12189822919271549 0.43273392716773151 0 0.1310819219644016 0.43204269096803077 0 0.1193906732136185 0.44081408720424309 0 0.11280312783646219 0.43748516267452098 0 0.12189822919271549 0.43273392716773151 0 0.1200445665086587 0.42524675917483989 0 0.1149147563364927 0.40921912165584551 0 0.12820989238683431 0.42648086894557052 0 0.11454012450913161 0.42325854988357298 0 0.1200445665086587 0.42524675917483989 0 0.1149147563364927 0.40921912165584551 0 0.1149147563364927 0.40921912165584551 0 0.12820989238683431 0.42648086894557052 0 0.1149147563364927 0.40921912165584551 0 0.13159634717604471 0.39838193306087633 0 0.12785651279979629 0.41300216094147868 0 0.1149147563364927 0.40921912165584551 0 0.12785651279979629 0.41300216094147868 0 0.12820989238683431 0.42648086894557052 0 0.10647788949289599 0.42820355227591261 0 0.11454012450913161 0.42325854988357298 0 0.1149147563364927 0.40921912165584551 0 0.1187340050918187 0.39808465074103683 0 0.1230515023521087 0.38790643307135231 0 0.10537341450262901 0.39683111517607372 0 0.1149147563364927 0.40921912165584551 0 0.1187340050918187 0.39808465074103683 0 0.13159634717604471 0.39838193306087633 0 0.1149147563364927 0.40921912165584551 0 0.13159634717604471 0.39838193306087633 0 0.1230515023521087 0.38790643307135231 0 0.10537341450262901 0.39683111517607372 0 0.1149147563364927 0.40921912165584551 0 0.10537341450262901 0.39683111517607372 0 0.1149147563364927 0.40921912165584551 0 0.1187340050918187 0.39808465074103683 0 0.10537341450262901 0.39683111517607372 0 0.1187340050918187 0.39808465074103683 0 0.1230515023521087 0.38790643307135231 0 0.13159634717604471 0.39838193306087633 0 0.1230515023521087 0.38790643307135231 0 0.1069934566565998 0.38326473010002832 0 0.1082047585569946 0.36970515877384352 0 0.1230515023521087 0.38790643307135231 0 0.1082047585569946 0.36970515877384352 0 0.12259354375719241 0.37413907305387872 0 0.1230515023521087 0.38790643307135231 0 0.1069934566565998 0.38326473010002832 0 0.10537341450262901 0.39683111517607372 0 0.1230515023521087 0.38790643307135231 0 0.1082047585569946 0.36970515877384352 0 0.091344151214667046 0.37861621337884399 0 0.10537341450262901 0.39683111517607372 0 0.091344151214667046 0.37861621337884399 0 0.1069934566565998 0.38326473010002832 0 0.10537341450262901 0.39683111517607372 0 0.091344151214667046 0.37861621337884399 0 0.1069934566565998 0.38326473010002832 0 0.1082047585569946 0.36970515877384352 0 0.091344151214667046 0.37861621337884399 0 0.09002638350580125 0.39336069720050493 0 0.10537341450262901 0.39683111517607372 0 0.084491886688373152 0.4073730357270911 0 0.1149147563364927 0.40921912165584551 0 0.10537341450262901 0.39683111517607372 0 0.084491886688373152 0.4073730357270911 0 0.10537341450262901 0.39683111517607372 0 0.1074919993606331 0.34871795754240809 0 0.093588325277989742 0.3407126276234701 0 0.086254338645664438 0.35655743928289718 0 0.1074919993606331 0.34871795754240809 0 0.1082047585569946 0.36970515877384352 0 0.086254338645664438 0.35655743928289718 0 0.091344151214667046 0.37861621337884399 0 0.1082047585569946 0.36970515877384352 0 0.086254338645664438 0.35655743928289718 0 0.1074919993606331 0.34871795754240809 0 0.1082047585569946 0.36970515877384352 0 0.11912377200784589 0.36127178378947528 0 0.1082047585569946 0.36970515877384352 0 0.12259354375719241 0.37413907305387872 0 0.11912377200784589 0.36127178378947528 0 0.12259354375719241 0.37413907305387872 0 0.11912377200784589 0.36127178378947528 0 0.13106500545686789 0.36818218262621399 0 0.1074919993606331 0.34871795754240809 0 0.11912377200784589 0.36127178378947528 0 0.12684940380070661 0.34811607624412538 0 0.1074919993606331 0.34871795754240809 0 0.11677578538958611 0.32858815155352089 0 0.12684940380070661 0.34811607624412538 0 0.1074919993606331 0.34871795754240809 0 0.11677578538958611 0.32858815155352089 0 0.11677578538958611 0.32858815155352089 0 0.10134673425831529 0.31880463838711542 0 0.1260595714185391 0.30845834556463358 0 0.11677578538958611 0.32858815155352089 0 0.1260595714185391 0.30845834556463358 0 0.1074919993606331 0.34871795754240809 0 0.11677578538958611 0.32858815155352089 0 0.093588325277989742 0.3407126276234701 0 0.11677578538958611 0.32858815155352089 0 0.10134673425831529 0.31880463838711542 0 0.093588325277989742 0.3407126276234701 0 0.093588325277989742 0.3407126276234701 0 0.084690111897916642 0.32750125129326119 0 0.069657064573866889 0.3451348850327845 0 0.10134673425831529 0.31880463838711542 0 0.093588325277989742 0.3407126276234701 0 0.084690111897916642 0.32750125129326119 0 0.10134673425831529 0.31880463838711542 0 0.084690111897916642 0.32750125129326119 0 0.083287383589029415 0.30552314496701782 0 0.084690111897916642 0.32750125129326119 0 0.068084422134792655 0.32410936680732472 0 0.083287383589029415 0.30552314496701782 0 0.068084422134792655 0.32410936680732472 0 0.069657064573866889 0.3451348850327845 0 0.054427660062659422 0.33016284131930868 0 0.084690111897916642 0.32750125129326119 0 0.068084422134792655 0.32410936680732472 0 0.069657064573866889 0.3451348850327845 0 0.069657064573866889 0.3451348850327845 0 0.086254338645664438 0.35655743928289718 0 0.072934867021814037 0.37048482413808809 0 0.093588325277989742 0.3407126276234701 0 0.069657064573866889 0.3451348850327845 0 0.086254338645664438 0.35655743928289718 0 0.091344151214667046 0.37861621337884399 0 0.086254338645664438 0.35655743928289718 0 0.072934867021814037 0.37048482413808809 0 0.069657064573866889 0.3451348850327845 0 0.072934867021814037 0.37048482413808809 0 0.051895898819732562 0.3655483780338773 0 0.057521362331255939 0.38418237138078187 0 0.072934867021814037 0.37048482413808809 0 0.051895898819732562 0.3655483780338773 0 0.069657064573866889 0.3451348850327845 0 0.051895898819732562 0.3655483780338773 0 0.044207655234939171 0.34578099224228481 0 0.051895898819732562 0.3655483780338773 0 0.044207655234939171 0.34578099224228481 0 0.030137676786885371 0.36323561939607268 0 0.044207655234939171 0.34578099224228481 0 0.030137676786885371 0.36323561939607268 0 0.024004318777567289 0.34264140371824309 0 0.036124081043280833 0.38477791248574361 0 0.051895898819732562 0.3655483780338773 0 0.030137676786885371 0.36323561939607268 0 0.014001025567275621 0.37909340418670179 0 0.030137676786885371 0.36323561939607268 0 0.010567405497599351 0.35827089641423382 0 0.030137676786885371 0.36323561939607268 0 0.010567405497599351 0.35827089641423382 0 0.024004318777567289 0.34264140371824309 0 0.010567405497599351 0.35827089641423382 0 0.0045422153079443823 0.33974475314486291 0 0.024004318777567289 0.34264140371824309 0 -0.012589133325050361 0.35629326518858673 0 0.010567405497599351 0.35827089641423382 0 0.0045422153079443823 0.33974475314486291 0 -0.0045426006561533408 0.37315282105005088 0 0.014001025567275621 0.37909340418670179 0 0.010567405497599351 0.35827089641423382 0 0.0055870851428569644 0.32343914427593701 0 0.017944173120133109 0.32535870744741108 0 0.0075209757127229632 0.30476535896382217 0 -0.007659023569372596 0.32388775754765192 0 0.0055870851428569644 0.32343914427593701 0 0.0075209757127229632 0.30476535896382217 0 0.0055870851428569644 0.32343914427593701 0 0.0045422153079443823 0.33974475314486291 0 0.017944173120133109 0.32535870744741108 0 -0.007659023569372596 0.32388775754765192 0 0.0055870851428569644 0.32343914427593701 0 0.0045422153079443823 0.33974475314486291 0 0.0045422153079443823 0.33974475314486291 0 0.024004318777567289 0.34264140371824309 0 0.017944173120133109 0.32535870744741108 0 0.024004318777567289 0.34264140371824309 0 0.017944173120133109 0.32535870744741108 0 0.036982616856123453 0.32701656465478818 0 0.017944173120133109 0.32535870744741108 0 0.030856539192908809 0.30965331467277157 0 0.0075209757127229632 0.30476535896382217 0 0.017944173120133109 0.32535870744741108 0 0.036982616856123453 0.32701656465478818 0 0.030856539192908809 0.30965331467277157 0 0.036982616856123453 0.32701656465478818 0 0.056925150447974658 0.3068798752620937 0 0.030856539192908809 0.30965331467277157 0 0.044207655234939171 0.34578099224228481 0 0.024004318777567289 0.34264140371824309 0 0.036982616856123453 0.32701656465478818 0 0.044207655234939171 0.34578099224228481 0 0.036982616856123453 0.32701656465478818 0 0.054427660062659422 0.33016284131930868 0 0.069657064573866889 0.3451348850327845 0 0.044207655234939171 0.34578099224228481 0 0.054427660062659422 0.33016284131930868 0 0.068084422134792655 0.32410936680732472 0 0.054427660062659422 0.33016284131930868 0 0.056925150447974658 0.3068798752620937 0 0.036982616856123453 0.32701656465478818 0 0.054427660062659422 0.33016284131930868 0 0.056925150447974658 0.3068798752620937 0 0.056925150447974658 0.3068798752620937 0 0.04697788762358112 0.29093226150359208 0 0.060994388039847643 0.27964924890532172 0 0.04697788762358112 0.29093226150359208 0 0.030442752602165141 0.29278767904064967 0 0.043550020392550168 0.27115507005570127 0 0.030442752602165141 0.29278767904064967 0 0.043550020392550168 0.27115507005570127 0 0.04697788762358112 0.29093226150359208 0 0.030856539192908809 0.30965331467277157 0 0.030442752602165141 0.29278767904064967 0 0.056925150447974658 0.3068798752620937 0 0.04697788762358112 0.29093226150359208 0 0.030856539192908809 0.30965331467277157 0 0.030856539192908809 0.30965331467277157 0 0.030442752602165141 0.29278767904064967 0 0.0075209757127229632 0.30476535896382217 0 0.030442752602165141 0.29278767904064967 0 0.0059730323149553791 0.28997367436947741 0 0.01235737625438715 0.27566787937973941 0 -0.0091796179168699803 0.28065720455182208 0 0.0059730323149553791 0.28997367436947741 0 0.01235737625438715 0.27566787937973941 0 0.030442752602165141 0.29278767904064967 0 0.0059730323149553791 0.28997367436947741 0 0.0075209757127229632 0.30476535896382217 0 -0.01127632507762838 0.29599024991135331 0 0.0059730323149553791 0.28997367436947741 0 0.0075209757127229632 0.30476535896382217 0 -0.0034903985393868221 0.25853639811177698 0 0.02096260163955577 0.25463352423389651 0 -0.0034903985393868221 0.25853639811177698 0 0.01235737625438715 0.27566787937973941 0 0.02096260163955577 0.25463352423389651 0 -0.0034903985393868221 0.25853639811177698 0 0.0055636717745417936 0.2409115006921535 0 0.02096260163955577 0.25463352423389651 0 0.01235737625438715 0.27566787937973941 0 0.02096260163955577 0.25463352423389651 0 0.043550020392550168 0.27115507005570127 0 0.030442752602165141 0.29278767904064967 0 0.01235737625438715 0.27566787937973941 0 0.043550020392550168 0.27115507005570127 0 0.040613191062103551 0.24305050687108271 0 0.02096260163955577 0.25463352423389651 0 0.043550020392550168 0.27115507005570127 0 0.04697788762358112 0.29093226150359208 0 0.043550020392550168 0.27115507005570127 0 0.060994388039847643 0.27964924890532172 0 0.043550020392550168 0.27115507005570127 0 0.060994388039847643 0.27964924890532172 0 0.065535500037705613 0.25850494927377837 0 0.056657288182935181 0.24952246107075299 0 0.043550020392550168 0.27115507005570127 0 0.065535500037705613 0.25850494927377837 0 0.056657288182935181 0.24952246107075299 0 0.043550020392550168 0.27115507005570127 0 0.056657288182935181 0.24952246107075299 0 0.040613191062103551 0.24305050687108271 0 0.043550020392550168 0.27115507005570127 0 0.056657288182935181 0.24952246107075299 0 0.067650028005513965 0.2431974006797919 0 0.065535500037705613 0.25850494927377837 0 0.065535500037705613 0.25850494927377837 0 0.078115913588821362 0.25064488401743651 0 0.075898142593205445 0.26809310849946899 0 0.067650028005513965 0.2431974006797919 0 0.065535500037705613 0.25850494927377837 0 0.067650028005513965 0.2431974006797919 0 0.065535500037705613 0.25850494927377837 0 0.078115913588821362 0.25064488401743651 0 0.078115913588821362 0.25064488401743651 0 0.088490737566981031 0.25902975098640618 0 0.075898142593205445 0.26809310849946899 0 0.094884398846433154 0.2416421449733272 0 0.078115913588821362 0.25064488401743651 0 0.088490737566981031 0.25902975098640618 0 0.085977061812165967 0.27459433841328568 0 0.075898142593205445 0.26809310849946899 0 0.075599292219866304 0.28740018272195927 0 0.088490737566981031 0.25902975098640618 0 0.085977061812165967 0.27459433841328568 0 0.095609492428275183 0.26879135164110268 0 0.088490737566981031 0.25902975098640618 0 0.085977061812165967 0.27459433841328568 0 0.075898142593205445 0.26809310849946899 0 0.060994388039847643 0.27964924890532172 0 0.075898142593205445 0.26809310849946899 0 0.075599292219866304 0.28740018272195927 0 0.060994388039847643 0.27964924890532172 0 0.065535500037705613 0.25850494927377837 0 0.075898142593205445 0.26809310849946899 0 0.056925150447974658 0.3068798752620937 0 0.060994388039847643 0.27964924890532172 0 0.075599292219866304 0.28740018272195927 0 0.068084422134792655 0.32410936680732472 0 0.056925150447974658 0.3068798752620937 0 0.083287383589029415 0.30552314496701782 0 0.056925150447974658 0.3068798752620937 0 0.075599292219866304 0.28740018272195927 0 0.083287383589029415 0.30552314496701782 0 0.083287383589029415 0.30552314496701782 0 0.090513626836974795 0.28966138028456839 0 0.1041270569579129 0.30023128918997549 0 0.085977061812165967 0.27459433841328568 0 0.090513626836974795 0.28966138028456839 0 0.10290137731205461 0.28182264945197738 0 0.075599292219866304 0.28740018272195927 0 0.083287383589029415 0.30552314496701782 0 0.090513626836974795 0.28966138028456839 0 0.085977061812165967 0.27459433841328568 0 0.075599292219866304 0.28740018272195927 0 0.090513626836974795 0.28966138028456839 0 0.090513626836974795 0.28966138028456839 0 0.10290137731205461 0.28182264945197738 0 0.1041270569579129 0.30023128918997549 0 0.10290137731205461 0.28182264945197738 0 0.1041270569579129 0.30023128918997549 0 0.11783084426913561 0.29079745392212059 0 0.10134673425831529 0.31880463838711542 0 0.083287383589029415 0.30552314496701782 0 0.1041270569579129 0.30023128918997549 0 0.10134673425831529 0.31880463838711542 0 0.1041270569579129 0.30023128918997549 0 0.1260595714185391 0.30845834556463358 0 0.1041270569579129 0.30023128918997549 0 0.11783084426913561 0.29079745392212059 0 0.1260595714185391 0.30845834556463358 0 0.10290137731205461 0.28182264945197738 0 0.11783084426913561 0.29079745392212059 0 0.1207228582096794 0.27514644582827008 0 0.11783084426913561 0.29079745392212059 0 0.1207228582096794 0.27514644582827008 0 0.13534335744749229 0.28832853957574661 0 0.10290137731205461 0.28182264945197738 0 0.1207228582096794 0.27514644582827008 0 0.1063340217304687 0.27193119975053609 0 0.1207228582096794 0.27514644582827008 0 0.1155036305604184 0.26143449438416938 0 0.10610235897186571 0.26196435208079449 0 0.1207228582096794 0.27514644582827008 0 0.10610235897186571 0.26196435208079449 0 0.1063340217304687 0.27193119975053609 0 0.1207228582096794 0.27514644582827008 0 0.10610235897186571 0.26196435208079449 0 0.1207228582096794 0.27514644582827008 0 0.12442646880705829 0.25842656913830703 0 0.1155036305604184 0.26143449438416938 0 0.118467602947705 0.24904918409112489 0 0.12442646880705829 0.25842656913830703 0 0.1094825115753742 0.25419496519862578 0 0.12442646880705829 0.25842656913830703 0 0.1094825115753742 0.25419496519862578 0 0.1094825115753742 0.25419496519862578 0 0.1155036305604184 0.26143449438416938 0 0.10610235897186571 0.26196435208079449 0 0.12442646880705829 0.25842656913830703 0 0.1094825115753742 0.25419496519862578 0 0.1155036305604184 0.26143449438416938 0 0.094884398846433154 0.2416421449733272 0 0.088490737566981031 0.25902975098640618 0 0.099659974724104566 0.25447815284378172 0 0.1094825115753742 0.25419496519862578 0 0.10610235897186571 0.26196435208079449 0 0.099659974724104566 0.25447815284378172 0 0.10895274041773891 0.2447373791024183 0 0.1094825115753742 0.25419496519862578 0 0.099659974724104566 0.25447815284378172 0 0.10610235897186571 0.26196435208079449 0 0.099659974724104566 0.25447815284378172 0 0.095609492428275183 0.26879135164110268 0 0.088490737566981031 0.25902975098640618 0 0.099659974724104566 0.25447815284378172 0 0.095609492428275183 0.26879135164110268 0 0.085977061812165967 0.27459433841328568 0 0.10290137731205461 0.28182264945197738 0 0.095609492428275183 0.26879135164110268 0 0.10290137731205461 0.28182264945197738 0 0.095609492428275183 0.26879135164110268 0 0.1063340217304687 0.27193119975053609 0 0.10610235897186571 0.26196435208079449 0 0.095609492428275183 0.26879135164110268 0 0.1063340217304687 0.27193119975053609 0 0.1548543748536344 0.27383275120343131 0 0.14628006667464999 0.26461474067807977 0 0.16629324626033401 0.2702817703856325 0 0.14764912719116979 0.27304601650075339 0 0.1412742656296975 0.27546869654690292 0 0.14628006667464999 0.26461474067807977 0 0.1412742656296975 0.27546869654690292 0 0.14628006667464999 0.26461474067807977 0 0.1412742656296975 0.27546869654690292 0 0.14628006667464999 0.26461474067807977 0 0.1393704260387422 0.26265817307798911 0 0.14764912719116979 0.27304601650075339 0 0.1412742656296975 0.27546869654690292 0 0.14881011566982741 0.28057677743968762 0 0.14881011566982741 0.28057677743968762 0 0.1548543748536344 0.27383275120343131 0 0.1558739982941251 0.28404332934978971 0 0.14764912719116979 0.27304601650075339 0 0.14881011566982741 0.28057677743968762 0 0.1548543748536344 0.27383275120343131 0 0.14764912719116979 0.27304601650075339 0 0.1548543748536344 0.27383275120343131 0 0.14628006667464999 0.26461474067807977 0 0.15172676458886999 0.25280479892033159 0 0.14628006667464999 0.26461474067807977 0 0.15172676458886999 0.25280479892033159 0 0.14628006667464999 0.26461474067807977 0 0.15814103351836811 0.26175019231237301 0 0.13696268387962379 0.24645699857620559 0 0.15172676458886999 0.25280479892033159 0 0.1447728055966479 0.25675862936796578 0 0.15172676458886999 0.25280479892033159 0 0.1447728055966479 0.25675862936796578 0 0.14628006667464999 0.26461474067807977 0 0.1447728055966479 0.25675862936796578 0 0.14628006667464999 0.26461474067807977 0 0.1393704260387422 0.26265817307798911 0 0.14628006667464999 0.26461474067807977 0 0.1393704260387422 0.26265817307798911 0 0.13696268387962379 0.24645699857620559 0 0.1447728055966479 0.25675862936796578 0 0.1393704260387422 0.26265817307798911 0 0.13696268387962379 0.24645699857620559 0 0.1393704260387422 0.26265817307798911 0 0.13696268387962379 0.24645699857620559 0 0.12442646880705829 0.25842656913830703 0 0.1393704260387422 0.26265817307798911 0 0.118467602947705 0.24904918409112489 0 0.13696268387962379 0.24645699857620559 0 0.12442646880705829 0.25842656913830703 0 0.12442646880705829 0.25842656913830703 0 0.1393704260387422 0.26265817307798911 0 0.13189817428241701 0.2715577015521099 0 0.12442646880705829 0.25842656913830703 0 0.1393704260387422 0.26265817307798911 0 0.1412742656296975 0.27546869654690292 0 0.13189817428241701 0.2715577015521099 0 0.13534335744749229 0.28832853957574661 0 0.1207228582096794 0.27514644582827008 0 0.13189817428241701 0.2715577015521099 0 0.13534335744749229 0.28832853957574661 0 0.1207228582096794 0.27514644582827008 0 0.12442646880705829 0.25842656913830703 0 0.13189817428241701 0.2715577015521099 0 0.1412742656296975 0.27546869654690292 0 0.1393704260387422 0.26265817307798911 0 0.1412742656296975 0.27546869654690292 0 0.1393704260387422 0.26265817307798911 0 0.13189817428241701 0.2715577015521099 0 0.1207228582096794 0.27514644582827008 0 0.13534335744749229 0.28832853957574661 0 0.1412742656296975 0.27546869654690292 0 0.13534335744749229 0.28832853957574661 0 0.1443988123805095 0.29649309359756082 0 0.11783084426913561 0.29079745392212059 0 0.13534335744749229 0.28832853957574661 0 0.1260595714185391 0.30845834556463358 0 0.13534335744749229 0.28832853957574661 0 0.1443988123805095 0.29649309359756082 0 0.1412742656296975 0.27546869654690292 0 0.13534335744749229 0.28832853957574661 0 0.13534335744749229 0.28832853957574661 0 0.1260595714185391 0.30845834556463358 0 0.13534335744749229 0.28832853957574661 0 0.13849423625557111 0.30748008015468442 0 0.1443988123805095 0.29649309359756082 0 0.13534335744749229 0.28832853957574661 0 0.13849423625557111 0.30748008015468442 0 0.1260595714185391 0.30845834556463358 0 0.1443988123805095 0.29649309359756082 0 0.16054514941712481 0.29462370488206902 0 0.15666093554675081 0.30754883488869622 0 0.1443988123805095 0.29649309359756082 0 0.14733872537721801 0.31627513018289288 0 0.1443988123805095 0.29649309359756082 0 0.15666093554675081 0.30754883488869622 0 0.14733872537721801 0.31627513018289288 0 0.13849423625557111 0.30748008015468442 0 0.1443988123805095 0.29649309359756082 0 0.14733872537721801 0.31627513018289288 0 0.1443988123805095 0.29649309359756082 0 0.15666093554675081 0.30754883488869622 0 0.1412742656296975 0.27546869654690292 0 0.1443988123805095 0.29649309359756082 0 0.1443988123805095 0.29649309359756082 0 0.1558739982941251 0.28404332934978971 0 0.16054514941712481 0.29462370488206902 0 0.1412742656296975 0.27546869654690292 0 0.14881011566982741 0.28057677743968762 0 0.1443988123805095 0.29649309359756082 0 0.14881011566982741 0.28057677743968762 0 0.1443988123805095 0.29649309359756082 0 0.1558739982941251 0.28404332934978971 0 0.1558739982941251 0.28404332934978971 0 0.16054514941712481 0.29462370488206902 0 0.16472720905392171 0.27992120782293523 0 0.1711200679077283 0.29140769510077319 0 0.17470757171250159 0.28145018559341328 0 0.16472720905392171 0.27992120782293523 0 0.16054514941712481 0.29462370488206902 0 0.1711200679077283 0.29140769510077319 0 0.16472720905392171 0.27992120782293523 0 0.15666093554675081 0.30754883488869622 0 0.1726299962791647 0.30578642283112872 0 0.1689230587129929 0.31860457617983051 0 0.16054514941712481 0.29462370488206902 0 0.15666093554675081 0.30754883488869622 0 0.1726299962791647 0.30578642283112872 0 0.16054514941712481 0.29462370488206902 0 0.1711200679077283 0.29140769510077319 0 0.1726299962791647 0.30578642283112872 0 0.179661353888142 0.29837245047558852 0 0.1850909094945056 0.28969145456454171 0 0.18980444187116949 0.3066042294059102 0 0.1726299962791647 0.30578642283112872 0 0.18980444187116949 0.3066042294059102 0 0.18267204274410481 0.32160349766379798 0 0.1726299962791647 0.30578642283112872 0 0.179661353888142 0.29837245047558852 0 0.18980444187116949 0.3066042294059102 0 0.1711200679077283 0.29140769510077319 0 0.1726299962791647 0.30578642283112872 0 0.179661353888142 0.29837245047558852 0 0.1711200679077283 0.29140769510077319 0 0.17470757171250159 0.28145018559341328 0 0.1850909094945056 0.28969145456454171 0 0.1711200679077283 0.29140769510077319 0 0.179661353888142 0.29837245047558852 0 0.1850909094945056 0.28969145456454171 0 0.17470757171250159 0.28145018559341328 0 0.1850909094945056 0.28969145456454171 0 0.18630642584601839 0.27594880009318379 0 0.18630642584601839 0.27594880009318379 0 0.16629324626033401 0.2702817703856325 0 0.17470757171250159 0.28145018559341328 0 0.18630642584601839 0.27594880009318379 0 0.16629324626033401 0.2702817703856325 0 0.18630642584601839 0.27594880009318379 0 0.16629324626033401 0.2702817703856325 0 0.1784243084323017 0.26391080748666362 0 0.14628006667464999 0.26461474067807977 0 0.16629324626033401 0.2702817703856325 0 0.17470757171250159 0.28145018559341328 0 0.16472720905392171 0.27992120782293523 0 0.16629324626033401 0.2702817703856325 0 0.1548543748536344 0.27383275120343131 0 0.1558739982941251 0.28404332934978971 0 0.16472720905392171 0.27992120782293523 0 0.1548543748536344 0.27383275120343131 0 0.16472720905392171 0.27992120782293523 0 0.16629324626033401 0.2702817703856325 0 0.14628006667464999 0.26461474067807977 0 0.16629324626033401 0.2702817703856325 0 0.15814103351836811 0.26175019231237301 0 0.1656078887783792 0.24286487100056081 0 0.1652459078110701 0.25860162266235109 0 0.1784243084323017 0.26391080748666362 0 0.1656078887783792 0.24286487100056081 0 0.15172676458886999 0.25280479892033159 0 0.1652459078110701 0.25860162266235109 0 0.15172676458886999 0.25280479892033159 0 0.15814103351836811 0.26175019231237301 0 0.1652459078110701 0.25860162266235109 0 0.16629324626033401 0.2702817703856325 0 0.15814103351836811 0.26175019231237301 0 0.1652459078110701 0.25860162266235109 0 0.16629324626033401 0.2702817703856325 0 0.1652459078110701 0.25860162266235109 0 0.1784243084323017 0.26391080748666362 0 0.1656078887783792 0.24286487100056081 0 0.1784243084323017 0.26391080748666362 0 0.18515818986685109 0.24523198137830499 0 0.1656078887783792 0.24286487100056081 0 0.1784243084323017 0.26391080748666362 0 0.18515818986685109 0.24523198137830499 0 0.1784243084323017 0.26391080748666362 0 0.2001597603643252 0.25953991024648271 0 0.18630642584601839 0.27594880009318379 0 0.20631960543170261 0.28161582980073652 0 0.18630642584601839 0.27594880009318379 0 0.2001597603643252 0.25953991024648271 0 0.20631960543170261 0.28161582980073652 0 0.18630642584601839 0.27594880009318379 0 0.1784243084323017 0.26391080748666362 0 0.2001597603643252 0.25953991024648271 0 0.2001597603643252 0.25953991024648271 0 0.20631960543170261 0.28161582980073652 0 0.2001597603643252 0.25953991024648271 0 0.21743518236273929 0.26827176205905862 0 0.20631960543170261 0.28161582980073652 0 0.21743518236273929 0.26827176205905862 0 0.22625310063890561 0.28726029569037098 0 0.20631960543170261 0.28161582980073652 0 0.2001597603643252 0.25953991024648271 0 0.21743518236273929 0.26827176205905862 0 0.21441946711031809 0.25343142140150932 0 0.20388057309864299 0.2420260524210241 0 0.2001597603643252 0.25953991024648271 0 0.21441946711031809 0.25343142140150932 0 0.21743518236273929 0.26827176205905862 0 0.21441946711031809 0.25343142140150932 0 0.23143636026737621 0.25829091581815028 0 0.22311456895561979 0.24210018387613991 0 0.21441946711031809 0.25343142140150932 0 0.23143636026737621 0.25829091581815028 0 0.21743518236273929 0.26827176205905862 0 0.23143636026737621 0.25829091581815028 0 0.23691269892240399 0.27649675811381591 0 0.21743518236273929 0.26827176205905862 0 0.23691269892240399 0.27649675811381591 0 0.22625310063890561 0.28726029569037098 0 0.23143636026737621 0.25829091581815028 0 0.23691269892240399 0.27649675811381591 0 0.2490231873831896 0.26987704113164152 0 0.23691269892240399 0.27649675811381591 0 0.2490231873831896 0.26987704113164152 0 0.25239385184284652 0.28364063616437057 0 0.23143636026737621 0.25829091581815028 0 0.2490231873831896 0.26987704113164152 0 0.24833316285785609 0.25613966282899547 0 0.23892470514704739 0.24618996043878821 0 0.23143636026737621 0.25829091581815028 0 0.24833316285785609 0.25613966282899547 0 0.23335302439001659 0.30239607188981099 0 0.22979332921272569 0.3183598782236674 0 0.24096053071102699 0.31548588195579419 0 0.23335302439001659 0.30239607188981099 0 0.24096053071102699 0.31548588195579419 0 0.25354031088216911 0.30701755471271791 0 0.24618659584610841 0.29290476158000678 0 0.23335302439001659 0.30239607188981099 0 0.25354031088216911 0.30701755471271791 0 0.24096053071102699 0.31548588195579419 0 0.25354031088216911 0.30701755471271791 0 0.23691269892240399 0.27649675811381591 0 0.24618659584610841 0.29290476158000678 0 0.22625310063890561 0.28726029569037098 0 0.24618659584610841 0.29290476158000678 0 0.22625310063890561 0.28726029569037098 0 0.23335302439001659 0.30239607188981099 0 0.23691269892240399 0.27649675811381591 0 0.24618659584610841 0.29290476158000678 0 0.25239385184284652 0.28364063616437057 0 0.24618659584610841 0.29290476158000678 0 0.22625310063890561 0.28726029569037098 0 0.22625310063890561 0.28726029569037098 0 0.23335302439001659 0.30239607188981099 0 0.21381535808511951 0.3084794328241004 0 0.23335302439001659 0.30239607188981099 0 0.21381535808511951 0.3084794328241004 0 0.22979332921272569 0.3183598782236674 0 0.21381535808511951 0.3084794328241004 0 0.20631960543170261 0.28161582980073652 0 0.18980444187116949 0.3066042294059102 0 0.22625310063890561 0.28726029569037098 0 0.20631960543170261 0.28161582980073652 0 0.22625310063890561 0.28726029569037098 0 0.21381535808511951 0.3084794328241004 0 0.20631960543170261 0.28161582980073652 0 0.21381535808511951 0.3084794328241004 0 0.20631960543170261 0.28161582980073652 0 0.1850909094945056 0.28969145456454171 0 0.18630642584601839 0.27594880009318379 0 0.20631960543170261 0.28161582980073652 0 0.1850909094945056 0.28969145456454171 0 0.20631960543170261 0.28161582980073652 0 0.18980444187116949 0.3066042294059102 0 0.18980444187116949 0.3066042294059102 0 0.19811683110691561 0.32355197243010148 0 0.18267204274410481 0.32160349766379798 0 0.21381535808511951 0.3084794328241004 0 0.18980444187116949 0.3066042294059102 0 0.19811683110691561 0.32355197243010148 0 0.19811683110691561 0.32355197243010148 0 0.18647608270984681 0.33663245738680009 0 0.18267204274410481 0.32160349766379798 0 0.19811683110691561 0.32355197243010148 0 0.20201013790873629 0.3422882781513561 0 0.18647608270984681 0.33663245738680009 0 0.20201013790873629 0.3422882781513561 0 0.1896181102713666 0.34763024771210649 0 0.18647608270984681 0.33663245738680009 0 0.19811683110691561 0.32355197243010148 0 0.20201013790873629 0.3422882781513561 0 0.2213111107385371 0.33534303584746422 0 0.21381535808511951 0.3084794328241004 0 0.2213111107385371 0.33534303584746422 0 0.21381535808511951 0.3084794328241004 0 0.19811683110691561 0.32355197243010148 0 0.2213111107385371 0.33534303584746422 0 0.21381535808511951 0.3084794328241004 0 0.22979332921272569 0.3183598782236674 0 0.2213111107385371 0.33534303584746422 0 0.22979332921272569 0.3183598782236674 0 0.2213111107385371 0.33534303584746422 0 0.23952662213892831 0.33009496860116722 0 0.2213111107385371 0.33534303584746422 0 0.23952662213892831 0.33009496860116722 0 0.23834910845387339 0.34472695301636741 0 0.23952662213892831 0.33009496860116722 0 0.23834910845387339 0.34472695301636741 0 0.25374534734518489 0.33498022951000839 0 0.23952662213892831 0.33009496860116722 0 0.24096053071102699 0.31548588195579419 0 0.25720481198535439 0.32113418170008962 0 0.22979332921272569 0.3183598782236674 0 0.23952662213892831 0.33009496860116722 0 0.24096053071102699 0.31548588195579419 0 0.2409177267930851 0.36400786241940369 0 0.2366965334705492 0.38251935774357498 0 0.25990332666269178 0.37613588478237919 0 0.2409177267930851 0.36400786241940369 0 0.23834910845387339 0.34472695301636741 0 0.26254243031922792 0.35308660851405449 0 0.2213111107385371 0.33534303584746422 0 0.23834910845387339 0.34472695301636741 0 0.2138210520610625 0.35733750059482949 0 0.2409177267930851 0.36400786241940369 0 0.23834910845387339 0.34472695301636741 0 0.2138210520610625 0.35733750059482949 0 0.2409177267930851 0.36400786241940369 0 0.21929302326694231 0.37492911632475301 0 0.2138210520610625 0.35733750059482949 0 0.2409177267930851 0.36400786241940369 0 0.21929302326694231 0.37492911632475301 0 0.2366965334705492 0.38251935774357498 0 0.2409177267930851 0.36400786241940369 0 0.21929302326694231 0.37492911632475301 0 0.21929302326694231 0.37492911632475301 0 0.2138210520610625 0.35733750059482949 0 0.2027666737773991 0.37057750211341361 0 0.2138210520610625 0.35733750059482949 0 0.2027666737773991 0.37057750211341361 0 0.19401471704427961 0.36011119324617991 0 0.20201013790873629 0.3422882781513561 0 0.2213111107385371 0.33534303584746422 0 0.2138210520610625 0.35733750059482949 0 0.20201013790873629 0.3422882781513561 0 0.2138210520610625 0.35733750059482949 0 0.19401471704427961 0.36011119324617991 0 0.20201013790873629 0.3422882781513561 0 0.1896181102713666 0.34763024771210649 0 0.19401471704427961 0.36011119324617991 0 0.1896181102713666 0.34763024771210649 0 0.19401471704427961 0.36011119324617991 0 0.18275074910594699 0.3578930892992106 0 0.2027666737773991 0.37057750211341361 0 0.19401471704427961 0.36011119324617991 0 0.1936135702509654 0.37378639617068948 0 0.19401471704427961 0.36011119324617991 0 0.1936135702509654 0.37378639617068948 0 0.1829798169385233 0.36953791966168409 0 0.16943657420624769 0.36228686356366457 0 0.19063832375382569 0.38285499560206743 0 0.1829798169385233 0.36953791966168409 0 0.16943657420624769 0.36228686356366457 0 0.19063832375382569 0.38285499560206743 0 0.1829798169385233 0.36953791966168409 0 0.17756212911578281 0.36185711801639298 0 0.18275074910594699 0.3578930892992106 0 0.19401471704427961 0.36011119324617991 0 0.1829798169385233 0.36953791966168409 0 0.18275074910594699 0.3578930892992106 0 0.1829798169385233 0.36953791966168409 0 0.17756212911578281 0.36185711801639298 0 0.16943657420624769 0.36228686356366457 0 0.17756212911578281 0.36185711801639298 0 0.16943657420624769 0.36228686356366457 0 0.17508137621241321 0.35771059954101292 0 0.16943657420624769 0.36228686356366457 0 0.16956030108160311 0.38679440391486619 0 0.16943657420624769 0.36228686356366457 0 0.16021666677770491 0.37480778059607978 0 0.16956030108160311 0.38679440391486619 0 0.16943657420624769 0.36228686356366457 0 0.15962139215004409 0.36473330110984159 0 0.161174109070954 0.35427132345533319 0 0.15962139215004409 0.36473330110984159 0 0.161174109070954 0.35427132345533319 0 0.1512868580121898 0.360944777063198 0 0.15962139215004409 0.36473330110984159 0 0.16021666677770491 0.37480778059607978 0 0.15138650798922951 0.37262670779345008 0 0.16943657420624769 0.36228686356366457 0 0.15962139215004409 0.36473330110984159 0 0.16021666677770491 0.37480778059607978 0 0.161174109070954 0.35427132345533319 0 0.1659322857367673 0.34715081841908552 0 0.1538918133135645 0.34746626170015532 0 0.16943657420624769 0.36228686356366457 0 0.161174109070954 0.35427132345533319 0 0.16939969270313029 0.3549814586281585 0 0.16943657420624769 0.36228686356366457 0 0.161174109070954 0.35427132345533319 0 0.161174109070954 0.35427132345533319 0 0.16939969270313029 0.3549814586281585 0 0.1659322857367673 0.34715081841908552 0 0.16943657420624769 0.36228686356366457 0 0.16939969270313029 0.3549814586281585 0 0.16943657420624769 0.36228686356366457 0 0.16939969270313029 0.3549814586281585 0 0.17508137621241321 0.35771059954101292 0 0.16939969270313029 0.3549814586281585 0 0.1659322857367673 0.34715081841908552 0 0.1766428345670637 0.34819509673548599 0 0.16939969270313029 0.3549814586281585 0 0.1766428345670637 0.34819509673548599 0 0.17508137621241321 0.35771059954101292 0 0.1766428345670637 0.34819509673548599 0 0.17508137621241321 0.35771059954101292 0 0.18275074910594699 0.3578930892992106 0 0.17756212911578281 0.36185711801639298 0 0.17508137621241321 0.35771059954101292 0 0.18275074910594699 0.3578930892992106 0 0.1896181102713666 0.34763024771210649 0 0.1766428345670637 0.34819509673548599 0 0.18275074910594699 0.3578930892992106 0 0.1896181102713666 0.34763024771210649 0 0.1766428345670637 0.34819509673548599 0 0.18647608270984681 0.33663245738680009 0 0.1766428345670637 0.34819509673548599 0 0.18647608270984681 0.33663245738680009 0 0.16773334685767191 0.3349578407141392 0 0.18647608270984681 0.33663245738680009 0 0.18267204274410481 0.32160349766379798 0 0.16773334685767191 0.3349578407141392 0 0.1726299962791647 0.30578642283112872 0 0.18267204274410481 0.32160349766379798 0 0.1689230587129929 0.31860457617983051 0 0.18267204274410481 0.32160349766379798 0 0.1689230587129929 0.31860457617983051 0 0.16773334685767191 0.3349578407141392 0 0.15732572906392889 0.32490038508387747 0 0.1689230587129929 0.31860457617983051 0 0.16773334685767191 0.3349578407141392 0 0.15666093554675081 0.30754883488869622 0 0.15732572906392889 0.32490038508387747 0 0.1689230587129929 0.31860457617983051 0 0.15666093554675081 0.30754883488869622 0 0.1689230587129929 0.31860457617983051 0 0.16773334685767191 0.3349578407141392 0 0.15027863837392541 0.33605716676822522 0 0.1538918133135645 0.34746626170015532 0 0.15732572906392889 0.32490038508387747 0 0.16773334685767191 0.3349578407141392 0 0.15027863837392541 0.33605716676822522 0 0.1659322857367673 0.34715081841908552 0 0.1766428345670637 0.34819509673548599 0 0.16773334685767191 0.3349578407141392 0 0.1659322857367673 0.34715081841908552 0 0.16773334685767191 0.3349578407141392 0 0.1538918133135645 0.34746626170015532 0 0.15027863837392541 0.33605716676822522 0 0.13455516697234191 0.32801023536261231 0 0.140479697680892 0.34380717161338592 0 0.15027863837392541 0.33605716676822522 0 0.140479697680892 0.34380717161338592 0 0.1538918133135645 0.34746626170015532 0 0.15666093554675081 0.30754883488869622 0 0.15732572906392889 0.32490038508387747 0 0.14733872537721801 0.31627513018289288 0 0.15027863837392541 0.33605716676822522 0 0.14733872537721801 0.31627513018289288 0 0.15732572906392889 0.32490038508387747 0 0.15027863837392541 0.33605716676822522 0 0.14733872537721801 0.31627513018289288 0 0.15027863837392541 0.33605716676822522 0 0.14733872537721801 0.31627513018289288 0 0.13455516697234191 0.32801023536261231 0 0.13849423625557111 0.30748008015468442 0 0.1260595714185391 0.30845834556463358 0 0.13455516697234191 0.32801023536261231 0 0.11677578538958611 0.32858815155352089 0 0.1260595714185391 0.30845834556463358 0 0.13455516697234191 0.32801023536261231 0 0.13849423625557111 0.30748008015468442 0 0.14733872537721801 0.31627513018289288 0 0.13455516697234191 0.32801023536261231 0 0.11677578538958611 0.32858815155352089 0 0.13455516697234191 0.32801023536261231 0 0.12684940380070661 0.34811607624412538 0 0.13455516697234191 0.32801023536261231 0 0.12684940380070661 0.34811607624412538 0 0.140479697680892 0.34380717161338592 0 0.11912377200784589 0.36127178378947528 0 0.12684940380070661 0.34811607624412538 0 0.13106500545686789 0.36818218262621399 0 0.12684940380070661 0.34811607624412538 0 0.14034945963988329 0.35649632470055198 0 0.13106500545686789 0.36818218262621399 0 0.12684940380070661 0.34811607624412538 0 0.140479697680892 0.34380717161338592 0 0.14034945963988329 0.35649632470055198 0 0.13106500545686789 0.36818218262621399 0 0.14318139983983311 0.36741407581057151 0 0.14181916810099479 0.37882038686944353 0 0.14034945963988329 0.35649632470055198 0 0.13106500545686789 0.36818218262621399 0 0.14318139983983311 0.36741407581057151 0 0.14034945963988329 0.35649632470055198 0 0.14318139983983311 0.36741407581057151 0 0.1512868580121898 0.360944777063198 0 0.14318139983983311 0.36741407581057151 0 0.15138650798922951 0.37262670779345008 0 0.14181916810099479 0.37882038686944353 0 0.15962139215004409 0.36473330110984159 0 0.15138650798922951 0.37262670779345008 0 0.1512868580121898 0.360944777063198 0 0.14318139983983311 0.36741407581057151 0 0.15138650798922951 0.37262670779345008 0 0.1512868580121898 0.360944777063198 0 0.161174109070954 0.35427132345533319 0 0.1512868580121898 0.360944777063198 0 0.1538918133135645 0.34746626170015532 0 0.14034945963988329 0.35649632470055198 0 0.1512868580121898 0.360944777063198 0 0.1538918133135645 0.34746626170015532 0 0.140479697680892 0.34380717161338592 0 0.14034945963988329 0.35649632470055198 0 0.1538918133135645 0.34746626170015532 0 0.14696051354150619 0.4010571848091018 0 0.15107855846140009 0.38759762659857672 0 0.13742663768774349 0.39459428723941581 0 0.14696051354150619 0.4010571848091018 0 0.13742663768774349 0.39459428723941581 0 0.1409726081133148 0.40987670252409319 0 0.14696051354150619 0.4010571848091018 0 0.15514379307366311 0.41430656902749702 0 0.15756555711544329 0.40035211846116892 0 0.14696051354150619 0.4010571848091018 0 0.15107855846140009 0.38759762659857672 0 0.15756555711544329 0.40035211846116892 0 0.15107855846140009 0.38759762659857672 0 0.14181916810099479 0.37882038686944353 0 0.13742663768774349 0.39459428723941581 0 0.16021666677770491 0.37480778059607978 0 0.15138650798922951 0.37262670779345008 0 0.15107855846140009 0.38759762659857672 0 0.15138650798922951 0.37262670779345008 0 0.15107855846140009 0.38759762659857672 0 0.14181916810099479 0.37882038686944353 0 0.13152268041214521 0.38362980700850879 0 0.13087364563641449 0.391009295011368 0 0.13742663768774349 0.39459428723941581 0 0.13106500545686789 0.36818218262621399 0 0.14181916810099479 0.37882038686944353 0 0.13742663768774349 0.39459428723941581 0 0.13106500545686789 0.36818218262621399 0 0.13152268041214521 0.38362980700850879 0 0.13742663768774349 0.39459428723941581 0 0.13106500545686789 0.36818218262621399 0 0.13742663768774349 0.39459428723941581 0 0.12259354375719241 0.37413907305387872 0 0.13106500545686789 0.36818218262621399 0 0.13152268041214521 0.38362980700850879 0 0.1230515023521087 0.38790643307135231 0 0.12259354375719241 0.37413907305387872 0 0.13152268041214521 0.38362980700850879 0 0.1230515023521087 0.38790643307135231 0 0.13152268041214521 0.38362980700850879 0 0.13087364563641449 0.391009295011368 0 0.1230515023521087 0.38790643307135231 0 0.13152268041214521 0.38362980700850879 0 0.1230515023521087 0.38790643307135231 0 0.13159634717604471 0.39838193306087633 0 0.13087364563641449 0.391009295011368 0 0.1230515023521087 0.38790643307135231 0 0.13159634717604471 0.39838193306087633 0 0.13159634717604471 0.39838193306087633 0 0.13742663768774349 0.39459428723941581 0 0.13159634717604471 0.39838193306087633 0 0.13087364563641449 0.391009295011368 0 0.13742663768774349 0.39459428723941581 0 0.13159634717604471 0.39838193306087633 0 0.13742663768774349 0.39459428723941581 0 0.1409726081133148 0.40987670252409319 0 0.13742663768774349 0.39459428723941581 0 0.1409726081133148 0.40987670252409319 0 0.13159634717604471 0.39838193306087633 0 0.1409726081133148 0.40987670252409319 0 0.12785651279979629 0.41300216094147868 0 0.1320170161155424 0.41978085101881102 0 0.12820989238683431 0.42648086894557052 0 0.12785651279979629 0.41300216094147868 0 0.1320170161155424 0.41978085101881102 0 0.1409726081133148 0.40987670252409319 0 0.1320170161155424 0.41978085101881102 0 0.13845622872016419 0.42114958356054633 0 0.1409726081133148 0.40987670252409319 0 0.13159634717604471 0.39838193306087633 0 0.12785651279979629 0.41300216094147868 0 0.1409726081133148 0.40987670252409319 0 0.12820989238683431 0.42648086894557052 0 0.13661482233365571 0.43012252975247361 0 0.1415050284371758 0.44374261623529548 0 0.12820989238683431 0.42648086894557052 0 0.1415050284371758 0.44374261623529548 0 0.1310819219644016 0.43204269096803077 0 0.12820989238683431 0.42648086894557052 0 0.1415050284371758 0.44374261623529548 0 0.12189822919271549 0.43273392716773151 0 0.1310819219644016 0.43204269096803077 0 0.12820989238683431 0.42648086894557052 0 0.1320170161155424 0.41978085101881102 0 0.12820989238683431 0.42648086894557052 0 0.13661482233365571 0.43012252975247361 0 0.13845622872016419 0.42114958356054633 0 0.13661482233365571 0.43012252975247361 0 0.14577468956715989 0.43008547427962202 0 0.1320170161155424 0.41978085101881102 0 0.13845622872016419 0.42114958356054633 0 0.13661482233365571 0.43012252975247361 0 0.13661482233365571 0.43012252975247361 0 0.14244301126070141 0.43738377985683652 0 0.1415050284371758 0.44374261623529548 0 0.14577468956715989 0.43008547427962202 0 0.1409726081133148 0.40987670252409319 0 0.15663576075635949 0.42907884823052428 0 0.13661482233365571 0.43012252975247361 0 0.14577468956715989 0.43008547427962202 0 0.14244301126070141 0.43738377985683652 0 0.14577468956715989 0.43008547427962202 0 0.15663576075635949 0.42907884823052428 0 0.1574192125709406 0.44220836653073031 0 0.13845622872016419 0.42114958356054633 0 0.14577468956715989 0.43008547427962202 0 0.1409726081133148 0.40987670252409319 0 0.1409726081133148 0.40987670252409319 0 0.15663576075635949 0.42907884823052428 0 0.1409726081133148 0.40987670252409319 0 0.15514379307366311 0.41430656902749702 0 0.15663576075635949 0.42907884823052428 0 0.14577468956715989 0.43008547427962202 0 0.1409726081133148 0.40987670252409319 0 0.14696051354150619 0.4010571848091018 0 0.1409726081133148 0.40987670252409319 0 0.15514379307366311 0.41430656902749702 0 0.15514379307366311 0.41430656902749702 0 0.16968402795695811 0.41130194426606781 0 0.15756555711544329 0.40035211846116892 0 0.15514379307366311 0.41430656902749702 0 0.16968402795695811 0.41130194426606781 0 0.15663576075635949 0.42907884823052428 0 0.16968402795695811 0.41130194426606781 0 0.15663576075635949 0.42907884823052428 0 0.16980775483231311 0.43580948461726943 0 0.16968402795695811 0.41130194426606781 0 0.16980775483231311 0.43580948461726943 0 0.16968402795695811 0.41130194426606781 0 0.16980775483231311 0.43580948461726943 0 0.1800483564617418 0.42619736273269559 0 0.16980775483231311 0.43580948461726943 0 0.1800483564617418 0.42619736273269559 0 0.1825722018012306 0.43974436893479618 0 0.1800483564617418 0.42619736273269559 0 0.18866715979851839 0.41508535217895548 0 0.19087746318714899 0.42895707148877488 0 0.1800483564617418 0.42619736273269559 0 0.19087746318714899 0.42895707148877488 0 0.1825722018012306 0.43974436893479618 0 0.16968402795695811 0.41130194426606781 0 0.1800483564617418 0.42619736273269559 0 0.18866715979851839 0.41508535217895548 0 0.16968402795695811 0.41130194426606781 0 0.1827417349136998 0.39903029382955812 0 0.18866715979851839 0.41508535217895548 0 0.16968402795695811 0.41130194426606781 0 0.1827417349136998 0.39903029382955812 0 0.16956030108160311 0.38679440391486619 0 0.1827417349136998 0.39903029382955812 0 0.18083529634214829 0.38876262256662247 0 0.18782447772175001 0.39270790261049698 0 0.1827417349136998 0.39903029382955812 0 0.16956030108160311 0.38679440391486619 0 0.18083529634214829 0.38876262256662247 0 0.16968402795695811 0.41130194426606781 0 0.15756555711544329 0.40035211846116892 0 0.16956030108160311 0.38679440391486619 0 0.16968402795695811 0.41130194426606781 0 0.16956030108160311 0.38679440391486619 0 0.15107855846140009 0.38759762659857672 0 0.15756555711544329 0.40035211846116892 0 0.16956030108160311 0.38679440391486619 0 0.16021666677770491 0.37480778059607978 0 0.15107855846140009 0.38759762659857672 0 0.16956030108160311 0.38679440391486619 0 0.16943657420624769 0.36228686356366457 0 0.18083529634214829 0.38876262256662247 0 0.19063832375382569 0.38285499560206743 0 0.16943657420624769 0.36228686356366457 0 0.16956030108160311 0.38679440391486619 0 0.18083529634214829 0.38876262256662247 0 0.18083529634214829 0.38876262256662247 0 0.19063832375382569 0.38285499560206743 0 0.18782447772175001 0.39270790261049698 0 0.1936135702509654 0.37378639617068948 0 0.1829798169385233 0.36953791966168409 0 0.19063832375382569 0.38285499560206743 0 0.1936135702509654 0.37378639617068948 0 0.19063832375382569 0.38285499560206743 0 0.19766831974079949 0.38585037023010232 0 0.2027666737773991 0.37057750211341361 0 0.1936135702509654 0.37378639617068948 0 0.19766831974079949 0.38585037023010232 0 0.1827417349136998 0.39903029382955812 0 0.19708255587732609 0.40018369844374041 0 0.18866715979851839 0.41508535217895548 0 0.19063832375382569 0.38285499560206743 0 0.19708255587732609 0.40018369844374041 0 0.21184007330140389 0.40342312764046989 0 0.19063832375382569 0.38285499560206743 0 0.18782447772175001 0.39270790261049698 0 0.19708255587732609 0.40018369844374041 0 0.19063832375382569 0.38285499560206743 0 0.19766831974079949 0.38585037023010232 0 0.21184007330140389 0.40342312764046989 0 0.19063832375382569 0.38285499560206743 0 0.21184007330140389 0.40342312764046989 0 0.1827417349136998 0.39903029382955812 0 0.18782447772175001 0.39270790261049698 0 0.19708255587732609 0.40018369844374041 0 0.19766831974079949 0.38585037023010232 0 0.21184007330140389 0.40342312764046989 0 0.2191281480346321 0.38951242746100873 0 0.19708255587732609 0.40018369844374041 0 0.21184007330140389 0.40342312764046989 0 0.2022355846961276 0.4123682309018718 0 0.21929302326694231 0.37492911632475301 0 0.19766831974079949 0.38585037023010232 0 0.2191281480346321 0.38951242746100873 0 0.21929302326694231 0.37492911632475301 0 0.19766831974079949 0.38585037023010232 0 0.21929302326694231 0.37492911632475301 0 0.2027666737773991 0.37057750211341361 0 0.19766831974079949 0.38585037023010232 0 0.21929302326694231 0.37492911632475301 0 0.2191281480346321 0.38951242746100873 0 0.2366965334705492 0.38251935774357498 0 0.21184007330140389 0.40342312764046989 0 0.2191281480346321 0.38951242746100873 0 0.23014279039346569 0.40084016536614292 0 0.2191281480346321 0.38951242746100873 0 0.23014279039346569 0.40084016536614292 0 0.2366965334705492 0.38251935774357498 0 0.23014279039346569 0.40084016536614292 0 0.2366965334705492 0.38251935774357498 0 0.25662051655349949 0.40588912727565313 0 0.2330418228489822 0.42399125967887258 0 0.2325547373500236 0.43471448961401971 0 0.25248675094361039 0.44285507314058958 0 0.2330418228489822 0.42399125967887258 0 0.25248675094361039 0.44285507314058958 0 0.2330418228489822 0.42399125967887258 0 0.25248675094361039 0.44285507314058958 0 0.2545560161662293 0.4247162672585425 0 0.2330418228489822 0.42399125967887258 0 0.2545560161662293 0.4247162672585425 0 0.25662051655349949 0.40588912727565313 0 0.23014279039346569 0.40084016536614292 0 0.2330418228489822 0.42399125967887258 0 0.25662051655349949 0.40588912727565313 0 0.2330418228489822 0.42399125967887258 0 0.25662051655349949 0.40588912727565313 0 0.21184007330140389 0.40342312764046989 0 0.23014279039346569 0.40084016536614292 0 0.2330418228489822 0.42399125967887258 0 0.21184007330140389 0.40342312764046989 0 0.2330418228489822 0.42399125967887258 0 0.21184007330140389 0.40342312764046989 0 0.2330418228489822 0.42399125967887258 0 0.21205925849395429 0.42023600460402399 0 0.2330418228489822 0.42399125967887258 0 0.21651939840817411 0.4264615115224662 0 0.21205925849395429 0.42023600460402399 0 0.22021502326739339 0.42948765036661313 0 0.2330418228489822 0.42399125967887258 0 0.22368621925718701 0.43117386177944078 0 0.22021502326739339 0.42948765036661313 0 0.2330418228489822 0.42399125967887258 0 0.21651939840817411 0.4264615115224662 0 0.2330418228489822 0.42399125967887258 0 0.22368621925718701 0.43117386177944078 0 0.2325547373500236 0.43471448961401971 0 0.2213213262176795 0.43356862453258033 0 0.232237567482659 0.44198362893861542 0 0.2330418228489822 0.42399125967887258 0 0.2325547373500236 0.43471448961401971 0 0.22368621925718701 0.43117386177944078 0 0.2325547373500236 0.43471448961401971 0 0.22368621925718701 0.43117386177944078 0 0.2213213262176795 0.43356862453258033 0 0.22021502326739339 0.42948765036661313 0 0.2213213262176795 0.43356862453258033 0 0.21479883295488689 0.43157491050234009 0 0.22021502326739339 0.42948765036661313 0 0.22368621925718701 0.43117386177944078 0 0.2213213262176795 0.43356862453258033 0 0.2213213262176795 0.43356862453258033 0 0.21294528949129629 0.43733461572514332 0 0.21479883295488689 0.43157491050234009 0 0.21294528949129629 0.43733461572514332 0 0.21479883295488689 0.43157491050234009 0 0.2083222157070605 0.4337358440723883 0 0.22021502326739339 0.42948765036661313 0 0.21479883295488689 0.43157491050234009 0 0.21651939840817411 0.4264615115224662 0 0.21651939840817411 0.4264615115224662 0 0.20888108539909439 0.42789716848918041 0 0.21205925849395429 0.42023600460402399 0 0.21479883295488689 0.43157491050234009 0 0.21651939840817411 0.4264615115224662 0 0.20888108539909439 0.42789716848918041 0 0.20888108539909439 0.42789716848918041 0 0.20119780753115671 0.43223516017375291 0 0.20054745651145789 0.42314435130880101 0 0.20888108539909439 0.42789716848918041 0 0.21205925849395429 0.42023600460402399 0 0.20054745651145789 0.42314435130880101 0 0.2083222157070605 0.4337358440723883 0 0.20119780753115671 0.43223516017375291 0 0.2038007030511956 0.44257602444976041 0 0.20888108539909439 0.42789716848918041 0 0.2083222157070605 0.4337358440723883 0 0.20119780753115671 0.43223516017375291 0 0.21479883295488689 0.43157491050234009 0 0.20888108539909439 0.42789716848918041 0 0.2083222157070605 0.4337358440723883 0 0.21184007330140389 0.40342312764046989 0 0.21205925849395429 0.42023600460402399 0 0.2022355846961276 0.4123682309018718 0 0.21205925849395429 0.42023600460402399 0 0.2022355846961276 0.4123682309018718 0 0.20054745651145789 0.42314435130880101 0 0.19708255587732609 0.40018369844374041 0 0.2022355846961276 0.4123682309018718 0 0.18866715979851839 0.41508535217895548 0 0.2022355846961276 0.4123682309018718 0 0.18866715979851839 0.41508535217895548 0 0.20054745651145789 0.42314435130880101 0 0.19567063487281791 0.43712798362606348 0 0.20119780753115671 0.43223516017375291 0 0.2038007030511956 0.44257602444976041 0 0.19567063487281791 0.43712798362606348 0 0.20119780753115671 0.43223516017375291 0 0.19087746318714899 0.42895707148877488 0 0.20119780753115671 0.43223516017375291 0 0.20054745651145789 0.42314435130880101 0 0.19087746318714899 0.42895707148877488 0 0.18866715979851839 0.41508535217895548 0 0.20054745651145789 0.42314435130880101 0 0.19087746318714899 0.42895707148877488 0 0.19567063487281791 0.43712798362606348 0 0.19087746318714899 0.42895707148877488 0 0.1825722018012306 0.43974436893479618 0 0.19185286162135129 0.44326506572919788 0 0.19184167252806941 0.45205460906254907 0 0.1825722018012306 0.43974436893479618 0 0.19567063487281791 0.43712798362606348 0 0.19185286162135129 0.44326506572919788 0 0.1825722018012306 0.43974436893479618 0 0.19184167252806941 0.45205460906254907 0 0.2114921813364736 0.4561269406614431 0 0.2038007030511956 0.44257602444976041 0 0.19185286162135129 0.44326506572919788 0 0.19184167252806941 0.45205460906254907 0 0.2038007030511956 0.44257602444976041 0 0.19567063487281791 0.43712798362606348 0 0.19185286162135129 0.44326506572919788 0 0.2038007030511956 0.44257602444976041 0 0.19184167252806941 0.45205460906254907 0 0.2114921813364736 0.4561269406614431 0 0.20425922449366779 0.47017885373425983 0 0.19184167252806941 0.45205460906254907 0 0.187962066042448 0.46748313964338689 0 0.20425922449366779 0.47017885373425983 0 0.2114921813364736 0.4561269406614431 0 0.2196006170683914 0.47284047090027281 0 0.20425922449366779 0.47017885373425983 0 0.21294528949129629 0.43733461572514332 0 0.2083222157070605 0.4337358440723883 0 0.2038007030511956 0.44257602444976041 0 0.2114921813364736 0.4561269406614431 0 0.2038007030511956 0.44257602444976041 0 0.21648336952565911 0.44521767506864779 0 0.21294528949129629 0.43733461572514332 0 0.2038007030511956 0.44257602444976041 0 0.21648336952565911 0.44521767506864779 0 0.2213213262176795 0.43356862453258033 0 0.21294528949129629 0.43733461572514332 0 0.21648336952565911 0.44521767506864779 0 0.2114921813364736 0.4561269406614431 0 0.21648336952565911 0.44521767506864779 0 0.23346109459028919 0.45571241635505322 0 0.2213213262176795 0.43356862453258033 0 0.232237567482659 0.44198362893861542 0 0.23346109459028919 0.45571241635505322 0 0.2213213262176795 0.43356862453258033 0 0.23346109459028919 0.45571241635505322 0 0.2213213262176795 0.43356862453258033 0 0.21648336952565911 0.44521767506864779 0 0.23346109459028919 0.45571241635505322 0 0.2114921813364736 0.4561269406614431 0 0.23346109459028919 0.45571241635505322 0 0.2196006170683914 0.47284047090027281 0 0.23346109459028919 0.45571241635505322 0 0.25248675094361039 0.44285507314058958 0 0.25888779467650253 0.46200971677157049 0 0.23346109459028919 0.45571241635505322 0 0.2456008629628989 0.47785620817752622 0 0.25888779467650253 0.46200971677157049 0 0.23346109459028919 0.45571241635505322 0 0.2456008629628989 0.47785620817752622 0 0.232237567482659 0.44198362893861542 0 0.23346109459028919 0.45571241635505322 0 0.25248675094361039 0.44285507314058958 0 0.2325547373500236 0.43471448961401971 0 0.232237567482659 0.44198362893861542 0 0.25248675094361039 0.44285507314058958 0 0.2456008629628989 0.47785620817752622 0 0.2320236240061874 0.5 0 0.25774063133550817 0.49999999999999922 0 0.23346109459028919 0.45571241635505322 0 0.2456008629628989 0.47785620817752622 0 0.2196006170683914 0.47284047090027281 0 0.2456008629628989 0.47785620817752622 0 0.2196006170683914 0.47284047090027281 0 0.22032137928971079 0.48894907610414201 0 0.22032137928971079 0.48894907610414201 0 0.2320236240061874 0.5 0 0.20630661667686659 0.5 0 0.2456008629628989 0.47785620817752622 0 0.22032137928971079 0.48894907610414201 0 0.2320236240061874 0.5 0 0.22032137928971079 0.48894907610414201 0 0.20362521868549219 0.48668528534981809 0 0.20630661667686659 0.5 0 0.2196006170683914 0.47284047090027281 0 0.20362521868549219 0.48668528534981809 0 0.20425922449366779 0.47017885373425983 0 0.2196006170683914 0.47284047090027281 0 0.22032137928971079 0.48894907610414201 0 0.20362521868549219 0.48668528534981809 0 0.187962066042448 0.46748313964338689 0 0.20362521868549219 0.48668528534981809 0 0.187962066042448 0.46748313964338689 0 0.20362521868549219 0.48668528534981809 0 0.18876198478167661 0.4863488263478718 0 0.187962066042448 0.46748313964338689 0 0.20362521868549219 0.48668528534981809 0 0.20425922449366779 0.47017885373425983 0 0.20630661667686659 0.5 0 0.18876198478167661 0.4863488263478718 0 0.1805896093475457 0.5 0 0.20362521868549219 0.48668528534981809 0 0.20630661667686659 0.5 0 0.18876198478167661 0.4863488263478718 0 0.18876198478167661 0.4863488263478718 0 0.1805896093475457 0.5 0 0.1685279909132999 0.48202199510768562 0 0.1805896093475457 0.5 0 0.1685279909132999 0.48202199510768562 0 0.15487260201822481 0.5 0 0.1685279909132999 0.48202199510768562 0 0.14553969593460611 0.48534968774448001 0 0.15487260201822481 0.5 0 0.1685279909132999 0.48202199510768562 0 0.16958815421915241 0.46486203978031798 0 0.15537885247485089 0.47050301779067938 0 0.1685279909132999 0.48202199510768562 0 0.14553969593460611 0.48534968774448001 0 0.15537885247485089 0.47050301779067938 0 0.187962066042448 0.46748313964338689 0 0.18876198478167661 0.4863488263478718 0 0.1685279909132999 0.48202199510768562 0 0.187962066042448 0.46748313964338689 0 0.1685279909132999 0.48202199510768562 0 0.16958815421915241 0.46486203978031798 0 0.187962066042448 0.46748313964338689 0 0.17229891339940381 0.44828099393695559 0 0.16958815421915241 0.46486203978031798 0 0.187962066042448 0.46748313964338689 0 0.17229891339940381 0.44828099393695559 0 0.19184167252806941 0.45205460906254907 0 0.187962066042448 0.46748313964338689 0 0.17229891339940381 0.44828099393695559 0 0.19184167252806941 0.45205460906254907 0 0.1825722018012306 0.43974436893479618 0 0.17229891339940381 0.44828099393695559 0 0.16980775483231311 0.43580948461726943 0 0.1825722018012306 0.43974436893479618 0 0.17229891339940381 0.44828099393695559 0 0.15663576075635949 0.42907884823052428 0 0.17229891339940381 0.44828099393695559 0 0.15663576075635949 0.42907884823052428 0 0.16980775483231311 0.43580948461726943 0 0.17229891339940381 0.44828099393695559 0 0.15663576075635949 0.42907884823052428 0 0.17229891339940381 0.44828099393695559 0 0.1574192125709406 0.44220836653073031 0 0.1574192125709406 0.44220836653073031 0 0.16176828227095999 0.45496965122179761 0 0.15057677102100539 0.45029424603515072 0 0.17229891339940381 0.44828099393695559 0 0.1574192125709406 0.44220836653073031 0 0.16176828227095999 0.45496965122179761 0 0.17229891339940381 0.44828099393695559 0 0.16958815421915241 0.46486203978031798 0 0.16176828227095999 0.45496965122179761 0 0.16958815421915241 0.46486203978031798 0 0.16176828227095999 0.45496965122179761 0 0.15537885247485089 0.47050301779067938 0 0.16176828227095999 0.45496965122179761 0 0.15057677102100539 0.45029424603515072 0 0.15537885247485089 0.47050301779067938 0 0.15057677102100539 0.45029424603515072 0 0.15537885247485089 0.47050301779067938 0 0.1451956909017281 0.46177972422515612 0 0.15057677102100539 0.45029424603515072 0 0.15537885247485089 0.47050301779067938 0 0.1451956909017281 0.46177972422515612 0 0.14185353071546769 0.45299154734665331 0 0.13665083275859011 0.45878346622317789 0 0.1451956909017281 0.46177972422515612 0 0.15057677102100539 0.45029424603515072 0 0.14185353071546769 0.45299154734665331 0 0.1451956909017281 0.46177972422515612 0 0.15537885247485089 0.47050301779067938 0 0.1418037136198764 0.47053511633433082 0 0.1451956909017281 0.46177972422515612 0 0.13665083275859011 0.45878346622317789 0 0.1418037136198764 0.47053511633433082 0 0.14577468956715989 0.43008547427962202 0 0.15057677102100539 0.45029424603515072 0 0.14577468956715989 0.43008547427962202 0 0.1574192125709406 0.44220836653073031 0 0.15057677102100539 0.45029424603515072 0 0.14577468956715989 0.43008547427962202 0 0.14244301126070141 0.43738377985683652 0 0.15057677102100539 0.45029424603515072 0 0.15057677102100539 0.45029424603515072 0 0.14185353071546769 0.45299154734665331 0 0.1415050284371758 0.44374261623529548 0 0.14244301126070141 0.43738377985683652 0 0.15057677102100539 0.45029424603515072 0 0.1415050284371758 0.44374261623529548 0 0.1177827116870388 0.45469512731202 0 0.1310819219644016 0.43204269096803077 0 0.1289094797012322 0.44711971241893372 0 0.1310819219644016 0.43204269096803077 0 0.1415050284371758 0.44374261623529548 0 0.13460064240520381 0.44382145305305998 0 0.14185353071546769 0.45299154734665331 0 0.1415050284371758 0.44374261623529548 0 0.1353393304588392 0.45035768401448589 0 0.13460064240520381 0.44382145305305998 0 0.1353393304588392 0.45035768401448589 0 0.1289094797012322 0.44711971241893372 0 0.1415050284371758 0.44374261623529548 0 0.13460064240520381 0.44382145305305998 0 0.1353393304588392 0.45035768401448589 0 0.1353393304588392 0.45035768401448589 0 0.1289094797012322 0.44711971241893372 0 0.1278632788434825 0.45577296128510503 0 0.1310819219644016 0.43204269096803077 0 0.13460064240520381 0.44382145305305998 0 0.1289094797012322 0.44711971241893372 0 0.13665083275859011 0.45878346622317789 0 0.1303484766562954 0.46586162432778377 0 0.1418037136198764 0.47053511633433082 0 0.14185353071546769 0.45299154734665331 0 0.1353393304588392 0.45035768401448589 0 0.13665083275859011 0.45878346622317789 0 0.1353393304588392 0.45035768401448589 0 0.13665083275859011 0.45878346622317789 0 0.1278632788434825 0.45577296128510503 0 0.1206524627521391 0.46091413096450928 0 0.1278632788434825 0.45577296128510503 0 0.1303484766562954 0.46586162432778377 0 0.13665083275859011 0.45878346622317789 0 0.1278632788434825 0.45577296128510503 0 0.1303484766562954 0.46586162432778377 0 0.1232568145545315 0.47318152767312721 0 0.1303484766562954 0.46586162432778377 0 0.13154176168187859 0.47849490113788568 0 0.1303484766562954 0.46586162432778377 0 0.13154176168187859 0.47849490113788568 0 0.1418037136198764 0.47053511633433082 0 0.13154176168187859 0.47849490113788568 0 0.14553969593460611 0.48534968774448001 0 0.1418037136198764 0.47053511633433082 0 0.12399992399529371 0.48303337357331672 0 0.1232568145545315 0.47318152767312721 0 0.13154176168187859 0.47849490113788568 0 0.12399992399529371 0.48303337357331672 0 0.13154176168187859 0.47849490113788568 0 0.12915559468890389 0.5 0 0.13154176168187859 0.47849490113788568 0 0.12915559468890389 0.5 0 0.14553969593460611 0.48534968774448001 0 0.12915559468890389 0.5 0 0.14553969593460611 0.48534968774448001 0 0.15487260201822481 0.5 0 0.14553969593460611 0.48534968774448001 0 0.15537885247485089 0.47050301779067938 0 0.1418037136198764 0.47053511633433082 0 0.37140767887233378 0.4678189721668945 0 0.34017712450639898 0.5 0 0.40698052407234181 0.5 0 0.37140767887233378 0.4678189721668945 0 0.33870138069491529 0.44783345474697678 0 0.34017712450639898 0.5 0 0.37140767887233378 0.4678189721668945 0 0.36309873048063318 0.44470524342430268 0 0.33870138069491529 0.44783345474697678 0 0.37140767887233378 0.4678189721668945 0 0.36309873048063318 0.44470524342430268 0 0.38273982735140999 0.44187078628995502 0 0.36309873048063318 0.44470524342430268 0 0.33870138069491529 0.44783345474697678 0 0.35954603500387389 0.42129776049338469 0 0.33870138069491529 0.44783345474697678 0 0.31189158865263977 0.47253855364956249 0 0.30101076996119791 0.44067716493098691 0 0.34017712450639898 0.5 0 0.31189158865263977 0.47253855364956249 0 0.29219929140461393 0.5 0 0.33870138069491529 0.44783345474697678 0 0.34017712450639898 0.5 0 0.31189158865263977 0.47253855364956249 0 0.31189158865263977 0.47253855364956249 0 0.29219929140461393 0.5 0 0.28380171857469633 0.46742895806275941 0 0.29219929140461393 0.5 0 0.26764605979084399 0.48145897660237119 0 0.28380171857469633 0.46742895806275941 0 0.29219929140461393 0.5 0 0.26764605979084399 0.48145897660237119 0 0.25774063133550817 0.49999999999999922 0 0.26764605979084399 0.48145897660237119 0 0.25888779467650253 0.46200971677157049 0 0.28380171857469633 0.46742895806275941 0 0.2456008629628989 0.47785620817752622 0 0.26764605979084399 0.48145897660237119 0 0.25888779467650253 0.46200971677157049 0 0.2456008629628989 0.47785620817752622 0 0.25774063133550817 0.49999999999999922 0 0.2456008629628989 0.47785620817752622 0 0.26764605979084399 0.48145897660237119 0 0.25774063133550817 0.49999999999999922 0 0.25248675094361039 0.44285507314058958 0 0.25888779467650253 0.46200971677157049 0 0.27359697404942912 0.4472877546465629 0 0.25888779467650253 0.46200971677157049 0 0.27359697404942912 0.4472877546465629 0 0.28380171857469633 0.46742895806275941 0 0.25248675094361039 0.44285507314058958 0 0.27359697404942912 0.4472877546465629 0 0.27607497431882527 0.42612960893905483 0 0.31189158865263977 0.47253855364956249 0 0.28380171857469633 0.46742895806275941 0 0.30101076996119791 0.44067716493098691 0 0.27359697404942912 0.4472877546465629 0 0.28380171857469633 0.46742895806275941 0 0.30101076996119791 0.44067716493098691 0 0.27359697404942912 0.4472877546465629 0 0.30101076996119791 0.44067716493098691 0 0.27607497431882527 0.42612960893905483 0 0.30101076996119791 0.44067716493098691 0 0.30290764054280722 0.40965476357556418 0 0.32982119997677611 0.41920325813381309 0 0.30290764054280722 0.40965476357556418 0 0.27607497431882527 0.42612960893905483 0 0.28051479305636751 0.406548723826547 0 0.30101076996119791 0.44067716493098691 0 0.30290764054280722 0.40965476357556418 0 0.27607497431882527 0.42612960893905483 0 0.27607497431882527 0.42612960893905483 0 0.28051479305636751 0.406548723826547 0 0.25662051655349949 0.40588912727565313 0 0.27607497431882527 0.42612960893905483 0 0.2545560161662293 0.4247162672585425 0 0.25662051655349949 0.40588912727565313 0 0.25248675094361039 0.44285507314058958 0 0.27607497431882527 0.42612960893905483 0 0.2545560161662293 0.4247162672585425 0 0.2366965334705492 0.38251935774357498 0 0.25990332666269178 0.37613588478237919 0 0.25662051655349949 0.40588912727565313 0 0.25990332666269178 0.37613588478237919 0 0.25662051655349949 0.40588912727565313 0 0.28019921025801658 0.38778699487243351 0 0.28051479305636751 0.406548723826547 0 0.25662051655349949 0.40588912727565313 0 0.28019921025801658 0.38778699487243351 0 0.25662051655349949 0.40588912727565313 0 0.28019921025801658 0.38778699487243351 0 0.25990332666269178 0.37613588478237919 0 0.28019921025801658 0.38778699487243351 0 0.28244354258177229 0.36352535786915602 0 0.28019921025801658 0.38778699487243351 0 0.29824703326904711 0.39054571441728991 0 0.30377790396253368 0.36968486246921378 0 0.28019921025801658 0.38778699487243351 0 0.30377790396253368 0.36968486246921378 0 0.28051479305636751 0.406548723826547 0 0.28019921025801658 0.38778699487243351 0 0.29824703326904711 0.39054571441728991 0 0.30290764054280722 0.40965476357556418 0 0.28051479305636751 0.406548723826547 0 0.29824703326904711 0.39054571441728991 0 0.30290764054280722 0.40965476357556418 0 0.29824703326904711 0.39054571441728991 0 0.31617478422655793 0.38709170304351959 0 0.29824703326904711 0.39054571441728991 0 0.31617478422655793 0.38709170304351959 0 0.30377790396253368 0.36968486246921378 0 0.31617478422655793 0.38709170304351959 0 0.33828311085495688 0.38365150975364681 0 0.32733238658797448 0.39997530256722508 0 0.31617478422655793 0.38709170304351959 0 0.33828311085495688 0.38365150975364681 0 0.33268215028962311 0.36198950899366972 0 0.33828311085495688 0.38365150975364681 0 0.32733238658797448 0.39997530256722508 0 0.34947519733877402 0.40027527832958171 0 0.30290764054280722 0.40965476357556418 0 0.31617478422655793 0.38709170304351959 0 0.32733238658797448 0.39997530256722508 0 0.33870138069491529 0.44783345474697678 0 0.30101076996119791 0.44067716493098691 0 0.32982119997677611 0.41920325813381309 0 0.30290764054280722 0.40965476357556418 0 0.32733238658797448 0.39997530256722508 0 0.32982119997677611 0.41920325813381309 0 0.33870138069491529 0.44783345474697678 0 0.32982119997677611 0.41920325813381309 0 0.35954603500387389 0.42129776049338469 0 0.32733238658797448 0.39997530256722508 0 0.32982119997677611 0.41920325813381309 0 0.34947519733877402 0.40027527832958171 0 0.32982119997677611 0.41920325813381309 0 0.35954603500387389 0.42129776049338469 0 0.34947519733877402 0.40027527832958171 0 0.36309873048063318 0.44470524342430268 0 0.35954603500387389 0.42129776049338469 0 0.38273982735140999 0.44187078628995502 0 0.35954603500387389 0.42129776049338469 0 0.37463909598514877 0.4003032861346042 0 0.38985399368029139 0.41738848607403761 0 0.35954603500387389 0.42129776049338469 0 0.37463909598514877 0.4003032861346042 0 0.34947519733877402 0.40027527832958171 0 0.37463909598514877 0.4003032861346042 0 0.36113088264334731 0.38040034102844728 0 0.34947519733877402 0.40027527832958171 0 0.36113088264334731 0.38040034102844728 0 0.37542620182073411 0.36441149642875542 0 0.37979488271611062 0.38194681550263959 0 0.37463909598514877 0.4003032861346042 0 0.36113088264334731 0.38040034102844728 0 0.37979488271611062 0.38194681550263959 0 0.33828311085495688 0.38365150975364681 0 0.36113088264334731 0.38040034102844728 0 0.34568327512434921 0.37018301487302879 0 0.33828311085495688 0.38365150975364681 0 0.36113088264334731 0.38040034102844728 0 0.34947519733877402 0.40027527832958171 0 0.35114724236986239 0.35495345382494609 0 0.34467554603413081 0.35600332315886613 0 0.34918951635268819 0.33688731494381968 0 0.3579077422498943 0.34589988222591461 0 0.35114724236986239 0.35495345382494609 0 0.34918951635268819 0.33688731494381968 0 0.3579077422498943 0.34589988222591461 0 0.35114724236986239 0.35495345382494609 0 0.36227377041986891 0.36017740945169519 0 0.35114724236986239 0.35495345382494609 0 0.34467554603413081 0.35600332315886613 0 0.34568327512434921 0.37018301487302879 0 0.35114724236986239 0.35495345382494609 0 0.34568327512434921 0.37018301487302879 0 0.36227377041986891 0.36017740945169519 0 0.36113088264334731 0.38040034102844728 0 0.34568327512434921 0.37018301487302879 0 0.36227377041986891 0.36017740945169519 0 0.36113088264334731 0.38040034102844728 0 0.36227377041986891 0.36017740945169519 0 0.37542620182073411 0.36441149642875542 0 0.36227377041986891 0.36017740945169519 0 0.37472086759645967 0.35443798927705811 0 0.37542620182073411 0.36441149642875542 0 0.36227377041986891 0.36017740945169519 0 0.37472086759645967 0.35443798927705811 0 0.36716237452420092 0.34807005901943899 0 0.3579077422498943 0.34589988222591461 0 0.36227377041986891 0.36017740945169519 0 0.36716237452420092 0.34807005901943899 0 0.3579077422498943 0.34589988222591461 0 0.36716237452420092 0.34807005901943899 0 0.36809563518312871 0.33924815598321029 0 0.36716237452420092 0.34807005901943899 0 0.36809563518312871 0.33924815598321029 0 0.37690348633093412 0.3403058453498084 0 0.36809563518312871 0.33924815598321029 0 0.37269425213457158 0.33345783606452611 0 0.37690348633093412 0.3403058453498084 0 0.37269425213457158 0.33345783606452611 0 0.36654990342609561 0.32723645120163408 0 0.37922798359812843 0.32704089172345152 0 0.36809563518312871 0.33924815598321029 0 0.37269425213457158 0.33345783606452611 0 0.36654990342609561 0.32723645120163408 0 0.36809563518312871 0.33924815598321029 0 0.36043569930295172 0.33731795108864471 0 0.36654990342609561 0.32723645120163408 0 0.3579077422498943 0.34589988222591461 0 0.36809563518312871 0.33924815598321029 0 0.36043569930295172 0.33731795108864471 0 0.36654990342609561 0.32723645120163408 0 0.35128050809384431 0.33370761442451202 0 0.36569688241575388 0.31178512089397031 0 0.37385616417817402 0.31823241320891321 0 0.36654990342609561 0.32723645120163408 0 0.36569688241575388 0.31178512089397031 0 0.37385616417817402 0.31823241320891321 0 0.36569688241575388 0.31178512089397031 0 0.3747307118871962 0.31007092728642682 0 0.37385616417817402 0.31823241320891321 0 0.36654990342609561 0.32723645120163408 0 0.37922798359812843 0.32704089172345152 0 0.36654990342609561 0.32723645120163408 0 0.36569688241575388 0.31178512089397031 0 0.35225630932364449 0.31724576517309849 0 0.35128050809384431 0.33370761442451202 0 0.36569688241575388 0.31178512089397031 0 0.35225630932364449 0.31724576517309849 0 0.34117342460695732 0.32246180659744739 0 0.34246709834719702 0.30518107207717871 0 0.35225630932364449 0.31724576517309849 0 0.34636463110412358 0.32579844890658177 0 0.35128050809384431 0.33370761442451202 0 0.35128050809384431 0.33370761442451202 0 0.36569688241575388 0.31178512089397031 0 0.35225630932364449 0.31724576517309849 0 0.34636463110412358 0.32579844890658177 0 0.34117342460695732 0.32246180659744739 0 0.36654990342609561 0.32723645120163408 0 0.35128050809384431 0.33370761442451202 0 0.34918951635268819 0.33688731494381968 0 0.36043569930295172 0.33731795108864471 0 0.36654990342609561 0.32723645120163408 0 0.34918951635268819 0.33688731494381968 0 0.3579077422498943 0.34589988222591461 0 0.36043569930295172 0.33731795108864471 0 0.34918951635268819 0.33688731494381968 0 0.35128050809384431 0.33370761442451202 0 0.34918951635268819 0.33688731494381968 0 0.34636463110412358 0.32579844890658177 0 0.35128050809384431 0.33370761442451202 0 0.34109349911432441 0.33000562619300711 0 0.35128050809384431 0.33370761442451202 0 0.33596622269653548 0.33762045363156501 0 0.32735659766705089 0.35158273006599411 0 0.35128050809384431 0.33370761442451202 0 0.34918951635268819 0.33688731494381968 0 0.32735659766705089 0.35158273006599411 0 0.35128050809384431 0.33370761442451202 0 0.32735659766705089 0.35158273006599411 0 0.35128050809384431 0.33370761442451202 0 0.33596622269653548 0.33762045363156501 0 0.34109349911432441 0.33000562619300711 0 0.33596622269653548 0.33762045363156501 0 0.32921282414963943 0.32959340899420658 0 0.32780486508305218 0.33975673570926651 0 0.33596622269653548 0.33762045363156501 0 0.34109349911432441 0.33000562619300711 0 0.32921282414963943 0.32959340899420658 0 0.33596622269653548 0.33762045363156501 0 0.32780486508305218 0.33975673570926651 0 0.32735659766705089 0.35158273006599411 0 0.34117342460695732 0.32246180659744739 0 0.33264306588191361 0.31662950225249731 0 0.34246709834719702 0.30518107207717871 0 0.34109349911432441 0.33000562619300711 0 0.32921282414963943 0.32959340899420658 0 0.34117342460695732 0.32246180659744739 0 0.34636463110412358 0.32579844890658177 0 0.34109349911432441 0.33000562619300711 0 0.34117342460695732 0.32246180659744739 0 0.32921282414963943 0.32959340899420658 0 0.34117342460695732 0.32246180659744739 0 0.33264306588191361 0.31662950225249731 0 0.32921282414963943 0.32959340899420658 0 0.3057918373715135 0.33124410070335608 0 0.31984653327915108 0.30961220749674317 0 0.32921282414963943 0.32959340899420658 0 0.33264306588191361 0.31662950225249731 0 0.31984653327915108 0.30961220749674317 0 0.32921282414963943 0.32959340899420658 0 0.31868381581898331 0.34023035014530018 0 0.3057918373715135 0.33124410070335608 0 0.32921282414963943 0.32959340899420658 0 0.32780486508305218 0.33975673570926651 0 0.31868381581898331 0.34023035014530018 0 0.31868381581898331 0.34023035014530018 0 0.32735659766705089 0.35158273006599411 0 0.30477245840268319 0.35005350039644589 0 0.32780486508305218 0.33975673570926651 0 0.31868381581898331 0.34023035014530018 0 0.32735659766705089 0.35158273006599411 0 0.34918951635268819 0.33688731494381968 0 0.33268215028962311 0.36198950899366972 0 0.34467554603413081 0.35600332315886613 0 0.34918951635268819 0.33688731494381968 0 0.33268215028962311 0.36198950899366972 0 0.34918951635268819 0.33688731494381968 0 0.32735659766705089 0.35158273006599411 0 0.33268215028962311 0.36198950899366972 0 0.33828311085495688 0.38365150975364681 0 0.34568327512434921 0.37018301487302879 0 0.33268215028962311 0.36198950899366972 0 0.34467554603413081 0.35600332315886613 0 0.34568327512434921 0.37018301487302879 0 0.33268215028962311 0.36198950899366972 0 0.31617478422655793 0.38709170304351959 0 0.33268215028962311 0.36198950899366972 0 0.32735659766705089 0.35158273006599411 0 0.30377790396253368 0.36968486246921378 0 0.32735659766705089 0.35158273006599411 0 0.33268215028962311 0.36198950899366972 0 0.30377790396253368 0.36968486246921378 0 0.31617478422655793 0.38709170304351959 0 0.33268215028962311 0.36198950899366972 0 0.30377790396253368 0.36968486246921378 0 0.30377790396253368 0.36968486246921378 0 0.30477245840268319 0.35005350039644589 0 0.28244354258177229 0.36352535786915602 0 0.32735659766705089 0.35158273006599411 0 0.30377790396253368 0.36968486246921378 0 0.30477245840268319 0.35005350039644589 0 0.30477245840268319 0.35005350039644589 0 0.28244354258177229 0.36352535786915602 0 0.28416713384537068 0.34216535460870529 0 0.28019921025801658 0.38778699487243351 0 0.30377790396253368 0.36968486246921378 0 0.28244354258177229 0.36352535786915602 0 0.25990332666269178 0.37613588478237919 0 0.28244354258177229 0.36352535786915602 0 0.26254243031922792 0.35308660851405449 0 0.26254243031922792 0.35308660851405449 0 0.26943446094499091 0.33628572972844761 0 0.28416713384537068 0.34216535460870529 0 0.28244354258177229 0.36352535786915602 0 0.26254243031922792 0.35308660851405449 0 0.28416713384537068 0.34216535460870529 0 0.26254243031922792 0.35308660851405449 0 0.28416713384537068 0.34216535460870529 0 0.23834910845387339 0.34472695301636741 0 0.26254243031922792 0.35308660851405449 0 0.25374534734518489 0.33498022951000839 0 0.2409177267930851 0.36400786241940369 0 0.26254243031922792 0.35308660851405449 0 0.2409177267930851 0.36400786241940369 0 0.25990332666269178 0.37613588478237919 0 0.26254243031922792 0.35308660851405449 0 0.24096053071102699 0.31548588195579419 0 0.25720481198535439 0.32113418170008962 0 0.25354031088216911 0.30701755471271791 0 0.25720481198535439 0.32113418170008962 0 0.27277621843843719 0.32231759939912852 0 0.26439558201671598 0.30956530779622649 0 0.25720481198535439 0.32113418170008962 0 0.25354031088216911 0.30701755471271791 0 0.26439558201671598 0.30956530779622649 0 0.26254243031922792 0.35308660851405449 0 0.25374534734518489 0.33498022951000839 0 0.26943446094499091 0.33628572972844761 0 0.23952662213892831 0.33009496860116722 0 0.25720481198535439 0.32113418170008962 0 0.25374534734518489 0.33498022951000839 0 0.25720481198535439 0.32113418170008962 0 0.25374534734518489 0.33498022951000839 0 0.26943446094499091 0.33628572972844761 0 0.26943446094499091 0.33628572972844761 0 0.27277621843843719 0.32231759939912852 0 0.28416713384537068 0.34216535460870529 0 0.27277621843843719 0.32231759939912852 0 0.28605411928036528 0.31833020051890742 0 0.28416713384537068 0.34216535460870529 0 0.25720481198535439 0.32113418170008962 0 0.26943446094499091 0.33628572972844761 0 0.27277621843843719 0.32231759939912852 0 0.27277621843843719 0.32231759939912852 0 0.27551918185798202 0.31071558940949778 0 0.26439558201671598 0.30956530779622649 0 0.27277621843843719 0.32231759939912852 0 0.28605411928036528 0.31833020051890742 0 0.27551918185798202 0.31071558940949778 0 0.28605411928036528 0.31833020051890742 0 0.29963270931922881 0.31642581994941421 0 0.29467487969737061 0.30983224745181193 0 0.28605411928036528 0.31833020051890742 0 0.28416713384537068 0.34216535460870529 0 0.3057918373715135 0.33124410070335608 0 0.28416713384537068 0.34216535460870529 0 0.3057918373715135 0.33124410070335608 0 0.31868381581898331 0.34023035014530018 0 0.30477245840268319 0.35005350039644589 0 0.3057918373715135 0.33124410070335608 0 0.30477245840268319 0.35005350039644589 0 0.28416713384537068 0.34216535460870529 0 0.3057918373715135 0.33124410070335608 0 0.28605411928036528 0.31833020051890742 0 0.3057918373715135 0.33124410070335608 0 0.29963270931922881 0.31642581994941421 0 0.3057918373715135 0.33124410070335608 0 0.29963270931922881 0.31642581994941421 0 0.31984653327915108 0.30961220749674317 0 0.30671939620164562 0.30597954553287599 0 0.3106920420600161 0.29233443947487192 0 0.29377873867569237 0.30173015221249178 0 0.29963270931922881 0.31642581994941421 0 0.30671939620164562 0.30597954553287599 0 0.31984653327915108 0.30961220749674317 0 0.30671939620164562 0.30597954553287599 0 0.3106920420600161 0.29233443947487192 0 0.31984653327915108 0.30961220749674317 0 0.30671939620164562 0.30597954553287599 0 0.29467487969737061 0.30983224745181193 0 0.29377873867569237 0.30173015221249178 0 0.29963270931922881 0.31642581994941421 0 0.30671939620164562 0.30597954553287599 0 0.29467487969737061 0.30983224745181193 0 0.3106920420600161 0.29233443947487192 0 0.29753984166867631 0.28879579973930358 0 0.30199768788179682 0.27439751523736111 0 0.3106920420600161 0.29233443947487192 0 0.30199768788179682 0.27439751523736111 0 0.32015314000251788 0.28049612034490712 0 0.3106920420600161 0.29233443947487192 0 0.29753984166867631 0.28879579973930358 0 0.29377873867569237 0.30173015221249178 0 0.29753984166867631 0.28879579973930358 0 0.28369089805719983 0.28672109203248969 0 0.30199768788179682 0.27439751523736111 0 0.29753984166867631 0.28879579973930358 0 0.28369089805719983 0.28672109203248969 0 0.29377873867569237 0.30173015221249178 0 0.28369089805719983 0.28672109203248969 0 0.29377873867569237 0.30173015221249178 0 0.28369089805719983 0.28672109203248969 0 0.29377873867569237 0.30173015221249178 0 0.2882498985010804 0.30481561186358491 0 0.28605411928036528 0.31833020051890742 0 0.29467487969737061 0.30983224745181193 0 0.2882498985010804 0.30481561186358491 0 0.29467487969737061 0.30983224745181193 0 0.29377873867569237 0.30173015221249178 0 0.2882498985010804 0.30481561186358491 0 0.28605411928036528 0.31833020051890742 0 0.2882498985010804 0.30481561186358491 0 0.27551918185798202 0.31071558940949778 0 0.2882498985010804 0.30481561186358491 0 0.26612009105331152 0.29854922746964191 0 0.2882498985010804 0.30481561186358491 0 0.27551918185798202 0.31071558940949778 0 0.26612009105331152 0.29854922746964191 0 0.27551918185798202 0.31071558940949778 0 0.26612009105331152 0.29854922746964191 0 0.26439558201671598 0.30956530779622649 0 0.28369089805719983 0.28672109203248969 0 0.2882498985010804 0.30481561186358491 0 0.26612009105331152 0.29854922746964191 0 0.28369089805719983 0.28672109203248969 0 0.26612009105331152 0.29854922746964191 0 0.26372668600921911 0.2803753925267472 0 0.28369089805719983 0.28672109203248969 0 0.26612009105331152 0.29854922746964191 0 0.24618659584610841 0.29290476158000678 0 0.26612009105331152 0.29854922746964191 0 0.25239385184284652 0.28364063616437057 0 0.24618659584610841 0.29290476158000678 0 0.26612009105331152 0.29854922746964191 0 0.26612009105331152 0.29854922746964191 0 0.25239385184284652 0.28364063616437057 0 0.26372668600921911 0.2803753925267472 0 0.24618659584610841 0.29290476158000678 0 0.26612009105331152 0.29854922746964191 0 0.25354031088216911 0.30701755471271791 0 0.26612009105331152 0.29854922746964191 0 0.25354031088216911 0.30701755471271791 0 0.26439558201671598 0.30956530779622649 0 0.26612009105331152 0.29854922746964191 0 0.25354031088216911 0.30701755471271791 0 0.24833316285785609 0.25613966282899547 0 0.26865748651628951 0.26435382959629539 0 0.25362407497537798 0.24198656716010189 0 0.26865748651628951 0.26435382959629539 0 0.26751790208001708 0.24888402836805171 0 0.25362407497537798 0.24198656716010189 0 0.26865748651628951 0.26435382959629539 0 0.25362407497537798 0.24198656716010189 0 0.2490231873831896 0.26987704113164152 0 0.24833316285785609 0.25613966282899547 0 0.26865748651628951 0.26435382959629539 0 0.2490231873831896 0.26987704113164152 0 0.26372668600921911 0.2803753925267472 0 0.26865748651628951 0.26435382959629539 0 0.2490231873831896 0.26987704113164152 0 0.25239385184284652 0.28364063616437057 0 0.26372668600921911 0.2803753925267472 0 0.28369089805719983 0.28672109203248969 0 0.26372668600921911 0.2803753925267472 0 0.26865748651628951 0.26435382959629539 0 0.28369089805719983 0.28672109203248969 0 0.26865748651628951 0.26435382959629539 0 0.28369089805719983 0.28672109203248969 0 0.26865748651628951 0.26435382959629539 0 0.28659601773002719 0.26765962618185329 0 0.26865748651628951 0.26435382959629539 0 0.28245996340297719 0.25304914615146101 0 0.28659601773002719 0.26765962618185329 0 0.26865748651628951 0.26435382959629539 0 0.28245996340297719 0.25304914615146101 0 0.26751790208001708 0.24888402836805171 0 0.28245996340297719 0.25304914615146101 0 0.28659601773002719 0.26765962618185329 0 0.29866360681950233 0.26056392980329079 0 0.28245996340297719 0.25304914615146101 0 0.29866360681950233 0.26056392980329079 0 0.30195988737631652 0.24563942300354619 0 0.28369089805719983 0.28672109203248969 0 0.30199768788179682 0.27439751523736111 0 0.28369089805719983 0.28672109203248969 0 0.28659601773002719 0.26765962618185329 0 0.30199768788179682 0.27439751523736111 0 0.28659601773002719 0.26765962618185329 0 0.30199768788179682 0.27439751523736111 0 0.29866360681950233 0.26056392980329079 0 0.30199768788179682 0.27439751523736111 0 0.32030447770639381 0.26207393844223242 0 0.30199768788179682 0.27439751523736111 0 0.29866360681950233 0.26056392980329079 0 0.32030447770639381 0.26207393844223242 0 0.29866360681950233 0.26056392980329079 0 0.32030447770639381 0.26207393844223242 0 0.30195988737631652 0.24563942300354619 0 0.32030447770639381 0.26207393844223242 0 0.33861126753099069 0.24975036164710371 0 0.31719882278570838 0.23891526540108851 0 0.32030447770639381 0.26207393844223242 0 0.35011037640450471 0.26366625953798178 0 0.33861126753099069 0.24975036164710371 0 0.32030447770639381 0.26207393844223242 0 0.33861126753099069 0.24975036164710371 0 0.32030447770639381 0.26207393844223242 0 0.33854163499105328 0.27994847795588301 0 0.35011037640450471 0.26366625953798178 0 0.30199768788179682 0.27439751523736111 0 0.32030447770639381 0.26207393844223242 0 0.32015314000251788 0.28049612034490712 0 0.32030447770639381 0.26207393844223242 0 0.33854163499105328 0.27994847795588301 0 0.32015314000251788 0.28049612034490712 0 0.3106920420600161 0.29233443947487192 0 0.32015314000251788 0.28049612034490712 0 0.3292298573733291 0.29372623061418701 0 0.3106920420600161 0.29233443947487192 0 0.31984653327915108 0.30961220749674317 0 0.3292298573733291 0.29372623061418701 0 0.33264306588191361 0.31662950225249731 0 0.31984653327915108 0.30961220749674317 0 0.34246709834719702 0.30518107207717871 0 0.31984653327915108 0.30961220749674317 0 0.34246709834719702 0.30518107207717871 0 0.3292298573733291 0.29372623061418701 0 0.31984653327915108 0.30961220749674317 0 0.34246709834719702 0.30518107207717871 0 0.34246709834719702 0.30518107207717871 0 0.3292298573733291 0.29372623061418701 0 0.3514077083073372 0.29086852976110572 0 0.33854163499105328 0.27994847795588301 0 0.3292298573733291 0.29372623061418701 0 0.3514077083073372 0.29086852976110572 0 0.33854163499105328 0.27994847795588301 0 0.32015314000251788 0.28049612034490712 0 0.3292298573733291 0.29372623061418701 0 0.33854163499105328 0.27994847795588301 0 0.3514077083073372 0.29086852976110572 0 0.36369661966943051 0.27555304686427518 0 0.34246709834719702 0.30518107207717871 0 0.36508766341524351 0.30074993665761629 0 0.34246709834719702 0.30518107207717871 0 0.3514077083073372 0.29086852976110572 0 0.36508766341524351 0.30074993665761629 0 0.35225630932364449 0.31724576517309849 0 0.34246709834719702 0.30518107207717871 0 0.36508766341524351 0.30074993665761629 0 0.36508766341524351 0.30074993665761629 0 0.38237199884401968 0.29736411359388037 0 0.36508766341524351 0.30074993665761629 0 0.37321167364270152 0.3003576316808339 0 0.38237199884401968 0.29736411359388037 0 0.35225630932364449 0.31724576517309849 0 0.36569688241575388 0.31178512089397031 0 0.36508766341524351 0.30074993665761629 0 0.36569688241575388 0.31178512089397031 0 0.36508766341524351 0.30074993665761629 0 0.36569688241575388 0.31178512089397031 0 0.36508766341524351 0.30074993665761629 0 0.37321167364270152 0.3003576316808339 0 0.36569688241575388 0.31178512089397031 0 0.37321167364270152 0.3003576316808339 0 0.36569688241575388 0.31178512089397031 0 0.37321167364270152 0.3003576316808339 0 0.3747307118871962 0.31007092728642682 0 0.36508766341524351 0.30074993665761629 0 0.37558339054310558 0.28715513877437437 0 0.38237199884401968 0.29736411359388037 0 0.3514077083073372 0.29086852976110572 0 0.36508766341524351 0.30074993665761629 0 0.36369661966943051 0.27555304686427518 0 0.36508766341524351 0.30074993665761629 0 0.36369661966943051 0.27555304686427518 0 0.37558339054310558 0.28715513877437437 0 0.36508766341524351 0.30074993665761629 0 0.36369661966943051 0.27555304686427518 0 0.36369661966943051 0.27555304686427518 0 0.37103327202197922 0.26251117002766122 0 0.38052372977493981 0.27570756151612791 0 0.36369661966943051 0.27555304686427518 0 0.38052372977493981 0.27570756151612791 0 0.37558339054310558 0.28715513877437437 0 0.37103327202197922 0.26251117002766122 0 0.36230557592361717 0.250356157070934 0 0.3709836007202828 0.23729508748735409 0 0.36369661966943051 0.27555304686427518 0 0.36230557592361717 0.250356157070934 0 0.36369661966943051 0.27555304686427518 0 0.37103327202197922 0.26251117002766122 0 0.36230557592361717 0.250356157070934 0 0.35011037640450471 0.26366625953798178 0 0.33861126753099069 0.24975036164710371 0 0.35062680961752463 0.24346715051183601 0 0.36369661966943051 0.27555304686427518 0 0.36230557592361717 0.250356157070934 0 0.35011037640450471 0.26366625953798178 0 0.36230557592361717 0.250356157070934 0 0.35011037640450471 0.26366625953798178 0 0.35062680961752463 0.24346715051183601 0 0.33854163499105328 0.27994847795588301 0 0.36369661966943051 0.27555304686427518 0 0.35011037640450471 0.26366625953798178 0 0.40441355270960472 0.26761773357626151 0 0.38619176983072928 0.26047575165399511 0 0.40139993894117582 0.28365641582063622 0 0.40441355270960472 0.26761773357626151 0 0.40139993894117582 0.28365641582063622 0 0.41280579251651262 0.27878674758567712 0 0.38619176983072928 0.26047575165399511 0 0.40139993894117582 0.28365641582063622 0 0.40441355270960472 0.26761773357626151 0 0.38619176983072928 0.26047575165399511 0 0.40681097746815043 0.24944788258450881 0 0.38619176983072928 0.26047575165399511 0 0.38805339756136181 0.24091082639879571 0 0.40681097746815043 0.24944788258450881 0 0.37103327202197922 0.26251117002766122 0 0.38619176983072928 0.26047575165399511 0 0.3709836007202828 0.23729508748735409 0 0.37103327202197922 0.26251117002766122 0 0.38619176983072928 0.26047575165399511 0 0.38052372977493981 0.27570756151612791 0 0.38619176983072928 0.26047575165399511 0 0.38052372977493981 0.27570756151612791 0 0.40139993894117582 0.28365641582063622 0 0.38052372977493981 0.27570756151612791 0 0.3869509077038058 0.28747759901436271 0 0.40139993894117582 0.28365641582063622 0 0.3869509077038058 0.28747759901436271 0 0.38237199884401968 0.29736411359388037 0 0.39965633427279618 0.2939782905301464 0 0.38052372977493981 0.27570756151612791 0 0.37558339054310558 0.28715513877437437 0 0.3869509077038058 0.28747759901436271 0 0.37558339054310558 0.28715513877437437 0 0.3869509077038058 0.28747759901436271 0 0.38237199884401968 0.29736411359388037 0 0.3747307118871962 0.31007092728642682 0 0.38118859000119681 0.305856901547644 0 0.38307533956369538 0.31502867493908338 0 0.37321167364270152 0.3003576316808339 0 0.3747307118871962 0.31007092728642682 0 0.38118859000119681 0.305856901547644 0 0.37321167364270152 0.3003576316808339 0 0.38118859000119681 0.305856901547644 0 0.38237199884401968 0.29736411359388037 0 0.38118859000119681 0.305856901547644 0 0.38237199884401968 0.29736411359388037 0 0.39255322606837117 0.30646316023799558 0 0.38118859000119681 0.305856901547644 0 0.39255322606837117 0.30646316023799558 0 0.38307533956369538 0.31502867493908338 0 0.38237199884401968 0.29736411359388037 0 0.39255322606837117 0.30646316023799558 0 0.39965633427279618 0.2939782905301464 0 0.39255322606837117 0.30646316023799558 0 0.40439469230525998 0.30574836003509509 0 0.39965633427279618 0.2939782905301464 0 0.39965633427279618 0.2939782905301464 0 0.40139993894117582 0.28365641582063622 0 0.41660810805162241 0.30683707998727727 0 0.38237199884401968 0.29736411359388037 0 0.39965633427279618 0.2939782905301464 0 0.3869509077038058 0.28747759901436271 0 0.39965633427279618 0.2939782905301464 0 0.40139993894117582 0.28365641582063622 0 0.40139993894117582 0.28365641582063622 0 0.41464087202507938 0.29028068493103498 0 0.41280579251651262 0.27878674758567712 0 0.40139993894117582 0.28365641582063622 0 0.41464087202507938 0.29028068493103498 0 0.41660810805162241 0.30683707998727727 0 0.40139993894117582 0.28365641582063622 0 0.41660810805162241 0.30683707998727727 0 0.41464087202507938 0.29028068493103498 0 0.42043798511647629 0.29525520944793682 0 0.42195253549960959 0.28686797181364782 0 0.41464087202507938 0.29028068493103498 0 0.42195253549960959 0.28686797181364782 0 0.41280579251651262 0.27878674758567712 0 0.40439469230525998 0.30574836003509509 0 0.39965633427279618 0.2939782905301464 0 0.41660810805162241 0.30683707998727727 0 0.41464087202507938 0.29028068493103498 0 0.42043798511647629 0.29525520944793682 0 0.41660810805162241 0.30683707998727727 0 0.41660810805162241 0.30683707998727727 0 0.43116992368473539 0.29763207065728697 0 0.42973467267887527 0.31487202105601769 0 0.42043798511647629 0.29525520944793682 0 0.41660810805162241 0.30683707998727727 0 0.43116992368473539 0.29763207065728697 0 0.43116992368473539 0.29763207065728697 0 0.42195253549960959 0.28686797181364782 0 0.43325721770093989 0.28163781796365162 0 0.43116992368473539 0.29763207065728697 0 0.43325721770093989 0.28163781796365162 0 0.44385931827711211 0.2888039680942458 0 0.42043798511647629 0.29525520944793682 0 0.43116992368473539 0.29763207065728697 0 0.42195253549960959 0.28686797181364782 0 0.43521126246971009 0.27008715467975902 0 0.42413874710495247 0.27327829716177238 0 0.42682444425688543 0.2568086017734223 0 0.43325721770093989 0.28163781796365162 0 0.43521126246971009 0.27008715467975902 0 0.42413874710495247 0.27327829716177238 0 0.42195253549960959 0.28686797181364782 0 0.43325721770093989 0.28163781796365162 0 0.42413874710495247 0.27327829716177238 0 0.42195253549960959 0.28686797181364782 0 0.42413874710495247 0.27327829716177238 0 0.41280579251651262 0.27878674758567712 0 0.42413874710495247 0.27327829716177238 0 0.41485928479145512 0.26572187023649008 0 0.41280579251651262 0.27878674758567712 0 0.40441355270960472 0.26761773357626151 0 0.41485928479145512 0.26572187023649008 0 0.41280579251651262 0.27878674758567712 0 0.41485928479145512 0.26572187023649008 0 0.42682444425688543 0.2568086017734223 0 0.40681097746815043 0.24944788258450881 0 0.40441355270960472 0.26761773357626151 0 0.41485928479145512 0.26572187023649008 0 0.40681097746815043 0.24944788258450881 0 0.42682444425688543 0.2568086017734223 0 0.44144799578287552 0.25063407380050812 0 0.42551448812707099 0.2427765896032141 0 0.42413874710495247 0.27327829716177238 0 0.41485928479145512 0.26572187023649008 0 0.42682444425688543 0.2568086017734223 0 0.43521126246971009 0.27008715467975902 0 0.42682444425688543 0.2568086017734223 0 0.43660547741770611 0.26004515013266138 0 0.42682444425688543 0.2568086017734223 0 0.43660547741770611 0.26004515013266138 0 0.44144799578287552 0.25063407380050812 0 0.43521126246971009 0.27008715467975902 0 0.43660547741770611 0.26004515013266138 0 0.44531054430199107 0.26489027758499728 0 0.43660547741770611 0.26004515013266138 0 0.44144799578287552 0.25063407380050812 0 0.44531054430199107 0.26489027758499728 0 0.44531054430199107 0.26489027758499728 0 0.45381995667613301 0.27241310458770751 0 0.45318009078529609 0.25750025464848258 0 0.44144799578287552 0.25063407380050812 0 0.44531054430199107 0.26489027758499728 0 0.45318009078529609 0.25750025464848258 0 0.44144799578287552 0.25063407380050812 0 0.45318009078529609 0.25750025464848258 0 0.45233578662085638 0.24345101764042529 0 0.43325721770093989 0.28163781796365162 0 0.43521126246971009 0.27008715467975902 0 0.44454231896971419 0.27725584667109537 0 0.43521126246971009 0.27008715467975902 0 0.44531054430199107 0.26489027758499728 0 0.44454231896971419 0.27725584667109537 0 0.44531054430199107 0.26489027758499728 0 0.44454231896971419 0.27725584667109537 0 0.45381995667613301 0.27241310458770751 0 0.44454231896971419 0.27725584667109537 0 0.45381995667613301 0.27241310458770751 0 0.45587366899779719 0.28594313819822459 0 0.46226671923173979 0.27441678407397702 0 0.47140070530682121 0.26588540816193718 0 0.46925309592816628 0.28306729418006071 0 0.45381995667613301 0.27241310458770751 0 0.46226671923173979 0.27441678407397702 0 0.45587366899779719 0.28594313819822459 0 0.45381995667613301 0.27241310458770751 0 0.46226671923173979 0.27441678407397702 0 0.46104061765968662 0.26336652099148539 0 0.46226671923173979 0.27441678407397702 0 0.46104061765968662 0.26336652099148539 0 0.47140070530682121 0.26588540816193718 0 0.46226671923173979 0.27441678407397702 0 0.46925309592816628 0.28306729418006071 0 0.45587366899779719 0.28594313819822459 0 0.45318009078529609 0.25750025464848258 0 0.46104061765968662 0.26336652099148539 0 0.46453561629844292 0.24661705348532301 0 0.46104061765968662 0.26336652099148539 0 0.47140070530682121 0.26588540816193718 0 0.46453561629844292 0.24661705348532301 0 0.47140070530682121 0.26588540816193718 0 0.46453561629844292 0.24661705348532301 0 0.45381995667613301 0.27241310458770751 0 0.45318009078529609 0.25750025464848258 0 0.46104061765968662 0.26336652099148539 0 0.47140070530682121 0.26588540816193718 0 0.46453561629844292 0.24661705348532301 0 0.47400380033395922 0.24505942253569801 0 0.47140070530682121 0.26588540816193718 0 0.48432671999912003 0.27074297083439619 0 0.48722746125550248 0.25680108687804298 0 0.47140070530682121 0.26588540816193718 0 0.47400380033395922 0.24505942253569801 0 0.47140070530682121 0.26588540816193718 0 0.48722746125550248 0.25680108687804298 0 0.47400380033395922 0.24505942253569801 0 0.47140070530682121 0.26588540816193718 0 0.47738422579558121 0.28267945043167297 0 0.46925309592816628 0.28306729418006071 0 0.47140070530682121 0.26588540816193718 0 0.47738422579558121 0.28267945043167297 0 0.47140070530682121 0.26588540816193718 0 0.46925309592816628 0.28306729418006071 0 0.47140070530682121 0.26588540816193718 0 0.48432671999912003 0.27074297083439619 0 0.47738422579558121 0.28267945043167297 0 0.48432671999912003 0.27074297083439619 0 0.48824932686768302 0.27788652692554627 0 0.47738422579558121 0.28267945043167297 0 0.5 0.27093445387433468 0 0.48824932686768302 0.27788652692554627 0 0.49128636167603063 0.28718923256178158 0 0.48432671999912003 0.27074297083439619 0 0.5 0.27093445387433468 0 0.48824932686768302 0.27788652692554627 0 0.48432671999912003 0.27074297083439619 0 0.5 0.27093445387433468 0 0.48722746125550248 0.25680108687804298 0 0.5 0.27093445387433468 0 0.48722746125550248 0.25680108687804298 0 0.5 0.2429459620465986 0 0.5 0.29892294570207067 0 0.48336774628434093 0.29947349270140883 0 0.48572280556457909 0.31674877684638503 0 0.5 0.27093445387433468 0 0.5 0.29892294570207067 0 0.49128636167603063 0.28718923256178158 0 0.5 0.29892294570207067 0 0.49128636167603063 0.28718923256178158 0 0.48336774628434093 0.29947349270140883 0 0.48824932686768302 0.27788652692554627 0 0.49128636167603063 0.28718923256178158 0 0.47738422579558121 0.28267945043167297 0 0.47738422579558121 0.28267945043167297 0 0.48336774628434093 0.29947349270140883 0 0.49128636167603063 0.28718923256178158 0 0.47738422579558121 0.28267945043167297 0 0.48336774628434093 0.29947349270140883 0 0.47738422579558121 0.28267945043167297 0 0.47366304688259409 0.29009341251698623 0 0.48336774628434093 0.29947349270140883 0 0.47738422579558121 0.28267945043167297 0 0.46925309592816628 0.28306729418006071 0 0.47366304688259409 0.29009341251698623 0 0.47366304688259409 0.29009341251698623 0 0.46924741423809552 0.29666607615803448 0 0.48336774628434093 0.29947349270140883 0 0.46925309592816628 0.28306729418006071 0 0.47366304688259409 0.29009341251698623 0 0.46924741423809552 0.29666607615803448 0 0.48336774628434093 0.29947349270140883 0 0.46942884594068313 0.31081165325195081 0 0.48572280556457909 0.31674877684638503 0 0.46924741423809552 0.29666607615803448 0 0.48336774628434093 0.29947349270140883 0 0.46942884594068313 0.31081165325195081 0 0.46942884594068313 0.31081165325195081 0 0.4561502658528459 0.30215510890912239 0 0.4507753780588396 0.32421278417098742 0 0.46924741423809552 0.29666607615803448 0 0.46942884594068313 0.31081165325195081 0 0.4561502658528459 0.30215510890912239 0 0.46924741423809552 0.29666607615803448 0 0.4561502658528459 0.30215510890912239 0 0.45587366899779719 0.28594313819822459 0 0.46925309592816628 0.28306729418006071 0 0.46924741423809552 0.29666607615803448 0 0.45587366899779719 0.28594313819822459 0 0.43116992368473539 0.29763207065728697 0 0.4561502658528459 0.30215510890912239 0 0.44385931827711211 0.2888039680942458 0 0.4561502658528459 0.30215510890912239 0 0.45587366899779719 0.28594313819822459 0 0.44385931827711211 0.2888039680942458 0 0.44454231896971419 0.27725584667109537 0 0.45587366899779719 0.28594313819822459 0 0.44385931827711211 0.2888039680942458 0 0.43325721770093989 0.28163781796365162 0 0.44454231896971419 0.27725584667109537 0 0.44385931827711211 0.2888039680942458 0 0.4561502658528459 0.30215510890912239 0 0.42973467267887527 0.31487202105601769 0 0.43116992368473539 0.29763207065728697 0 0.4561502658528459 0.30215510890912239 0 0.42973467267887527 0.31487202105601769 0 0.4561502658528459 0.30215510890912239 0 0.4507753780588396 0.32421278417098742 0 0.42973467267887527 0.31487202105601769 0 0.4507753780588396 0.32421278417098742 0 0.46113793839215989 0.33891326342542871 0 0.44266120926801639 0.35195184514841588 0 0.4507753780588396 0.32421278417098742 0 0.44266120926801639 0.35195184514841588 0 0.42911489360418081 0.33588118081906881 0 0.4507753780588396 0.32421278417098742 0 0.46113793839215989 0.33891326342542871 0 0.47130946564539788 0.3256136807257668 0 0.46942884594068313 0.31081165325195081 0 0.4507753780588396 0.32421278417098742 0 0.47130946564539788 0.3256136807257668 0 0.47130946564539788 0.3256136807257668 0 0.48515430038063212 0.33961612908598438 0 0.48572280556457909 0.31674877684638503 0 0.46942884594068313 0.31081165325195081 0 0.47130946564539788 0.3256136807257668 0 0.48572280556457909 0.31674877684638503 0 0.46113793839215989 0.33891326342542871 0 0.47130946564539788 0.3256136807257668 0 0.48515430038063212 0.33961612908598438 0 0.48515430038063212 0.33961612908598438 0 0.5 0.32691143752980678 0 0.50000000000000011 0.35489992935754278 0 0.5 0.29892294570207067 0 0.48572280556457909 0.31674877684638503 0 0.5 0.32691143752980678 0 0.48515430038063212 0.33961612908598438 0 0.48572280556457909 0.31674877684638503 0 0.5 0.32691143752980678 0 0.48515430038063212 0.33961612908598438 0 0.50000000000000011 0.35489992935754278 0 0.47133060463400828 0.3534258872529793 0 0.50000000000000011 0.35489992935754278 0 0.47133060463400828 0.3534258872529793 0 0.46113793839215989 0.33891326342542871 0 0.48515430038063212 0.33961612908598438 0 0.47133060463400828 0.3534258872529793 0 0.50000000000000011 0.35489992935754278 0 0.47133060463400828 0.3534258872529793 0 0.46962228214009721 0.3821705107567076 0 0.47133060463400828 0.3534258872529793 0 0.45077515504990678 0.37217729755309331 0 0.46962228214009721 0.3821705107567076 0 0.46113793839215989 0.33891326342542871 0 0.47133060463400828 0.3534258872529793 0 0.44266120926801639 0.35195184514841588 0 0.47133060463400828 0.3534258872529793 0 0.44266120926801639 0.35195184514841588 0 0.45077515504990678 0.37217729755309331 0 0.47133060463400828 0.3534258872529793 0 0.44266120926801639 0.35195184514841588 0 0.44266120926801639 0.35195184514841588 0 0.45077515504990678 0.37217729755309331 0 0.42558359003088531 0.37622174522676632 0 0.44266120926801639 0.35195184514841588 0 0.41399181390202461 0.35047780304385251 0 0.42558359003088531 0.37622174522676632 0 0.40810779316890422 0.36958752992744393 0 0.41399181390202461 0.35047780304385251 0 0.42558359003088531 0.37622174522676632 0 0.40810779316890422 0.36958752992744393 0 0.41399181390202461 0.35047780304385251 0 0.40025485599907118 0.35986697102707321 0 0.44266120926801639 0.35195184514841588 0 0.41399181390202461 0.35047780304385251 0 0.44266120926801639 0.35195184514841588 0 0.41399181390202461 0.35047780304385251 0 0.42911489360418081 0.33588118081906881 0 0.4507753780588396 0.32421278417098742 0 0.42911489360418081 0.33588118081906881 0 0.42973467267887527 0.31487202105601769 0 0.41660810805162241 0.30683707998727727 0 0.42973467267887527 0.31487202105601769 0 0.4033190795049047 0.32758893320291299 0 0.40439469230525998 0.30574836003509509 0 0.41660810805162241 0.30683707998727727 0 0.4033190795049047 0.32758893320291299 0 0.42911489360418081 0.33588118081906881 0 0.42973467267887527 0.31487202105601769 0 0.4033190795049047 0.32758893320291299 0 0.42973467267887527 0.31487202105601769 0 0.4033190795049047 0.32758893320291299 0 0.41399181390202461 0.35047780304385251 0 0.42911489360418081 0.33588118081906881 0 0.4033190795049047 0.32758893320291299 0 0.41399181390202461 0.35047780304385251 0 0.3966448986950365 0.3430116422991098 0 0.4033190795049047 0.32758893320291299 0 0.3966448986950365 0.3430116422991098 0 0.4033190795049047 0.32758893320291299 0 0.38394628283718418 0.34497607201038472 0 0.39255322606837117 0.30646316023799558 0 0.4033190795049047 0.32758893320291299 0 0.38307533956369538 0.31502867493908338 0 0.39255322606837117 0.30646316023799558 0 0.40439469230525998 0.30574836003509509 0 0.4033190795049047 0.32758893320291299 0 0.4033190795049047 0.32758893320291299 0 0.38307533956369538 0.31502867493908338 0 0.37922798359812843 0.32704089172345152 0 0.37385616417817402 0.31823241320891321 0 0.3747307118871962 0.31007092728642682 0 0.38307533956369538 0.31502867493908338 0 0.37385616417817402 0.31823241320891321 0 0.38307533956369538 0.31502867493908338 0 0.37922798359812843 0.32704089172345152 0 0.4033190795049047 0.32758893320291299 0 0.37922798359812843 0.32704089172345152 0 0.37690348633093412 0.3403058453498084 0 0.4033190795049047 0.32758893320291299 0 0.37690348633093412 0.3403058453498084 0 0.38394628283718418 0.34497607201038472 0 0.4033190795049047 0.32758893320291299 0 0.37690348633093412 0.3403058453498084 0 0.37269425213457158 0.33345783606452611 0 0.37922798359812843 0.32704089172345152 0 0.37690348633093412 0.3403058453498084 0 0.36716237452420092 0.34807005901943899 0 0.38532241853603277 0.34900376093928898 0 0.36716237452420092 0.34807005901943899 0 0.38394628283718418 0.34497607201038472 0 0.38532241853603277 0.34900376093928898 0 0.37472086759645967 0.35443798927705811 0 0.36716237452420092 0.34807005901943899 0 0.38532241853603277 0.34900376093928898 0 0.36716237452420092 0.34807005901943899 0 0.37690348633093412 0.3403058453498084 0 0.38394628283718418 0.34497607201038472 0 0.3966448986950365 0.3430116422991098 0 0.38394628283718418 0.34497607201038472 0 0.38532241853603277 0.34900376093928898 0 0.38394628283718418 0.34497607201038472 0 0.38532241853603277 0.34900376093928898 0 0.37472086759645967 0.35443798927705811 0 0.38532241853603277 0.34900376093928898 0 0.37542620182073411 0.36441149642875542 0 0.38532241853603277 0.34900376093928898 0 0.39268150166194582 0.37054240546244621 0 0.37542620182073411 0.36441149642875542 0 0.39268150166194582 0.37054240546244621 0 0.37979488271611062 0.38194681550263959 0 0.38532241853603277 0.34900376093928898 0 0.37542620182073411 0.36441149642875542 0 0.39268150166194582 0.37054240546244621 0 0.38532241853603277 0.34900376093928898 0 0.39268150166194582 0.37054240546244621 0 0.40025485599907118 0.35986697102707321 0 0.40810779316890422 0.36958752992744393 0 0.39268150166194582 0.37054240546244621 0 0.40025485599907118 0.35986697102707321 0 0.41399181390202461 0.35047780304385251 0 0.3966448986950365 0.3430116422991098 0 0.38532241853603277 0.34900376093928898 0 0.41399181390202461 0.35047780304385251 0 0.38532241853603277 0.34900376093928898 0 0.40025485599907118 0.35986697102707321 0 0.41399181390202461 0.35047780304385251 0 0.38532241853603277 0.34900376093928898 0 0.40004058478785892 0.39208104998560339 0 0.40739966791377191 0.41361969450876063 0 0.40810779316890422 0.36958752992744393 0 0.39268150166194582 0.37054240546244621 0 0.40004058478785892 0.39208104998560339 0 0.39268150166194582 0.37054240546244621 0 0.40004058478785892 0.39208104998560339 0 0.37979488271611062 0.38194681550263959 0 0.39268150166194582 0.37054240546244621 0 0.40004058478785892 0.39208104998560339 0 0.37463909598514877 0.4003032861346042 0 0.40004058478785892 0.39208104998560339 0 0.37979488271611062 0.38194681550263959 0 0.37463909598514877 0.4003032861346042 0 0.40004058478785892 0.39208104998560339 0 0.38985399368029139 0.41738848607403761 0 0.38985399368029139 0.41738848607403761 0 0.4147587510396849 0.43515833903191781 0 0.38273982735140999 0.44187078628995502 0 0.35954603500387389 0.42129776049338469 0 0.38985399368029139 0.41738848607403761 0 0.38273982735140999 0.44187078628995502 0 0.38985399368029139 0.41738848607403761 0 0.40739966791377191 0.41361969450876063 0 0.4147587510396849 0.43515833903191781 0 0.40004058478785892 0.39208104998560339 0 0.38985399368029139 0.41738848607403761 0 0.40739966791377191 0.41361969450876063 0 0.40739966791377191 0.41361969450876063 0 0.43098981447030699 0.41756063158309642 0 0.42240068125390279 0.39931451018979658 0 0.40739966791377191 0.41361969450876063 0 0.4147587510396849 0.43515833903191781 0 0.43098981447030699 0.41756063158309642 0 0.40739966791377191 0.41361969450876063 0 0.4147587510396849 0.43515833903191781 0 0.4147587510396849 0.43515833903191781 0 0.43517982953899748 0.43698210956832301 0 0.43098981447030699 0.41756063158309642 0 0.42240068125390279 0.39931451018979658 0 0.42558359003088531 0.37622174522676632 0 0.44467808917652729 0.3971164993805974 0 0.43098981447030699 0.41756063158309642 0 0.42240068125390279 0.39931451018979658 0 0.44467808917652729 0.3971164993805974 0 0.40004058478785892 0.39208104998560339 0 0.40739966791377191 0.41361969450876063 0 0.42240068125390279 0.39931451018979658 0 0.40810779316890422 0.36958752992744393 0 0.40004058478785892 0.39208104998560339 0 0.42558359003088531 0.37622174522676632 0 0.40004058478785892 0.39208104998560339 0 0.42240068125390279 0.39931451018979658 0 0.42558359003088531 0.37622174522676632 0 0.50000000000000011 0.35489992935754278 0 0.49091572235028907 0.39454473684102742 0 0.5 0.43534704771476829 0 0.45077515504990678 0.37217729755309331 0 0.42558359003088531 0.37622174522676632 0 0.44467808917652729 0.3971164993805974 0 0.44467808917652729 0.3971164993805974 0 0.46962228214009721 0.3821705107567076 0 0.4643576351474219 0.40898138550871538 0 0.45077515504990678 0.37217729755309331 0 0.44467808917652729 0.3971164993805974 0 0.46962228214009721 0.3821705107567076 0 0.50000000000000011 0.35489992935754278 0 0.46962228214009721 0.3821705107567076 0 0.49091572235028907 0.39454473684102742 0 0.46962228214009721 0.3821705107567076 0 0.47989063395239873 0.4063752928604436 0 0.4643576351474219 0.40898138550871538 0 0.46962228214009721 0.3821705107567076 0 0.49091572235028907 0.39454473684102742 0 0.47989063395239873 0.4063752928604436 0 0.49091572235028907 0.39454473684102742 0 0.5 0.43534704771476829 0 0.49084446497230649 0.42240290667806868 0 0.49084446497230649 0.42240290667806868 0 0.47575785709702961 0.43624957780652712 0 0.49077320759432391 0.45026107651510999 0 0.5 0.43534704771476829 0 0.49084446497230649 0.42240290667806868 0 0.49077320759432391 0.45026107651510999 0 0.49084446497230649 0.42240290667806868 0 0.49077320759432391 0.45026107651510999 0 0.49091572235028907 0.39454473684102742 0 0.49084446497230649 0.42240290667806868 0 0.47989063395239873 0.4063752928604436 0 0.49091572235028907 0.39454473684102742 0 0.49084446497230649 0.42240290667806868 0 0.49084446497230649 0.42240290667806868 0 0.47989063395239873 0.4063752928604436 0 0.47527987411704481 0.42048789944690401 0 0.47989063395239873 0.4063752928604436 0 0.47527987411704481 0.42048789944690401 0 0.4643576351474219 0.40898138550871538 0 0.49084446497230649 0.42240290667806868 0 0.47527987411704481 0.42048789944690401 0 0.47575785709702961 0.43624957780652712 0 0.47527987411704481 0.42048789944690401 0 0.47575785709702961 0.43624957780652712 0 0.46449902756008232 0.42654050111804448 0 0.47575785709702961 0.43624957780652712 0 0.46449902756008232 0.42654050111804448 0 0.4569326817410051 0.44263875232240579 0 0.46449902756008232 0.42654050111804448 0 0.45000180411319679 0.42131958752857712 0 0.4569326817410051 0.44263875232240579 0 0.47527987411704481 0.42048789944690401 0 0.46449902756008232 0.42654050111804448 0 0.4643576351474219 0.40898138550871538 0 0.46449902756008232 0.42654050111804448 0 0.4643576351474219 0.40898138550871538 0 0.45000180411319679 0.42131958752857712 0 0.43098981447030699 0.41756063158309642 0 0.44467808917652729 0.3971164993805974 0 0.45000180411319679 0.42131958752857712 0 0.44467808917652729 0.3971164993805974 0 0.4643576351474219 0.40898138550871538 0 0.45000180411319679 0.42131958752857712 0 0.43517982953899748 0.43698210956832301 0 0.45000180411319679 0.42131958752857712 0 0.4569326817410051 0.44263875232240579 0 0.43517982953899748 0.43698210956832301 0 0.43098981447030699 0.41756063158309642 0 0.45000180411319679 0.42131958752857712 0 0.5 0.5 0 0.46055704912556211 0.47210705674341608 0 0.40698052407234181 0.5 0 0.4569326817410051 0.44263875232240579 0 0.46055704912556211 0.47210705674341608 0 0.42920372833319081 0.45884020176861162 0 0.43517982953899748 0.43698210956832301 0 0.4569326817410051 0.44263875232240579 0 0.42920372833319081 0.45884020176861162 0 0.5 0.43534704771476829 0 0.5 0.5 0 0.49070195021634128 0.47811924635215147 0 0.4569326817410051 0.44263875232240579 0 0.47494454915485229 0.45587514194792211 0 0.46055704912556211 0.47210705674341608 0 0.5 0.43534704771476829 0 0.49077320759432391 0.45026107651510999 0 0.49070195021634128 0.47811924635215147 0 0.47575785709702961 0.43624957780652712 0 0.4569326817410051 0.44263875232240579 0 0.47494454915485229 0.45587514194792211 0 0.47575785709702961 0.43624957780652712 0 0.47494454915485229 0.45587514194792211 0 0.49077320759432391 0.45026107651510999 0 0.47494454915485229 0.45587514194792211 0 0.49070195021634128 0.47811924635215147 0 0.46055704912556211 0.47210705674341608 0 0.49077320759432391 0.45026107651510999 0 0.49070195021634128 0.47811924635215147 0 0.47494454915485229 0.45587514194792211 0 0.49077320759432391 0.45026107651510999 0 0.49070195021634128 0.47811924635215147 0 0.5 0.5 0 0.49070195021634128 0.47811924635215147 0 0.46055704912556211 0.47210705674341608 0 0.40698052407234181 0.5 0 0.42920372833319081 0.45884020176861162 0 0.40101810193379228 0.46073765985147591 0 0.46055704912556211 0.47210705674341608 0 0.40698052407234181 0.5 0 0.42920372833319081 0.45884020176861162 0 0.4147587510396849 0.43515833903191781 0 0.43517982953899748 0.43698210956832301 0 0.42920372833319081 0.45884020176861162 0 0.4147587510396849 0.43515833903191781 0 0.42920372833319081 0.45884020176861162 0 0.40101810193379228 0.46073765985147591 0 0.4147587510396849 0.43515833903191781 0 0.40101810193379228 0.46073765985147591 0 0.38273982735140999 0.44187078628995502 0 0.37140767887233378 0.4678189721668945 0 0.40101810193379228 0.46073765985147591 0 0.38273982735140999 0.44187078628995502 0 0.37140767887233378 0.4678189721668945 0 0.40698052407234181 0.5 0 0.40101810193379228 0.46073765985147591 0 0.33045006035331009 0.078691448835017053 0 0.32982883334218988 0.089258981000778143 0 0.33848474441423959 0.083155094931469234 0 0.33045006035331009 0.078691448835017053 0 0.33848474441423959 0.083155094931469234 0 0.33685661047516158 0.072687529884603225 0 0.33848474441423959 0.083155094931469234 0 0.34119351951095578 0.096226331280685987 0 0.34835959161986918 0.084673188682757514 0 0.32982883334218988 0.089258981000778143 0 0.33848474441423959 0.083155094931469234 0 0.34119351951095578 0.096226331280685987 0 0.33848474441423959 0.083155094931469234 0 0.33685661047516158 0.072687529884603225 0 0.34536281903177263 0.076699082704647883 0 0.33685661047516158 0.072687529884603225 0 0.34391902298020371 0.067932157386910996 0 0.34536281903177263 0.076699082704647883 0 0.33685661047516158 0.072687529884603225 0 0.34391902298020371 0.067932157386910996 0 0.33662296950832232 0.060164064639178637 0 0.33685661047516158 0.072687529884603225 0 0.32682774302441669 0.069019416200788677 0 0.33662296950832232 0.060164064639178637 0 0.33045006035331009 0.078691448835017053 0 0.33685661047516158 0.072687529884603225 0 0.32682774302441669 0.069019416200788677 0 0.33045006035331009 0.078691448835017053 0 0.32682774302441669 0.069019416200788677 0 0.32025237051054273 0.079336222157445971 0 0.32682774302441669 0.069019416200788677 0 0.31508517942847492 0.064820201797660695 0 0.32025237051054273 0.079336222157445971 0 0.32682774302441669 0.069019416200788677 0 0.31508517942847492 0.064820201797660695 0 0.32351484960425658 0.055818178810672282 0 0.31508517942847492 0.064820201797660695 0 0.32025237051054273 0.079336222157445971 0 0.30587997590519178 0.074980209488775984 0 0.32025237051054273 0.079336222157445971 0 0.31294491830095822 0.086072842240225267 0 0.30587997590519178 0.074980209488775984 0 0.33045006035331009 0.078691448835017053 0 0.32982883334218988 0.089258981000778143 0 0.32025237051054273 0.079336222157445971 0 0.32982883334218988 0.089258981000778143 0 0.32025237051054273 0.079336222157445971 0 0.31926346223124358 0.094445006620937244 0 0.32025237051054273 0.079336222157445971 0 0.31294491830095822 0.086072842240225267 0 0.31926346223124358 0.094445006620937244 0 0.31294491830095822 0.086072842240225267 0 0.31926346223124358 0.094445006620937244 0 0.30632450721106791 0.09720713675217231 0 0.31926346223124358 0.094445006620937244 0 0.31608678259692408 0.1110028163126368 0 0.3285794455534875 0.10317024490824769 0 0.31926346223124358 0.094445006620937244 0 0.31608678259692408 0.1110028163126368 0 0.30632450721106791 0.09720713675217231 0 0.32982883334218988 0.089258981000778143 0 0.31926346223124358 0.094445006620937244 0 0.3285794455534875 0.10317024490824769 0 0.31608678259692408 0.1110028163126368 0 0.32678166688432908 0.11634076463756909 0 0.31883649747246962 0.1267791566742949 0 0.31608678259692408 0.1110028163126368 0 0.30636543685551509 0.12686377281768879 0 0.31883649747246962 0.1267791566742949 0 0.31608678259692408 0.1110028163126368 0 0.32678166688432908 0.11634076463756909 0 0.3285794455534875 0.10317024490824769 0 0.32678166688432908 0.11634076463756909 0 0.33104275048739362 0.1292100661940139 0 0.31883649747246962 0.1267791566742949 0 0.34817965043660121 0.1079417689784621 0 0.33104275048739362 0.1292100661940139 0 0.32678166688432908 0.11634076463756909 0 0.33515540657455339 0.1105778351997958 0 0.33104275048739362 0.1292100661940139 0 0.33515540657455339 0.1105778351997958 0 0.34817965043660121 0.1079417689784621 0 0.33104275048739362 0.1292100661940139 0 0.34817965043660121 0.1079417689784621 0 0.34577693238427848 0.1237294979255172 0 0.33104275048739362 0.1292100661940139 0 0.32678166688432908 0.11634076463756909 0 0.33515540657455339 0.1105778351997958 0 0.3285794455534875 0.10317024490824769 0 0.32982883334218988 0.089258981000778143 0 0.3285794455534875 0.10317024490824769 0 0.34119351951095578 0.096226331280685987 0 0.33515540657455339 0.1105778351997958 0 0.3285794455534875 0.10317024490824769 0 0.34119351951095578 0.096226331280685987 0 0.33515540657455339 0.1105778351997958 0 0.34119351951095578 0.096226331280685987 0 0.34817965043660121 0.1079417689784621 0 0.34817965043660121 0.1079417689784621 0 0.36531655038580868 0.086673471762910501 0 0.35820472338473969 0.092726284300042705 0 0.34817965043660121 0.1079417689784621 0 0.36332160295925692 0.10222037117131 0 0.36531655038580868 0.086673471762910501 0 0.34119351951095578 0.096226331280685987 0 0.34817965043660121 0.1079417689784621 0 0.34985084696874869 0.092894608368561934 0 0.34817965043660121 0.1079417689784621 0 0.36531655038580868 0.086673471762910501 0 0.34817965043660121 0.1079417689784621 0 0.35820472338473969 0.092726284300042705 0 0.34985084696874869 0.092894608368561934 0 0.34817965043660121 0.1079417689784621 0 0.34577693238427848 0.1237294979255172 0 0.35961963696877319 0.1197714866938895 0 0.34817965043660121 0.1079417689784621 0 0.35961963696877319 0.1197714866938895 0 0.36332160295925692 0.10222037117131 0 0.37497358229320049 0.10154830355207579 0 0.36977539180858737 0.12938051713115239 0 0.35961963696877319 0.1197714866938895 0 0.37497358229320049 0.10154830355207579 0 0.36977539180858737 0.12938051713115239 0 0.35961963696877319 0.1197714866938895 0 0.37497358229320049 0.10154830355207579 0 0.35961963696877319 0.1197714866938895 0 0.36332160295925692 0.10222037117131 0 0.37497358229320049 0.10154830355207579 0 0.36332160295925692 0.10222037117131 0 0.36933037215504722 0.09474598502700303 0 0.36531655038580868 0.086673471762910501 0 0.36332160295925692 0.10222037117131 0 0.37497358229320049 0.10154830355207579 0 0.36933037215504722 0.09474598502700303 0 0.37497358229320049 0.10154830355207579 0 0.36933037215504722 0.09474598502700303 0 0.37684180320149779 0.091545452851138936 0 0.37199198662207139 0.089080455090655153 0 0.36531655038580868 0.086673471762910501 0 0.37647922074593232 0.083356910721568186 0 0.3686285935653984 0.082562954753238868 0 0.36531655038580868 0.086673471762910501 0 0.38800965188138797 0.067359575457755852 0 0.36933037215504722 0.09474598502700303 0 0.37199198662207139 0.089080455090655153 0 0.36531655038580868 0.086673471762910501 0 0.36933037215504722 0.09474598502700303 0 0.37199198662207139 0.089080455090655153 0 0.37684180320149779 0.091545452851138936 0 0.3686285935653984 0.082562954753238868 0 0.36344916698627688 0.0813333739240375 0 0.3664313866567897 0.074083432266429411 0 0.3686285935653984 0.082562954753238868 0 0.36344916698627688 0.0813333739240375 0 0.36531655038580868 0.086673471762910501 0 0.3686285935653984 0.082562954753238868 0 0.36531655038580868 0.086673471762910501 0 0.36344916698627688 0.0813333739240375 0 0.36531655038580868 0.086673471762910501 0 0.35788297275373993 0.085501793090345432 0 0.36344916698627688 0.0813333739240375 0 0.35788297275373993 0.085501793090345432 0 0.35898633156964799 0.077845217747263273 0 0.36531655038580868 0.086673471762910501 0 0.35820472338473969 0.092726284300042705 0 0.36531655038580868 0.086673471762910501 0 0.35820472338473969 0.092726284300042705 0 0.35788297275373993 0.085501793090345432 0 0.35820472338473969 0.092726284300042705 0 0.35788297275373993 0.085501793090345432 0 0.34985084696874869 0.092894608368561934 0 0.35788297275373993 0.085501793090345432 0 0.34835959161986918 0.084673188682757514 0 0.34985084696874869 0.092894608368561934 0 0.35788297275373993 0.085501793090345432 0 0.35268958346742479 0.079299313954674461 0 0.34835959161986918 0.084673188682757514 0 0.35788297275373993 0.085501793090345432 0 0.35268958346742479 0.079299313954674461 0 0.35898633156964799 0.077845217747263273 0 0.35268958346742479 0.079299313954674461 0 0.34835959161986918 0.084673188682757514 0 0.34536281903177263 0.076699082704647883 0 0.33848474441423959 0.083155094931469234 0 0.34835959161986918 0.084673188682757514 0 0.34536281903177263 0.076699082704647883 0 0.34119351951095578 0.096226331280685987 0 0.34835959161986918 0.084673188682757514 0 0.34985084696874869 0.092894608368561934 0 0.34391902298020371 0.067932157386910996 0 0.35073266194139169 0.06137377874550997 0 0.33662296950832232 0.060164064639178637 0 0.34391902298020371 0.067932157386910996 0 0.35186736123373658 0.072447211387471941 0 0.35073266194139169 0.06137377874550997 0 0.34391902298020371 0.067932157386910996 0 0.34536281903177263 0.076699082704647883 0 0.35186736123373658 0.072447211387471941 0 0.35268958346742479 0.079299313954674461 0 0.34536281903177263 0.076699082704647883 0 0.35186736123373658 0.072447211387471941 0 0.35186736123373658 0.072447211387471941 0 0.35898633156964799 0.077845217747263273 0 0.35996923520747798 0.068093361081839721 0 0.35268958346742479 0.079299313954674461 0 0.35186736123373658 0.072447211387471941 0 0.35898633156964799 0.077845217747263273 0 0.35186736123373658 0.072447211387471941 0 0.35996923520747798 0.068093361081839721 0 0.35073266194139169 0.06137377874550997 0 0.35996923520747798 0.068093361081839721 0 0.36906116384796089 0.065350349372853944 0 0.36273650599534107 0.057460176971509833 0 0.35996923520747798 0.068093361081839721 0 0.3664313866567897 0.074083432266429411 0 0.36906116384796089 0.065350349372853944 0 0.35898633156964799 0.077845217747263273 0 0.35996923520747798 0.068093361081839721 0 0.3664313866567897 0.074083432266429411 0 0.36344916698627688 0.0813333739240375 0 0.35898633156964799 0.077845217747263273 0 0.3664313866567897 0.074083432266429411 0 0.3686285935653984 0.082562954753238868 0 0.3664313866567897 0.074083432266429411 0 0.37368610641380767 0.069298039188229563 0 0.36906116384796089 0.065350349372853944 0 0.37368610641380767 0.069298039188229563 0 0.37629973611750162 0.057133884090869731 0 0.3664313866567897 0.074083432266429411 0 0.36906116384796089 0.065350349372853944 0 0.37368610641380767 0.069298039188229563 0 0.36273650599534107 0.057460176971509833 0 0.37051694284251602 0.045934513972437287 0 0.35116023099583488 0.04635088329888936 0 0.36906116384796089 0.065350349372853944 0 0.36273650599534107 0.057460176971509833 0 0.37629973611750162 0.057133884090869731 0 0.36273650599534107 0.057460176971509833 0 0.37051694284251602 0.045934513972437287 0 0.37629973611750162 0.057133884090869731 0 0.37051694284251602 0.045934513972437287 0 0.36660895407805488 0.032420410302755692 0 0.35116023099583488 0.04635088329888936 0 0.36660895407805488 0.032420410302755692 0 0.35116023099583488 0.04635088329888936 0 0.3452421180709313 0.02876578474876142 0 0.35116023099583488 0.04635088329888936 0 0.35073266194139169 0.06137377874550997 0 0.33662296950832232 0.060164064639178637 0 0.36273650599534107 0.057460176971509833 0 0.35116023099583488 0.04635088329888936 0 0.35073266194139169 0.06137377874550997 0 0.35996923520747798 0.068093361081839721 0 0.36273650599534107 0.057460176971509833 0 0.35073266194139169 0.06137377874550997 0 0.36029791100668068 0.016572440619523982 0 0.38809510434950978 0.014186894499208531 0 0.36528524993471517 -0.00050110304122203656 0 0.36660895407805488 0.032420410302755692 0 0.36029791100668068 0.016572440619523982 0 0.38809510434950978 0.014186894499208531 0 0.36660895407805488 0.032420410302755692 0 0.36029791100668068 0.016572440619523982 0 0.3452421180709313 0.02876578474876142 0 0.36029791100668068 0.016572440619523982 0 0.3452421180709313 0.02876578474876142 0 0.34114019158844411 0.0080730073898155515 0 0.36029791100668068 0.016572440619523982 0 0.34114019158844411 0.0080730073898155515 0 0.36528524993471517 -0.00050110304122203656 0 0.34114019158844411 0.0080730073898155515 0 0.31263439184484548 0.0093702238746103741 0 0.33125961192901288 -0.010090923622196969 0 0.3452421180709313 0.02876578474876142 0 0.34114019158844411 0.0080730073898155515 0 0.32534433912657179 0.025186145237551728 0 0.32534433912657179 0.025186145237551728 0 0.31263439184484548 0.0093702238746103741 0 0.30072048126169421 0.032930185378121341 0 0.34114019158844411 0.0080730073898155515 0 0.32534433912657179 0.025186145237551728 0 0.31263439184484548 0.0093702238746103741 0 0.33662296950832232 0.060164064639178637 0 0.33346096345915788 0.043079032094737429 0 0.32351484960425658 0.055818178810672282 0 0.35116023099583488 0.04635088329888936 0 0.33662296950832232 0.060164064639178637 0 0.33346096345915788 0.043079032094737429 0 0.32682774302441669 0.069019416200788677 0 0.33662296950832232 0.060164064639178637 0 0.32351484960425658 0.055818178810672282 0 0.35116023099583488 0.04635088329888936 0 0.3452421180709313 0.02876578474876142 0 0.33346096345915788 0.043079032094737429 0 0.3452421180709313 0.02876578474876142 0 0.32534433912657179 0.025186145237551728 0 0.33346096345915788 0.043079032094737429 0 0.32534433912657179 0.025186145237551728 0 0.33346096345915788 0.043079032094737429 0 0.3188812734490305 0.042189135833371173 0 0.32534433912657179 0.025186145237551728 0 0.3188812734490305 0.042189135833371173 0 0.30072048126169421 0.032930185378121341 0 0.3188812734490305 0.042189135833371173 0 0.32351484960425658 0.055818178810672282 0 0.30909518155543192 0.051906742889003828 0 0.33346096345915788 0.043079032094737429 0 0.3188812734490305 0.042189135833371173 0 0.32351484960425658 0.055818178810672282 0 0.31508517942847492 0.064820201797660695 0 0.32351484960425658 0.055818178810672282 0 0.30909518155543192 0.051906742889003828 0 0.30316472603848582 0.06244260786721572 0 0.30909518155543192 0.051906742889003828 0 0.29320010016678028 0.053048580535769517 0 0.31508517942847492 0.064820201797660695 0 0.30316472603848582 0.06244260786721572 0 0.30909518155543192 0.051906742889003828 0 0.3188812734490305 0.042189135833371173 0 0.30909518155543192 0.051906742889003828 0 0.30072048126169421 0.032930185378121341 0 0.30909518155543192 0.051906742889003828 0 0.30072048126169421 0.032930185378121341 0 0.29320010016678028 0.053048580535769517 0 0.30072048126169421 0.032930185378121341 0 0.29320010016678028 0.053048580535769517 0 0.27960992045081501 0.03743350510670844 0 0.29320010016678028 0.053048580535769517 0 0.28102878200050152 0.051385871327039298 0 0.27960992045081501 0.03743350510670844 0 0.28139869080602908 0.062047317579015077 0 0.29320010016678028 0.053048580535769517 0 0.28102878200050152 0.051385871327039298 0 0.28139869080602908 0.062047317579015077 0 0.29320010016678028 0.053048580535769517 0 0.29256319313654983 0.067457304624868569 0 0.30316472603848582 0.06244260786721572 0 0.29320010016678028 0.053048580535769517 0 0.29256319313654983 0.067457304624868569 0 0.31263439184484548 0.0093702238746103741 0 0.29523021928075988 0.0065372478438925187 0 0.30634635689462569 -0.0054163935952359233 0 0.31263439184484548 0.0093702238746103741 0 0.30072048126169421 0.032930185378121341 0 0.29523021928075988 0.0065372478438925187 0 0.30072048126169421 0.032930185378121341 0 0.28263521761145799 0.01424596700316768 0 0.30072048126169421 0.032930185378121341 0 0.28263521761145799 0.01424596700316768 0 0.29523021928075988 0.0065372478438925187 0 0.30072048126169421 0.032930185378121341 0 0.28263521761145799 0.01424596700316768 0 0.27960992045081501 0.03743350510670844 0 0.28263521761145799 0.01424596700316768 0 0.29523021928075988 0.0065372478438925187 0 0.28095057553946728 -0.001276924975998437 0 0.28263521761145799 0.01424596700316768 0 0.26454995396122188 -0.0044382513717859551 0 0.28095057553946728 -0.001276924975998437 0 0.28263521761145799 0.01424596700316768 0 0.2600103086440948 0.0077887484030499934 0 0.26454995396122188 -0.0044382513717859551 0 0.28263521761145799 0.01424596700316768 0 0.27547351305310808 0.019631885321861772 0 0.2600103086440948 0.0077887484030499934 0 0.28263521761145799 0.01424596700316768 0 0.26454995396122188 -0.0044382513717859551 0 0.27547351305310808 0.019631885321861772 0 0.2600103086440948 0.0077887484030499934 0 0.27547351305310808 0.019631885321861772 0 0.27960992045081501 0.03743350510670844 0 0.26827388004368552 0.031478346191413077 0 0.28263521761145799 0.01424596700316768 0 0.27547351305310808 0.019631885321861772 0 0.27960992045081501 0.03743350510670844 0 0.27547351305310808 0.019631885321861772 0 0.26042701713659289 0.023261139205759441 0 0.26827388004368552 0.031478346191413077 0 0.26042701713659289 0.023261139205759441 0 0.26827388004368552 0.031478346191413077 0 0.25267133858014368 0.033426358080367632 0 0.24606589177604729 0.023412238736487911 0 0.26042701713659289 0.023261139205759441 0 0.25267133858014368 0.033426358080367632 0 0.25245314076482023 0.016273305507581552 0 0.26042701713659289 0.023261139205759441 0 0.2600103086440948 0.0077887484030499934 0 0.24606589177604729 0.023412238736487911 0 0.25245314076482023 0.016273305507581552 0 0.26042701713659289 0.023261139205759441 0 0.27547351305310808 0.019631885321861772 0 0.26042701713659289 0.023261139205759441 0 0.2600103086440948 0.0077887484030499934 0 0.24330934550254571 0.01063109568502886 0 0.25245314076482023 0.016273305507581552 0 0.2600103086440948 0.0077887484030499934 0 0.2600103086440948 0.0077887484030499934 0 0.24454710423508169 -0.0040543885157620588 0 0.26990641657838182 0.05301408208666418 0 0.25893346694594882 0.064011177639818242 0 0.26926780585961241 0.067694655635386125 0 0.28139869080602908 0.062047317579015077 0 0.26990641657838182 0.05301408208666418 0 0.26926780585961241 0.067694655635386125 0 0.28139869080602908 0.062047317579015077 0 0.26990641657838182 0.05301408208666418 0 0.28102878200050152 0.051385871327039298 0 0.26990641657838182 0.05301408208666418 0 0.28102878200050152 0.051385871327039298 0 0.27960992045081501 0.03743350510670844 0 0.26990641657838182 0.05301408208666418 0 0.27960992045081501 0.03743350510670844 0 0.2629408869215929 0.042344985364839487 0 0.27960992045081501 0.03743350510670844 0 0.26827388004368552 0.031478346191413077 0 0.2629408869215929 0.042344985364839487 0 0.26827388004368552 0.031478346191413077 0 0.2629408869215929 0.042344985364839487 0 0.25267133858014368 0.033426358080367632 0 0.24931080225938379 0.044873619513579023 0 0.2629408869215929 0.042344985364839487 0 0.25267133858014368 0.033426358080367632 0 0.24931080225938379 0.044873619513579023 0 0.2629408869215929 0.042344985364839487 0 0.25540203894483232 0.053078758300303452 0 0.26990641657838182 0.05301408208666418 0 0.2629408869215929 0.042344985364839487 0 0.25540203894483232 0.053078758300303452 0 0.26990641657838182 0.05301408208666418 0 0.25540203894483232 0.053078758300303452 0 0.25893346694594882 0.064011177639818242 0 0.2498958451883965 0.06385198700084381 0 0.25540203894483232 0.053078758300303452 0 0.25893346694594882 0.064011177639818242 0 0.25260649980770278 0.068686253075548681 0 0.25683740563484292 0.074759111913111076 0 0.25893346694594882 0.064011177639818242 0 0.2498958451883965 0.06385198700084381 0 0.25260649980770278 0.068686253075548681 0 0.25893346694594882 0.064011177639818242 0 0.24475928146162321 0.072122735748421596 0 0.25260649980770278 0.068686253075548681 0 0.25683740563484292 0.074759111913111076 0 0.25683740563484292 0.074759111913111076 0 0.26926780585961241 0.067694655635386125 0 0.26991739555729649 0.077215572672218624 0 0.25683740563484292 0.074759111913111076 0 0.25893346694594882 0.064011177639818242 0 0.26926780585961241 0.067694655635386125 0 0.24475928146162321 0.072122735748421596 0 0.25683740563484292 0.074759111913111076 0 0.25667270258804281 0.090788059223164463 0 0.25683740563484292 0.074759111913111076 0 0.25667270258804281 0.090788059223164463 0 0.26588882808572761 0.083319535008861703 0 0.25683740563484292 0.074759111913111076 0 0.26588882808572761 0.083319535008861703 0 0.26991739555729649 0.077215572672218624 0 0.25667270258804281 0.090788059223164463 0 0.27089753873940398 0.090137214046706604 0 0.26588882808572761 0.083319535008861703 0 0.25667270258804281 0.090788059223164463 0 0.27089753873940398 0.090137214046706604 0 0.27377241013019687 0.096695294095733866 0 0.27089753873940398 0.090137214046706604 0 0.26588882808572761 0.083319535008861703 0 0.27511909790905148 0.083697717189107748 0 0.26588882808572761 0.083319535008861703 0 0.27511909790905148 0.083697717189107748 0 0.26991739555729649 0.077215572672218624 0 0.27511909790905148 0.083697717189107748 0 0.2797873655771318 0.074949476474826429 0 0.28323133256771621 0.084665337655090059 0 0.27511909790905148 0.083697717189107748 0 0.26991739555729649 0.077215572672218624 0 0.2797873655771318 0.074949476474826429 0 0.27089753873940398 0.090137214046706604 0 0.27511909790905148 0.083697717189107748 0 0.27886969235272441 0.090924908242748917 0 0.27511909790905148 0.083697717189107748 0 0.27886969235272441 0.090924908242748917 0 0.28323133256771621 0.084665337655090059 0 0.27089753873940398 0.090137214046706604 0 0.27886969235272441 0.090924908242748917 0 0.27377241013019687 0.096695294095733866 0 0.26926780585961241 0.067694655635386125 0 0.26991739555729649 0.077215572672218624 0 0.2797873655771318 0.074949476474826429 0 0.28139869080602908 0.062047317579015077 0 0.26926780585961241 0.067694655635386125 0 0.2797873655771318 0.074949476474826429 0 0.28139869080602908 0.062047317579015077 0 0.2797873655771318 0.074949476474826429 0 0.29256319313654983 0.067457304624868569 0 0.2797873655771318 0.074949476474826429 0 0.29256319313654983 0.067457304624868569 0 0.29280487624479179 0.081332777947157764 0 0.2797873655771318 0.074949476474826429 0 0.28323133256771621 0.084665337655090059 0 0.29280487624479179 0.081332777947157764 0 0.28323133256771621 0.084665337655090059 0 0.28776728620730713 0.091688898810040581 0 0.29280487624479179 0.081332777947157764 0 0.27886969235272441 0.090924908242748917 0 0.28323133256771621 0.084665337655090059 0 0.28776728620730713 0.091688898810040581 0 0.27886969235272441 0.090924908242748917 0 0.28776728620730713 0.091688898810040581 0 0.28226611676058472 0.098046353770736186 0 0.28776728620730713 0.091688898810040581 0 0.2966496991855882 0.09151408767448814 0 0.29280487624479179 0.081332777947157764 0 0.29280487624479179 0.081332777947157764 0 0.3039160785015283 0.085170166807102765 0 0.30587997590519178 0.074980209488775984 0 0.2966496991855882 0.09151408767448814 0 0.29280487624479179 0.081332777947157764 0 0.3039160785015283 0.085170166807102765 0 0.2966496991855882 0.09151408767448814 0 0.3039160785015283 0.085170166807102765 0 0.30632450721106791 0.09720713675217231 0 0.31294491830095822 0.086072842240225267 0 0.3039160785015283 0.085170166807102765 0 0.30632450721106791 0.09720713675217231 0 0.31294491830095822 0.086072842240225267 0 0.3039160785015283 0.085170166807102765 0 0.30587997590519178 0.074980209488775984 0 0.31508517942847492 0.064820201797660695 0 0.30316472603848582 0.06244260786721572 0 0.30587997590519178 0.074980209488775984 0 0.30316472603848582 0.06244260786721572 0 0.29256319313654983 0.067457304624868569 0 0.30587997590519178 0.074980209488775984 0 0.29256319313654983 0.067457304624868569 0 0.29280487624479179 0.081332777947157764 0 0.30587997590519178 0.074980209488775984 0 0.31608678259692408 0.1110028163126368 0 0.30226897586842949 0.11165514509164209 0 0.30636543685551509 0.12686377281768879 0 0.30226897586842949 0.11165514509164209 0 0.29121842690624289 0.1199918861378227 0 0.30636543685551509 0.12686377281768879 0 0.31608678259692408 0.1110028163126368 0 0.30226897586842949 0.11165514509164209 0 0.30632450721106791 0.09720713675217231 0 0.2966496991855882 0.09151408767448814 0 0.30632450721106791 0.09720713675217231 0 0.29238750780743022 0.102165206236234 0 0.30226897586842949 0.11165514509164209 0 0.30632450721106791 0.09720713675217231 0 0.29238750780743022 0.102165206236234 0 0.29238750780743022 0.102165206236234 0 0.28371607822966122 0.1055314772531229 0 0.29121842690624289 0.1199918861378227 0 0.28776728620730713 0.091688898810040581 0 0.2966496991855882 0.09151408767448814 0 0.29238750780743022 0.102165206236234 0 0.28776728620730713 0.091688898810040581 0 0.29238750780743022 0.102165206236234 0 0.28226611676058472 0.098046353770736186 0 0.29238750780743022 0.102165206236234 0 0.28226611676058472 0.098046353770736186 0 0.28371607822966122 0.1055314772531229 0 0.28226611676058472 0.098046353770736186 0 0.28371607822966122 0.1055314772531229 0 0.27842504246689642 0.1014157744500216 0 0.30226897586842949 0.11165514509164209 0 0.29238750780743022 0.102165206236234 0 0.29121842690624289 0.1199918861378227 0 0.28371607822966122 0.1055314772531229 0 0.29121842690624289 0.1199918861378227 0 0.27394556474714288 0.1053899726804936 0 0.29121842690624289 0.1199918861378227 0 0.27394556474714288 0.1053899726804936 0 0.27048261809334728 0.1048230907475068 0 0.26380988298070351 0.116927196367008 0 0.27428769142036519 0.1340982985240107 0 0.27048261809334728 0.1048230907475068 0 0.27428769142036519 0.1340982985240107 0 0.27048261809334728 0.1048230907475068 0 0.27394556474714288 0.1053899726804936 0 0.27428769142036519 0.1340982985240107 0 0.29121842690624289 0.1199918861378227 0 0.27394556474714288 0.1053899726804936 0 0.27428769142036519 0.1340982985240107 0 0.25667270258804281 0.090788059223164463 0 0.27048261809334728 0.1048230907475068 0 0.27394556474714288 0.1053899726804936 0 0.25667270258804281 0.090788059223164463 0 0.27377241013019687 0.096695294095733866 0 0.27394556474714288 0.1053899726804936 0 0.27886969235272441 0.090924908242748917 0 0.28226611676058472 0.098046353770736186 0 0.27377241013019687 0.096695294095733866 0 0.28226611676058472 0.098046353770736186 0 0.27377241013019687 0.096695294095733866 0 0.27842504246689642 0.1014157744500216 0 0.27377241013019687 0.096695294095733866 0 0.27842504246689642 0.1014157744500216 0 0.27394556474714288 0.1053899726804936 0 0.28371607822966122 0.1055314772531229 0 0.27842504246689642 0.1014157744500216 0 0.27394556474714288 0.1053899726804936 0 0.25667270258804281 0.090788059223164463 0 0.27394556474714288 0.1053899726804936 0 0.25667270258804281 0.090788059223164463 0 0.27048261809334728 0.1048230907475068 0 0.25461590540953027 0.10606501710305551 0 0.27048261809334728 0.1048230907475068 0 0.25461590540953027 0.10606501710305551 0 0.26380988298070351 0.116927196367008 0 0.24272997527991999 0.091205400909066731 0 0.25667270258804281 0.090788059223164463 0 0.25461590540953027 0.10606501710305551 0 0.25461590540953027 0.10606501710305551 0 0.26380988298070351 0.116927196367008 0 0.25585331699957098 0.12272237909345909 0 0.24276875721605651 0.11459409499753551 0 0.25461590540953027 0.10606501710305551 0 0.25585331699957098 0.12272237909345909 0 0.26380988298070351 0.116927196367008 0 0.25585331699957098 0.12272237909345909 0 0.27428769142036519 0.1340982985240107 0 0.24033965028705309 0.12757397417549721 0 0.25585331699957098 0.12272237909345909 0 0.25429212729420919 0.1373678150349148 0 0.25585331699957098 0.12272237909345909 0 0.25429212729420919 0.1373678150349148 0 0.27428769142036519 0.1340982985240107 0 0.27428769142036519 0.1340982985240107 0 0.25543485903957819 0.1544462132424802 0 0.27809276474738309 0.16337350630051459 0 0.27428769142036519 0.1340982985240107 0 0.27809276474738309 0.16337350630051459 0 0.24408405510780229 0.1427207021204579 0 0.25429212729420919 0.1373678150349148 0 0.25543485903957819 0.1544462132424802 0 0.25429212729420919 0.1373678150349148 0 0.27428769142036519 0.1340982985240107 0 0.25543485903957819 0.1544462132424802 0 0.25543485903957819 0.1544462132424802 0 0.25572559596713329 0.17051997537177971 0 0.27809276474738309 0.16337350630051459 0 0.2446349919681006 0.16305112323470131 0 0.25543485903957819 0.1544462132424802 0 0.25572559596713329 0.17051997537177971 0 0.25572559596713329 0.17051997537177971 0 0.27809276474738309 0.16337350630051459 0 0.26231380384649222 0.18759160671752401 0 0.24894719752453329 0.18612638269812559 0 0.25572559596713329 0.17051997537177971 0 0.26231380384649222 0.18759160671752401 0 0.27809276474738309 0.16337350630051459 0 0.26231380384649222 0.18759160671752401 0 0.28189783807440111 0.19264871407701831 0 0.27809276474738309 0.16337350630051459 0 0.28189783807440111 0.19264871407701831 0 0.27809276474738309 0.16337350630051459 0 0.29994344191447703 0.18269133817603059 0 0.30231687763786452 0.163307755818417 0 0.27809276474738309 0.16337350630051459 0 0.30231687763786452 0.163307755818417 0 0.2938794932850527 0.14274375592569949 0 0.27809276474738309 0.16337350630051459 0 0.29994344191447703 0.18269133817603059 0 0.28189783807440111 0.19264871407701831 0 0.29994344191447703 0.18269133817603059 0 0.31683025157673023 0.19361267197804941 0 0.31611331061617581 0.175143027450849 0 0.29994344191447703 0.18269133817603059 0 0.30231687763786452 0.163307755818417 0 0.31611331061617581 0.175143027450849 0 0.30231687763786452 0.163307755818417 0 0.31390585053818609 0.15047836340956569 0 0.31915578157318941 0.1620529440382649 0 0.30231687763786452 0.163307755818417 0 0.2938794932850527 0.14274375592569949 0 0.31390585053818609 0.15047836340956569 0 0.29121842690624289 0.1199918861378227 0 0.30636543685551509 0.12686377281768879 0 0.2938794932850527 0.14274375592569949 0 0.30636543685551509 0.12686377281768879 0 0.2938794932850527 0.14274375592569949 0 0.31390585053818609 0.15047836340956569 0 0.29121842690624289 0.1199918861378227 0 0.27428769142036519 0.1340982985240107 0 0.2938794932850527 0.14274375592569949 0 0.27428769142036519 0.1340982985240107 0 0.27809276474738309 0.16337350630051459 0 0.2938794932850527 0.14274375592569949 0 0.28245996340297719 0.25304914615146101 0 0.26751790208001708 0.24888402836805171 0 0.26458074502139528 0.23130050403551469 0 0.28245996340297719 0.25304914615146101 0 0.26458074502139528 0.23130050403551469 0 0.28245996340297719 0.25304914615146101 0 0.26458074502139528 0.23130050403551469 0 0.28628037986651023 0.23273869652766591 0 0.26751790208001708 0.24888402836805171 0 0.25362407497537798 0.24198656716010189 0 0.26458074502139528 0.23130050403551469 0 0.24670152663981329 0.2095518619195684 0 0.26458074502139528 0.23130050403551469 0 0.23859066343446639 0.21961930472390831 0 0.25362407497537798 0.24198656716010189 0 0.26458074502139528 0.23130050403551469 0 0.26458074502139528 0.23130050403551469 0 0.27676906571698401 0.22210582289095929 0 0.28628037986651023 0.23273869652766591 0 0.26458074502139528 0.23130050403551469 0 0.27676906571698401 0.22210582289095929 0 0.26837033744455119 0.20825181950577951 0 0.26837033744455119 0.20825181950577951 0 0.28189783807440111 0.19264871407701831 0 0.29189290525347911 0.21556298540689831 0 0.27676906571698401 0.22210582289095929 0 0.26837033744455119 0.20825181950577951 0 0.29189290525347911 0.21556298540689831 0 0.24670152663981329 0.2095518619195684 0 0.26458074502139528 0.23130050403551469 0 0.26837033744455119 0.20825181950577951 0 0.24670152663981329 0.2095518619195684 0 0.26837033744455119 0.20825181950577951 0 0.25318772352235269 0.19758411353432501 0 0.26837033744455119 0.20825181950577951 0 0.25318772352235269 0.19758411353432501 0 0.26231380384649222 0.18759160671752401 0 0.24894719752453329 0.18612638269812559 0 0.25318772352235269 0.19758411353432501 0 0.26231380384649222 0.18759160671752401 0 0.26837033744455119 0.20825181950577951 0 0.26231380384649222 0.18759160671752401 0 0.28189783807440111 0.19264871407701831 0 0.28189783807440111 0.19264871407701831 0 0.3003848762377721 0.19904239824392181 0 0.29189290525347911 0.21556298540689831 0 0.29994344191447703 0.18269133817603059 0 0.28189783807440111 0.19264871407701831 0 0.3003848762377721 0.19904239824392181 0 0.3003848762377721 0.19904239824392181 0 0.31135994436977299 0.21069628158161249 0 0.31683025157673023 0.19361267197804941 0 0.29994344191447703 0.18269133817603059 0 0.3003848762377721 0.19904239824392181 0 0.31683025157673023 0.19361267197804941 0 0.31135994436977299 0.21069628158161249 0 0.29189290525347911 0.21556298540689831 0 0.30852392428572512 0.22354246128785349 0 0.3003848762377721 0.19904239824392181 0 0.31135994436977299 0.21069628158161249 0 0.29189290525347911 0.21556298540689831 0 0.29189290525347911 0.21556298540689831 0 0.28628037986651023 0.23273869652766591 0 0.29989037345074909 0.23274463385031169 0 0.27676906571698401 0.22210582289095929 0 0.29189290525347911 0.21556298540689831 0 0.28628037986651023 0.23273869652766591 0 0.29189290525347911 0.21556298540689831 0 0.29989037345074909 0.23274463385031169 0 0.30852392428572512 0.22354246128785349 0 0.29989037345074909 0.23274463385031169 0 0.30852392428572512 0.22354246128785349 0 0.31719882278570838 0.23891526540108851 0 0.29989037345074909 0.23274463385031169 0 0.30195988737631652 0.24563942300354619 0 0.31719882278570838 0.23891526540108851 0 0.28628037986651023 0.23273869652766591 0 0.29989037345074909 0.23274463385031169 0 0.30195988737631652 0.24563942300354619 0 0.28245996340297719 0.25304914615146101 0 0.28628037986651023 0.23273869652766591 0 0.30195988737631652 0.24563942300354619 0 0.33861126753099069 0.24975036164710371 0 0.33146184547798141 0.23255971870488401 0 0.34545949465649323 0.23128354637688131 0 0.33861126753099069 0.24975036164710371 0 0.31719882278570838 0.23891526540108851 0 0.33146184547798141 0.23255971870488401 0 0.32030447770639381 0.26207393844223242 0 0.30195988737631652 0.24563942300354619 0 0.31719882278570838 0.23891526540108851 0 0.31719882278570838 0.23891526540108851 0 0.32180788981997582 0.22217354582829071 0 0.33146184547798141 0.23255971870488401 0 0.30852392428572512 0.22354246128785349 0 0.31719882278570838 0.23891526540108851 0 0.32180788981997582 0.22217354582829071 0 0.31135994436977299 0.21069628158161249 0 0.30852392428572512 0.22354246128785349 0 0.32180788981997582 0.22217354582829071 0 0.32180788981997582 0.22217354582829071 0 0.33146184547798141 0.23255971870488401 0 0.33663015242655647 0.21974138276287719 0 0.33146184547798141 0.23255971870488401 0 0.33663015242655647 0.21974138276287719 0 0.34545949465649323 0.23128354637688131 0 0.33663015242655647 0.21974138276287719 0 0.33724265126033698 0.20711678845792111 0 0.34508184181261359 0.21479342956207489 0 0.33724265126033698 0.20711678845792111 0 0.34671954139267919 0.20031121345834399 0 0.34508184181261359 0.21479342956207489 0 0.33663015242655647 0.21974138276287719 0 0.33724265126033698 0.20711678845792111 0 0.3256726495741108 0.2075861652314287 0 0.32180788981997582 0.22217354582829071 0 0.33663015242655647 0.21974138276287719 0 0.3256726495741108 0.2075861652314287 0 0.31135994436977299 0.21069628158161249 0 0.3256726495741108 0.2075861652314287 0 0.31683025157673023 0.19361267197804941 0 0.31135994436977299 0.21069628158161249 0 0.32180788981997582 0.22217354582829071 0 0.3256726495741108 0.2075861652314287 0 0.31683025157673023 0.19361267197804941 0 0.33368194430919179 0.19290643219686379 0 0.32770663971386949 0.18152772759853469 0 0.3256726495741108 0.2075861652314287 0 0.31683025157673023 0.19361267197804941 0 0.33368194430919179 0.19290643219686379 0 0.33724265126033698 0.20711678845792111 0 0.3256726495741108 0.2075861652314287 0 0.33368194430919179 0.19290643219686379 0 0.33724265126033698 0.20711678845792111 0 0.33368194430919179 0.19290643219686379 0 0.34671954139267919 0.20031121345834399 0 0.33368194430919179 0.19290643219686379 0 0.34551353380974631 0.1883981607682633 0 0.34671954139267919 0.20031121345834399 0 0.34551353380974631 0.1883981607682633 0 0.34671954139267919 0.20031121345834399 0 0.35824731445427571 0.19110428659113041 0 0.34671954139267919 0.20031121345834399 0 0.35824731445427571 0.19110428659113041 0 0.35698828248314413 0.20344644674920431 0 0.35824731445427571 0.19110428659113041 0 0.37710264885385569 0.18195160658395659 0 0.37736777437545532 0.19580619808172939 0 0.35824731445427571 0.19110428659113041 0 0.36772040959694341 0.20375978200797679 0 0.37736777437545532 0.19580619808172939 0 0.35824731445427571 0.19110428659113041 0 0.36772040959694341 0.20375978200797679 0 0.35698828248314413 0.20344644674920431 0 0.35577543160983688 0.21411442332071259 0 0.380879142443036 0.21252042386305911 0 0.36772040959694341 0.20375978200797679 0 0.35577543160983688 0.21411442332071259 0 0.35698828248314413 0.20344644674920431 0 0.35577543160983688 0.21411442332071259 0 0.37227916757123858 0.22300749187684549 0 0.380879142443036 0.21252042386305911 0 0.36772040959694341 0.20375978200797679 0 0.35577543160983688 0.21411442332071259 0 0.380879142443036 0.21252042386305911 0 0.34671954139267919 0.20031121345834399 0 0.35577543160983688 0.21411442332071259 0 0.35698828248314413 0.20344644674920431 0 0.34671954139267919 0.20031121345834399 0 0.35577543160983688 0.21411442332071259 0 0.34671954139267919 0.20031121345834399 0 0.35577543160983688 0.21411442332071259 0 0.34508184181261359 0.21479342956207489 0 0.35577543160983688 0.21411442332071259 0 0.34508184181261359 0.21479342956207489 0 0.35093768363265682 0.2224708468078479 0 0.35577543160983688 0.21411442332071259 0 0.34508184181261359 0.21479342956207489 0 0.34545949465649323 0.23128354637688131 0 0.36091453217780389 0.22515926727759289 0 0.35062680961752463 0.24346715051183601 0 0.33663015242655647 0.21974138276287719 0 0.34508184181261359 0.21479342956207489 0 0.35093768363265682 0.2224708468078479 0 0.33663015242655647 0.21974138276287719 0 0.35093768363265682 0.2224708468078479 0 0.34545949465649323 0.23128354637688131 0 0.35093768363265682 0.2224708468078479 0 0.34545949465649323 0.23128354637688131 0 0.36091453217780389 0.22515926727759289 0 0.35577543160983688 0.21411442332071259 0 0.35093768363265682 0.2224708468078479 0 0.36091453217780389 0.22515926727759289 0 0.35577543160983688 0.21411442332071259 0 0.3709836007202828 0.23729508748735409 0 0.35577543160983688 0.21411442332071259 0 0.36091453217780389 0.22515926727759289 0 0.3709836007202828 0.23729508748735409 0 0.35577543160983688 0.21411442332071259 0 0.37227916757123858 0.22300749187684549 0 0.3709836007202828 0.23729508748735409 0 0.37227916757123858 0.22300749187684549 0 0.3709836007202828 0.23729508748735409 0 0.38109556909281761 0.22842225584997369 0 0.36230557592361717 0.250356157070934 0 0.36091453217780389 0.22515926727759289 0 0.3709836007202828 0.23729508748735409 0 0.36230557592361717 0.250356157070934 0 0.36091453217780389 0.22515926727759289 0 0.36230557592361717 0.250356157070934 0 0.36091453217780389 0.22515926727759289 0 0.35062680961752463 0.24346715051183601 0 0.33861126753099069 0.24975036164710371 0 0.34545949465649323 0.23128354637688131 0 0.35062680961752463 0.24346715051183601 0 0.33105460538042181 0.15367455141680961 0 0.34572341344717711 0.14959050594544329 0 0.34426569164434612 0.13799466983570349 0 0.33105460538042181 0.15367455141680961 0 0.33650562593217559 0.1406151001273809 0 0.34426569164434612 0.13799466983570349 0 0.33105460538042181 0.15367455141680961 0 0.34426569164434612 0.13799466983570349 0 0.33105460538042181 0.15367455141680961 0 0.34371433190408601 0.1600555114592698 0 0.34572341344717711 0.14959050594544329 0 0.33650562593217559 0.1406151001273809 0 0.33104275048739362 0.1292100661940139 0 0.34426569164434612 0.13799466983570349 0 0.33650562593217559 0.1406151001273809 0 0.34426569164434612 0.13799466983570349 0 0.34577693238427848 0.1237294979255172 0 0.33104275048739362 0.1292100661940139 0 0.34426569164434612 0.13799466983570349 0 0.33104275048739362 0.1292100661940139 0 0.31883649747246962 0.1267791566742949 0 0.31390585053818609 0.15047836340956569 0 0.33650562593217559 0.1406151001273809 0 0.33104275048739362 0.1292100661940139 0 0.31390585053818609 0.15047836340956569 0 0.33104275048739362 0.1292100661940139 0 0.31390585053818609 0.15047836340956569 0 0.30636543685551509 0.12686377281768879 0 0.31883649747246962 0.1267791566742949 0 0.31390585053818609 0.15047836340956569 0 0.33105460538042181 0.15367455141680961 0 0.33650562593217559 0.1406151001273809 0 0.31390585053818609 0.15047836340956569 0 0.33105460538042181 0.15367455141680961 0 0.31390585053818609 0.15047836340956569 0 0.31915578157318941 0.1620529440382649 0 0.30231687763786452 0.163307755818417 0 0.31915578157318941 0.1620529440382649 0 0.31611331061617581 0.175143027450849 0 0.31915578157318941 0.1620529440382649 0 0.31611331061617581 0.175143027450849 0 0.33238826369329832 0.16766102209568329 0 0.33105460538042181 0.15367455141680961 0 0.31915578157318941 0.1620529440382649 0 0.33238826369329832 0.16766102209568329 0 0.31611331061617581 0.175143027450849 0 0.32770663971386949 0.18152772759853469 0 0.33238826369329832 0.16766102209568329 0 0.31683025157673023 0.19361267197804941 0 0.31611331061617581 0.175143027450849 0 0.32770663971386949 0.18152772759853469 0 0.33368194430919179 0.19290643219686379 0 0.32770663971386949 0.18152772759853469 0 0.33951942837395183 0.1783154842712282 0 0.32770663971386949 0.18152772759853469 0 0.33951942837395183 0.1783154842712282 0 0.33238826369329832 0.16766102209568329 0 0.33951942837395183 0.1783154842712282 0 0.33238826369329832 0.16766102209568329 0 0.34596638474908348 0.16981411757007819 0 0.33368194430919179 0.19290643219686379 0 0.34551353380974631 0.1883981607682633 0 0.33951942837395183 0.1783154842712282 0 0.33105460538042181 0.15367455141680961 0 0.33238826369329832 0.16766102209568329 0 0.34371433190408601 0.1600555114592698 0 0.33238826369329832 0.16766102209568329 0 0.34371433190408601 0.1600555114592698 0 0.34596638474908348 0.16981411757007819 0 0.34371433190408601 0.1600555114592698 0 0.35326334663627812 0.16480768889146191 0 0.3534817694335462 0.15482633235905849 0 0.34371433190408601 0.1600555114592698 0 0.34596638474908348 0.16981411757007819 0 0.35326334663627812 0.16480768889146191 0 0.34596638474908348 0.16981411757007819 0 0.35326334663627812 0.16480768889146191 0 0.35687583822493169 0.17078833866341009 0 0.35326334663627812 0.16480768889146191 0 0.35877811616074262 0.1676701619984915 0 0.36021888800942742 0.1650125334578301 0 0.35326334663627812 0.16480768889146191 0 0.35687583822493169 0.17078833866341009 0 0.35877811616074262 0.1676701619984915 0 0.35326334663627812 0.16480768889146191 0 0.36021888800942742 0.1650125334578301 0 0.3534817694335462 0.15482633235905849 0 0.35824731445427571 0.19110428659113041 0 0.35687583822493169 0.17078833866341009 0 0.36266254664266501 0.16746419767323401 0 0.35824731445427571 0.19110428659113041 0 0.35687583822493169 0.17078833866341009 0 0.3493994405186327 0.17935338732375031 0 0.34551353380974631 0.1883981607682633 0 0.35824731445427571 0.19110428659113041 0 0.3493994405186327 0.17935338732375031 0 0.34551353380974631 0.1883981607682633 0 0.33951942837395183 0.1783154842712282 0 0.3493994405186327 0.17935338732375031 0 0.33951942837395183 0.1783154842712282 0 0.34596638474908348 0.16981411757007819 0 0.3493994405186327 0.17935338732375031 0 0.34596638474908348 0.16981411757007819 0 0.35687583822493169 0.17078833866341009 0 0.3493994405186327 0.17935338732375031 0 0.35824731445427571 0.19110428659113041 0 0.36266254664266501 0.16746419767323401 0 0.37710264885385569 0.18195160658395659 0 0.35824731445427571 0.19110428659113041 0 0.36266254664266501 0.16746419767323401 0 0.36266254664266501 0.16746419767323401 0 0.37710264885385569 0.18195160658395659 0 0.36266254664266501 0.16746419767323401 0 0.37516658400280412 0.16842953842616229 0 0.37710264885385569 0.18195160658395659 0 0.36266254664266501 0.16746419767323401 0 0.36621896922562552 0.14842235740219301 0 0.36266254664266501 0.16746419767323401 0 0.37218955561025707 0.1594579937669085 0 0.36621896922562552 0.14842235740219301 0 0.36021888800942742 0.1650125334578301 0 0.36266254664266501 0.16746419767323401 0 0.36621896922562552 0.14842235740219301 0 0.35877811616074262 0.1676701619984915 0 0.36021888800942742 0.1650125334578301 0 0.36266254664266501 0.16746419767323401 0 0.36021888800942742 0.1650125334578301 0 0.36266254664266501 0.16746419767323401 0 0.35687583822493169 0.17078833866341009 0 0.35877811616074262 0.1676701619984915 0 0.36266254664266501 0.16746419767323401 0 0.36266254664266501 0.16746419767323401 0 0.37218955561025707 0.1594579937669085 0 0.37516658400280412 0.16842953842616229 0 0.37218955561025707 0.1594579937669085 0 0.36621896922562552 0.14842235740219301 0 0.37590656515625159 0.1525836312199606 0 0.36021888800942742 0.1650125334578301 0 0.36621896922562552 0.14842235740219301 0 0.3534817694335462 0.15482633235905849 0 0.3534817694335462 0.15482633235905849 0 0.35589304711185649 0.1440428765347101 0 0.34572341344717711 0.14959050594544329 0 0.36621896922562552 0.14842235740219301 0 0.3534817694335462 0.15482633235905849 0 0.35589304711185649 0.1440428765347101 0 0.35589304711185649 0.1440428765347101 0 0.34572341344717711 0.14959050594544329 0 0.34426569164434612 0.13799466983570349 0 0.34371433190408601 0.1600555114592698 0 0.3534817694335462 0.15482633235905849 0 0.34572341344717711 0.14959050594544329 0 0.34577693238427848 0.1237294979255172 0 0.35961963696877319 0.1197714866938895 0 0.34426569164434612 0.13799466983570349 0 0.35961963696877319 0.1197714866938895 0 0.34426569164434612 0.13799466983570349 0 0.35589304711185649 0.1440428765347101 0 0.34426569164434612 0.13799466983570349 0 0.36977539180858737 0.12938051713115239 0 0.34426569164434612 0.13799466983570349 0 0.36977539180858737 0.12938051713115239 0 0.35961963696877319 0.1197714866938895 0 0.34426569164434612 0.13799466983570349 0 0.36977539180858737 0.12938051713115239 0 0.36621896922562552 0.14842235740219301 0 0.35589304711185649 0.1440428765347101 0 0.36977539180858737 0.12938051713115239 0 0.36621896922562552 0.14842235740219301 0 0.36977539180858737 0.12938051713115239 0 0.36621896922562552 0.14842235740219301 0 0.36977539180858737 0.12938051713115239 0 0.38408249808457839 0.1438677586787106 0 0.36977539180858737 0.12938051713115239 0 0.38408249808457839 0.1438677586787106 0 0.39399621849110639 0.1212015931010629 0 0.36977539180858737 0.12938051713115239 0 0.39399621849110639 0.1212015931010629 0 0.40262835380947959 0.1400517654867543 0 0.38408249808457839 0.1438677586787106 0 0.39399621849110639 0.1212015931010629 0 0.40262835380947959 0.1400517654867543 0 0.42005462278282413 0.1284513351679232 0 0.39399621849110639 0.1212015931010629 0 0.40262835380947959 0.1400517654867543 0 0.39758892080297259 0.15707889797138999 0 0.41741950888591628 0.1496592425146849 0 0.40262835380947959 0.1400517654867543 0 0.38408249808457839 0.1438677586787106 0 0.39758892080297259 0.15707889797138999 0 0.36621896922562552 0.14842235740219301 0 0.38408249808457839 0.1438677586787106 0 0.37590656515625159 0.1525836312199606 0 0.38408249808457839 0.1438677586787106 0 0.38094306912231768 0.16102539519783859 0 0.39758892080297259 0.15707889797138999 0 0.38408249808457839 0.1438677586787106 0 0.37590656515625159 0.1525836312199606 0 0.38094306912231768 0.16102539519783859 0 0.37218955561025707 0.1594579937669085 0 0.37590656515625159 0.1525836312199606 0 0.38094306912231768 0.16102539519783859 0 0.37218955561025707 0.1594579937669085 0 0.38094306912231768 0.16102539519783859 0 0.37516658400280412 0.16842953842616229 0 0.38094306912231768 0.16102539519783859 0 0.38453266138099051 0.17089934015349209 0 0.39758892080297259 0.15707889797138999 0 0.38094306912231768 0.16102539519783859 0 0.37516658400280412 0.16842953842616229 0 0.38453266138099051 0.17089934015349209 0 0.37710264885385569 0.18195160658395659 0 0.39636578081788848 0.1750803629615818 0 0.39154275106504588 0.1964390154946799 0 0.38453266138099051 0.17089934015349209 0 0.37710264885385569 0.18195160658395659 0 0.39636578081788848 0.1750803629615818 0 0.37516658400280412 0.16842953842616229 0 0.38453266138099051 0.17089934015349209 0 0.37710264885385569 0.18195160658395659 0 0.39636578081788848 0.1750803629615818 0 0.41405428663192739 0.1799859333857135 0 0.39154275106504588 0.1964390154946799 0 0.39636578081788848 0.1750803629615818 0 0.39758892080297259 0.15707889797138999 0 0.4133734161725387 0.16412738418025849 0 0.38453266138099051 0.17089934015349209 0 0.39636578081788848 0.1750803629615818 0 0.39758892080297259 0.15707889797138999 0 0.4133734161725387 0.16412738418025849 0 0.43458146272079701 0.164405790237516 0 0.41741950888591628 0.1496592425146849 0 0.39758892080297259 0.15707889797138999 0 0.4133734161725387 0.16412738418025849 0 0.41741950888591628 0.1496592425146849 0 0.4133734161725387 0.16412738418025849 0 0.41405428663192739 0.1799859333857135 0 0.43458146272079701 0.164405790237516 0 0.39636578081788848 0.1750803629615818 0 0.4133734161725387 0.16412738418025849 0 0.41405428663192739 0.1799859333857135 0 0.41405428663192739 0.1799859333857135 0 0.43458146272079701 0.164405790237516 0 0.44179583938944123 0.18279295940366361 0 0.41405428663192739 0.1799859333857135 0 0.41865141384508697 0.19663205850688731 0 0.44179583938944123 0.18279295940366361 0 0.43458146272079701 0.164405790237516 0 0.41741950888591628 0.1496592425146849 0 0.44004096708711732 0.14308074597372439 0 0.42005462278282413 0.1284513351679232 0 0.41741950888591628 0.1496592425146849 0 0.44004096708711732 0.14308074597372439 0 0.42005462278282413 0.1284513351679232 0 0.44004096708711732 0.14308074597372439 0 0.42005462278282413 0.1284513351679232 0 0.44004096708711732 0.14308074597372439 0 0.43023583737169768 0.1199684096028463 0 0.40262835380947959 0.1400517654867543 0 0.42005462278282413 0.1284513351679232 0 0.41741950888591628 0.1496592425146849 0 0.39518507069482911 0.22891315441814669 0 0.41045727945377247 0.23224532373583689 0 0.40681097746815043 0.24944788258450881 0 0.38805339756136181 0.24091082639879571 0 0.39518507069482911 0.22891315441814669 0 0.40681097746815043 0.24944788258450881 0 0.3709836007202828 0.23729508748735409 0 0.38805339756136181 0.24091082639879571 0 0.38109556909281761 0.22842225584997369 0 0.38619176983072928 0.26047575165399511 0 0.3709836007202828 0.23729508748735409 0 0.38619176983072928 0.26047575165399511 0 0.3709836007202828 0.23729508748735409 0 0.38805339756136181 0.24091082639879571 0 0.38805339756136181 0.24091082639879571 0 0.38109556909281761 0.22842225584997369 0 0.39518507069482911 0.22891315441814669 0 0.38109556909281761 0.22842225584997369 0 0.39518507069482911 0.22891315441814669 0 0.380879142443036 0.21252042386305911 0 0.37227916757123858 0.22300749187684549 0 0.38109556909281761 0.22842225584997369 0 0.380879142443036 0.21252042386305911 0 0.39518507069482911 0.22891315441814669 0 0.4059828532762349 0.21092642440540429 0 0.41045727945377247 0.23224532373583689 0 0.39518507069482911 0.22891315441814669 0 0.4059828532762349 0.21092642440540429 0 0.380879142443036 0.21252042386305911 0 0.4059828532762349 0.21092642440540429 0 0.380879142443036 0.21252042386305911 0 0.39154275106504588 0.1964390154946799 0 0.4059828532762349 0.21092642440540429 0 0.380879142443036 0.21252042386305911 0 0.4059828532762349 0.21092642440540429 0 0.39154275106504588 0.1964390154946799 0 0.36772040959694341 0.20375978200797679 0 0.380879142443036 0.21252042386305911 0 0.37736777437545532 0.19580619808172939 0 0.380879142443036 0.21252042386305911 0 0.37736777437545532 0.19580619808172939 0 0.39154275106504588 0.1964390154946799 0 0.37710264885385569 0.18195160658395659 0 0.37736777437545532 0.19580619808172939 0 0.39154275106504588 0.1964390154946799 0 0.37710264885385569 0.18195160658395659 0 0.39154275106504588 0.1964390154946799 0 0.4059828532762349 0.21092642440540429 0 0.39154275106504588 0.1964390154946799 0 0.41865141384508697 0.19663205850688731 0 0.41405428663192739 0.1799859333857135 0 0.39154275106504588 0.1964390154946799 0 0.41865141384508697 0.19663205850688731 0 0.41865141384508697 0.19663205850688731 0 0.43564675486478838 0.1989987418994322 0 0.44179583938944123 0.18279295940366361 0 0.41865141384508697 0.19663205850688731 0 0.43564675486478838 0.1989987418994322 0 0.42839414577896018 0.20950338426875159 0 0.4059828532762349 0.21092642440540429 0 0.42839414577896018 0.20950338426875159 0 0.4059828532762349 0.21092642440540429 0 0.42839414577896018 0.20950338426875159 0 0.42613138493428321 0.23114096394339739 0 0.4059828532762349 0.21092642440540429 0 0.41865141384508697 0.19663205850688731 0 0.42839414577896018 0.20950338426875159 0 0.4059828532762349 0.21092642440540429 0 0.41045727945377247 0.23224532373583689 0 0.42613138493428321 0.23114096394339739 0 0.4059828532762349 0.21092642440540429 0 0.42613138493428321 0.23114096394339739 0 0.42839414577896018 0.20950338426875159 0 0.42613138493428321 0.23114096394339739 0 0.44107831352899007 0.22240315743779901 0 0.42613138493428321 0.23114096394339739 0 0.44141484686645971 0.2363826917816115 0 0.44107831352899007 0.22240315743779901 0 0.44144799578287552 0.25063407380050812 0 0.42551448812707099 0.2427765896032141 0 0.44141484686645971 0.2363826917816115 0 0.42613138493428321 0.23114096394339739 0 0.42551448812707099 0.2427765896032141 0 0.44141484686645971 0.2363826917816115 0 0.41045727945377247 0.23224532373583689 0 0.42551448812707099 0.2427765896032141 0 0.40681097746815043 0.24944788258450881 0 0.41045727945377247 0.23224532373583689 0 0.42613138493428321 0.23114096394339739 0 0.42551448812707099 0.2427765896032141 0 0.42682444425688543 0.2568086017734223 0 0.42551448812707099 0.2427765896032141 0 0.40681097746815043 0.24944788258450881 0 0.46453561629844292 0.24661705348532301 0 0.45233578662085638 0.24345101764042529 0 0.45767052729006419 0.22734869880870889 0 0.46453561629844292 0.24661705348532301 0 0.46744138198431612 0.23472461049082541 0 0.45767052729006419 0.22734869880870889 0 0.46453561629844292 0.24661705348532301 0 0.45767052729006419 0.22734869880870889 0 0.46453561629844292 0.24661705348532301 0 0.46744138198431612 0.23472461049082541 0 0.47400380033395922 0.24505942253569801 0 0.45318009078529609 0.25750025464848258 0 0.46453561629844292 0.24661705348532301 0 0.45233578662085638 0.24345101764042529 0 0.45233578662085638 0.24345101764042529 0 0.44141484686645971 0.2363826917816115 0 0.45767052729006419 0.22734869880870889 0 0.44144799578287552 0.25063407380050812 0 0.45233578662085638 0.24345101764042529 0 0.44141484686645971 0.2363826917816115 0 0.44107831352899007 0.22240315743779901 0 0.45767052729006419 0.22734869880870889 0 0.45080543828168518 0.208080344132095 0 0.44141484686645971 0.2363826917816115 0 0.44107831352899007 0.22240315743779901 0 0.45767052729006419 0.22734869880870889 0 0.45767052729006419 0.22734869880870889 0 0.45948663533737172 0.21724718246994451 0 0.47660689536109763 0.22423343690945899 0 0.46744138198431612 0.23472461049082541 0 0.45767052729006419 0.22734869880870889 0 0.47660689536109763 0.22423343690945899 0 0.45767052729006419 0.22734869880870889 0 0.45948663533737172 0.21724718246994451 0 0.45080543828168518 0.208080344132095 0 0.45767052729006419 0.22734869880870889 0 0.45080543828168518 0.208080344132095 0 0.46733143084421991 0.21056630783729521 0 0.45948663533737172 0.21724718246994451 0 0.47660689536109763 0.22423343690945899 0 0.46733143084421991 0.21056630783729521 0 0.45552062363709628 0.2077809460491119 0 0.46643421116001149 0.19933698748422499 0 0.45552062363709628 0.2077809460491119 0 0.45080543828168518 0.208080344132095 0 0.4542965334241944 0.19533530954417791 0 0.45552062363709628 0.2077809460491119 0 0.45080543828168518 0.208080344132095 0 0.45552062363709628 0.2077809460491119 0 0.45948663533737172 0.21724718246994451 0 0.45080543828168518 0.208080344132095 0 0.46733143084421991 0.21056630783729521 0 0.45552062363709628 0.2077809460491119 0 0.45948663533737172 0.21724718246994451 0 0.43564675486478838 0.1989987418994322 0 0.42839414577896018 0.20950338426875159 0 0.45080543828168518 0.208080344132095 0 0.42839414577896018 0.20950338426875159 0 0.44107831352899007 0.22240315743779901 0 0.45080543828168518 0.208080344132095 0 0.42839414577896018 0.20950338426875159 0 0.45080543828168518 0.208080344132095 0 0.43564675486478838 0.1989987418994322 0 0.45080543828168518 0.208080344132095 0 0.44179583938944123 0.18279295940366361 0 0.45080543828168518 0.208080344132095 0 0.4542965334241944 0.19533530954417791 0 0.44179583938944123 0.18279295940366361 0 0.45080543828168518 0.208080344132095 0 0.44179583938944123 0.18279295940366361 0 0.45552062363709628 0.2077809460491119 0 0.4542965334241944 0.19533530954417791 0 0.46643421116001149 0.19933698748422499 0 0.4542965334241944 0.19533530954417791 0 0.46643421116001149 0.19933698748422499 0 0.46615628348580662 0.18630483239621581 0 0.46643421116001149 0.19933698748422499 0 0.47955332675774759 0.18787199624996051 0 0.46615628348580662 0.18630483239621581 0 0.46643421116001149 0.19933698748422499 0 0.47955332675774759 0.18787199624996051 0 0.47920999038823597 0.20340745128321991 0 0.5 0.21495747021886261 0 0.47920999038823597 0.20340745128321991 0 0.49999999999999772 0.18696897839112661 0 0.47955332675774759 0.18787199624996051 0 0.47920999038823597 0.20340745128321991 0 0.49999999999999772 0.18696897839112661 0 0.5 0.21495747021886261 0 0.47920999038823597 0.20340745128321991 0 0.47660689536109763 0.22423343690945899 0 0.47920999038823597 0.20340745128321991 0 0.47660689536109763 0.22423343690945899 0 0.46733143084421991 0.21056630783729521 0 0.47920999038823597 0.20340745128321991 0 0.47660689536109763 0.22423343690945899 0 0.46733143084421991 0.21056630783729521 0 0.46643421116001149 0.19933698748422499 0 0.47920999038823597 0.20340745128321991 0 0.5 0.21495747021886261 0 0.5 0.2429459620465986 0 0.4863535157909134 0.236027369455687 0 0.5 0.21495747021886261 0 0.47660689536109763 0.22423343690945899 0 0.4863535157909134 0.236027369455687 0 0.48722746125550248 0.25680108687804298 0 0.5 0.2429459620465986 0 0.4863535157909134 0.236027369455687 0 0.46744138198431612 0.23472461049082541 0 0.47660689536109763 0.22423343690945899 0 0.47400380033395922 0.24505942253569801 0 0.47660689536109763 0.22423343690945899 0 0.47400380033395922 0.24505942253569801 0 0.47660689536109763 0.22423343690945899 0 0.4863535157909134 0.236027369455687 0 0.47400380033395922 0.24505942253569801 0 0.48722746125550248 0.25680108687804298 0 0.4863535157909134 0.236027369455687 0 0.47400380033395922 0.24505942253569801 0 0.45716933912721103 0.13370858556600251 0 0.46002731139141051 0.15771015677952541 0 0.47931511875825011 0.1451181435214558 0 0.45716933912721103 0.13370858556600251 0 0.47221165969688461 0.126594440717054 0 0.46016341372968672 0.1163658273432065 0 0.44004096708711732 0.14308074597372439 0 0.44522783739417299 0.1149429434068895 0 0.43023583737169768 0.1199684096028463 0 0.45716933912721103 0.13370858556600251 0 0.44004096708711732 0.14308074597372439 0 0.44522783739417299 0.1149429434068895 0 0.44004096708711732 0.14308074597372439 0 0.46002731139141051 0.15771015677952541 0 0.45716933912721103 0.13370858556600251 0 0.44004096708711732 0.14308074597372439 0 0.46002731139141051 0.15771015677952541 0 0.43458146272079701 0.164405790237516 0 0.44004096708711732 0.14308074597372439 0 0.46002731139141051 0.15771015677952541 0 0.43458146272079701 0.164405790237516 0 0.45564545159023978 0.17457642960216599 0 0.46002731139141051 0.15771015677952541 0 0.4542965334241944 0.19533530954417791 0 0.44179583938944123 0.18279295940366361 0 0.45564545159023978 0.17457642960216599 0 0.43458146272079701 0.164405790237516 0 0.44179583938944123 0.18279295940366361 0 0.45564545159023978 0.17457642960216599 0 0.45564545159023978 0.17457642960216599 0 0.46615628348580662 0.18630483239621581 0 0.4800136556957037 0.17233956758532659 0 0.4542965334241944 0.19533530954417791 0 0.45564545159023978 0.17457642960216599 0 0.46615628348580662 0.18630483239621581 0 0.45564545159023978 0.17457642960216599 0 0.46002731139141051 0.15771015677952541 0 0.4800136556957037 0.17233956758532659 0 0.46002731139141051 0.15771015677952541 0 0.4800136556957037 0.17233956758532659 0 0.46002731139141051 0.15771015677952541 0 0.4800136556957037 0.17233956758532659 0 0.47931511875825011 0.1451181435214558 0 0.47955332675774759 0.18787199624996051 0 0.46615628348580662 0.18630483239621581 0 0.4800136556957037 0.17233956758532659 0 0.47955332675774759 0.18787199624996051 0 0.4800136556957037 0.17233956758532659 0 0.49999999999999772 0.18696897839112661 0 0.4800136556957037 0.17233956758532659 0 0.49999999999999772 0.18696897839112661 0 0.4800136556957037 0.17233956758532659 0 0.49999999999999772 0.18696897839112661 0 0.5 0.16239412046184379 0 0.4800136556957037 0.17233956758532659 0 0.5 0.16239412046184379 0 0.47931511875825011 0.1451181435214558 0 0.5 0.16239412046184379 0 0.47931511875825011 0.1451181435214558 0 0.5 0.1378192625325608 0 0.45716933912721103 0.13370858556600251 0 0.47931511875825011 0.1451181435214558 0 0.47221165969688461 0.126594440717054 0 0.47931511875825011 0.1451181435214558 0 0.47221165969688461 0.126594440717054 0 0.48769762428109181 0.12567083168264331 0 0.47931511875825011 0.1451181435214558 0 0.48769762428109181 0.12567083168264331 0 0.5 0.1378192625325608 0 0.48769762428109181 0.12567083168264331 0 0.5 0.1378192625325608 0 0.5 0.113244404603278 0 0.48769762428109181 0.12567083168264331 0 0.5 0.113244404603278 0 0.47969202172286129 0.10755279225286429 0 0.5 0.113244404603278 0 0.47969202172286129 0.10755279225286429 0 0.5 0.08866954667399507 0 0.47969202172286129 0.10755279225286429 0 0.4785733246148749 0.083062926926930625 0 0.45994878521928068 0.099413419383832857 0 0.47221165969688461 0.126594440717054 0 0.48769762428109181 0.12567083168264331 0 0.47969202172286129 0.10755279225286429 0 0.47221165969688461 0.126594440717054 0 0.47969202172286129 0.10755279225286429 0 0.46016341372968672 0.1163658273432065 0 0.49999999999999922 0.064094688744712261 0 0.4785733246148749 0.083062926926930625 0 0.47843642230431782 0.060569764201273593 0 0.47969202172286129 0.10755279225286429 0 0.5 0.08866954667399507 0 0.4785733246148749 0.083062926926930625 0 0.49999999999999922 0.064094688744712261 0 0.5 0.08866954667399507 0 0.4785733246148749 0.083062926926930625 0 0.4785733246148749 0.083062926926930625 0 0.45716194001537619 0.077603774503307521 0 0.47843642230431782 0.060569764201273593 0 0.45716194001537619 0.077603774503307521 0 0.45687284460863642 0.057044839657834773 0 0.47843642230431782 0.060569764201273593 0 0.45716194001537619 0.077603774503307521 0 0.45994878521928068 0.099413419383832857 0 0.4447284279767767 0.094956887415673166 0 0.4785733246148749 0.083062926926930625 0 0.45716194001537619 0.077603774503307521 0 0.45994878521928068 0.099413419383832857 0 0.45716194001537619 0.077603774503307521 0 0.4377967514900582 0.081529970841515378 0 0.4447284279767767 0.094956887415673166 0 0.45716194001537619 0.077603774503307521 0 0.44346528053295098 0.067375836776747203 0 0.45687284460863642 0.057044839657834773 0 0.45716194001537619 0.077603774503307521 0 0.4377967514900582 0.081529970841515378 0 0.44346528053295098 0.067375836776747203 0 0.45716933912721103 0.13370858556600251 0 0.46016341372968672 0.1163658273432065 0 0.44522783739417299 0.1149429434068895 0 0.46016341372968672 0.1163658273432065 0 0.45994878521928068 0.099413419383832857 0 0.44522783739417299 0.1149429434068895 0 0.47969202172286129 0.10755279225286429 0 0.46016341372968672 0.1163658273432065 0 0.45994878521928068 0.099413419383832857 0 0.45994878521928068 0.099413419383832857 0 0.4447284279767767 0.094956887415673166 0 0.44522783739417299 0.1149429434068895 0 0.4447284279767767 0.094956887415673166 0 0.44522783739417299 0.1149429434068895 0 0.42763871442074808 0.10034435439472079 0 0.44522783739417299 0.1149429434068895 0 0.43023583737169768 0.1199684096028463 0 0.42763871442074808 0.10034435439472079 0 0.43023583737169768 0.1199684096028463 0 0.4182170451736254 0.11302266907097359 0 0.42763871442074808 0.10034435439472079 0 0.42005462278282413 0.1284513351679232 0 0.43023583737169768 0.1199684096028463 0 0.4182170451736254 0.11302266907097359 0 0.42005462278282413 0.1284513351679232 0 0.4182170451736254 0.11302266907097359 0 0.39399621849110639 0.1212015931010629 0 0.4182170451736254 0.11302266907097359 0 0.40766102265843601 0.10376479596222531 0 0.39399621849110639 0.1212015931010629 0 0.4182170451736254 0.11302266907097359 0 0.40766102265843601 0.10376479596222531 0 0.42763871442074808 0.10034435439472079 0 0.40766102265843601 0.10376479596222531 0 0.42763871442074808 0.10034435439472079 0 0.41212267280118409 0.089566440000335756 0 0.40766102265843601 0.10376479596222531 0 0.41212267280118409 0.089566440000335756 0 0.39938615103699437 0.093818713285511349 0 0.4377967514900582 0.081529970841515378 0 0.42763871442074808 0.10034435439472079 0 0.42403865869792601 0.086093439238671798 0 0.4377967514900582 0.081529970841515378 0 0.4447284279767767 0.094956887415673166 0 0.42763871442074808 0.10034435439472079 0 0.4377967514900582 0.081529970841515378 0 0.42403865869792601 0.086093439238671798 0 0.42641479738374982 0.071194279203422042 0 0.4377967514900582 0.081529970841515378 0 0.44346528053295098 0.067375836776747203 0 0.42641479738374982 0.071194279203422042 0 0.44346528053295098 0.067375836776747203 0 0.42641479738374982 0.071194279203422042 0 0.43530926691295491 0.053519915114395938 0 0.42641479738374982 0.071194279203422042 0 0.41408751184818288 0.076274642995838526 0 0.41668109015078048 0.060321018968651587 0 0.41408751184818288 0.076274642995838526 0 0.40288127288982228 0.068425419103723073 0 0.41668109015078048 0.060321018968651587 0 0.42403865869792601 0.086093439238671798 0 0.42641479738374982 0.071194279203422042 0 0.41408751184818288 0.076274642995838526 0 0.41408751184818288 0.076274642995838526 0 0.40238657916563447 0.082047261460226881 0 0.40288127288982228 0.068425419103723073 0 0.42763871442074808 0.10034435439472079 0 0.42403865869792601 0.086093439238671798 0 0.41212267280118409 0.089566440000335756 0 0.42403865869792601 0.086093439238671798 0 0.41408751184818288 0.076274642995838526 0 0.41212267280118409 0.089566440000335756 0 0.41408751184818288 0.076274642995838526 0 0.41212267280118409 0.089566440000335756 0 0.40238657916563447 0.082047261460226881 0 0.41212267280118409 0.089566440000335756 0 0.40238657916563447 0.082047261460226881 0 0.39938615103699437 0.093818713285511349 0 0.40238657916563447 0.082047261460226881 0 0.40288127288982228 0.068425419103723073 0 0.38892742759151128 0.084986861327899371 0 0.40238657916563447 0.082047261460226881 0 0.38892742759151128 0.084986861327899371 0 0.39938615103699437 0.093818713285511349 0 0.38892742759151128 0.084986861327899371 0 0.38826326685636209 0.098652864225125911 0 0.39938615103699437 0.093818713285511349 0 0.40288127288982228 0.068425419103723073 0 0.38800965188138797 0.067359575457755852 0 0.40432212744439028 0.05347617298120954 0 0.40288127288982228 0.068425419103723073 0 0.38892742759151128 0.084986861327899371 0 0.38798879278853271 0.080339117347540331 0 0.40288127288982228 0.068425419103723073 0 0.38892742759151128 0.084986861327899371 0 0.40288127288982228 0.068425419103723073 0 0.38800965188138797 0.067359575457755852 0 0.38798879278853271 0.080339117347540331 0 0.3686285935653984 0.082562954753238868 0 0.37368610641380767 0.069298039188229563 0 0.38800965188138797 0.067359575457755852 0 0.36531655038580868 0.086673471762910501 0 0.38800965188138797 0.067359575457755852 0 0.38800965188138797 0.067359575457755852 0 0.37647922074593232 0.083356910721568186 0 0.38213324459839199 0.081483758981058085 0 0.38800965188138797 0.067359575457755852 0 0.38798879278853271 0.080339117347540331 0 0.38800965188138797 0.067359575457755852 0 0.38798879278853271 0.080339117347540331 0 0.38213324459839199 0.081483758981058085 0 0.37368610641380767 0.069298039188229563 0 0.38800965188138797 0.067359575457755852 0 0.37629973611750162 0.057133884090869731 0 0.37497358229320049 0.10154830355207579 0 0.38892742759151128 0.084986861327899371 0 0.37497358229320049 0.10154830355207579 0 0.38892742759151128 0.084986861327899371 0 0.37684180320149779 0.091545452851138936 0 0.36531655038580868 0.086673471762910501 0 0.38800965188138797 0.067359575457755852 0 0.37647922074593232 0.083356910721568186 0 0.38892742759151128 0.084986861327899371 0 0.3849242374013872 0.08337667236388048 0 0.37684180320149779 0.091545452851138936 0 0.38892742759151128 0.084986861327899371 0 0.38798879278853271 0.080339117347540331 0 0.3849242374013872 0.08337667236388048 0 0.38798879278853271 0.080339117347540331 0 0.3849242374013872 0.08337667236388048 0 0.38213324459839199 0.081483758981058085 0 0.3849242374013872 0.08337667236388048 0 0.38213324459839199 0.081483758981058085 0 0.37684180320149779 0.091545452851138936 0 0.37647922074593232 0.083356910721568186 0 0.38213324459839199 0.081483758981058085 0 0.37684180320149779 0.091545452851138936 0 0.37199198662207139 0.089080455090655153 0 0.37647922074593232 0.083356910721568186 0 0.37684180320149779 0.091545452851138936 0 0.37497358229320049 0.10154830355207579 0 0.38892742759151128 0.084986861327899371 0 0.38826326685636209 0.098652864225125911 0 0.37497358229320049 0.10154830355207579 0 0.37684180320149779 0.091545452851138936 0 0.37497358229320049 0.10154830355207579 0 0.38826326685636209 0.098652864225125911 0 0.38533294109085808 0.11055412036022549 0 0.38826326685636209 0.098652864225125911 0 0.38533294109085808 0.11055412036022549 0 0.39460533402695769 0.10463500592074761 0 0.37497358229320049 0.10154830355207579 0 0.36977539180858737 0.12938051713115239 0 0.38533294109085808 0.11055412036022549 0 0.36977539180858737 0.12938051713115239 0 0.38533294109085808 0.11055412036022549 0 0.39399621849110639 0.1212015931010629 0 0.40766102265843601 0.10376479596222531 0 0.39399621849110639 0.1212015931010629 0 0.39460533402695769 0.10463500592074761 0 0.38533294109085808 0.11055412036022549 0 0.39399621849110639 0.1212015931010629 0 0.39460533402695769 0.10463500592074761 0 0.4182170451736254 0.11302266907097359 0 0.39399621849110639 0.1212015931010629 0 0.40766102265843601 0.10376479596222531 0 0.39938615103699437 0.093818713285511349 0 0.39460533402695769 0.10463500592074761 0 0.38826326685636209 0.098652864225125911 0 0.39938615103699437 0.093818713285511349 0 0.39460533402695769 0.10463500592074761 0 0.38809510434950978 0.014186894499208531 0 0.40227664223542231 0.03346882998773771 0 0.41027899826036868 0.019315076975124329 0 0.38809510434950978 0.014186894499208531 0 0.38805237811544963 0.040773234978482217 0 0.40227664223542231 0.03346882998773771 0 0.38809510434950978 0.014186894499208531 0 0.41027899826036868 0.019315076975124329 0 0.41153685578036397 -0.0019629210903366261 0 0.38809510434950978 0.014186894499208531 0 0.38813783058356999 -0.012399445980065191 0 0.36528524993471517 -0.00050110304122203656 0 0.38809510434950978 0.014186894499208531 0 0.38813783058356999 -0.012399445980065191 0 0.36660895407805488 0.032420410302755692 0 0.38809510434950978 0.014186894499208531 0 0.38805237811544963 0.040773234978482217 0 0.38809510434950978 0.014186894499208531 0 0.38805237811544963 0.040773234978482217 0 0.37051694284251602 0.045934513972437287 0 0.36660895407805488 0.032420410302755692 0 0.38805237811544963 0.040773234978482217 0 0.37051694284251602 0.045934513972437287 0 0.38805237811544963 0.040773234978482217 0 0.37629973611750162 0.057133884090869731 0 0.38800965188138797 0.067359575457755852 0 0.38805237811544963 0.040773234978482217 0 0.38800965188138797 0.067359575457755852 0 0.38805237811544963 0.040773234978482217 0 0.37629973611750162 0.057133884090869731 0 0.38800965188138797 0.067359575457755852 0 0.38805237811544963 0.040773234978482217 0 0.40432212744439028 0.05347617298120954 0 0.38800965188138797 0.067359575457755852 0 0.40432212744439028 0.05347617298120954 0 0.38805237811544963 0.040773234978482217 0 0.40432212744439028 0.05347617298120954 0 0.40227664223542231 0.03346882998773771 0 0.40432212744439028 0.05347617298120954 0 0.40227664223542231 0.03346882998773771 0 0.42063460300739319 0.039592770504663921 0 0.40432212744439028 0.05347617298120954 0 0.42063460300739319 0.039592770504663921 0 0.40432212744439028 0.05347617298120954 0 0.42063460300739319 0.039592770504663921 0 0.41668109015078048 0.060321018968651587 0 0.40288127288982228 0.068425419103723073 0 0.40432212744439028 0.05347617298120954 0 0.41668109015078048 0.060321018968651587 0 0.42063460300739319 0.039592770504663921 0 0.41668109015078048 0.060321018968651587 0 0.43530926691295491 0.053519915114395938 0 0.42641479738374982 0.071194279203422042 0 0.41668109015078048 0.060321018968651587 0 0.43530926691295491 0.053519915114395938 0 0.42063460300739319 0.039592770504663921 0 0.43530926691295491 0.053519915114395938 0 0.44546029297815198 0.036401673327624867 0 0.42063460300739319 0.039592770504663921 0 0.43003026873756373 0.016124490894639638 0 0.44546029297815198 0.036401673327624867 0 0.42063460300739319 0.039592770504663921 0 0.43003026873756373 0.016124490894639638 0 0.41027899826036868 0.019315076975124329 0 0.40227664223542231 0.03346882998773771 0 0.42063460300739319 0.039592770504663921 0 0.41027899826036868 0.019315076975124329 0 0.43003026873756373 0.016124490894639638 0 0.41027899826036868 0.019315076975124329 0 0.41153685578036397 -0.0019629210903366261 0 0.43003026873756373 0.016124490894639638 0 0.41153685578036397 -0.0019629210903366261 0 0.43640101268708648 -0.0046410089372440266 0 0.43003026873756373 0.016124490894639638 0 0.4616163053097625 0.012947415970674491 0 0.44546029297815198 0.036401673327624867 0 0.43003026873756373 0.016124490894639638 0 0.4616163053097625 0.012947415970674491 0 0.43640101268708648 -0.0046410089372440266 0 0.4616163053097625 0.012947415970674491 0 0.44546029297815198 0.036401673327624867 0 0.46829846929260133 0.039180607823540471 0 0.4616163053097625 0.012947415970674491 0 0.46829846929260133 0.039180607823540471 0 0.43530926691295491 0.053519915114395938 0 0.44546029297815198 0.036401673327624867 0 0.45687284460863642 0.057044839657834773 0 0.43530926691295491 0.053519915114395938 0 0.45687284460863642 0.057044839657834773 0 0.44346528053295098 0.067375836776747203 0 0.43530926691295491 0.053519915114395938 0 0.45687284460863642 0.057044839657834773 0 0.44546029297815198 0.036401673327624867 0 0.46829846929260133 0.039180607823540471 0 0.45687284460863642 0.057044839657834773 0 0.45687284460863642 0.057044839657834773 0 0.47843642230431782 0.060569764201273593 0 0.46829846929260133 0.039180607823540471 0 0.45687284460863642 0.057044839657834773 0 0.47843642230431782 0.060569764201273593 0 0.46829846929260133 0.039180607823540471 0 0.47843642230431782 0.060569764201273593 0 0.48441281478572717 0.044639942984937397 0 0.46829846929260133 0.039180607823540471 0 0.48441281478572717 0.044639942984937397 0 0.48216351925400569 0.023912142869640291 0 0.5 0.037819669664003852 0 0.48441281478572717 0.044639942984937397 0 0.48216351925400569 0.023912142869640291 0 0.49999999999999922 0.064094688744712261 0 0.5 0.037819669664003852 0 0.48441281478572717 0.044639942984937397 0 0.49999999999999922 0.064094688744712261 0 0.47843642230431782 0.060569764201273593 0 0.49999999999999922 0.064094688744712261 0 0.47843642230431782 0.060569764201273593 0 0.48441281478572717 0.044639942984937397 0 0.4616163053097625 0.012947415970674491 0 0.48216351925400569 0.023912142869640291 0 0.47865352613594309 -0.0026594298086097842 0 0.4616163053097625 0.012947415970674491 0 0.46829846929260133 0.039180607823540471 0 0.48216351925400569 0.023912142869640291 0 0.5 0.037819669664003852 0 0.48216351925400569 0.023912142869640291 0 0.5 0.01154465058329535 0 0.48216351925400569 0.023912142869640291 0 0.5 0.01154465058329535 0 0.47865352613594309 -0.0026594298086097842 0 0.5 -0.01473036849741316 0 0.47865352613594309 -0.0026594298086097842 0 0.47637292076687249 -0.028438805409210361 0 0.5 0.01154465058329535 0 0.5 -0.01473036849741316 0 0.47865352613594309 -0.0026594298086097842 0 0.47865352613594309 -0.0026594298086097842 0 0.47637292076687249 -0.028438805409210361 0 0.45493414132692372 -0.0132857758821915 0 0.5 -0.01473036849741316 0 0.47637292076687249 -0.028438805409210361 0 0.5 -0.041005387578121673 0 0.47637292076687249 -0.028438805409210361 0 0.5 -0.041005387578121673 0 0.47713553681715642 -0.054702060209816189 0 0.5 -0.041005387578121673 0 0.47713553681715642 -0.054702060209816189 0 0.5 -0.067280406658830172 0 0.47637292076687249 -0.028438805409210361 0 0.47713553681715642 -0.054702060209816189 0 0.44825197734408501 -0.039518967735057448 0 0.47713553681715642 -0.054702060209816189 0 0.44825197734408501 -0.039518967735057448 0 0.45584838815641732 -0.069674586969383084 0 0.44825197734408501 -0.039518967735057448 0 0.45584838815641732 -0.069674586969383084 0 0.42702021602578372 -0.062854792704602702 0 0.44825197734408501 -0.039518967735057448 0 0.43765992936385267 -0.022868423134524252 0 0.45493414132692372 -0.0132857758821915 0 0.44825197734408501 -0.039518967735057448 0 0.45493414132692372 -0.0132857758821915 0 0.4616163053097625 0.012947415970674491 0 0.45493414132692372 -0.0132857758821915 0 0.43640101268708648 -0.0046410089372440266 0 0.43765992936385267 -0.022868423134524252 0 0.45493414132692372 -0.0132857758821915 0 0.43640101268708648 -0.0046410089372440266 0 0.4616163053097625 0.012947415970674491 0 0.45493414132692372 -0.0132857758821915 0 0.4616163053097625 0.012947415970674491 0 0.47865352613594309 -0.0026594298086097842 0 0.45493414132692372 -0.0132857758821915 0 0.47637292076687249 -0.028438805409210361 0 0.44825197734408501 -0.039518967735057448 0 0.45493414132692372 -0.0132857758821915 0 0.47219540412757982 -0.12133300917517389 0 0.48551511635360911 -0.1098011170494502 0 0.46336125576880138 -0.1073076282294157 0 0.47219540412757982 -0.12133300917517389 0 0.48551511635360911 -0.1098011170494502 0 0.50000000000000111 -0.1198304448202472 0 0.47219540412757982 -0.12133300917517389 0 0.50000000000000111 -0.1198304448202472 0 0.48551511635360911 -0.1098011170494502 0 0.47402371149438649 -0.094761193712666822 0 0.5 -0.093555425739538678 0 0.48551511635360911 -0.1098011170494502 0 0.50000000000000111 -0.1198304448202472 0 0.5 -0.093555425739538678 0 0.48551511635360911 -0.1098011170494502 0 0.47402371149438649 -0.094761193712666822 0 0.46336125576880138 -0.1073076282294157 0 0.47402371149438649 -0.094761193712666822 0 0.48140152729359209 -0.075994734658046986 0 0.45584838815641732 -0.069674586969383084 0 0.47402371149438649 -0.094761193712666822 0 0.5 -0.093555425739538678 0 0.48140152729359209 -0.075994734658046986 0 0.5 -0.093555425739538678 0 0.5 -0.067280406658830172 0 0.48140152729359209 -0.075994734658046986 0 0.47713553681715642 -0.054702060209816189 0 0.5 -0.067280406658830172 0 0.48140152729359209 -0.075994734658046986 0 0.47713553681715642 -0.054702060209816189 0 0.48140152729359209 -0.075994734658046986 0 0.45584838815641732 -0.069674586969383084 0 0.45584838815641732 -0.069674586969383084 0 0.43875520968287468 -0.077792743136954376 0 0.42702021602578372 -0.062854792704602702 0 0.45584838815641732 -0.069674586969383084 0 0.42702021602578372 -0.062854792704602702 0 0.45584838815641732 -0.069674586969383084 0 0.43875520968287468 -0.077792743136954376 0 0.44905983508247022 -0.093296283725555457 0 0.43875520968287468 -0.077792743136954376 0 0.44905983508247022 -0.093296283725555457 0 0.42996435585364629 -0.09151025468520603 0 0.47402371149438649 -0.094761193712666822 0 0.45584838815641732 -0.069674586969383084 0 0.44905983508247022 -0.093296283725555457 0 0.47402371149438649 -0.094761193712666822 0 0.44905983508247022 -0.093296283725555457 0 0.46336125576880138 -0.1073076282294157 0 0.44905983508247022 -0.093296283725555457 0 0.46336125576880138 -0.1073076282294157 0 0.4467404477327433 -0.1065753807857043 0 0.44905983508247022 -0.093296283725555457 0 0.43484047071750342 -0.1017266282080657 0 0.42996435585364629 -0.09151025468520603 0 0.44905983508247022 -0.093296283725555457 0 0.4467404477327433 -0.1065753807857043 0 0.43484047071750342 -0.1017266282080657 0 0.4467404477327433 -0.1065753807857043 0 0.43419680927889298 -0.1132191862857576 0 0.43484047071750342 -0.1017266282080657 0 0.45263301982202042 -0.1180787849279437 0 0.44439080825515859 -0.12283557353010061 0 0.4293401992409106 -0.1207018246503703 0 0.45263301982202042 -0.1180787849279437 0 0.4293401992409106 -0.1207018246503703 0 0.43419680927889298 -0.1132191862857576 0 0.45263301982202042 -0.1180787849279437 0 0.4293401992409106 -0.1207018246503703 0 0.4467404477327433 -0.1065753807857043 0 0.45263301982202042 -0.1180787849279437 0 0.43419680927889298 -0.1132191862857576 0 0.47219540412757982 -0.12133300917517389 0 0.45263301982202042 -0.1180787849279437 0 0.44439080825515859 -0.12283557353010061 0 0.47219540412757982 -0.12133300917517389 0 0.44439080825515859 -0.12283557353010061 0 0.45535272626567053 -0.13009024679139411 0 0.46336125576880138 -0.1073076282294157 0 0.4467404477327433 -0.1065753807857043 0 0.45263301982202042 -0.1180787849279437 0 0.47219540412757982 -0.12133300917517389 0 0.46336125576880138 -0.1073076282294157 0 0.45263301982202042 -0.1180787849279437 0 0.47219540412757982 -0.12133300917517389 0 0.44439080825515859 -0.12283557353010061 0 0.4293401992409106 -0.1207018246503703 0 0.40604737865980089 -0.1233248643727969 0 0.41658621238273741 -0.1243381378850273 0 0.4293401992409106 -0.1207018246503703 0 0.40604737865980089 -0.1233248643727969 0 0.41814796911551211 -0.1147169554442739 0 0.4293401992409106 -0.1207018246503703 0 0.40604737865980089 -0.1233248643727969 0 0.40691455275819199 -0.1123068663543399 0 0.41814796911551211 -0.1147169554442739 0 0.41424090563976412 -0.104032035558105 0 0.40691455275819199 -0.1123068663543399 0 0.41814796911551211 -0.1147169554442739 0 0.40604737865980089 -0.1233248643727969 0 0.41814796911551211 -0.1147169554442739 0 0.43419680927889298 -0.1132191862857576 0 0.41424090563976412 -0.104032035558105 0 0.41814796911551211 -0.1147169554442739 0 0.4293401992409106 -0.1207018246503703 0 0.43419680927889298 -0.1132191862857576 0 0.44439080825515859 -0.12283557353010061 0 0.41658621238273741 -0.1243381378850273 0 0.4293401992409106 -0.1207018246503703 0 0.44439080825515859 -0.12283557353010061 0 0.41658621238273741 -0.1243381378850273 0 0.43419680927889298 -0.1132191862857576 0 0.41424090563976412 -0.104032035558105 0 0.43419680927889298 -0.1132191862857576 0 0.43484047071750342 -0.1017266282080657 0 0.41424090563976412 -0.104032035558105 0 0.43484047071750342 -0.1017266282080657 0 0.41424090563976412 -0.104032035558105 0 0.42996435585364629 -0.09151025468520603 0 0.41424090563976412 -0.104032035558105 0 0.41155663905142531 -0.079153950075025181 0 0.39428500200063521 -0.094844884830452503 0 0.41424090563976412 -0.104032035558105 0 0.41155663905142531 -0.079153950075025181 0 0.42996435585364629 -0.09151025468520603 0 0.43875520968287468 -0.077792743136954376 0 0.41155663905142531 -0.079153950075025181 0 0.42996435585364629 -0.09151025468520603 0 0.43875520968287468 -0.077792743136954376 0 0.41155663905142531 -0.079153950075025181 0 0.42702021602578372 -0.062854792704602702 0 0.41155663905142531 -0.079153950075025181 0 0.42702021602578372 -0.062854792704602702 0 0.39819204389515062 -0.056034998439820703 0 0.41155663905142531 -0.079153950075025181 0 0.38626057112832818 -0.070846366271309871 0 0.39819204389515062 -0.056034998439820703 0 0.38626057112832818 -0.070846366271309871 0 0.39819204389515062 -0.056034998439820703 0 0.38626057112832818 -0.070846366271309871 0 0.37516414371306678 -0.059402619742782117 0 0.36930545560665812 -0.067237671203730615 0 0.38626057112832818 -0.070846366271309871 0 0.36930545560665812 -0.067237671203730615 0 0.37432909836150652 -0.085657734102799615 0 0.39428500200063521 -0.094844884830452503 0 0.37432909836150652 -0.085657734102799615 0 0.38626057112832818 -0.070846366271309871 0 0.39428500200063521 -0.094844884830452503 0 0.37432909836150652 -0.085657734102799615 0 0.38626057112832818 -0.070846366271309871 0 0.37432909836150652 -0.085657734102799615 0 0.41155663905142531 -0.079153950075025181 0 0.38626057112832818 -0.070846366271309871 0 0.39428500200063521 -0.094844884830452503 0 0.40691455275819199 -0.1123068663543399 0 0.41424090563976412 -0.104032035558105 0 0.39428500200063521 -0.094844884830452503 0 0.41424090563976412 -0.104032035558105 0 0.39428500200063521 -0.094844884830452503 0 0.40691455275819199 -0.1123068663543399 0 0.39428500200063521 -0.094844884830452503 0 0.39298373892106192 -0.1120512636288724 0 0.39428500200063521 -0.094844884830452503 0 0.37861321738195958 -0.101859948064613 0 0.39298373892106192 -0.1120512636288724 0 0.39428500200063521 -0.094844884830452503 0 0.37861321738195958 -0.101859948064613 0 0.37432909836150652 -0.085657734102799615 0 0.37861321738195958 -0.101859948064613 0 0.39298373892106192 -0.1120512636288724 0 0.36959268086489411 -0.11562868785079231 0 0.39298373892106192 -0.1120512636288724 0 0.36959268086489411 -0.11562868785079231 0 0.38275455807869108 -0.1259479040952235 0 0.39298373892106192 -0.1120512636288724 0 0.40604737865980089 -0.1233248643727969 0 0.38275455807869108 -0.1259479040952235 0 0.40604737865980089 -0.1233248643727969 0 0.38275455807869108 -0.1259479040952235 0 0.40691455275819199 -0.1123068663543399 0 0.39298373892106192 -0.1120512636288724 0 0.40604737865980089 -0.1233248643727969 0 0.41153685578036397 -0.0019629210903366261 0 0.42262857560405298 -0.018800840381725911 0 0.40557789239388009 -0.026714704676441849 0 0.42262857560405298 -0.018800840381725911 0 0.4264756320105984 -0.037284612710550433 0 0.40557789239388009 -0.026714704676441849 0 0.41153685578036397 -0.0019629210903366261 0 0.43640101268708648 -0.0046410089372440266 0 0.42262857560405298 -0.018800840381725911 0 0.43765992936385267 -0.022868423134524252 0 0.43640101268708648 -0.0046410089372440266 0 0.42262857560405298 -0.018800840381725911 0 0.43765992936385267 -0.022868423134524252 0 0.42262857560405298 -0.018800840381725911 0 0.4264756320105984 -0.037284612710550433 0 0.44825197734408501 -0.039518967735057448 0 0.42702021602578372 -0.062854792704602702 0 0.4264756320105984 -0.037284612710550433 0 0.44825197734408501 -0.039518967735057448 0 0.43765992936385267 -0.022868423134524252 0 0.4264756320105984 -0.037284612710550433 0 0.42702021602578372 -0.062854792704602702 0 0.4264756320105984 -0.037284612710550433 0 0.41725077808298677 -0.050368520743631282 0 0.41725077808298677 -0.050368520743631282 0 0.4063532702048423 -0.045903900025463948 0 0.39819204389515062 -0.056034998439820703 0 0.42702021602578372 -0.062854792704602702 0 0.39819204389515062 -0.056034998439820703 0 0.42702021602578372 -0.062854792704602702 0 0.41725077808298677 -0.050368520743631282 0 0.39819204389515062 -0.056034998439820703 0 0.4264756320105984 -0.037284612710550433 0 0.4063532702048423 -0.045903900025463948 0 0.40557789239388009 -0.026714704676441849 0 0.4264756320105984 -0.037284612710550433 0 0.41725077808298677 -0.050368520743631282 0 0.4063532702048423 -0.045903900025463948 0 0.4063532702048423 -0.045903900025463948 0 0.3923965041484711 -0.040681716984608131 0 0.40557789239388009 -0.026714704676441849 0 0.3923965041484711 -0.040681716984608131 0 0.39139418061058789 -0.027619451336121491 0 0.40557789239388009 -0.026714704676441849 0 0.4063532702048423 -0.045903900025463948 0 0.3923965041484711 -0.040681716984608131 0 0.39819204389515062 -0.056034998439820703 0 0.4063532702048423 -0.045903900025463948 0 0.39819204389515062 -0.056034998439820703 0 0.39819204389515062 -0.056034998439820703 0 0.38335104799624842 -0.05252410852781822 0 0.3923965041484711 -0.040681716984608131 0 0.39819204389515062 -0.056034998439820703 0 0.38335104799624842 -0.05252410852781822 0 0.38626057112832818 -0.070846366271309871 0 0.39819204389515062 -0.056034998439820703 0 0.38335104799624842 -0.05252410852781822 0 0.38626057112832818 -0.070846366271309871 0 0.38335104799624842 -0.05252410852781822 0 0.37516414371306678 -0.059402619742782117 0 0.38335104799624842 -0.05252410852781822 0 0.37868257332427158 -0.042721707105043388 0 0.36851005209734689 -0.04901321861581287 0 0.38335104799624842 -0.05252410852781822 0 0.36851005209734689 -0.04901321861581287 0 0.38335104799624842 -0.05252410852781822 0 0.37516414371306678 -0.059402619742782117 0 0.37083519607560811 -0.051442718493276293 0 0.3923965041484711 -0.040681716984608131 0 0.37946449531643051 -0.030681937703370819 0 0.39139418061058789 -0.027619451336121491 0 0.3923965041484711 -0.040681716984608131 0 0.37868257332427158 -0.042721707105043388 0 0.37946449531643051 -0.030681937703370819 0 0.3923965041484711 -0.040681716984608131 0 0.38335104799624842 -0.05252410852781822 0 0.37868257332427158 -0.042721707105043388 0 0.37868257332427158 -0.042721707105043388 0 0.37946449531643051 -0.030681937703370819 0 0.37289325595349287 -0.039056669017988682 0 0.37946449531643051 -0.030681937703370819 0 0.38813783058356999 -0.012399445980065191 0 0.36593433835502842 -0.019955981096618291 0 0.37946449531643051 -0.030681937703370819 0 0.39139418061058789 -0.027619451336121491 0 0.38813783058356999 -0.012399445980065191 0 0.39139418061058789 -0.027619451336121491 0 0.40557789239388009 -0.026714704676441849 0 0.38813783058356999 -0.012399445980065191 0 0.38809510434950978 0.014186894499208531 0 0.41153685578036397 -0.0019629210903366261 0 0.38813783058356999 -0.012399445980065191 0 0.41153685578036397 -0.0019629210903366261 0 0.40557789239388009 -0.026714704676441849 0 0.38813783058356999 -0.012399445980065191 0 0.38813783058356999 -0.012399445980065191 0 0.36528524993471517 -0.00050110304122203656 0 0.36593433835502842 -0.019955981096618291 0 0.36528524993471517 -0.00050110304122203656 0 0.36593433835502842 -0.019955981096618291 0 0.34990566603329781 -0.01108715766655221 0 0.36593433835502842 -0.019955981096618291 0 0.34988483201318038 -0.02955207111900442 0 0.3649159030759227 -0.03380981264772763 0 0.37946449531643051 -0.030681937703370819 0 0.36593433835502842 -0.019955981096618291 0 0.3649159030759227 -0.03380981264772763 0 0.36593433835502842 -0.019955981096618291 0 0.34988483201318038 -0.02955207111900442 0 0.34990566603329781 -0.01108715766655221 0 0.34114019158844411 0.0080730073898155515 0 0.36528524993471517 -0.00050110304122203656 0 0.34990566603329781 -0.01108715766655221 0 0.34114019158844411 0.0080730073898155515 0 0.34990566603329781 -0.01108715766655221 0 0.33125961192901288 -0.010090923622196969 0 0.34988483201318038 -0.02955207111900442 0 0.34990566603329781 -0.01108715766655221 0 0.33125961192901288 -0.010090923622196969 0 0.34988483201318038 -0.02955207111900442 0 0.33125961192901288 -0.010090923622196969 0 0.34988483201318038 -0.02955207111900442 0 0.33125961192901288 -0.010090923622196969 0 0.32820977144403252 -0.030692999978933821 0 0.33125961192901288 -0.010090923622196969 0 0.32820977144403252 -0.030692999978933821 0 0.3070657392947222 -0.02133387501915943 0 0.32820977144403252 -0.030692999978933821 0 0.31259396283228069 -0.036598948287682627 0 0.3070657392947222 -0.02133387501915943 0 0.31263439184484548 0.0093702238746103741 0 0.33125961192901288 -0.010090923622196969 0 0.30634635689462569 -0.0054163935952359233 0 0.31263439184484548 0.0093702238746103741 0 0.33125961192901288 -0.010090923622196969 0 0.33125961192901288 -0.010090923622196969 0 0.30634635689462569 -0.0054163935952359233 0 0.3070657392947222 -0.02133387501915943 0 0.32981028989216699 -0.062414898119164869 0 0.3170933128650803 -0.071328783210542035 0 0.30906793128128213 -0.051696686089317448 0 0.32898940933167931 -0.046477463595267721 0 0.32981028989216699 -0.062414898119164869 0 0.30906793128128213 -0.051696686089317448 0 0.31259396283228069 -0.036598948287682627 0 0.32898940933167931 -0.046477463595267721 0 0.30906793128128213 -0.051696686089317448 0 0.32820977144403252 -0.030692999978933821 0 0.31259396283228069 -0.036598948287682627 0 0.32898940933167931 -0.046477463595267721 0 0.34988483201318038 -0.02955207111900442 0 0.32820977144403252 -0.030692999978933821 0 0.34273421968837581 -0.041392566005333448 0 0.32820977144403252 -0.030692999978933821 0 0.32898940933167931 -0.046477463595267721 0 0.34273421968837581 -0.041392566005333448 0 0.32898940933167931 -0.046477463595267721 0 0.32981028989216699 -0.062414898119164869 0 0.34625423470930577 -0.0558388659184718 0 0.32898940933167931 -0.046477463595267721 0 0.34273421968837581 -0.041392566005333448 0 0.34625423470930577 -0.0558388659184718 0 0.32981028989216699 -0.062414898119164869 0 0.34625423470930577 -0.0558388659184718 0 0.34248634442605969 -0.068923385539796017 0 0.34273421968837581 -0.041392566005333448 0 0.34625423470930577 -0.0558388659184718 0 0.35728557543413209 -0.046357877818413752 0 0.34625423470930577 -0.0558388659184718 0 0.35728557543413209 -0.046357877818413752 0 0.36013757195099422 -0.059353455351591908 0 0.34625423470930577 -0.0558388659184718 0 0.36013757195099422 -0.059353455351591908 0 0.35396856341333638 -0.06811901495295633 0 0.34988483201318038 -0.02955207111900442 0 0.36851005209734689 -0.04901321861581287 0 0.34988483201318038 -0.02955207111900442 0 0.35728557543413209 -0.046357877818413752 0 0.36851005209734689 -0.04901321861581287 0 0.34988483201318038 -0.02955207111900442 0 0.34273421968837581 -0.041392566005333448 0 0.35728557543413209 -0.046357877818413752 0 0.34988483201318038 -0.02955207111900442 0 0.3649159030759227 -0.03380981264772763 0 0.36851005209734689 -0.04901321861581287 0 0.3649159030759227 -0.03380981264772763 0 0.37289325595349287 -0.039056669017988682 0 0.36851005209734689 -0.04901321861581287 0 0.37868257332427158 -0.042721707105043388 0 0.37289325595349287 -0.039056669017988682 0 0.36851005209734689 -0.04901321861581287 0 0.37946449531643051 -0.030681937703370819 0 0.3649159030759227 -0.03380981264772763 0 0.37289325595349287 -0.039056669017988682 0 0.36013757195099422 -0.059353455351591908 0 0.36606844775849129 -0.054962234217775588 0 0.36930545560665812 -0.067237671203730615 0 0.35728557543413209 -0.046357877818413752 0 0.36606844775849129 -0.054962234217775588 0 0.36851005209734689 -0.04901321861581287 0 0.35728557543413209 -0.046357877818413752 0 0.36851005209734689 -0.04901321861581287 0 0.35728557543413209 -0.046357877818413752 0 0.36013757195099422 -0.059353455351591908 0 0.36606844775849129 -0.054962234217775588 0 0.36606844775849129 -0.054962234217775588 0 0.37083519607560811 -0.051442718493276293 0 0.36851005209734689 -0.04901321861581287 0 0.38335104799624842 -0.05252410852781822 0 0.37083519607560811 -0.051442718493276293 0 0.36851005209734689 -0.04901321861581287 0 0.37083519607560811 -0.051442718493276293 0 0.36851005209734689 -0.04901321861581287 0 0.37516414371306678 -0.059402619742782117 0 0.36606844775849129 -0.054962234217775588 0 0.36930545560665812 -0.067237671203730615 0 0.37516414371306678 -0.059402619742782117 0 0.36606844775849129 -0.054962234217775588 0 0.37083519607560811 -0.051442718493276293 0 0.36930545560665812 -0.067237671203730615 0 0.37432909836150652 -0.085657734102799615 0 0.35877510324204942 -0.078497101331481356 0 0.36013757195099422 -0.059353455351591908 0 0.36930545560665812 -0.067237671203730615 0 0.35396856341333638 -0.06811901495295633 0 0.36930545560665812 -0.067237671203730615 0 0.35877510324204942 -0.078497101331481356 0 0.35396856341333638 -0.06811901495295633 0 0.37432909836150652 -0.085657734102799615 0 0.3618755667617003 -0.1011171699101481 0 0.37432909836150652 -0.085657734102799615 0 0.35873054528186049 -0.090025728563237983 0 0.3618755667617003 -0.1011171699101481 0 0.37432909836150652 -0.085657734102799615 0 0.35877510324204942 -0.078497101331481356 0 0.37432909836150652 -0.085657734102799615 0 0.35877510324204942 -0.078497101331481356 0 0.35873054528186049 -0.090025728563237983 0 0.35877510324204942 -0.078497101331481356 0 0.35873054528186049 -0.090025728563237983 0 0.34652491029792148 -0.089165553694581817 0 0.35873054528186049 -0.090025728563237983 0 0.34652491029792148 -0.089165553694581817 0 0.35259789653537388 -0.099787995237162391 0 0.35877510324204942 -0.078497101331481356 0 0.34652491029792148 -0.089165553694581817 0 0.34741949537127992 -0.077668067985721373 0 0.34741949537127992 -0.077668067985721373 0 0.35396856341333638 -0.06811901495295633 0 0.34248634442605969 -0.068923385539796017 0 0.34625423470930577 -0.0558388659184718 0 0.35396856341333638 -0.06811901495295633 0 0.34248634442605969 -0.068923385539796017 0 0.35877510324204942 -0.078497101331481356 0 0.34741949537127992 -0.077668067985721373 0 0.35396856341333638 -0.06811901495295633 0 0.36959268086489411 -0.11562868785079231 0 0.3618755667617003 -0.1011171699101481 0 0.34942203516189407 -0.1165766057174966 0 0.36959268086489411 -0.11562868785079231 0 0.35946173749758142 -0.12857094381765011 0 0.38275455807869108 -0.1259479040952235 0 0.36959268086489411 -0.11562868785079231 0 0.34942203516189407 -0.1165766057174966 0 0.35946173749758142 -0.12857094381765011 0 0.37861321738195958 -0.101859948064613 0 0.36959268086489411 -0.11562868785079231 0 0.3618755667617003 -0.1011171699101481 0 0.37861321738195958 -0.101859948064613 0 0.37432909836150652 -0.085657734102799615 0 0.3618755667617003 -0.1011171699101481 0 0.35873054528186049 -0.090025728563237983 0 0.3618755667617003 -0.1011171699101481 0 0.35259789653537388 -0.099787995237162391 0 0.34652491029792148 -0.089165553694581817 0 0.35259789653537388 -0.099787995237162391 0 0.33752623480883642 -0.093817785157763567 0 0.3618755667617003 -0.1011171699101481 0 0.34942203516189407 -0.1165766057174966 0 0.3618755667617003 -0.1011171699101481 0 0.35259789653537388 -0.099787995237162391 0 0.3467612679658918 -0.10776421542099709 0 0.3618755667617003 -0.1011171699101481 0 0.3467612679658918 -0.10776421542099709 0 0.34942203516189407 -0.1165766057174966 0 0.3467612679658918 -0.10776421542099709 0 0.34942203516189407 -0.1165766057174966 0 0.34039343413178508 -0.1136312809131952 0 0.3467612679658918 -0.10776421542099709 0 0.34039343413178508 -0.1136312809131952 0 0.32951740723870537 -0.107708025326983 0 0.34942203516189407 -0.1165766057174966 0 0.33546973702598631 -0.1227856189256179 0 0.34039343413178508 -0.1136312809131952 0 0.34942203516189407 -0.1165766057174966 0 0.33546973702598631 -0.1227856189256179 0 0.34591842363940589 -0.13209506000560911 0 0.33546973702598631 -0.1227856189256179 0 0.32951740723870537 -0.107708025326983 0 0.32144209600849888 -0.1167487525384607 0 0.33546973702598631 -0.1227856189256179 0 0.34039343413178508 -0.1136312809131952 0 0.32951740723870537 -0.107708025326983 0 0.35259789653537388 -0.099787995237162391 0 0.32951740723870537 -0.107708025326983 0 0.33752623480883642 -0.093817785157763567 0 0.35259789653537388 -0.099787995237162391 0 0.3467612679658918 -0.10776421542099709 0 0.32951740723870537 -0.107708025326983 0 0.35259789653537388 -0.099787995237162391 0 0.32951740723870537 -0.107708025326983 0 0.32951740723870537 -0.107708025326983 0 0.33752623480883642 -0.093817785157763567 0 0.32402045323258583 -0.092203147168496397 0 0.32951740723870537 -0.107708025326983 0 0.31718203989373939 -0.1028549399298524 0 0.30643691794203631 -0.11562805541680229 0 0.31718203989373939 -0.1028549399298524 0 0.32402045323258583 -0.092203147168496397 0 0.30790996519788999 -0.093190488326120174 0 0.32951740723870537 -0.107708025326983 0 0.31718203989373939 -0.1028549399298524 0 0.32402045323258583 -0.092203147168496397 0 0.33546973702598631 -0.1227856189256179 0 0.32144209600849888 -0.1167487525384607 0 0.32378512794698189 -0.13261864383979041 0 0.32951740723870537 -0.107708025326983 0 0.32144209600849888 -0.1167487525384607 0 0.30643691794203631 -0.11562805541680229 0 0.32144209600849888 -0.1167487525384607 0 0.31321410009550821 -0.123016794088877 0 0.32378512794698189 -0.13261864383979041 0 0.32951740723870537 -0.107708025326983 0 0.30643691794203631 -0.11562805541680229 0 0.32144209600849888 -0.1167487525384607 0 0.30643691794203631 -0.11562805541680229 0 0.32144209600849888 -0.1167487525384607 0 0.31321410009550821 -0.123016794088877 0 0.30643691794203631 -0.11562805541680229 0 0.32981028989216699 -0.062414898119164869 0 0.34248634442605969 -0.068923385539796017 0 0.33497050673959522 -0.080224204361594234 0 0.34741949537127992 -0.077668067985721373 0 0.34248634442605969 -0.068923385539796017 0 0.33497050673959522 -0.080224204361594234 0 0.34652491029792148 -0.089165553694581817 0 0.34741949537127992 -0.077668067985721373 0 0.33497050673959522 -0.080224204361594234 0 0.34652491029792148 -0.089165553694581817 0 0.33752623480883642 -0.093817785157763567 0 0.33497050673959522 -0.080224204361594234 0 0.33752623480883642 -0.093817785157763567 0 0.33497050673959522 -0.080224204361594234 0 0.32402045323258583 -0.092203147168496397 0 0.3170933128650803 -0.071328783210542035 0 0.30790996519788999 -0.093190488326120174 0 0.32402045323258583 -0.092203147168496397 0 0.3170933128650803 -0.071328783210542035 0 0.30790996519788999 -0.093190488326120174 0 0.33497050673959522 -0.080224204361594234 0 0.32402045323258583 -0.092203147168496397 0 0.3170933128650803 -0.071328783210542035 0 0.32981028989216699 -0.062414898119164869 0 0.33497050673959522 -0.080224204361594234 0 0.3170933128650803 -0.071328783210542035 0 0.3170933128650803 -0.071328783210542035 0 0.29754087760392461 -0.078779201637065033 0 0.29438300668458722 -0.062161515683952562 0 0.3170933128650803 -0.071328783210542035 0 0.30790996519788999 -0.093190488326120174 0 0.29754087760392461 -0.078779201637065033 0 0.30790996519788999 -0.093190488326120174 0 0.29754087760392461 -0.078779201637065033 0 0.29391308840016561 -0.090684074479765703 0 0.29754087760392461 -0.078779201637065033 0 0.29391308840016561 -0.090684074479765703 0 0.28174900595544911 -0.087933810997892478 0 0.29754087760392461 -0.078779201637065033 0 0.28174900595544911 -0.087933810997892478 0 0.27916346047010532 -0.070215920421169434 0 0.29754087760392461 -0.078779201637065033 0 0.27916346047010532 -0.070215920421169434 0 0.29438300668458722 -0.062161515683952562 0 0.29714539334934209 -0.1188164260535145 0 0.30558087529402661 -0.1215762952184249 0 0.3055270897892205 -0.12884390531450771 0 0.29714539334934209 -0.1188164260535145 0 0.30643691794203631 -0.11562805541680229 0 0.29714539334934209 -0.1188164260535145 0 0.30558087529402661 -0.1215762952184249 0 0.30643691794203631 -0.11562805541680229 0 0.31321410009550821 -0.123016794088877 0 0.30558087529402661 -0.1215762952184249 0 0.3055270897892205 -0.12884390531450771 0 0.31321410009550821 -0.123016794088877 0 0.30558087529402661 -0.1215762952184249 0 0.30643691794203631 -0.11562805541680229 0 0.29714539334934209 -0.1188164260535145 0 0.30643691794203631 -0.11562805541680229 0 0.29872661753069968 -0.1150521934416984 0 0.30643691794203631 -0.11562805541680229 0 0.29872661753069968 -0.1150521934416984 0 0.29714539334934209 -0.1188164260535145 0 0.29872661753069968 -0.1150521934416984 0 0.30790996519788999 -0.093190488326120174 0 0.30643691794203631 -0.11562805541680229 0 0.29872661753069968 -0.1150521934416984 0 0.30790996519788999 -0.093190488326120174 0 0.29872661753069968 -0.1150521934416984 0 0.30790996519788999 -0.093190488326120174 0 0.29872661753069968 -0.1150521934416984 0 0.28845250484339879 -0.1028327969579851 0 0.31718203989373939 -0.1028549399298524 0 0.30790996519788999 -0.093190488326120174 0 0.30643691794203631 -0.11562805541680229 0 0.30790996519788999 -0.093190488326120174 0 0.29391308840016561 -0.090684074479765703 0 0.28845250484339879 -0.1028327969579851 0 0.29391308840016561 -0.090684074479765703 0 0.28174900595544911 -0.087933810997892478 0 0.28845250484339879 -0.1028327969579851 0 0.28174900595544911 -0.087933810997892478 0 0.28845250484339879 -0.1028327969579851 0 0.27689931994893968 -0.1014539882227902 0 0.29714539334934209 -0.1188164260535145 0 0.27647723479369601 -0.1133904458048746 0 0.27248199084697761 -0.12727963007944959 0 0.29714539334934209 -0.1188164260535145 0 0.29208637865099429 -0.1233753125873726 0 0.27248199084697761 -0.12727963007944959 0 0.29714539334934209 -0.1188164260535145 0 0.27248199084697761 -0.12727963007944959 0 0.29714539334934209 -0.1188164260535145 0 0.29872661753069968 -0.1150521934416984 0 0.27647723479369601 -0.1133904458048746 0 0.29872661753069968 -0.1150521934416984 0 0.27647723479369601 -0.1133904458048746 0 0.29872661753069968 -0.1150521934416984 0 0.28845250484339879 -0.1028327969579851 0 0.27647723479369601 -0.1133904458048746 0 0.27647723479369601 -0.1133904458048746 0 0.26207184556310509 -0.123545072290382 0 0.27248199084697761 -0.12727963007944959 0 0.27647723479369601 -0.1133904458048746 0 0.27689931994893968 -0.1014539882227902 0 0.2653759830645146 -0.1010547405684409 0 0.28845250484339879 -0.1028327969579851 0 0.27647723479369601 -0.1133904458048746 0 0.27689931994893968 -0.1014539882227902 0 0.27689931994893968 -0.1014539882227902 0 0.2653759830645146 -0.1010547405684409 0 0.26750621508679662 -0.090918290735669011 0 0.27647723479369601 -0.1133904458048746 0 0.2653759830645146 -0.1010547405684409 0 0.25422785205669218 -0.1117286981680507 0 0.2653759830645146 -0.1010547405684409 0 0.25247124487397088 -0.099797793390608916 0 0.25639012333762312 -0.088392770409926352 0 0.2653759830645146 -0.1010547405684409 0 0.25247124487397088 -0.099797793390608916 0 0.25422785205669218 -0.1117286981680507 0 0.25247124487397088 -0.099797793390608916 0 0.25422785205669218 -0.1117286981680507 0 0.2437523082264893 -0.10812919791445549 0 0.27647723479369601 -0.1133904458048746 0 0.25422785205669218 -0.1117286981680507 0 0.27647723479369601 -0.1133904458048746 0 0.25422785205669218 -0.1117286981680507 0 0.26207184556310509 -0.123545072290382 0 0.25422785205669218 -0.1117286981680507 0 0.2525608327608555 -0.12289103938169629 0 0.26207184556310509 -0.123545072290382 0 0.27916346047010532 -0.070215920421169434 0 0.2692971507020398 -0.080437347047954993 0 0.26320950599453519 -0.065117316592143704 0 0.27916346047010532 -0.070215920421169434 0 0.26320950599453519 -0.065117316592143704 0 0.27526297483459378 -0.053343621769309187 0 0.28174900595544911 -0.087933810997892478 0 0.27916346047010532 -0.070215920421169434 0 0.2692971507020398 -0.080437347047954993 0 0.28174900595544911 -0.087933810997892478 0 0.27689931994893968 -0.1014539882227902 0 0.26750621508679662 -0.090918290735669011 0 0.28174900595544911 -0.087933810997892478 0 0.26750621508679662 -0.090918290735669011 0 0.2692971507020398 -0.080437347047954993 0 0.2692971507020398 -0.080437347047954993 0 0.25639012333762312 -0.088392770409926352 0 0.24957985668624191 -0.073926873436579998 0 0.2653759830645146 -0.1010547405684409 0 0.26750621508679662 -0.090918290735669011 0 0.25639012333762312 -0.088392770409926352 0 0.26750621508679662 -0.090918290735669011 0 0.2692971507020398 -0.080437347047954993 0 0.25639012333762312 -0.088392770409926352 0 0.25247124487397088 -0.099797793390608916 0 0.25639012333762312 -0.088392770409926352 0 0.24464721597715799 -0.088843798637905619 0 0.25639012333762312 -0.088392770409926352 0 0.24957985668624191 -0.073926873436579998 0 0.24464721597715799 -0.088843798637905619 0 0.2692971507020398 -0.080437347047954993 0 0.26320950599453519 -0.065117316592143704 0 0.24957985668624191 -0.073926873436579998 0 0.26320950599453519 -0.065117316592143704 0 0.2489147091691396 -0.061047690623056629 0 0.24957985668624191 -0.073926873436579998 0 0.26320950599453519 -0.065117316592143704 0 0.25726925547570079 -0.051347076797932878 0 0.2489147091691396 -0.061047690623056629 0 0.26320950599453519 -0.065117316592143704 0 0.25726925547570079 -0.051347076797932878 0 0.27526297483459378 -0.053343621769309187 0 0.25726925547570079 -0.051347076797932878 0 0.27526297483459378 -0.053343621769309187 0 0.26524709831337012 -0.040594989694493287 0 0.27526297483459378 -0.053343621769309187 0 0.27838106438739169 -0.034674575141858469 0 0.28865657264910788 -0.048590191740407143 0 0.27526297483459378 -0.053343621769309187 0 0.27838106438739169 -0.034674575141858469 0 0.26524709831337012 -0.040594989694493287 0 0.27838106438739169 -0.034674575141858469 0 0.26524709831337012 -0.040594989694493287 0 0.26307674491673277 -0.02866835137320933 0 0.26524709831337012 -0.040594989694493287 0 0.25104537145499961 -0.037501163253547333 0 0.26307674491673277 -0.02866835137320933 0 0.25726925547570079 -0.051347076797932878 0 0.26524709831337012 -0.040594989694493287 0 0.25104537145499961 -0.037501163253547333 0 0.26473063513614431 -0.01817900462180996 0 0.26307674491673277 -0.02866835137320933 0 0.24646469031098589 -0.02312246974673951 0 0.25104537145499961 -0.037501163253547333 0 0.26307674491673277 -0.02866835137320933 0 0.24646469031098589 -0.02312246974673951 0 0.26454995396122188 -0.0044382513717859551 0 0.24646469031098589 -0.02312246974673951 0 0.26454995396122188 -0.0044382513717859551 0 0.24646469031098589 -0.02312246974673951 0 0.24986078142061541 -0.0070112464674283144 0 0.26473063513614431 -0.01817900462180996 0 0.26454995396122188 -0.0044382513717859551 0 0.24646469031098589 -0.02312246974673951 0 0.2600103086440948 0.0077887484030499934 0 0.24986078142061541 -0.0070112464674283144 0 0.24454710423508169 -0.0040543885157620588 0 0.2600103086440948 0.0077887484030499934 0 0.26454995396122188 -0.0044382513717859551 0 0.24986078142061541 -0.0070112464674283144 0 0.26454995396122188 -0.0044382513717859551 0 0.27670438441294692 -0.01266621844599196 0 0.28095057553946728 -0.001276924975998437 0 0.26473063513614431 -0.01817900462180996 0 0.26454995396122188 -0.0044382513717859551 0 0.27670438441294692 -0.01266621844599196 0 0.27838106438739169 -0.034674575141858469 0 0.26307674491673277 -0.02866835137320933 0 0.27285740207883358 -0.02199973217132304 0 0.26473063513614431 -0.01817900462180996 0 0.26307674491673277 -0.02866835137320933 0 0.27285740207883358 -0.02199973217132304 0 0.26473063513614431 -0.01817900462180996 0 0.27670438441294692 -0.01266621844599196 0 0.27285740207883358 -0.02199973217132304 0 0.27670438441294692 -0.01266621844599196 0 0.27285740207883358 -0.02199973217132304 0 0.28683897538264719 -0.023134584254674968 0 0.27838106438739169 -0.034674575141858469 0 0.27285740207883358 -0.02199973217132304 0 0.28683897538264719 -0.023134584254674968 0 0.28683897538264719 -0.023134584254674968 0 0.3070657392947222 -0.02133387501915943 0 0.29617525565979957 -0.035369412305818138 0 0.27838106438739169 -0.034674575141858469 0 0.28683897538264719 -0.023134584254674968 0 0.29617525565979957 -0.035369412305818138 0 0.28683897538264719 -0.023134584254674968 0 0.29064676294115022 -0.0096945001892937387 0 0.3070657392947222 -0.02133387501915943 0 0.29523021928075988 0.0065372478438925187 0 0.28095057553946728 -0.001276924975998437 0 0.29064676294115022 -0.0096945001892937387 0 0.27670438441294692 -0.01266621844599196 0 0.28095057553946728 -0.001276924975998437 0 0.29064676294115022 -0.0096945001892937387 0 0.27670438441294692 -0.01266621844599196 0 0.28683897538264719 -0.023134584254674968 0 0.29064676294115022 -0.0096945001892937387 0 0.29523021928075988 0.0065372478438925187 0 0.29064676294115022 -0.0096945001892937387 0 0.30634635689462569 -0.0054163935952359233 0 0.29064676294115022 -0.0096945001892937387 0 0.30634635689462569 -0.0054163935952359233 0 0.3070657392947222 -0.02133387501915943 0 0.31259396283228069 -0.036598948287682627 0 0.3070657392947222 -0.02133387501915943 0 0.29617525565979957 -0.035369412305818138 0 0.30906793128128213 -0.051696686089317448 0 0.28865657264910788 -0.048590191740407143 0 0.29617525565979957 -0.035369412305818138 0 0.31259396283228069 -0.036598948287682627 0 0.30906793128128213 -0.051696686089317448 0 0.29617525565979957 -0.035369412305818138 0 0.3170933128650803 -0.071328783210542035 0 0.30906793128128213 -0.051696686089317448 0 0.29438300668458722 -0.062161515683952562 0 0.30906793128128213 -0.051696686089317448 0 0.28865657264910788 -0.048590191740407143 0 0.29438300668458722 -0.062161515683952562 0 0.27916346047010532 -0.070215920421169434 0 0.27526297483459378 -0.053343621769309187 0 0.29438300668458722 -0.062161515683952562 0 0.27526297483459378 -0.053343621769309187 0 0.28865657264910788 -0.048590191740407143 0 0.29438300668458722 -0.062161515683952562 0 0.27838106438739169 -0.034674575141858469 0 0.28865657264910788 -0.048590191740407143 0 0.29617525565979957 -0.035369412305818138 0 0.2819317776496727 -0.21022401048871711 0 0.28945187163189179 -0.20030043613154899 0 0.27333833458215873 -0.20150979381431941 0 0.29266584447977001 -0.21228091551288511 0 0.28945187163189179 -0.20030043613154899 0 0.30299786424224051 -0.20778715529384639 0 0.29266584447977001 -0.21228091551288511 0 0.30118271727185708 -0.22162749785956051 0 0.28562823597899317 -0.2211863599248364 0 0.29266584447977001 -0.21228091551288511 0 0.2819317776496727 -0.21022401048871711 0 0.28562823597899317 -0.2211863599248364 0 0.29266584447977001 -0.21228091551288511 0 0.2819317776496727 -0.21022401048871711 0 0.28945187163189179 -0.20030043613154899 0 0.28945187163189179 -0.20030043613154899 0 0.27736833953052109 -0.18806332318182931 0 0.29170755148716238 -0.18713306148380379 0 0.28945187163189179 -0.20030043613154899 0 0.30341099355347839 -0.19473485263403981 0 0.29170755148716238 -0.18713306148380379 0 0.28945187163189179 -0.20030043613154899 0 0.30341099355347839 -0.19473485263403981 0 0.30299786424224051 -0.20778715529384639 0 0.30341099355347839 -0.19473485263403981 0 0.29170755148716238 -0.18713306148380379 0 0.30398065128611812 -0.18343602661035341 0 0.30341099355347839 -0.19473485263403981 0 0.31559690427448428 -0.20140105732059169 0 0.31604834541304649 -0.18901248646670341 0 0.30341099355347839 -0.19473485263403981 0 0.30398065128611812 -0.18343602661035341 0 0.31604834541304649 -0.18901248646670341 0 0.30341099355347839 -0.19473485263403981 0 0.30299786424224051 -0.20778715529384639 0 0.31559690427448428 -0.20140105732059169 0 0.30299786424224051 -0.20778715529384639 0 0.31291435347682789 -0.2134437666299773 0 0.31559690427448428 -0.20140105732059169 0 0.29266584447977001 -0.21228091551288511 0 0.30299786424224051 -0.20778715529384639 0 0.30118271727185708 -0.22162749785956051 0 0.30299786424224051 -0.20778715529384639 0 0.30118271727185708 -0.22162749785956051 0 0.31291435347682789 -0.2134437666299773 0 0.30118271727185708 -0.22162749785956051 0 0.31291435347682789 -0.2134437666299773 0 0.31768471564404049 -0.22543770841095939 0 0.30118271727185708 -0.22162749785956051 0 0.30686298038310278 -0.23653910699017769 0 0.31768471564404049 -0.22543770841095939 0 0.30118271727185708 -0.22162749785956051 0 0.30686298038310278 -0.23653910699017769 0 0.29201050768480769 -0.23473652826443059 0 0.30686298038310278 -0.23653910699017769 0 0.32146979424958622 -0.24479646355193069 0 0.30196716706522259 -0.25609733686400699 0 0.30686298038310278 -0.23653910699017769 0 0.29201050768480769 -0.23473652826443059 0 0.30196716706522259 -0.25609733686400699 0 0.27793269048731001 -0.24130386905901249 0 0.30196716706522259 -0.25609733686400699 0 0.29201050768480769 -0.23473652826443059 0 0.27793269048731001 -0.24130386905901249 0 0.30196716706522259 -0.25609733686400699 0 0.29201050768480769 -0.23473652826443059 0 0.27570498245888619 -0.22818108189754979 0 0.27793269048731001 -0.24130386905901249 0 0.29201050768480769 -0.23473652826443059 0 0.28562823597899317 -0.2211863599248364 0 0.27570498245888619 -0.22818108189754979 0 0.30118271727185708 -0.22162749785956051 0 0.29201050768480769 -0.23473652826443059 0 0.28562823597899317 -0.2211863599248364 0 0.27793269048731001 -0.24130386905901249 0 0.25389821390939737 -0.22651040125401781 0 0.27570498245888619 -0.22818108189754979 0 0.27793269048731001 -0.24130386905901249 0 0.25389821390939737 -0.22651040125401781 0 0.27570498245888619 -0.22818108189754979 0 0.25389821390939737 -0.22651040125401781 0 0.26905526423392301 -0.21716825098545159 0 0.28562823597899317 -0.2211863599248364 0 0.27570498245888619 -0.22818108189754979 0 0.26905526423392301 -0.21716825098545159 0 0.27793269048731001 -0.24130386905901249 0 0.26158936907359942 -0.24778181586443199 0 0.28255509982556509 -0.25796866242257632 0 0.27793269048731001 -0.24130386905901249 0 0.26158936907359942 -0.24778181586443199 0 0.25389821390939737 -0.22651040125401781 0 0.26158936907359942 -0.24778181586443199 0 0.2444299610463688 -0.25163298647013332 0 0.2473748297805245 -0.23965382761963189 0 0.26158936907359942 -0.24778181586443199 0 0.25389821390939737 -0.22651040125401781 0 0.2473748297805245 -0.23965382761963189 0 0.26158936907359942 -0.24778181586443199 0 0.25389821390939737 -0.22651040125401781 0 0.25389821390939737 -0.22651040125401781 0 0.25830604706402011 -0.2138927707089909 0 0.26905526423392301 -0.21716825098545159 0 0.25389821390939737 -0.22651040125401781 0 0.25830604706402011 -0.2138927707089909 0 0.2482240050903991 -0.21081725168179599 0 0.25389821390939737 -0.22651040125401781 0 0.2482240050903991 -0.21081725168179599 0 0.25830604706402011 -0.2138927707089909 0 0.26012861449852243 -0.20265090864453009 0 0.2482240050903991 -0.21081725168179599 0 0.25830604706402011 -0.2138927707089909 0 0.26905526423392301 -0.21716825098545159 0 0.26012861449852243 -0.20265090864453009 0 0.2819317776496727 -0.21022401048871711 0 0.26905526423392301 -0.21716825098545159 0 0.27333833458215873 -0.20150979381431941 0 0.2819317776496727 -0.21022401048871711 0 0.28562823597899317 -0.2211863599248364 0 0.26905526423392301 -0.21716825098545159 0 0.26905526423392301 -0.21716825098545159 0 0.27333833458215873 -0.20150979381431941 0 0.26012861449852243 -0.20265090864453009 0 0.27736833953052109 -0.18806332318182931 0 0.27333833458215873 -0.20150979381431941 0 0.26069798342982847 -0.18822576730094739 0 0.28945187163189179 -0.20030043613154899 0 0.27736833953052109 -0.18806332318182931 0 0.27333833458215873 -0.20150979381431941 0 0.26069798342982847 -0.18822576730094739 0 0.24968987140106341 -0.18092922336105319 0 0.24254979627140069 -0.19512410210957429 0 0.26069798342982847 -0.18822576730094739 0 0.26012861449852243 -0.20265090864453009 0 0.24254979627140069 -0.19512410210957429 0 0.26012861449852243 -0.20265090864453009 0 0.24254979627140069 -0.19512410210957429 0 0.2482240050903991 -0.21081725168179599 0 0.27333833458215873 -0.20150979381431941 0 0.26069798342982847 -0.18822576730094739 0 0.26012861449852243 -0.20265090864453009 0 0.26069798342982847 -0.18822576730094739 0 0.26031142399630458 -0.17458228913771301 0 0.24968987140106341 -0.18092922336105319 0 0.26031142399630458 -0.17458228913771301 0 0.25191763631458969 -0.1638194710615489 0 0.24968987140106341 -0.18092922336105319 0 0.26069798342982847 -0.18822576730094739 0 0.26031142399630458 -0.17458228913771301 0 0.27394945054791769 -0.1740362521757772 0 0.26031142399630458 -0.17458228913771301 0 0.25191763631458969 -0.1638194710615489 0 0.27049975582364538 -0.16030243163812241 0 0.25191763631458969 -0.1638194710615489 0 0.27049975582364538 -0.16030243163812241 0 0.27394945054791769 -0.1740362521757772 0 0.28554742194862948 -0.1464263391146457 0 0.26031142399630458 -0.17458228913771301 0 0.27049975582364538 -0.16030243163812241 0 0.27394945054791769 -0.1740362521757772 0 0.27049975582364538 -0.16030243163812241 0 0.27394945054791769 -0.1740362521757772 0 0.28554742194862948 -0.1464263391146457 0 0.27736833953052109 -0.18806332318182931 0 0.26069798342982847 -0.18822576730094739 0 0.27394945054791769 -0.1740362521757772 0 0.27736833953052109 -0.18806332318182931 0 0.27394945054791769 -0.1740362521757772 0 0.28504744604677701 -0.1775979481380251 0 0.26207184556310509 -0.123545072290382 0 0.25177330827706301 -0.13290269088953879 0 0.26383842199663587 -0.13449424326911771 0 0.2525608327608555 -0.12289103938169629 0 0.26207184556310509 -0.123545072290382 0 0.25177330827706301 -0.13290269088953879 0 0.25177330827706301 -0.13290269088953879 0 0.26383842199663587 -0.13449424326911771 0 0.25636076162935229 -0.1444542819800981 0 0.25191763631458969 -0.1638194710615489 0 0.25636076162935229 -0.1444542819800981 0 0.27200200748279202 -0.1435973918244608 0 0.25191763631458969 -0.1638194710615489 0 0.27200200748279202 -0.1435973918244608 0 0.25191763631458969 -0.1638194710615489 0 0.27049975582364538 -0.16030243163812241 0 0.27200200748279202 -0.1435973918244608 0 0.26383842199663587 -0.13449424326911771 0 0.25636076162935229 -0.1444542819800981 0 0.27200200748279202 -0.1435973918244608 0 0.25191763631458969 -0.1638194710615489 0 0.25636076162935229 -0.1444542819800981 0 0.24227243407568111 -0.14745761285582429 0 0.25177330827706301 -0.13290269088953879 0 0.25636076162935229 -0.1444542819800981 0 0.24227243407568111 -0.14745761285582429 0 0.27049975582364538 -0.16030243163812241 0 0.27200200748279202 -0.1435973918244608 0 0.28554742194862948 -0.1464263391146457 0 0.29208637865099429 -0.1233753125873726 0 0.27200200748279202 -0.1435973918244608 0 0.27248199084697761 -0.12727963007944959 0 0.26383842199663587 -0.13449424326911771 0 0.27200200748279202 -0.1435973918244608 0 0.27248199084697761 -0.12727963007944959 0 0.26207184556310509 -0.123545072290382 0 0.26383842199663587 -0.13449424326911771 0 0.27248199084697761 -0.12727963007944959 0 0.29208637865099429 -0.1233753125873726 0 0.27200200748279202 -0.1435973918244608 0 0.28554742194862948 -0.1464263391146457 0 0.29714539334934209 -0.1188164260535145 0 0.29208637865099429 -0.1233753125873726 0 0.28554742194862948 -0.1464263391146457 0 0.29714539334934209 -0.1188164260535145 0 0.28554742194862948 -0.1464263391146457 0 0.29714539334934209 -0.1188164260535145 0 0.28554742194862948 -0.1464263391146457 0 0.29976004520341409 -0.13583911174545699 0 0.29208637865099429 -0.1233753125873726 0 0.27200200748279202 -0.1435973918244608 0 0.28554742194862948 -0.1464263391146457 0 0.29409122134016258 -0.15461713558734611 0 0.2881134911778338 -0.1637451664648556 0 0.28554742194862948 -0.1464263391146457 0 0.30009301487739032 -0.14702844055967379 0 0.29976004520341409 -0.13583911174545699 0 0.28554742194862948 -0.1464263391146457 0 0.29409122134016258 -0.15461713558734611 0 0.30009301487739032 -0.14702844055967379 0 0.29409122134016258 -0.15461713558734611 0 0.30233828128556262 -0.1549053640018353 0 0.30009301487739032 -0.14702844055967379 0 0.30233828128556262 -0.1549053640018353 0 0.3103272041312074 -0.15049084711816549 0 0.30009301487739032 -0.14702844055967379 0 0.30233828128556262 -0.1549053640018353 0 0.3103272041312074 -0.15049084711816549 0 0.30921318983907109 -0.1619303015949832 0 0.3103272041312074 -0.15049084711816549 0 0.30009301487739032 -0.14702844055967379 0 0.30849391535536552 -0.13989184579059361 0 0.30009301487739032 -0.14702844055967379 0 0.29976004520341409 -0.13583911174545699 0 0.30849391535536552 -0.13989184579059361 0 0.29714539334934209 -0.1188164260535145 0 0.29976004520341409 -0.13583911174545699 0 0.3055270897892205 -0.12884390531450771 0 0.29976004520341409 -0.13583911174545699 0 0.30849391535536552 -0.13989184579059361 0 0.3055270897892205 -0.12884390531450771 0 0.30849391535536552 -0.13989184579059361 0 0.3055270897892205 -0.12884390531450771 0 0.31434405906126289 -0.13257085261651921 0 0.31321410009550821 -0.123016794088877 0 0.3055270897892205 -0.12884390531450771 0 0.31434405906126289 -0.13257085261651921 0 0.29409839749045019 -0.17501193738385951 0 0.28504744604677701 -0.1775979481380251 0 0.2881134911778338 -0.1637451664648556 0 0.29409839749045019 -0.17501193738385951 0 0.29170755148716238 -0.18713306148380379 0 0.30398065128611812 -0.18343602661035341 0 0.29409839749045019 -0.17501193738385951 0 0.29170755148716238 -0.18713306148380379 0 0.28504744604677701 -0.1775979481380251 0 0.27736833953052109 -0.18806332318182931 0 0.29170755148716238 -0.18713306148380379 0 0.28504744604677701 -0.1775979481380251 0 0.27394945054791769 -0.1740362521757772 0 0.28554742194862948 -0.1464263391146457 0 0.2881134911778338 -0.1637451664648556 0 0.27394945054791769 -0.1740362521757772 0 0.28504744604677701 -0.1775979481380251 0 0.2881134911778338 -0.1637451664648556 0 0.29409122134016258 -0.15461713558734611 0 0.2881134911778338 -0.1637451664648556 0 0.29863286295366082 -0.1636336358658762 0 0.29409839749045019 -0.17501193738385951 0 0.2881134911778338 -0.1637451664648556 0 0.29863286295366082 -0.1636336358658762 0 0.29409839749045019 -0.17501193738385951 0 0.29863286295366082 -0.1636336358658762 0 0.30607506283140151 -0.17260884288067169 0 0.29863286295366082 -0.1636336358658762 0 0.30921318983907109 -0.1619303015949832 0 0.30607506283140151 -0.17260884288067169 0 0.29409122134016258 -0.15461713558734611 0 0.30233828128556262 -0.1549053640018353 0 0.29863286295366082 -0.1636336358658762 0 0.30233828128556262 -0.1549053640018353 0 0.29863286295366082 -0.1636336358658762 0 0.30921318983907109 -0.1619303015949832 0 0.30921318983907109 -0.1619303015949832 0 0.30607506283140151 -0.17260884288067169 0 0.31965280828603237 -0.17293346664446799 0 0.30607506283140151 -0.17260884288067169 0 0.30398065128611812 -0.18343602661035341 0 0.3128488117429486 -0.17985172185067061 0 0.29409839749045019 -0.17501193738385951 0 0.30607506283140151 -0.17260884288067169 0 0.30398065128611812 -0.18343602661035341 0 0.30398065128611812 -0.18343602661035341 0 0.3128488117429486 -0.17985172185067061 0 0.31604834541304649 -0.18901248646670341 0 0.3128488117429486 -0.17985172185067061 0 0.32555222801186973 -0.18269946958701519 0 0.31604834541304649 -0.18901248646670341 0 0.32555222801186973 -0.18269946958701519 0 0.31965280828603237 -0.17293346664446799 0 0.33470628215790038 -0.16920422344781499 0 0.30607506283140151 -0.17260884288067169 0 0.3128488117429486 -0.17985172185067061 0 0.31965280828603237 -0.17293346664446799 0 0.3128488117429486 -0.17985172185067061 0 0.32555222801186973 -0.18269946958701519 0 0.31965280828603237 -0.17293346664446799 0 0.30921318983907109 -0.1619303015949832 0 0.31965280828603237 -0.17293346664446799 0 0.31914144714761072 -0.15743337502483831 0 0.3103272041312074 -0.15049084711816549 0 0.30921318983907109 -0.1619303015949832 0 0.31914144714761072 -0.15743337502483831 0 0.31914144714761072 -0.15743337502483831 0 0.32567026121334841 -0.16497646485239381 0 0.33071460594104202 -0.15659670772028461 0 0.31965280828603237 -0.17293346664446799 0 0.31914144714761072 -0.15743337502483831 0 0.32567026121334841 -0.16497646485239381 0 0.31965280828603237 -0.17293346664446799 0 0.32567026121334841 -0.16497646485239381 0 0.33470628215790038 -0.16920422344781499 0 0.32567026121334841 -0.16497646485239381 0 0.33470628215790038 -0.16920422344781499 0 0.33071460594104202 -0.15659670772028461 0 0.33470628215790038 -0.16920422344781499 0 0.33071460594104202 -0.15659670772028461 0 0.34392153500440198 -0.1566675827275382 0 0.32555222801186973 -0.18269946958701519 0 0.33691181363064993 -0.18163280134194151 0 0.32785030359678269 -0.19560954034647249 0 0.32555222801186973 -0.18269946958701519 0 0.33470628215790038 -0.16920422344781499 0 0.33691181363064993 -0.18163280134194151 0 0.32378512794698189 -0.13261864383979041 0 0.32058743505373111 -0.14450695899510921 0 0.33647935586674249 -0.14242679484300921 0 0.31321410009550821 -0.123016794088877 0 0.32378512794698189 -0.13261864383979041 0 0.31434405906126289 -0.13257085261651921 0 0.32378512794698189 -0.13261864383979041 0 0.31434405906126289 -0.13257085261651921 0 0.32058743505373111 -0.14450695899510921 0 0.30849391535536552 -0.13989184579059361 0 0.31434405906126289 -0.13257085261651921 0 0.32058743505373111 -0.14450695899510921 0 0.3103272041312074 -0.15049084711816549 0 0.30849391535536552 -0.13989184579059361 0 0.32058743505373111 -0.14450695899510921 0 0.3103272041312074 -0.15049084711816549 0 0.31914144714761072 -0.15743337502483831 0 0.32058743505373111 -0.14450695899510921 0 0.31914144714761072 -0.15743337502483831 0 0.33071460594104202 -0.15659670772028461 0 0.32058743505373111 -0.14450695899510921 0 0.33071460594104202 -0.15659670772028461 0 0.32058743505373111 -0.14450695899510921 0 0.33647935586674249 -0.14242679484300921 0 0.33071460594104202 -0.15659670772028461 0 0.33647935586674249 -0.14242679484300921 0 0.34392153500440198 -0.1566675827275382 0 0.32378512794698189 -0.13261864383979041 0 0.33647935586674249 -0.14242679484300921 0 0.33541316111977909 -0.1324815294035066 0 0.33647935586674249 -0.14242679484300921 0 0.33541316111977909 -0.1324815294035066 0 0.34591842363940589 -0.13209506000560911 0 0.33546973702598631 -0.1227856189256179 0 0.33541316111977909 -0.1324815294035066 0 0.34591842363940589 -0.13209506000560911 0 0.33546973702598631 -0.1227856189256179 0 0.32378512794698189 -0.13261864383979041 0 0.33541316111977909 -0.1324815294035066 0 0.33647935586674249 -0.14242679484300921 0 0.34591842363940589 -0.13209506000560911 0 0.35519418424247201 -0.14716408388195751 0 0.34591842363940589 -0.13209506000560911 0 0.35519418424247201 -0.14716408388195751 0 0.35946173749758142 -0.12857094381765011 0 0.34942203516189407 -0.1165766057174966 0 0.34591842363940589 -0.13209506000560911 0 0.35946173749758142 -0.12857094381765011 0 0.33647935586674249 -0.14242679484300921 0 0.35519418424247201 -0.14716408388195751 0 0.34392153500440198 -0.1566675827275382 0 0.35519418424247201 -0.14716408388195751 0 0.36251324681385289 -0.1679461037446246 0 0.37682003422194138 -0.14695723973624911 0 0.35519418424247201 -0.14716408388195751 0 0.35946173749758142 -0.12857094381765011 0 0.37682003422194138 -0.14695723973624911 0 0.35946173749758142 -0.12857094381765011 0 0.38275455807869108 -0.1259479040952235 0 0.37682003422194138 -0.14695723973624911 0 0.35946173749758142 -0.12857094381765011 0 0.38275455807869108 -0.1259479040952235 0 0.33691181363064993 -0.18163280134194151 0 0.36251324681385289 -0.1679461037446246 0 0.35997513491540112 -0.19073992405883769 0 0.33470628215790038 -0.16920422344781499 0 0.33691181363064993 -0.18163280134194151 0 0.36251324681385289 -0.1679461037446246 0 0.33470628215790038 -0.16920422344781499 0 0.36251324681385289 -0.1679461037446246 0 0.33470628215790038 -0.16920422344781499 0 0.34392153500440198 -0.1566675827275382 0 0.36251324681385289 -0.1679461037446246 0 0.35519418424247201 -0.14716408388195751 0 0.34392153500440198 -0.1566675827275382 0 0.36251324681385289 -0.1679461037446246 0 0.36251324681385289 -0.1679461037446246 0 0.35997513491540112 -0.19073992405883769 0 0.37708848150419372 -0.18216411619502271 0 0.35997513491540112 -0.19073992405883769 0 0.37951786791500408 -0.2016763387904105 0 0.37708848150419372 -0.18216411619502271 0 0.35997513491540112 -0.19073992405883769 0 0.36295230234299031 -0.21163302595727651 0 0.37951786791500408 -0.2016763387904105 0 0.36295230234299031 -0.21163302595727651 0 0.37453142961780778 -0.2235436289861121 0 0.37951786791500408 -0.2016763387904105 0 0.36295230234299031 -0.21163302595727651 0 0.34588296429912951 -0.20794601309765459 0 0.35485411496760888 -0.23425922485336759 0 0.35997513491540112 -0.19073992405883769 0 0.36295230234299031 -0.21163302595727651 0 0.34588296429912951 -0.20794601309765459 0 0.33691181363064993 -0.18163280134194151 0 0.35997513491540112 -0.19073992405883769 0 0.34588296429912951 -0.20794601309765459 0 0.33691181363064993 -0.18163280134194151 0 0.34588296429912951 -0.20794601309765459 0 0.33691181363064993 -0.18163280134194151 0 0.34588296429912951 -0.20794601309765459 0 0.32785030359678269 -0.19560954034647249 0 0.34588296429912951 -0.20794601309765459 0 0.32642679296558957 -0.21162652176753749 0 0.33674719048650759 -0.2257466425420348 0 0.34588296429912951 -0.20794601309765459 0 0.32642679296558957 -0.21162652176753749 0 0.32785030359678269 -0.19560954034647249 0 0.32642679296558957 -0.21162652176753749 0 0.31291435347682789 -0.2134437666299773 0 0.31768471564404049 -0.22543770841095939 0 0.32642679296558957 -0.21162652176753749 0 0.31291435347682789 -0.2134437666299773 0 0.31559690427448428 -0.20140105732059169 0 0.32642679296558957 -0.21162652176753749 0 0.31559690427448428 -0.20140105732059169 0 0.32785030359678269 -0.19560954034647249 0 0.31559690427448428 -0.20140105732059169 0 0.31604834541304649 -0.18901248646670341 0 0.32785030359678269 -0.19560954034647249 0 0.32555222801186973 -0.18269946958701519 0 0.31604834541304649 -0.18901248646670341 0 0.32785030359678269 -0.19560954034647249 0 0.30686298038310278 -0.23653910699017769 0 0.32146979424958622 -0.24479646355193069 0 0.31768471564404049 -0.22543770841095939 0 0.32146979424958622 -0.24479646355193069 0 0.31768471564404049 -0.22543770841095939 0 0.33674719048650759 -0.2257466425420348 0 0.32642679296558957 -0.21162652176753749 0 0.31768471564404049 -0.22543770841095939 0 0.33674719048650759 -0.2257466425420348 0 0.32146979424958622 -0.24479646355193069 0 0.33674719048650759 -0.2257466425420348 0 0.3426862872816076 -0.2448529739803291 0 0.35485411496760888 -0.23425922485336759 0 0.36382526563608841 -0.26057243660908053 0 0.33674719048650759 -0.2257466425420348 0 0.3426862872816076 -0.2448529739803291 0 0.35485411496760888 -0.23425922485336759 0 0.3426862872816076 -0.2448529739803291 0 0.35485411496760888 -0.23425922485336759 0 0.36382526563608841 -0.26057243660908053 0 0.34588296429912951 -0.20794601309765459 0 0.33674719048650759 -0.2257466425420348 0 0.35485411496760888 -0.23425922485336759 0 0.34588296429912951 -0.20794601309765459 0 0.35485411496760888 -0.23425922485336759 0 0.35485411496760888 -0.23425922485336759 0 0.37453142961780778 -0.2235436289861121 0 0.3728553354896833 -0.24170966668946789 0 0.36295230234299031 -0.21163302595727651 0 0.35485411496760888 -0.23425922485336759 0 0.37453142961780778 -0.2235436289861121 0 0.35485411496760888 -0.23425922485336759 0 0.3728553354896833 -0.24170966668946789 0 0.36382526563608841 -0.26057243660908053 0 0.3728553354896833 -0.24170966668946789 0 0.38660095623609481 -0.23623481095186549 0 0.38323898802897471 -0.25369016854328119 0 0.38660095623609481 -0.23623481095186549 0 0.39533181906631742 -0.2475883596766216 0 0.38323898802897471 -0.25369016854328119 0 0.38660095623609481 -0.23623481095186549 0 0.39533181906631742 -0.2475883596766216 0 0.40470473351129671 -0.23187684708743431 0 0.39533181906631742 -0.2475883596766216 0 0.40470473351129671 -0.23187684708743431 0 0.4099601707076016 -0.25146853119345353 0 0.38660095623609481 -0.23623481095186549 0 0.40470473351129671 -0.23187684708743431 0 0.39417498830075931 -0.21531073547332569 0 0.40470473351129671 -0.23187684708743431 0 0.39417498830075931 -0.21531073547332569 0 0.41671928957882243 -0.20990428530352859 0 0.37453142961780778 -0.2235436289861121 0 0.3728553354896833 -0.24170966668946789 0 0.38660095623609481 -0.23623481095186549 0 0.37453142961780778 -0.2235436289861121 0 0.38660095623609481 -0.23623481095186549 0 0.39417498830075931 -0.21531073547332569 0 0.37453142961780778 -0.2235436289861121 0 0.37951786791500408 -0.2016763387904105 0 0.39417498830075931 -0.21531073547332569 0 0.37951786791500408 -0.2016763387904105 0 0.40297565294553039 -0.1886285017206035 0 0.37708848150419372 -0.18216411619502271 0 0.37951786791500408 -0.2016763387904105 0 0.40297565294553039 -0.1886285017206035 0 0.39417498830075931 -0.21531073547332569 0 0.40297565294553039 -0.1886285017206035 0 0.39417498830075931 -0.21531073547332569 0 0.41671928957882243 -0.20990428530352859 0 0.40297565294553039 -0.1886285017206035 0 0.41671928957882243 -0.20990428530352859 0 0.42972086176690349 -0.19122612890714011 0 0.41671928957882243 -0.20990428530352859 0 0.42972086176690349 -0.19122612890714011 0 0.44083587097413179 -0.213119303041235 0 0.41671928957882243 -0.20990428530352859 0 0.43312976515129792 -0.2267342990419057 0 0.44083587097413179 -0.213119303041235 0 0.41671928957882243 -0.20990428530352859 0 0.43312976515129792 -0.2267342990419057 0 0.42257618002097241 -0.2357129766342545 0 0.43312976515129792 -0.2267342990419057 0 0.4359575627209073 -0.24029889897392279 0 0.42257618002097241 -0.2357129766342545 0 0.4359575627209073 -0.24029889897392279 0 0.42257618002097241 -0.2357129766342545 0 0.42843307046312168 -0.26152166796498072 0 0.42257618002097241 -0.2357129766342545 0 0.42843307046312168 -0.26152166796498072 0 0.42257618002097241 -0.2357129766342545 0 0.4099601707076016 -0.25146853119345353 0 0.42843307046312168 -0.26152166796498072 0 0.40470473351129671 -0.23187684708743431 0 0.42257618002097241 -0.2357129766342545 0 0.4099601707076016 -0.25146853119345353 0 0.40470473351129671 -0.23187684708743431 0 0.41671928957882243 -0.20990428530352859 0 0.42257618002097241 -0.2357129766342545 0 0.41671928957882243 -0.20990428530352859 0 0.42257618002097241 -0.2357129766342545 0 0.40604737865980089 -0.1233248643727969 0 0.3956826072182752 -0.1360174485408103 0 0.38275455807869108 -0.1259479040952235 0 0.40604737865980089 -0.1233248643727969 0 0.3956826072182752 -0.1360174485408103 0 0.40977480719282472 -0.1334225837494743 0 0.3956826072182752 -0.1360174485408103 0 0.4108033893338191 -0.147102156480934 0 0.40977480719282472 -0.1334225837494743 0 0.3956826072182752 -0.1360174485408103 0 0.38275455807869108 -0.1259479040952235 0 0.37682003422194138 -0.14695723973624911 0 0.3956826072182752 -0.1360174485408103 0 0.37682003422194138 -0.14695723973624911 0 0.39032021146980539 -0.16668798404143431 0 0.3956826072182752 -0.1360174485408103 0 0.39032021146980539 -0.16668798404143431 0 0.4108033893338191 -0.147102156480934 0 0.39032021146980539 -0.16668798404143431 0 0.41812717612575778 -0.165429864338244 0 0.36251324681385289 -0.1679461037446246 0 0.39032021146980539 -0.16668798404143431 0 0.36251324681385289 -0.1679461037446246 0 0.37682003422194138 -0.14695723973624911 0 0.39032021146980539 -0.16668798404143431 0 0.36251324681385289 -0.1679461037446246 0 0.39032021146980539 -0.16668798404143431 0 0.37708848150419372 -0.18216411619502271 0 0.40297565294553039 -0.1886285017206035 0 0.39032021146980539 -0.16668798404143431 0 0.37708848150419372 -0.18216411619502271 0 0.40297565294553039 -0.1886285017206035 0 0.39032021146980539 -0.16668798404143431 0 0.41812717612575778 -0.165429864338244 0 0.40297565294553039 -0.1886285017206035 0 0.42972086176690349 -0.19122612890714011 0 0.41812717612575778 -0.165429864338244 0 0.42972086176690349 -0.19122612890714011 0 0.41812717612575778 -0.165429864338244 0 0.44446831043725987 -0.17443883014544381 0 0.41812717612575778 -0.165429864338244 0 0.44589625631238322 -0.15210811832757709 0 0.44446831043725987 -0.17443883014544381 0 0.39032021146980539 -0.16668798404143431 0 0.41812717612575778 -0.165429864338244 0 0.4108033893338191 -0.147102156480934 0 0.41812717612575778 -0.165429864338244 0 0.4108033893338191 -0.147102156480934 0 0.43020699471623802 -0.14431477047598459 0 0.4108033893338191 -0.147102156480934 0 0.43020699471623802 -0.14431477047598459 0 0.41975444836949111 -0.13633031146780331 0 0.41812717612575778 -0.165429864338244 0 0.43020699471623802 -0.14431477047598459 0 0.44589625631238322 -0.15210811832757709 0 0.44439080825515859 -0.12283557353010061 0 0.41658621238273741 -0.1243381378850273 0 0.43073090512410861 -0.1329949377618819 0 0.43020699471623802 -0.14431477047598459 0 0.43073090512410861 -0.1329949377618819 0 0.41975444836949111 -0.13633031146780331 0 0.43020699471623802 -0.14431477047598459 0 0.43073090512410861 -0.1329949377618819 0 0.44394941909502461 -0.1370247884400089 0 0.41658621238273741 -0.1243381378850273 0 0.43073090512410861 -0.1329949377618819 0 0.41975444836949111 -0.13633031146780331 0 0.41658621238273741 -0.1243381378850273 0 0.41975444836949111 -0.13633031146780331 0 0.40977480719282472 -0.1334225837494743 0 0.4108033893338191 -0.147102156480934 0 0.41975444836949111 -0.13633031146780331 0 0.40977480719282472 -0.1334225837494743 0 0.41658621238273741 -0.1243381378850273 0 0.40604737865980089 -0.1233248643727969 0 0.40977480719282472 -0.1334225837494743 0 0.46087527358491931 -0.13916761602029279 0 0.45535272626567053 -0.13009024679139411 0 0.44394941909502461 -0.1370247884400089 0 0.47219540412757982 -0.12133300917517389 0 0.46087527358491931 -0.13916761602029279 0 0.45535272626567053 -0.13009024679139411 0 0.44439080825515859 -0.12283557353010061 0 0.45535272626567053 -0.13009024679139411 0 0.44394941909502461 -0.1370247884400089 0 0.44439080825515859 -0.12283557353010061 0 0.43073090512410861 -0.1329949377618819 0 0.44394941909502461 -0.1370247884400089 0 0.43020699471623802 -0.14431477047598459 0 0.44394941909502461 -0.1370247884400089 0 0.44589625631238322 -0.15210811832757709 0 0.46087527358491931 -0.13916761602029279 0 0.44394941909502461 -0.1370247884400089 0 0.44589625631238322 -0.15210811832757709 0 0.46087527358491931 -0.13916761602029279 0 0.44589625631238322 -0.15210811832757709 0 0.46063812572462631 -0.15990847021204549 0 0.46087527358491931 -0.13916761602029279 0 0.46063812572462631 -0.15990847021204549 0 0.48104457852073262 -0.15191042169367391 0 0.46063812572462631 -0.15990847021204549 0 0.46228021718085432 -0.1763269472782758 0 0.47871266037648841 -0.17266393857974571 0 0.46063812572462631 -0.15990847021204549 0 0.44446831043725987 -0.17443883014544381 0 0.46228021718085432 -0.1763269472782758 0 0.44589625631238322 -0.15210811832757709 0 0.46063812572462631 -0.15990847021204549 0 0.44446831043725987 -0.17443883014544381 0 0.42972086176690349 -0.19122612890714011 0 0.44446831043725987 -0.17443883014544381 0 0.45519887053991892 -0.19583598889378581 0 0.46228021718085432 -0.1763269472782758 0 0.45519887053991892 -0.19583598889378581 0 0.47322619671005661 -0.18753025527162909 0 0.44446831043725987 -0.17443883014544381 0 0.46228021718085432 -0.1763269472782758 0 0.45519887053991892 -0.19583598889378581 0 0.47871266037648841 -0.17266393857974571 0 0.47322619671005661 -0.18753025527162909 0 0.48904219948170591 -0.19271593688653241 0 0.46228021718085432 -0.1763269472782758 0 0.47871266037648841 -0.17266393857974571 0 0.47322619671005661 -0.18753025527162909 0 0.47871266037648841 -0.17266393857974571 0 0.50000000000000178 -0.16520530693749039 0 0.48904219948170591 -0.19271593688653241 0 0.50000000000000178 -0.16520530693749039 0 0.48904219948170591 -0.19271593688653241 0 0.50000000000000178 -0.16520530693749039 0 0.48904219948170591 -0.19271593688653241 0 0.5 -0.19062189139745289 0 0.47871266037648841 -0.17266393857974571 0 0.50000000000000178 -0.16520530693749039 0 0.48104457852073262 -0.15191042169367391 0 0.46063812572462631 -0.15990847021204549 0 0.47871266037648841 -0.17266393857974571 0 0.48104457852073262 -0.15191042169367391 0 0.46087527358491931 -0.13916761602029279 0 0.48104457852073262 -0.15191042169367391 0 0.48282305124664632 -0.13495187351765131 0 0.48104457852073262 -0.15191042169367391 0 0.5 -0.1425178758788688 0 0.48282305124664632 -0.13495187351765131 0 0.50000000000000178 -0.16520530693749039 0 0.48104457852073262 -0.15191042169367391 0 0.5 -0.1425178758788688 0 0.47219540412757982 -0.12133300917517389 0 0.50000000000000111 -0.1198304448202472 0 0.48282305124664632 -0.13495187351765131 0 0.50000000000000111 -0.1198304448202472 0 0.5 -0.1425178758788688 0 0.48282305124664632 -0.13495187351765131 0 0.47219540412757982 -0.12133300917517389 0 0.46087527358491931 -0.13916761602029279 0 0.48282305124664632 -0.13495187351765131 0 0.46104233815391232 -0.23120133744579621 0 0.45881341533385572 -0.21554190531045411 0 0.47808439896340832 -0.22022656683557379 0 0.46104233815391232 -0.23120133744579621 0 0.44717763098323088 -0.22843218330813819 0 0.45881341533385572 -0.21554190531045411 0 0.46104233815391232 -0.23120133744579621 0 0.45328683356528082 -0.24369735603551579 0 0.47156881064531819 -0.24035642769241741 0 0.45328683356528082 -0.24369735603551579 0 0.47156881064531819 -0.24035642769241741 0 0.46081071523755268 -0.25850548730515632 0 0.46104233815391232 -0.23120133744579621 0 0.45328683356528082 -0.24369735603551579 0 0.44717763098323088 -0.22843218330813819 0 0.4359575627209073 -0.24029889897392279 0 0.45328683356528082 -0.24369735603551579 0 0.44522423344337908 -0.25949473371753262 0 0.4359575627209073 -0.24029889897392279 0 0.45328683356528082 -0.24369735603551579 0 0.44717763098323088 -0.22843218330813819 0 0.44717763098323088 -0.22843218330813819 0 0.44083587097413179 -0.213119303041235 0 0.45881341533385572 -0.21554190531045411 0 0.43312976515129792 -0.2267342990419057 0 0.4359575627209073 -0.24029889897392279 0 0.44717763098323088 -0.22843218330813819 0 0.43312976515129792 -0.2267342990419057 0 0.44717763098323088 -0.22843218330813819 0 0.44083587097413179 -0.213119303041235 0 0.44083587097413179 -0.213119303041235 0 0.45519887053991892 -0.19583598889378581 0 0.45881341533385572 -0.21554190531045411 0 0.42972086176690349 -0.19122612890714011 0 0.44083587097413179 -0.213119303041235 0 0.45519887053991892 -0.19583598889378581 0 0.45519887053991892 -0.19583598889378581 0 0.4716965838582185 -0.20174460256182969 0 0.47322619671005661 -0.18753025527162909 0 0.45519887053991892 -0.19583598889378581 0 0.45881341533385572 -0.21554190531045411 0 0.4716965838582185 -0.20174460256182969 0 0.45881341533385572 -0.21554190531045411 0 0.4716965838582185 -0.20174460256182969 0 0.47808439896340832 -0.22022656683557379 0 0.48904219948170591 -0.19271593688653241 0 0.47808439896340832 -0.22022656683557379 0 0.4716965838582185 -0.20174460256182969 0 0.48904219948170591 -0.19271593688653241 0 0.47808439896340832 -0.22022656683557379 0 0.4716965838582185 -0.20174460256182969 0 0.47322619671005661 -0.18753025527162909 0 0.48904219948170591 -0.19271593688653241 0 0.48904219948170591 -0.19271593688653241 0 0.5 -0.19062189139745289 0 0.5 -0.21603847585741551 0 0.48904219948170591 -0.19271593688653241 0 0.5 -0.21603847585741551 0 0.47808439896340832 -0.22022656683557379 0 0.5 -0.21603847585741551 0 0.48774167448605488 -0.2315533564053667 0 0.47808439896340832 -0.22022656683557379 0 0.5 -0.21603847585741551 0 0.48774167448605488 -0.2315533564053667 0 0.5 -0.2414550603173781 0 0.48774167448605488 -0.2315533564053667 0 0.47808439896340832 -0.22022656683557379 0 0.47156881064531819 -0.24035642769241741 0 0.46104233815391232 -0.23120133744579621 0 0.47808439896340832 -0.22022656683557379 0 0.47156881064531819 -0.24035642769241741 0 0.48774167448605488 -0.2315533564053667 0 0.47156881064531819 -0.24035642769241741 0 0.48414940442378901 -0.24333061499514089 0 0.47156881064531819 -0.24035642769241741 0 0.48414940442378901 -0.24333061499514089 0 0.47586630968723009 -0.25398027482437241 0 0.48414940442378901 -0.24333061499514089 0 0.5 -0.2414550603173781 0 0.48841079277084232 -0.2579972407415701 0 0.48774167448605488 -0.2315533564053667 0 0.48414940442378901 -0.24333061499514089 0 0.5 -0.2414550603173781 0 0.5 -0.2414550603173781 0 0.48841079277084232 -0.2579972407415701 0 0.50000000000000089 -0.2668716447773406 0 0.48841079277084232 -0.2579972407415701 0 0.4926721811178969 -0.2726638664879989 0 0.48414940442378901 -0.24333061499514089 0 0.48841079277084232 -0.2579972407415701 0 0.48841079277084232 -0.2579972407415701 0 0.4926721811178969 -0.2726638664879989 0 0.47505565961346669 -0.26886225523321028 0 0.4926721811178969 -0.2726638664879989 0 0.50000000000000089 -0.2668716447773406 0 0.5 -0.28237800941953312 0 0.48841079277084232 -0.2579972407415701 0 0.4926721811178969 -0.2726638664879989 0 0.50000000000000089 -0.2668716447773406 0 0.4926721811178969 -0.2726638664879989 0 0.50000000000000089 -0.2668716447773406 0 0.4926721811178969 -0.2726638664879989 0 0.47523064094150991 -0.28645040642607078 0 0.4926721811178969 -0.2726638664879989 0 0.47505565961346669 -0.26886225523321028 0 0.47523064094150991 -0.28645040642607078 0 0.47156881064531819 -0.24035642769241741 0 0.47586630968723009 -0.25398027482437241 0 0.46081071523755268 -0.25850548730515632 0 0.48414940442378901 -0.24333061499514089 0 0.48841079277084232 -0.2579972407415701 0 0.47586630968723009 -0.25398027482437241 0 0.48841079277084232 -0.2579972407415701 0 0.47505565961346669 -0.26886225523321028 0 0.47586630968723009 -0.25398027482437241 0 0.47505565961346669 -0.26886225523321028 0 0.47586630968723009 -0.25398027482437241 0 0.46081071523755268 -0.25850548730515632 0 0.47505565961346669 -0.26886225523321028 0 0.453931205761339 -0.2792842800885138 0 0.47523064094150991 -0.28645040642607078 0 0.47505565961346669 -0.26886225523321028 0 0.46081071523755268 -0.25850548730515632 0 0.453931205761339 -0.2792842800885138 0 0.46081071523755268 -0.25850548730515632 0 0.453931205761339 -0.2792842800885138 0 0.44522423344337908 -0.25949473371753262 0 0.453931205761339 -0.2792842800885138 0 0.43950502267553831 -0.27281046432255007 0 0.44522423344337908 -0.25949473371753262 0 0.453931205761339 -0.2792842800885138 0 0.43950502267553831 -0.27281046432255007 0 0.44753388124163762 -0.29129368223099 0 0.43950502267553831 -0.27281046432255007 0 0.44522423344337908 -0.25949473371753262 0 0.42843307046312168 -0.26152166796498072 0 0.45328683356528082 -0.24369735603551579 0 0.46081071523755268 -0.25850548730515632 0 0.44522423344337908 -0.25949473371753262 0 0.44753388124163762 -0.29129368223099 0 0.45778910076512069 -0.30023694636414 0 0.4403475605887312 -0.31402348630220889 0 0.45778910076512069 -0.30023694636414 0 0.4403475605887312 -0.31402348630220889 0 0.45778910076512069 -0.30023694636414 0 0.45976944443815548 -0.32086468239505173 0 0.4403475605887312 -0.31402348630220889 0 0.44753388124163762 -0.29129368223099 0 0.4403475605887312 -0.31402348630220889 0 0.43439031552592677 -0.28777257713359478 0 0.453931205761339 -0.2792842800885138 0 0.44753388124163762 -0.29129368223099 0 0.45778910076512069 -0.30023694636414 0 0.43950502267553831 -0.27281046432255007 0 0.44753388124163762 -0.29129368223099 0 0.43439031552592677 -0.28777257713359478 0 0.45778910076512069 -0.30023694636414 0 0.47523064094150991 -0.28645040642607078 0 0.453931205761339 -0.2792842800885138 0 0.45778910076512069 -0.30023694636414 0 0.47523064094150991 -0.28645040642607078 0 0.45778910076512069 -0.30023694636414 0 0.47949123119256931 -0.30976657285196563 0 0.45976944443815548 -0.32086468239505173 0 0.45778910076512069 -0.30023694636414 0 0.47949123119256931 -0.30976657285196563 0 0.47523064094150991 -0.28645040642607078 0 0.4926721811178969 -0.2726638664879989 0 0.5 -0.28237800941953312 0 0.50000000000000022 -0.29788437406172552 0 0.4926721811178969 -0.2726638664879989 0 0.47523064094150991 -0.28645040642607078 0 0.50000000000000022 -0.29788437406172552 0 0.4926721811178969 -0.2726638664879989 0 0.50000000000000022 -0.29788437406172552 0 0.47949123119256931 -0.30976657285196563 0 0.47523064094150991 -0.28645040642607078 0 0.50000000000000022 -0.29788437406172552 0 0.47949123119256931 -0.30976657285196563 0 0.50000000000000022 -0.29788437406172552 0 0.5 -0.32844310190340381 0 0.47949123119256931 -0.30976657285196563 0 0.5 -0.32844310190340381 0 0.47562337630692819 -0.34314560545225647 0 0.47949123119256931 -0.30976657285196563 0 0.47562337630692819 -0.34314560545225647 0 0.45976944443815548 -0.32086468239505173 0 0.5 -0.32844310190340381 0 0.47562337630692819 -0.34314560545225647 0 0.5 -0.36963244832707232 0 0.47562337630692819 -0.34314560545225647 0 0.5 -0.36963244832707232 0 0.48435239200079799 -0.36958784634849051 0 0.47562337630692819 -0.34314560545225647 0 0.48435239200079799 -0.36958784634849051 0 0.45941279949299141 -0.36583164742583718 0 0.48435239200079799 -0.36958784634849051 0 0.45941279949299141 -0.36583164742583718 0 0.47036004476087862 -0.38072471818378112 0 0.48435239200079799 -0.36958784634849051 0 0.45941279949299141 -0.36583164742583718 0 0.47562337630692819 -0.34314560545225647 0 0.45941279949299141 -0.36583164742583718 0 0.44559595333742802 -0.33715080100468742 0 0.45941279949299141 -0.36583164742583718 0 0.44559595333742802 -0.33715080100468742 0 0.4344732069851846 -0.36207544850318391 0 0.45941279949299141 -0.36583164742583718 0 0.4344732069851846 -0.36207544850318391 0 0.45170203517773871 -0.38181930292096039 0 0.45941279949299141 -0.36583164742583718 0 0.4344732069851846 -0.36207544850318391 0 0.47562337630692819 -0.34314560545225647 0 0.45976944443815548 -0.32086468239505173 0 0.44559595333742802 -0.33715080100468742 0 0.45976944443815548 -0.32086468239505173 0 0.44559595333742802 -0.33715080100468742 0 0.4403475605887312 -0.31402348630220889 0 0.44559595333742802 -0.33715080100468742 0 0.4403475605887312 -0.31402348630220889 0 0.4403475605887312 -0.31402348630220889 0 0.42504923570474729 -0.31404353379283112 0 0.42056284978197861 -0.3296621686056041 0 0.44559595333742802 -0.33715080100468742 0 0.4403475605887312 -0.31402348630220889 0 0.42056284978197861 -0.3296621686056041 0 0.4403475605887312 -0.31402348630220889 0 0.42056284978197861 -0.3296621686056041 0 0.44559595333742802 -0.33715080100468742 0 0.42056284978197861 -0.3296621686056041 0 0.42550991815651218 -0.34642637946689803 0 0.42056284978197861 -0.3296621686056041 0 0.41134827256835949 -0.34319210017733898 0 0.42550991815651218 -0.34642637946689803 0 0.42056284978197861 -0.3296621686056041 0 0.41134827256835949 -0.34319210017733898 0 0.40436622616954332 -0.32940200583864843 0 0.40436622616954332 -0.32940200583864843 0 0.41238850760073592 -0.30677522654742562 0 0.42504923570474729 -0.31404353379283112 0 0.42056284978197861 -0.3296621686056041 0 0.41238850760073592 -0.30677522654742562 0 0.42056284978197861 -0.3296621686056041 0 0.40436622616954332 -0.32940200583864843 0 0.41238850760073592 -0.30677522654742562 0 0.4344732069851846 -0.36207544850318391 0 0.40953361447737779 -0.35831924958053057 0 0.4344732069851846 -0.36207544850318391 0 0.42072642786776149 -0.36890786541532522 0 0.43103049897397838 -0.38666902169532652 0 0.44559595333742802 -0.33715080100468742 0 0.4344732069851846 -0.36207544850318391 0 0.42550991815651218 -0.34642637946689803 0 0.4344732069851846 -0.36207544850318391 0 0.42550991815651218 -0.34642637946689803 0 0.40953361447737779 -0.35831924958053057 0 0.41134827256835949 -0.34319210017733898 0 0.42550991815651218 -0.34642637946689803 0 0.40953361447737779 -0.35831924958053057 0 0.4344732069851846 -0.36207544850318391 0 0.40953361447737779 -0.35831924958053057 0 0.42072642786776149 -0.36890786541532522 0 0.40953361447737779 -0.35831924958053057 0 0.42072642786776149 -0.36890786541532522 0 0.40729054323642377 -0.37504008881755352 0 0.38355058749886922 -0.36341115593978052 0 0.40729054323642377 -0.37504008881755352 0 0.40953361447737779 -0.35831924958053057 0 0.38355058749886922 -0.36341115593978052 0 0.40729054323642377 -0.37504008881755352 0 0.38355058749886922 -0.36341115593978052 0 0.40729054323642377 -0.37504008881755352 0 0.38668732008640389 -0.37524858780357612 0 0.40953361447737779 -0.35831924958053057 0 0.38459402196957099 -0.3545630506578773 0 0.38355058749886922 -0.36341115593978052 0 0.40953361447737779 -0.35831924958053057 0 0.39634394473835077 -0.35202878512987112 0 0.38459402196957099 -0.3545630506578773 0 0.40953361447737779 -0.35831924958053057 0 0.38459402196957099 -0.3545630506578773 0 0.41134827256835949 -0.34319210017733898 0 0.40953361447737779 -0.35831924958053057 0 0.39634394473835077 -0.35202878512987112 0 0.38459402196957099 -0.3545630506578773 0 0.38355058749886922 -0.36341115593978052 0 0.35965442946176429 -0.3508068517352243 0 0.39634394473835077 -0.35202878512987112 0 0.38459402196957099 -0.3545630506578773 0 0.3879969209314143 -0.34004160640555992 0 0.37628950864166949 -0.34495945910718029 0 0.38459402196957099 -0.3545630506578773 0 0.3879969209314143 -0.34004160640555992 0 0.38355058749886922 -0.36341115593978052 0 0.37463334710296131 -0.36884553848220641 0 0.37176887348537391 -0.36070395545778289 0 0.38668732008640389 -0.37524858780357612 0 0.37626242823976058 -0.3787433431615333 0 0.37463334710296131 -0.36884553848220641 0 0.38355058749886922 -0.36341115593978052 0 0.38668732008640389 -0.37524858780357612 0 0.37463334710296131 -0.36884553848220641 0 0.39715182413901617 -0.31265603041162338 0 0.40436622616954332 -0.32940200583864843 0 0.41238850760073592 -0.30677522654742562 0 0.39715182413901617 -0.31265603041162338 0 0.40436622616954332 -0.32940200583864843 0 0.3894465471420554 -0.32532710441348439 0 0.39634394473835077 -0.35202878512987112 0 0.40436622616954332 -0.32940200583864843 0 0.3879969209314143 -0.34004160640555992 0 0.40436622616954332 -0.32940200583864843 0 0.3879969209314143 -0.34004160640555992 0 0.3894465471420554 -0.32532710441348439 0 0.39634394473835077 -0.35202878512987112 0 0.40436622616954332 -0.32940200583864843 0 0.41134827256835949 -0.34319210017733898 0 0.39634394473835077 -0.35202878512987112 0 0.40436622616954332 -0.32940200583864843 0 0.3879969209314143 -0.34004160640555992 0 0.37557283775158551 -0.33323703120686882 0 0.3894465471420554 -0.32532710441348439 0 0.37628950864166949 -0.34495945910718029 0 0.3879969209314143 -0.34004160640555992 0 0.37557283775158551 -0.33323703120686882 0 0.39715182413901617 -0.31265603041162338 0 0.3894465471420554 -0.32532710441348439 0 0.38395872792318492 -0.30770497907920102 0 0.37557283775158551 -0.33323703120686882 0 0.3894465471420554 -0.32532710441348439 0 0.37420493105156011 -0.3199049692679331 0 0.3894465471420554 -0.32532710441348439 0 0.38395872792318492 -0.30770497907920102 0 0.37420493105156011 -0.3199049692679331 0 0.39715182413901617 -0.31265603041162338 0 0.38395872792318492 -0.30770497907920102 0 0.39559911185956109 -0.29407083617935792 0 0.39715182413901617 -0.31265603041162338 0 0.39559911185956109 -0.29407083617935792 0 0.41238850760073592 -0.30677522654742562 0 0.39559911185956109 -0.29407083617935792 0 0.40544580226563681 -0.28216090922799292 0 0.41238850760073592 -0.30677522654742562 0 0.39559911185956109 -0.29407083617935792 0 0.40544580226563681 -0.28216090922799292 0 0.38942631636203923 -0.27917521191837491 0 0.38395872792318492 -0.30770497907920102 0 0.39559911185956109 -0.29407083617935792 0 0.37279641630456778 -0.28688564836479341 0 0.39559911185956109 -0.29407083617935792 0 0.38942631636203923 -0.27917521191837491 0 0.37279641630456778 -0.28688564836479341 0 0.38027422610832318 -0.2692962312407422 0 0.38942631636203923 -0.27917521191837491 0 0.39620926961975339 -0.26417509080476859 0 0.38027422610832318 -0.2692962312407422 0 0.38942631636203923 -0.27917521191837491 0 0.37279641630456778 -0.28688564836479341 0 0.38027422610832318 -0.2692962312407422 0 0.38323898802897471 -0.25369016854328119 0 0.39620926961975339 -0.26417509080476859 0 0.38027422610832318 -0.2692962312407422 0 0.38323898802897471 -0.25369016854328119 0 0.36382526563608841 -0.26057243660908053 0 0.39533181906631742 -0.2475883596766216 0 0.38323898802897471 -0.25369016854328119 0 0.39620926961975339 -0.26417509080476859 0 0.39533181906631742 -0.2475883596766216 0 0.39620926961975339 -0.26417509080476859 0 0.4099601707076016 -0.25146853119345353 0 0.40544580226563681 -0.28216090922799292 0 0.38942631636203923 -0.27917521191837491 0 0.39620926961975339 -0.26417509080476859 0 0.40544580226563681 -0.28216090922799292 0 0.39620926961975339 -0.26417509080476859 0 0.41262375860595341 -0.26838780928976769 0 0.40544580226563681 -0.28216090922799292 0 0.41262375860595341 -0.26838780928976769 0 0.4204107890319283 -0.28414844725620297 0 0.41262375860595341 -0.26838780928976769 0 0.42843307046312168 -0.26152166796498072 0 0.4204107890319283 -0.28414844725620297 0 0.39620926961975339 -0.26417509080476859 0 0.41262375860595341 -0.26838780928976769 0 0.4099601707076016 -0.25146853119345353 0 0.41262375860595341 -0.26838780928976769 0 0.4099601707076016 -0.25146853119345353 0 0.42843307046312168 -0.26152166796498072 0 0.4359575627209073 -0.24029889897392279 0 0.42843307046312168 -0.26152166796498072 0 0.4359575627209073 -0.24029889897392279 0 0.44522423344337908 -0.25949473371753262 0 0.42843307046312168 -0.26152166796498072 0 0.42843307046312168 -0.26152166796498072 0 0.4204107890319283 -0.28414844725620297 0 0.42843307046312168 -0.26152166796498072 0 0.43439031552592677 -0.28777257713359478 0 0.43950502267553831 -0.27281046432255007 0 0.42843307046312168 -0.26152166796498072 0 0.43439031552592677 -0.28777257713359478 0 0.42843307046312168 -0.26152166796498072 0 0.43439031552592677 -0.28777257713359478 0 0.4204107890319283 -0.28414844725620297 0 0.43439031552592677 -0.28777257713359478 0 0.42653613036155891 -0.30156852546930579 0 0.4204107890319283 -0.28414844725620297 0 0.4403475605887312 -0.31402348630220889 0 0.43439031552592677 -0.28777257713359478 0 0.4403475605887312 -0.31402348630220889 0 0.43439031552592677 -0.28777257713359478 0 0.42653613036155891 -0.30156852546930579 0 0.4403475605887312 -0.31402348630220889 0 0.42504923570474729 -0.31404353379283112 0 0.42653613036155891 -0.30156852546930579 0 0.42653613036155891 -0.30156852546930579 0 0.41238850760073592 -0.30677522654742562 0 0.4204107890319283 -0.28414844725620297 0 0.42504923570474729 -0.31404353379283112 0 0.42653613036155891 -0.30156852546930579 0 0.41238850760073592 -0.30677522654742562 0 0.41238850760073592 -0.30677522654742562 0 0.4204107890319283 -0.28414844725620297 0 0.40544580226563681 -0.28216090922799292 0 0.41238850760073592 -0.30677522654742562 0 0.4204107890319283 -0.28414844725620297 0 0.44815189457817961 -0.47897466839496589 0 0.5 -0.5 0 0.43682505941684102 -0.5 0 0.5 -0.5 0 0.47866698692358439 -0.44894013887597212 0 0.5 -0.42515568206566612 0 0.5 -0.5 0 0.47866698692358439 -0.44894013887597212 0 0.46291097608683118 -0.46376643396861472 0 0.44815189457817961 -0.47897466839496589 0 0.5 -0.5 0 0.46291097608683118 -0.46376643396861472 0 0.47866698692358439 -0.44894013887597212 0 0.45675185974336158 -0.44152486373147831 0 0.46291097608683118 -0.46376643396861472 0 0.45675185974336158 -0.44152486373147831 0 0.46291097608683118 -0.46376643396861472 0 0.43958407369326052 -0.45694852357224958 0 0.44815189457817961 -0.47897466839496589 0 0.46291097608683118 -0.46376643396861472 0 0.43958407369326052 -0.45694852357224958 0 0.46291097608683118 -0.46376643396861472 0 0.43958407369326052 -0.45694852357224958 0 0.45675185974336158 -0.44152486373147831 0 0.43958407369326052 -0.45694852357224958 0 0.43592003176943478 -0.43844639190102258 0 0.45675185974336158 -0.44152486373147831 0 0.44002462626034311 -0.41658973607719629 0 0.43592003176943478 -0.43844639190102258 0 0.44002462626034311 -0.41658973607719629 0 0.46454526305878152 -0.41980194897518819 0 0.44657825500971632 -0.39993764674564669 0 0.44002462626034311 -0.41658973607719629 0 0.46454526305878152 -0.41980194897518819 0 0.47866698692358439 -0.44894013887597212 0 0.45675185974336158 -0.44152486373147831 0 0.46454526305878152 -0.41980194897518819 0 0.45675185974336158 -0.44152486373147831 0 0.44002462626034311 -0.41658973607719629 0 0.46454526305878152 -0.41980194897518819 0 0.47866698692358439 -0.44894013887597212 0 0.46454526305878152 -0.41980194897518819 0 0.5 -0.42515568206566612 0 0.46454526305878152 -0.41980194897518819 0 0.5 -0.42515568206566612 0 0.48012348692897872 -0.40740592644678658 0 0.5 -0.42515568206566612 0 0.48012348692897872 -0.40740592644678658 0 0.4849483749842195 -0.39021772521140341 0 0.46454526305878152 -0.41980194897518819 0 0.48012348692897872 -0.40740592644678658 0 0.46835740584368307 -0.3956773349719872 0 0.5 -0.36963244832707232 0 0.5 -0.42515568206566612 0 0.4849483749842195 -0.39021772521140341 0 0.48012348692897872 -0.40740592644678658 0 0.4849483749842195 -0.39021772521140341 0 0.46835740584368307 -0.3956773349719872 0 0.5 -0.36963244832707232 0 0.48435239200079799 -0.36958784634849051 0 0.4849483749842195 -0.39021772521140341 0 0.4849483749842195 -0.39021772521140341 0 0.47036004476087862 -0.38072471818378112 0 0.46835740584368307 -0.3956773349719872 0 0.48435239200079799 -0.36958784634849051 0 0.4849483749842195 -0.39021772521140341 0 0.47036004476087862 -0.38072471818378112 0 0.47036004476087862 -0.38072471818378112 0 0.46835740584368307 -0.3956773349719872 0 0.45170203517773871 -0.38181930292096039 0 0.45941279949299141 -0.36583164742583718 0 0.47036004476087862 -0.38072471818378112 0 0.45170203517773871 -0.38181930292096039 0 0.46835740584368307 -0.3956773349719872 0 0.44657825500971632 -0.39993764674564669 0 0.45170203517773871 -0.38181930292096039 0 0.46454526305878152 -0.41980194897518819 0 0.46835740584368307 -0.3956773349719872 0 0.44657825500971632 -0.39993764674564669 0 0.44657825500971632 -0.39993764674564669 0 0.45170203517773871 -0.38181930292096039 0 0.43103049897397838 -0.38666902169532652 0 0.4344732069851846 -0.36207544850318391 0 0.45170203517773871 -0.38181930292096039 0 0.43103049897397838 -0.38666902169532652 0 0.44657825500971632 -0.39993764674564669 0 0.43103049897397838 -0.38666902169532652 0 0.420782484438811 -0.39857880179299571 0 0.44002462626034311 -0.41658973607719629 0 0.44657825500971632 -0.39993764674564669 0 0.420782484438811 -0.39857880179299571 0 0.420782484438811 -0.39857880179299571 0 0.40331895892906811 -0.39562739050306173 0 0.41550398946190459 -0.4133775231792044 0 0.43103049897397838 -0.38666902169532652 0 0.40729054323642377 -0.37504008881755352 0 0.43103049897397838 -0.38666902169532652 0 0.420782484438811 -0.39857880179299571 0 0.40729054323642377 -0.37504008881755352 0 0.42072642786776149 -0.36890786541532522 0 0.43103049897397838 -0.38666902169532652 0 0.40729054323642377 -0.37504008881755352 0 0.420782484438811 -0.39857880179299571 0 0.40729054323642377 -0.37504008881755352 0 0.40331895892906811 -0.39562739050306173 0 0.40729054323642377 -0.37504008881755352 0 0.39440990619945959 -0.38305723312094841 0 0.40331895892906811 -0.39562739050306173 0 0.40729054323642377 -0.37504008881755352 0 0.39440990619945959 -0.38305723312094841 0 0.38668732008640389 -0.37524858780357612 0 0.39440990619945959 -0.38305723312094841 0 0.39087988444583771 -0.39202290423802888 0 0.40331895892906811 -0.39562739050306173 0 0.39440990619945959 -0.38305723312094841 0 0.38397710824094938 -0.38239416729943448 0 0.38668732008640389 -0.37524858780357612 0 0.38397710824094938 -0.38239416729943448 0 0.38237891125553197 -0.39046642197879411 0 0.39087988444583771 -0.39202290423802888 0 0.39440990619945959 -0.38305723312094841 0 0.38397710824094938 -0.38239416729943448 0 0.39087988444583771 -0.39202290423802888 0 0.38237891125553197 -0.39046642197879411 0 0.37626242823976058 -0.3787433431615333 0 0.36979178268764662 -0.38900638491375827 0 0.38397710824094938 -0.38239416729943448 0 0.38237891125553197 -0.39046642197879411 0 0.37626242823976058 -0.3787433431615333 0 0.38397710824094938 -0.38239416729943448 0 0.38668732008640389 -0.37524858780357612 0 0.37626242823976058 -0.3787433431615333 0 0.3909833526634659 -0.41016531028121528 0 0.36979178268764662 -0.38900638491375827 0 0.3909833526634659 -0.41016531028121528 0 0.37074747153274301 -0.40183141488667828 0 0.36979178268764662 -0.38900638491375827 0 0.38237891125553197 -0.39046642197879411 0 0.39087988444583771 -0.39202290423802888 0 0.3909833526634659 -0.41016531028121528 0 0.38237891125553197 -0.39046642197879411 0 0.3909833526634659 -0.41016531028121528 0 0.36979178268764662 -0.38900638491375827 0 0.39087988444583771 -0.39202290423802888 0 0.40331895892906811 -0.39562739050306173 0 0.3909833526634659 -0.41016531028121528 0 0.3909833526634659 -0.41016531028121528 0 0.40293670035617279 -0.42210024440879579 0 0.41550398946190459 -0.4133775231792044 0 0.40331895892906811 -0.39562739050306173 0 0.3909833526634659 -0.41016531028121528 0 0.41550398946190459 -0.4133775231792044 0 0.3909833526634659 -0.41016531028121528 0 0.41550398946190459 -0.4133775231792044 0 0.3909833526634659 -0.41016531028121528 0 0.39026821169033499 -0.42739196783495609 0 0.40293670035617279 -0.42210024440879579 0 0.3909833526634659 -0.41016531028121528 0 0.40293670035617279 -0.42210024440879579 0 0.3909833526634659 -0.41016531028121528 0 0.37056070548652081 -0.40748993560753732 0 0.3909833526634659 -0.41016531028121528 0 0.38035390908821742 -0.42038550152671589 0 0.37056070548652081 -0.40748993560753732 0 0.3909833526634659 -0.41016531028121528 0 0.38035390908821742 -0.42038550152671589 0 0.39026821169033499 -0.42739196783495609 0 0.3909833526634659 -0.41016531028121528 0 0.37056070548652081 -0.40748993560753732 0 0.37074747153274301 -0.40183141488667828 0 0.38035390908821742 -0.42038550152671589 0 0.39026821169033499 -0.42739196783495609 0 0.36960336651254821 -0.43649479238315469 0 0.39026821169033499 -0.42739196783495609 0 0.39293026890611921 -0.44331270277951951 0 0.36960336651254821 -0.43649479238315469 0 0.39026821169033499 -0.42739196783495609 0 0.40533379715299539 -0.43619738061986402 0 0.39293026890611921 -0.44331270277951951 0 0.39026821169033499 -0.42739196783495609 0 0.40293670035617279 -0.42210024440879579 0 0.40533379715299539 -0.43619738061986402 0 0.40293670035617279 -0.42210024440879579 0 0.41890500440073858 -0.43169208859319419 0 0.41550398946190459 -0.4133775231792044 0 0.40293670035617279 -0.42210024440879579 0 0.40533379715299539 -0.43619738061986402 0 0.41890500440073858 -0.43169208859319419 0 0.44002462626034311 -0.41658973607719629 0 0.41890500440073858 -0.43169208859319419 0 0.41550398946190459 -0.4133775231792044 0 0.44002462626034311 -0.41658973607719629 0 0.41550398946190459 -0.4133775231792044 0 0.44002462626034311 -0.41658973607719629 0 0.420782484438811 -0.39857880179299571 0 0.41550398946190459 -0.4133775231792044 0 0.44002462626034311 -0.41658973607719629 0 0.41890500440073858 -0.43169208859319419 0 0.43592003176943478 -0.43844639190102258 0 0.43958407369326052 -0.45694852357224958 0 0.43592003176943478 -0.43844639190102258 0 0.41625717129968992 -0.45013061317588449 0 0.41890500440073858 -0.43169208859319419 0 0.43592003176943478 -0.43844639190102258 0 0.41625717129968992 -0.45013061317588449 0 0.43958407369326052 -0.45694852357224958 0 0.41625717129968992 -0.45013061317588449 0 0.43958407369326052 -0.45694852357224958 0 0.41625717129968992 -0.45013061317588449 0 0.42186107838808712 -0.47427178480819049 0 0.41625717129968992 -0.45013061317588449 0 0.39525365997433609 -0.46970735804361341 0 0.42186107838808712 -0.47427178480819049 0 0.40533379715299539 -0.43619738061986402 0 0.41890500440073858 -0.43169208859319419 0 0.41625717129968992 -0.45013061317588449 0 0.41625717129968992 -0.45013061317588449 0 0.39293026890611921 -0.44331270277951951 0 0.40533379715299539 -0.43619738061986402 0 0.41625717129968992 -0.45013061317588449 0 0.39293026890611921 -0.44331270277951951 0 0.39293026890611921 -0.44331270277951951 0 0.36866035810575992 -0.46506547060750808 0 0.36960336651254821 -0.43649479238315469 0 0.39293026890611921 -0.44331270277951951 0 0.36960336651254821 -0.43649479238315469 0 0.39293026890611921 -0.44331270277951951 0 0.39525365997433609 -0.46970735804361341 0 0.36866035810575992 -0.46506547060750808 0 0.41625717129968992 -0.45013061317588449 0 0.39293026890611921 -0.44331270277951951 0 0.39525365997433609 -0.46970735804361341 0 0.39525365997433609 -0.46970735804361341 0 0.38881294574813358 -0.5 0 0.42186107838808712 -0.47427178480819049 0 0.39525365997433609 -0.46970735804361341 0 0.37878785095435191 -0.48243907837978661 0 0.36866035810575992 -0.46506547060750808 0 0.39525365997433609 -0.46970735804361341 0 0.37878785095435191 -0.48243907837978661 0 0.38881294574813358 -0.5 0 0.38881294574813358 -0.5 0 0.37537683032205582 -0.49699302334079493 0 0.36754114138392091 -0.49999999999999961 0 0.37878785095435191 -0.48243907837978661 0 0.38881294574813358 -0.5 0 0.37537683032205582 -0.49699302334079493 0 0.38881294574813358 -0.5 0 0.42186107838808712 -0.47427178480819049 0 0.43682505941684102 -0.5 0 0.44815189457817961 -0.47897466839496589 0 0.43958407369326052 -0.45694852357224958 0 0.42186107838808712 -0.47427178480819049 0 0.44815189457817961 -0.47897466839496589 0 0.42186107838808712 -0.47427178480819049 0 0.43682505941684102 -0.5 0 0.32459258262616619 -0.49999999999999889 0 0.32021551158403971 -0.48544974565643068 0 0.32459258262616619 -0.49999999999999889 0 0.32021551158403971 -0.48544974565643068 0 0.30976849059751488 -0.49116256414654652 0 0.32021551158403971 -0.48544974565643068 0 0.31583844054191279 -0.47089949131286268 0 0.31583844054191279 -0.47089949131286268 0 0.34177789512044149 -0.48226782007236302 0 0.32497967038156989 -0.45956714886607558 0 0.32021551158403971 -0.48544974565643068 0 0.31583844054191279 -0.47089949131286268 0 0.34177789512044149 -0.48226782007236302 0 0.32021551158403971 -0.48544974565643068 0 0.31583844054191279 -0.47089949131286268 0 0.30567311538907749 -0.48034718721606717 0 0.31583844054191279 -0.47089949131286268 0 0.34177789512044149 -0.48226782007236302 0 0.32459258262616619 -0.49999999999999889 0 0.32021551158403971 -0.48544974565643068 0 0.34177789512044149 -0.48226782007236302 0 0.34177789512044149 -0.48226782007236302 0 0.36771734969897102 -0.49363614883186169 0 0.34177789512044149 -0.48226782007236302 0 0.36754114138392091 -0.49999999999999961 0 0.36771734969897102 -0.49363614883186169 0 0.32459258262616619 -0.49999999999999889 0 0.34177789512044149 -0.48226782007236302 0 0.36754114138392091 -0.49999999999999961 0 0.37878785095435191 -0.48243907837978661 0 0.37537683032205582 -0.49699302334079493 0 0.36771734969897102 -0.49363614883186169 0 0.37537683032205582 -0.49699302334079493 0 0.36754114138392091 -0.49999999999999961 0 0.36771734969897102 -0.49363614883186169 0 0.37537683032205582 -0.49699302334079493 0 0.36771734969897102 -0.49363614883186169 0 0.36754114138392091 -0.49999999999999961 0 0.36771734969897102 -0.49363614883186169 0 0.36771734969897102 -0.49363614883186169 0 0.36866035810575992 -0.46506547060750808 0 0.36771734969897102 -0.49363614883186169 0 0.35102153251140511 -0.4674326456411424 0 0.36866035810575992 -0.46506547060750808 0 0.37878785095435191 -0.48243907837978661 0 0.36771734969897102 -0.49363614883186169 0 0.36866035810575992 -0.46506547060750808 0 0.34177789512044149 -0.48226782007236302 0 0.36771734969897102 -0.49363614883186169 0 0.35102153251140511 -0.4674326456411424 0 0.35102153251140511 -0.4674326456411424 0 0.35317551966365651 -0.4491030039531288 0 0.33900588213688221 -0.4564685274893977 0 0.34177789512044149 -0.48226782007236302 0 0.35102153251140511 -0.4674326456411424 0 0.33900588213688221 -0.4564685274893977 0 0.35102153251140511 -0.4674326456411424 0 0.36866035810575992 -0.46506547060750808 0 0.35317551966365651 -0.4491030039531288 0 0.36866035810575992 -0.46506547060750808 0 0.36960336651254821 -0.43649479238315469 0 0.36866035810575992 -0.46506547060750808 0 0.35317551966365651 -0.4491030039531288 0 0.36960336651254821 -0.43649479238315469 0 0.35317551966365651 -0.4491030039531288 0 0.35311356312575298 -0.43167520682275717 0 0.36960336651254821 -0.43649479238315469 0 0.35317551966365651 -0.4491030039531288 0 0.33949075973754023 -0.43842873981353131 0 0.33900588213688221 -0.4564685274893977 0 0.35317551966365651 -0.4491030039531288 0 0.33949075973754023 -0.43842873981353131 0 0.35311356312575298 -0.43167520682275717 0 0.33900588213688221 -0.4564685274893977 0 0.32497967038156989 -0.45956714886607558 0 0.32271249700966659 -0.44099567227405478 0 0.33949075973754023 -0.43842873981353131 0 0.33900588213688221 -0.4564685274893977 0 0.32271249700966659 -0.44099567227405478 0 0.34177789512044149 -0.48226782007236302 0 0.33900588213688221 -0.4564685274893977 0 0.32497967038156989 -0.45956714886607558 0 0.31583844054191279 -0.47089949131286268 0 0.3096659691444229 -0.45038096924696569 0 0.31583844054191279 -0.47089949131286268 0 0.32497967038156989 -0.45956714886607558 0 0.3096659691444229 -0.45038096924696569 0 0.32497967038156989 -0.45956714886607558 0 0.32271249700966659 -0.44099567227405478 0 0.3096659691444229 -0.45038096924696569 0 0.32271249700966659 -0.44099567227405478 0 0.31685181742879071 -0.42576990156382671 0 0.30349349774693241 -0.42986244718106881 0 0.31685181742879071 -0.42576990156382671 0 0.32223501153324918 -0.41502896359622338 0 0.3287113133118304 -0.42820580870165359 0 0.32271249700966659 -0.44099567227405478 0 0.31685181742879071 -0.42576990156382671 0 0.3287113133118304 -0.42820580870165359 0 0.31685181742879071 -0.42576990156382671 0 0.32223501153324918 -0.41502896359622338 0 0.30710676754227528 -0.41475661606613268 0 0.32223501153324918 -0.41502896359622338 0 0.3107200373376211 -0.39965078495119749 0 0.30710676754227528 -0.41475661606613268 0 0.32223501153324918 -0.41502896359622338 0 0.34051347165595353 -0.41965230403605469 0 0.3287113133118304 -0.42820580870165359 0 0.32223501153324918 -0.41502896359622338 0 0.34051347165595353 -0.41965230403605469 0 0.33066692672058762 -0.40226383516997771 0 0.34051347165595353 -0.41965230403605469 0 0.35061381610355419 -0.40487688538875771 0 0.33066692672058762 -0.40226383516997771 0 0.33949075973754023 -0.43842873981353131 0 0.32271249700966659 -0.44099567227405478 0 0.3287113133118304 -0.42820580870165359 0 0.33949075973754023 -0.43842873981353131 0 0.34051347165595353 -0.41965230403605469 0 0.3287113133118304 -0.42820580870165359 0 0.34051347165595353 -0.41965230403605469 0 0.35311356312575298 -0.43167520682275717 0 0.35751254381870251 -0.41934182959935312 0 0.33949075973754023 -0.43842873981353131 0 0.34051347165595353 -0.41965230403605469 0 0.35311356312575298 -0.43167520682275717 0 0.35311356312575298 -0.43167520682275717 0 0.36960336651254821 -0.43649479238315469 0 0.35311356312575298 -0.43167520682275717 0 0.36960336651254821 -0.43649479238315469 0 0.35751254381870251 -0.41934182959935312 0 0.36960336651254821 -0.43649479238315469 0 0.37056070548652081 -0.40748993560753732 0 0.36960336651254821 -0.43649479238315469 0 0.37056070548652081 -0.40748993560753732 0 0.35751254381870251 -0.41934182959935312 0 0.37056070548652081 -0.40748993560753732 0 0.35751254381870251 -0.41934182959935312 0 0.35061381610355419 -0.40487688538875771 0 0.38035390908821742 -0.42038550152671589 0 0.36960336651254821 -0.43649479238315469 0 0.37056070548652081 -0.40748993560753732 0 0.34051347165595353 -0.41965230403605469 0 0.35751254381870251 -0.41934182959935312 0 0.35061381610355419 -0.40487688538875771 0 0.35061381610355419 -0.40487688538875771 0 0.35297130308531383 -0.38839509841241082 0 0.3362501089924661 -0.38403083297873553 0 0.35061381610355419 -0.40487688538875771 0 0.36293701577915571 -0.39831994384182862 0 0.35297130308531383 -0.38839509841241082 0 0.37056070548652081 -0.40748993560753732 0 0.35061381610355419 -0.40487688538875771 0 0.37056070548652081 -0.40748993560753732 0 0.35061381610355419 -0.40487688538875771 0 0.36293701577915571 -0.39831994384182862 0 0.36293701577915571 -0.39831994384182862 0 0.36979178268764662 -0.38900638491375827 0 0.35297130308531383 -0.38839509841241082 0 0.36293701577915571 -0.39831994384182862 0 0.37074747153274301 -0.40183141488667828 0 0.36979178268764662 -0.38900638491375827 0 0.37056070548652081 -0.40748993560753732 0 0.36293701577915571 -0.39831994384182862 0 0.37074747153274301 -0.40183141488667828 0 0.37056070548652081 -0.40748993560753732 0 0.37074747153274301 -0.40183141488667828 0 0.37626242823976058 -0.3787433431615333 0 0.36979178268764662 -0.38900638491375827 0 0.3656219544493628 -0.37123733962328997 0 0.36979178268764662 -0.38900638491375827 0 0.3656219544493628 -0.37123733962328997 0 0.34860021271182973 -0.36784745954629883 0 0.36979178268764662 -0.38900638491375827 0 0.34860021271182973 -0.36784745954629883 0 0.36979178268764662 -0.38900638491375827 0 0.35297130308531383 -0.38839509841241082 0 0.34860021271182973 -0.36784745954629883 0 0.35297130308531383 -0.38839509841241082 0 0.3362501089924661 -0.38403083297873553 0 0.34860021271182973 -0.36784745954629883 0 0.3362501089924661 -0.38403083297873553 0 0.33066692672058762 -0.40226383516997771 0 0.32353661612201001 -0.39034823780220018 0 0.35061381610355419 -0.40487688538875771 0 0.33066692672058762 -0.40226383516997771 0 0.35061381610355419 -0.40487688538875771 0 0.3362501089924661 -0.38403083297873553 0 0.33066692672058762 -0.40226383516997771 0 0.33066692672058762 -0.40226383516997771 0 0.3107200373376211 -0.39965078495119749 0 0.33066692672058762 -0.40226383516997771 0 0.32353661612201001 -0.39034823780220018 0 0.3107200373376211 -0.39965078495119749 0 0.32223501153324918 -0.41502896359622338 0 0.33066692672058762 -0.40226383516997771 0 0.3107200373376211 -0.39965078495119749 0 0.31650939143736539 -0.37544749810888978 0 0.3107200373376211 -0.39965078495119749 0 0.3362501089924661 -0.38403083297873553 0 0.31650939143736539 -0.37544749810888978 0 0.32353661612201001 -0.39034823780220018 0 0.31650939143736539 -0.37544749810888978 0 0.32353661612201001 -0.39034823780220018 0 0.3107200373376211 -0.39965078495119749 0 0.31650939143736539 -0.37544749810888978 0 0.29958559234266152 -0.38383072481859448 0 0.3107200373376211 -0.39965078495119749 0 0.31650939143736539 -0.37544749810888978 0 0.29958559234266152 -0.38383072481859448 0 0.29477314436029067 -0.36703377344441313 0 0.29958559234266152 -0.38383072481859448 0 0.3107200373376211 -0.39965078495119749 0 0.29331674329634022 -0.39737094670529582 0 0.3107200373376211 -0.39965078495119749 0 0.29331674329634022 -0.39737094670529582 0 0.3107200373376211 -0.39965078495119749 0 0.3009602634216485 -0.4061583850489387 0 0.29331674329634022 -0.39737094670529582 0 0.29331674329634022 -0.39737094670529582 0 0.2759134492550594 -0.39509110845939382 0 0.29331674329634022 -0.39737094670529582 0 0.28321624858717082 -0.38240453824142978 0 0.2759134492550594 -0.39509110845939382 0 0.29331674329634022 -0.39737094670529582 0 0.28473558738891752 -0.40125950798570398 0 0.2759134492550594 -0.39509110845939382 0 0.29331674329634022 -0.39737094670529582 0 0.28473558738891752 -0.40125950798570398 0 0.29043394068700168 -0.40877020165156769 0 0.3009602634216485 -0.4061583850489387 0 0.29331674329634022 -0.39737094670529582 0 0.29043394068700168 -0.40877020165156769 0 0.29958559234266152 -0.38383072481859448 0 0.28321624858717082 -0.38240453824142978 0 0.29477314436029067 -0.36703377344441313 0 0.28321624858717082 -0.38240453824142978 0 0.27485951996904329 -0.37690149579303689 0 0.29477314436029067 -0.36703377344441313 0 0.29958559234266152 -0.38383072481859448 0 0.29331674329634022 -0.39737094670529582 0 0.28321624858717082 -0.38240453824142978 0 0.27485951996904329 -0.37690149579303689 0 0.27127690135406851 -0.38702973490080722 0 0.2549458955777959 -0.38676921814166049 0 0.28321624858717082 -0.38240453824142978 0 0.27485951996904329 -0.37690149579303689 0 0.27127690135406851 -0.38702973490080722 0 0.28321624858717082 -0.38240453824142978 0 0.27127690135406851 -0.38702973490080722 0 0.2759134492550594 -0.39509110845939382 0 0.28321624858717082 -0.38240453824142978 0 0.2759134492550594 -0.39509110845939382 0 0.27485951996904329 -0.37690149579303689 0 0.2549458955777959 -0.38676921814166049 0 0.26452868432306459 -0.36584084285285229 0 0.27485951996904329 -0.37690149579303689 0 0.2549458955777959 -0.38676921814166049 0 0.27127690135406851 -0.38702973490080722 0 0.2549458955777959 -0.38676921814166049 0 0.26744939338127388 -0.39398231386851318 0 0.2549458955777959 -0.38676921814166049 0 0.25535676988130329 -0.38889152473607469 0 0.26744939338127388 -0.39398231386851318 0 0.25281898241426859 -0.38782315931002459 0 0.25605331583396862 -0.39248942330515091 0 0.24604741796407301 -0.39117864681684672 0 0.2549458955777959 -0.38676921814166049 0 0.25281898241426859 -0.38782315931002459 0 0.2432684872402181 -0.3747583675775259 0 0.25535676988130329 -0.38889152473607469 0 0.25281898241426859 -0.38782315931002459 0 0.25605331583396862 -0.39248942330515091 0 0.25535676988130329 -0.38889152473607469 0 0.25281898241426859 -0.38782315931002459 0 0.2549458955777959 -0.38676921814166049 0 0.25535676988130329 -0.38889152473607469 0 0.2549458955777959 -0.38676921814166049 0 0.25535676988130329 -0.38889152473607469 0 0.25281898241426859 -0.38782315931002459 0 0.2549458955777959 -0.38676921814166049 0 0.25281898241426859 -0.38782315931002459 0 0.25605331583396862 -0.39248942330515091 0 0.26744939338127388 -0.39398231386851318 0 0.26142858150278558 -0.42025451272125158 0 0.25605331583396862 -0.39248942330515091 0 0.26142858150278558 -0.42025451272125158 0 0.24831737856470751 -0.40523923600381329 0 0.25605331583396862 -0.39248942330515091 0 0.2465226742300004 -0.39707615409081343 0 0.24831737856470751 -0.40523923600381329 0 0.25605331583396862 -0.39248942330515091 0 0.24604741796407301 -0.39117864681684672 0 0.25535676988130329 -0.38889152473607469 0 0.25605331583396862 -0.39248942330515091 0 0.25605331583396862 -0.39248942330515091 0 0.26744939338127388 -0.39398231386851318 0 0.25535676988130329 -0.38889152473607469 0 0.26744939338127388 -0.39398231386851318 0 0.25535676988130329 -0.38889152473607469 0 0.25605331583396862 -0.39248942330515091 0 0.26744939338127388 -0.39398231386851318 0 0.26744939338127388 -0.39398231386851318 0 0.27477619340311421 -0.39706677225149872 0 0.26142858150278558 -0.42025451272125158 0 0.26744939338127388 -0.39398231386851318 0 0.2759134492550594 -0.39509110845939382 0 0.27477619340311421 -0.39706677225149872 0 0.26744939338127388 -0.39398231386851318 0 0.2759134492550594 -0.39509110845939382 0 0.27127690135406851 -0.38702973490080722 0 0.26744939338127388 -0.39398231386851318 0 0.2759134492550594 -0.39509110845939382 0 0.26744939338127388 -0.39398231386851318 0 0.27477619340311421 -0.39706677225149872 0 0.28473558738891752 -0.40125950798570398 0 0.2759134492550594 -0.39509110845939382 0 0.27477619340311421 -0.39706677225149872 0 0.2759134492550594 -0.39509110845939382 0 0.27477619340311421 -0.39706677225149872 0 0.28473558738891752 -0.40125950798570398 0 0.27477619340311421 -0.39706677225149872 0 0.28473558738891752 -0.40125950798570398 0 0.27477619340311421 -0.39706677225149872 0 0.2759890261709203 -0.41032067796572769 0 0.27477619340311421 -0.39706677225149872 0 0.2759890261709203 -0.41032067796572769 0 0.26142858150278558 -0.42025451272125158 0 0.28473558738891752 -0.40125950798570398 0 0.2759890261709203 -0.41032067796572769 0 0.28298450315203982 -0.41148535739810488 0 0.27477619340311421 -0.39706677225149872 0 0.26142858150278558 -0.42025451272125158 0 0.2759890261709203 -0.41032067796572769 0 0.27630119728801739 -0.42103303769310518 0 0.28298450315203982 -0.41148535739810488 0 0.2759890261709203 -0.41032067796572769 0 0.27630119728801739 -0.42103303769310518 0 0.26142858150278558 -0.42025451272125158 0 0.26142858150278558 -0.42025451272125158 0 0.24180144569219239 -0.41908298329008992 0 0.24831737856470751 -0.40523923600381329 0 0.25605331583396862 -0.39248942330515091 0 0.26142858150278558 -0.42025451272125158 0 0.26142858150278558 -0.42025451272125158 0 0.2491098997289003 -0.44165477503298112 0 0.26142858150278558 -0.42025451272125158 0 0.2491098997289003 -0.44165477503298112 0 0.24180144569219239 -0.41908298329008992 0 0.26142858150278558 -0.42025451272125158 0 0.26450511920284631 -0.43614588434771329 0 0.26142858150278558 -0.42025451272125158 0 0.26450511920284631 -0.43614588434771329 0 0.2491098997289003 -0.44165477503298112 0 0.26142858150278558 -0.42025451272125158 0 0.26450511920284631 -0.43614588434771329 0 0.27374479194183132 -0.43182151395847229 0 0.26450511920284631 -0.43614588434771329 0 0.27374479194183132 -0.43182151395847229 0 0.26450511920284631 -0.43614588434771329 0 0.27374479194183132 -0.43182151395847229 0 0.27341225790176321 -0.4401020755830784 0 0.27630119728801739 -0.42103303769310518 0 0.26142858150278558 -0.42025451272125158 0 0.27374479194183132 -0.43182151395847229 0 0.27630119728801739 -0.42103303769310518 0 0.27374479194183132 -0.43182151395847229 0 0.28219113069509988 -0.42465511642152909 0 0.27374479194183132 -0.43182151395847229 0 0.28519049113919148 -0.43114097083854452 0 0.28219113069509988 -0.42465511642152909 0 0.27374479194183132 -0.43182151395847229 0 0.28037775412961319 -0.43770877630923383 0 0.27341225790176321 -0.4401020755830784 0 0.27374479194183132 -0.43182151395847229 0 0.28519049113919148 -0.43114097083854452 0 0.28037775412961319 -0.43770877630923383 0 0.28519049113919148 -0.43114097083854452 0 0.28797069511212592 -0.43992753172288479 0 0.28037775412961319 -0.43770877630923383 0 0.28519049113919148 -0.43114097083854452 0 0.29056750592695968 -0.4321796430756415 0 0.28797069511212592 -0.43992753172288479 0 0.28519049113919148 -0.43114097083854452 0 0.29056750592695968 -0.4321796430756415 0 0.29100833849322638 -0.42577546336771849 0 0.29056750592695968 -0.4321796430756415 0 0.29684214765718492 -0.43346383174603031 0 0.28797069511212592 -0.43992753172288479 0 0.29056750592695968 -0.4321796430756415 0 0.29684214765718492 -0.43346383174603031 0 0.29100833849322638 -0.42577546336771849 0 0.29684214765718492 -0.43346383174603031 0 0.29100833849322638 -0.42577546336771849 0 0.29310072334207882 -0.41864649817140093 0 0.29100833849322638 -0.42577546336771849 0 0.28219113069509988 -0.42465511642152909 0 0.28625892645133261 -0.41906460904274928 0 0.28519049113919148 -0.43114097083854452 0 0.29100833849322638 -0.42577546336771849 0 0.28219113069509988 -0.42465511642152909 0 0.27630119728801739 -0.42103303769310518 0 0.28219113069509988 -0.42465511642152909 0 0.28625892645133261 -0.41906460904274928 0 0.27630119728801739 -0.42103303769310518 0 0.28625892645133261 -0.41906460904274928 0 0.28298450315203982 -0.41148535739810488 0 0.28625892645133261 -0.41906460904274928 0 0.28298450315203982 -0.41148535739810488 0 0.29043394068700168 -0.40877020165156769 0 0.28473558738891752 -0.40125950798570398 0 0.28298450315203982 -0.41148535739810488 0 0.29043394068700168 -0.40877020165156769 0 0.3009602634216485 -0.4061583850489387 0 0.29043394068700168 -0.40877020165156769 0 0.29310072334207882 -0.41864649817140093 0 0.28625892645133261 -0.41906460904274928 0 0.29043394068700168 -0.40877020165156769 0 0.29310072334207882 -0.41864649817140093 0 0.29100833849322638 -0.42577546336771849 0 0.28625892645133261 -0.41906460904274928 0 0.29310072334207882 -0.41864649817140093 0 0.3009602634216485 -0.4061583850489387 0 0.29684214765718492 -0.43346383174603031 0 0.3009602634216485 -0.4061583850489387 0 0.29684214765718492 -0.43346383174603031 0 0.29310072334207882 -0.41864649817140093 0 0.3009602634216485 -0.4061583850489387 0 0.29684214765718492 -0.43346383174603031 0 0.30103601380156653 -0.42169328197763101 0 0.3009602634216485 -0.4061583850489387 0 0.30103601380156653 -0.42169328197763101 0 0.30710676754227528 -0.41475661606613268 0 0.3107200373376211 -0.39965078495119749 0 0.3009602634216485 -0.4061583850489387 0 0.30710676754227528 -0.41475661606613268 0 0.3107200373376211 -0.39965078495119749 0 0.30710676754227528 -0.41475661606613268 0 0.31685181742879071 -0.42576990156382671 0 0.30710676754227528 -0.41475661606613268 0 0.30349349774693241 -0.42986244718106881 0 0.30710676754227528 -0.41475661606613268 0 0.30349349774693241 -0.42986244718106881 0 0.29684214765718492 -0.43346383174603031 0 0.30349349774693241 -0.42986244718106881 0 0.29975911835358893 -0.44547459563110681 0 0.30103601380156653 -0.42169328197763101 0 0.30349349774693241 -0.42986244718106881 0 0.30103601380156653 -0.42169328197763101 0 0.30710676754227528 -0.41475661606613268 0 0.30349349774693241 -0.42986244718106881 0 0.29684214765718492 -0.43346383174603031 0 0.30103601380156653 -0.42169328197763101 0 0.30349349774693241 -0.42986244718106881 0 0.30349349774693241 -0.42986244718106881 0 0.3096659691444229 -0.45038096924696569 0 0.29975911835358893 -0.44547459563110681 0 0.32271249700966659 -0.44099567227405478 0 0.30349349774693241 -0.42986244718106881 0 0.3096659691444229 -0.45038096924696569 0 0.3096659691444229 -0.45038096924696569 0 0.29975911835358893 -0.44547459563110681 0 0.292724031892721 -0.46076927844312188 0 0.30349349774693241 -0.42986244718106881 0 0.3096659691444229 -0.45038096924696569 0 0.30349349774693241 -0.42986244718106881 0 0.29975911835358893 -0.44547459563110681 0 0.31583844054191279 -0.47089949131286268 0 0.3096659691444229 -0.45038096924696569 0 0.292724031892721 -0.46076927844312188 0 0.31583844054191279 -0.47089949131286268 0 0.292724031892721 -0.46076927844312188 0 0.29684214765718492 -0.43346383174603031 0 0.29975911835358893 -0.44547459563110681 0 0.292724031892721 -0.46076927844312188 0 0.29684214765718492 -0.43346383174603031 0 0.292724031892721 -0.46076927844312188 0 0.28797069511212592 -0.43992753172288479 0 0.29684214765718492 -0.43346383174603031 0 0.292724031892721 -0.46076927844312188 0 0.292724031892721 -0.46076927844312188 0 0.28157053455315417 -0.44555178944318907 0 0.28797069511212592 -0.43992753172288479 0 0.28157053455315417 -0.44555178944318907 0 0.28797069511212592 -0.43992753172288479 0 0.28037775412961319 -0.43770877630923383 0 0.292724031892721 -0.46076927844312188 0 0.28157053455315417 -0.44555178944318907 0 0.26709785387375878 -0.44953824751735388 0 0.28157053455315417 -0.44555178944318907 0 0.28037775412961319 -0.43770877630923383 0 0.27341225790176321 -0.4401020755830784 0 0.28157053455315417 -0.44555178944318907 0 0.26709785387375878 -0.44953824751735388 0 0.27341225790176321 -0.4401020755830784 0 0.26450511920284631 -0.43614588434771329 0 0.26709785387375878 -0.44953824751735388 0 0.26450511920284631 -0.43614588434771329 0 0.26709785387375878 -0.44953824751735388 0 0.27341225790176321 -0.4401020755830784 0 0.26709785387375878 -0.44953824751735388 0 0.25098172733231872 -0.44247512965964592 0 0.25499664281726431 -0.45523205940263262 0 0.26709785387375878 -0.44953824751735388 0 0.25098172733231872 -0.44247512965964592 0 0.26450511920284631 -0.43614588434771329 0 0.26709785387375878 -0.44953824751735388 0 0.25098172733231872 -0.44247512965964592 0 0.25098172733231872 -0.44247512965964592 0 0.25499664281726431 -0.45523205940263262 0 0.2477732989716441 -0.44397674481321819 0 0.26450511920284631 -0.43614588434771329 0 0.25098172733231872 -0.44247512965964592 0 0.2491098997289003 -0.44165477503298112 0 0.26450511920284631 -0.43614588434771329 0 0.25098172733231872 -0.44247512965964592 0 0.25098172733231872 -0.44247512965964592 0 0.2491098997289003 -0.44165477503298112 0 0.26709785387375878 -0.44953824751735388 0 0.25499664281726431 -0.45523205940263262 0 0.27263008665488608 -0.47811412586503932 0 0.25499664281726431 -0.45523205940263262 0 0.25474110227093749 -0.47463372904204348 0 0.24159037534215189 -0.45471784438485152 0 0.26709785387375878 -0.44953824751735388 0 0.27263008665488608 -0.47811412586503932 0 0.28285984369831663 -0.46965345727231222 0 0.26709785387375878 -0.44953824751735388 0 0.27263008665488608 -0.47811412586503932 0 0.292724031892721 -0.46076927844312188 0 0.26709785387375878 -0.44953824751735388 0 0.28285984369831663 -0.46965345727231222 0 0.292724031892721 -0.46076927844312188 0 0.26709785387375878 -0.44953824751735388 0 0.27263008665488608 -0.47811412586503932 0 0.28961274378356339 -0.48139888588568142 0 0.25474110227093749 -0.47463372904204348 0 0.26311594748398032 -0.48731686452102307 0 0.2425495168946363 -0.48369843705736948 0 0.27263008665488608 -0.47811412586503932 0 0.25474110227093749 -0.47463372904204348 0 0.26311594748398032 -0.48731686452102307 0 0.27263008665488608 -0.47811412586503932 0 0.25474110227093749 -0.47463372904204348 0 0.25499664281726431 -0.45523205940263262 0 0.27263008665488608 -0.47811412586503932 0 0.25474110227093749 -0.47463372904204348 0 0.25474110227093749 -0.47463372904204348 0 0.26311594748398032 -0.48731686452102307 0 0.26311594748398032 -0.48731686452102307 0 0.27149079269702531 -0.50000000000000133 0 0.24350764879353751 -0.5 0 0.27263008665488608 -0.47811412586503932 0 0.27149079269702531 -0.50000000000000133 0 0.27686714802740958 -0.49999999999999872 0 0.26311594748398032 -0.48731686452102307 0 0.27149079269702531 -0.50000000000000133 0 0.27263008665488608 -0.47811412586503932 0 0.26311594748398032 -0.48731686452102307 0 0.27149079269702531 -0.50000000000000133 0 0.27263008665488608 -0.47811412586503932 0 0.27686714802740958 -0.49999999999999872 0 0.27263008665488608 -0.47811412586503932 0 0.27686714802740958 -0.49999999999999872 0 0.28911405355105602 -0.48470548539402869 0 0.27686714802740958 -0.49999999999999872 0 0.30072986532678792 -0.5 0 0.2976313780615028 -0.49001588786023559 0 0.27686714802740958 -0.49999999999999872 0 0.28911405355105602 -0.48470548539402869 0 0.2976313780615028 -0.49001588786023559 0 0.28911405355105602 -0.48470548539402869 0 0.2962856447235892 -0.47895945972836351 0 0.2976313780615028 -0.49001588786023559 0 0.27263008665488608 -0.47811412586503932 0 0.28911405355105602 -0.48470548539402869 0 0.28961274378356339 -0.48139888588568142 0 0.27263008665488608 -0.47811412586503932 0 0.28285984369831663 -0.46965345727231222 0 0.28961274378356339 -0.48139888588568142 0 0.292724031892721 -0.46076927844312188 0 0.28961274378356339 -0.48139888588568142 0 0.292724031892721 -0.46076927844312188 0 0.28961274378356339 -0.48139888588568142 0 0.2962856447235892 -0.47895945972836351 0 0.292724031892721 -0.46076927844312188 0 0.28285984369831663 -0.46965345727231222 0 0.28961274378356339 -0.48139888588568142 0 0.28911405355105602 -0.48470548539402869 0 0.28961274378356339 -0.48139888588568142 0 0.2962856447235892 -0.47895945972836351 0 0.28911405355105602 -0.48470548539402869 0 0.28961274378356339 -0.48139888588568142 0 0.31583844054191279 -0.47089949131286268 0 0.292724031892721 -0.46076927844312188 0 0.30567311538907749 -0.48034718721606717 0 0.2962856447235892 -0.47895945972836351 0 0.30567311538907749 -0.48034718721606717 0 0.2976313780615028 -0.49001588786023559 0 0.292724031892721 -0.46076927844312188 0 0.2962856447235892 -0.47895945972836351 0 0.30567311538907749 -0.48034718721606717 0 0.32459258262616619 -0.49999999999999889 0 0.30976849059751488 -0.49116256414654652 0 0.30072986532678792 -0.5 0 0.32021551158403971 -0.48544974565643068 0 0.30567311538907749 -0.48034718721606717 0 0.30976849059751488 -0.49116256414654652 0 0.30976849059751488 -0.49116256414654652 0 0.30072986532678792 -0.5 0 0.2976313780615028 -0.49001588786023559 0 0.30567311538907749 -0.48034718721606717 0 0.30976849059751488 -0.49116256414654652 0 0.2976313780615028 -0.49001588786023559 0 0.33306345889097749 -0.29141871038796652 0 0.34692832282664648 -0.27134144341905292 0 0.35117035837168548 -0.29782991285777671 0 0.33306345889097749 -0.29141871038796652 0 0.33268500061009831 -0.30824203579417092 0 0.35117035837168548 -0.29782991285777671 0 0.33306345889097749 -0.29141871038796652 0 0.33268500061009831 -0.30824203579417092 0 0.32201967278620508 -0.30180854637248689 0 0.33268500061009831 -0.30824203579417092 0 0.35117035837168548 -0.29782991285777671 0 0.34282918403525958 -0.31383988266746721 0 0.33268500061009831 -0.30824203579417092 0 0.32086080165998421 -0.31108977066224253 0 0.32567939035855542 -0.31782143600484281 0 0.33268500061009831 -0.30824203579417092 0 0.32201967278620508 -0.30180854637248689 0 0.32086080165998421 -0.31108977066224253 0 0.32086080165998421 -0.31108977066224253 0 0.31378919958273288 -0.31519565594433779 0 0.31220684782225361 -0.30777617908547228 0 0.32201967278620508 -0.30180854637248689 0 0.32086080165998421 -0.31108977066224253 0 0.31220684782225361 -0.30777617908547228 0 0.32201967278620508 -0.30180854637248689 0 0.31908621961328398 -0.29018436075917881 0 0.30938653616528128 -0.29904257800064982 0 0.32201967278620508 -0.30180854637248689 0 0.30938653616528128 -0.29904257800064982 0 0.31220684782225361 -0.30777617908547228 0 0.31908621961328398 -0.29018436075917881 0 0.3252193480620289 -0.2770930151027407 0 0.30574208216192739 -0.28155895393205022 0 0.33306345889097749 -0.29141871038796652 0 0.32201967278620508 -0.30180854637248689 0 0.31908621961328398 -0.29018436075917881 0 0.33306345889097749 -0.29141871038796652 0 0.31908621961328398 -0.29018436075917881 0 0.3252193480620289 -0.2770930151027407 0 0.3252193480620289 -0.2770930151027407 0 0.31712560622696973 -0.26403981267986287 0 0.30574208216192739 -0.28155895393205022 0 0.3252193480620289 -0.2770930151027407 0 0.31712560622696973 -0.26403981267986287 0 0.33122963959608331 -0.26065329394858611 0 0.32146979424958622 -0.24479646355193069 0 0.31712560622696973 -0.26403981267986287 0 0.30196716706522259 -0.25609733686400699 0 0.32146979424958622 -0.24479646355193069 0 0.31712560622696973 -0.26403981267986287 0 0.33122963959608331 -0.26065329394858611 0 0.3426862872816076 -0.2448529739803291 0 0.33122963959608331 -0.26065329394858611 0 0.34692832282664648 -0.27134144341905292 0 0.32146979424958622 -0.24479646355193069 0 0.3426862872816076 -0.2448529739803291 0 0.33122963959608331 -0.26065329394858611 0 0.33306345889097749 -0.29141871038796652 0 0.3252193480620289 -0.2770930151027407 0 0.34692832282664648 -0.27134144341905292 0 0.3252193480620289 -0.2770930151027407 0 0.33122963959608331 -0.26065329394858611 0 0.34692832282664648 -0.27134144341905292 0 0.3426862872816076 -0.2448529739803291 0 0.34692832282664648 -0.27134144341905292 0 0.3426862872816076 -0.2448529739803291 0 0.34692832282664648 -0.27134144341905292 0 0.36382526563608841 -0.26057243660908053 0 0.3728553354896833 -0.24170966668946789 0 0.38323898802897471 -0.25369016854328119 0 0.36382526563608841 -0.26057243660908053 0 0.34692832282664648 -0.27134144341905292 0 0.36382526563608841 -0.26057243660908053 0 0.37279641630456778 -0.28688564836479341 0 0.36382526563608841 -0.26057243660908053 0 0.37279641630456778 -0.28688564836479341 0 0.38027422610832318 -0.2692962312407422 0 0.36382526563608841 -0.26057243660908053 0 0.37279641630456778 -0.28688564836479341 0 0.34692832282664648 -0.27134144341905292 0 0.35117035837168548 -0.29782991285777671 0 0.34692832282664648 -0.27134144341905292 0 0.37279641630456778 -0.28688564836479341 0 0.35117035837168548 -0.29782991285777671 0 0.35117035837168548 -0.29782991285777671 0 0.36663414852424991 -0.30893734934361072 0 0.35541239391672452 -0.32431838229650051 0 0.35117035837168548 -0.29782991285777671 0 0.35541239391672452 -0.32431838229650051 0 0.35117035837168548 -0.29782991285777671 0 0.35541239391672452 -0.32431838229650051 0 0.34282918403525958 -0.31383988266746721 0 0.37279641630456778 -0.28688564836479341 0 0.35117035837168548 -0.29782991285777671 0 0.36663414852424991 -0.30893734934361072 0 0.38395872792318492 -0.30770497907920102 0 0.36663414852424991 -0.30893734934361072 0 0.37420493105156011 -0.3199049692679331 0 0.38395872792318492 -0.30770497907920102 0 0.37279641630456778 -0.28688564836479341 0 0.36663414852424991 -0.30893734934361072 0 0.37557283775158551 -0.33323703120686882 0 0.37420493105156011 -0.3199049692679331 0 0.35541239391672452 -0.32431838229650051 0 0.36663414852424991 -0.30893734934361072 0 0.37420493105156011 -0.3199049692679331 0 0.35541239391672452 -0.32431838229650051 0 0.37557283775158551 -0.33323703120686882 0 0.36682615890226961 -0.33956007521863429 0 0.35541239391672452 -0.32431838229650051 0 0.36682615890226961 -0.33956007521863429 0 0.35541239391672452 -0.32431838229650051 0 0.35965442946176429 -0.3508068517352243 0 0.37628950864166949 -0.34495945910718029 0 0.37557283775158551 -0.33323703120686882 0 0.36682615890226961 -0.33956007521863429 0 0.34776208503349271 -0.3365348209217861 0 0.35700476965528682 -0.35040778148949492 0 0.33161092120774122 -0.33796869515043793 0 0.35541239391672452 -0.32431838229650051 0 0.35965442946176429 -0.3508068517352243 0 0.34776208503349271 -0.3365348209217861 0 0.35541239391672452 -0.32431838229650051 0 0.35965442946176429 -0.3508068517352243 0 0.34776208503349271 -0.3365348209217861 0 0.35541239391672452 -0.32431838229650051 0 0.34324483915199988 -0.32496701384733662 0 0.35541239391672452 -0.32431838229650051 0 0.34282918403525958 -0.31383988266746721 0 0.34324483915199988 -0.32496701384733662 0 0.37626242823976058 -0.3787433431615333 0 0.3656219544493628 -0.37123733962328997 0 0.37463334710296131 -0.36884553848220641 0 0.3656219544493628 -0.37123733962328997 0 0.37463334710296131 -0.36884553848220641 0 0.36877987517388611 -0.36532768364485302 0 0.37463334710296131 -0.36884553848220641 0 0.36877987517388611 -0.36532768364485302 0 0.37176887348537391 -0.36070395545778289 0 0.36877987517388611 -0.36532768364485302 0 0.37176887348537391 -0.36070395545778289 0 0.3648375549895746 -0.36003074361737308 0 0.36877987517388611 -0.36532768364485302 0 0.3648375549895746 -0.36003074361737308 0 0.36434877936547422 -0.36429928576079051 0 0.3648375549895746 -0.36003074361737308 0 0.36434877936547422 -0.36429928576079051 0 0.36187752874089091 -0.36105607989861449 0 0.3656219544493628 -0.37123733962328997 0 0.36434877936547422 -0.36429928576079051 0 0.35772563304639438 -0.3631945958128121 0 0.3656219544493628 -0.37123733962328997 0 0.36877987517388611 -0.36532768364485302 0 0.36434877936547422 -0.36429928576079051 0 0.36187752874089091 -0.36105607989861449 0 0.36059814756212027 -0.35669969440348243 0 0.35772563304639438 -0.3631945958128121 0 0.36434877936547422 -0.36429928576079051 0 0.36187752874089091 -0.36105607989861449 0 0.35772563304639438 -0.3631945958128121 0 0.37628950864166949 -0.34495945910718029 0 0.38459402196957099 -0.3545630506578773 0 0.35965442946176429 -0.3508068517352243 0 0.38355058749886922 -0.36341115593978052 0 0.35965442946176429 -0.3508068517352243 0 0.38459402196957099 -0.3545630506578773 0 0.35965442946176429 -0.3508068517352243 0 0.37628950864166949 -0.34495945910718029 0 0.36682615890226961 -0.33956007521863429 0 0.35965442946176429 -0.3508068517352243 0 0.38355058749886922 -0.36341115593978052 0 0.37176887348537391 -0.36070395545778289 0 0.35965442946176429 -0.3508068517352243 0 0.37176887348537391 -0.36070395545778289 0 0.3648375549895746 -0.36003074361737308 0 0.35965442946176429 -0.3508068517352243 0 0.3648375549895746 -0.36003074361737308 0 0.36059814756212027 -0.35669969440348243 0 0.35965442946176429 -0.3508068517352243 0 0.3648375549895746 -0.36003074361737308 0 0.36187752874089091 -0.36105607989861449 0 0.36059814756212027 -0.35669969440348243 0 0.36059814756212027 -0.35669969440348243 0 0.35965442946176429 -0.3508068517352243 0 0.35700476965528682 -0.35040778148949492 0 0.33161092120774122 -0.33796869515043793 0 0.35700476965528682 -0.35040778148949492 0 0.3521233670648426 -0.34967258426662379 0 0.33161092120774122 -0.33796869515043793 0 0.34776208503349271 -0.3365348209217861 0 0.35965442946176429 -0.3508068517352243 0 0.35700476965528682 -0.35040778148949492 0 0.35965442946176429 -0.3508068517352243 0 0.35700476965528682 -0.35040778148949492 0 0.35700476965528682 -0.35040778148949492 0 0.3521233670648426 -0.34967258426662379 0 0.35700476965528682 -0.35040778148949492 0 0.3521233670648426 -0.34967258426662379 0 0.35376988810449278 -0.35311683703167562 0 0.3521233670648426 -0.34967258426662379 0 0.34486035117947689 -0.35445252643425662 0 0.3389813593506924 -0.34728844014216131 0 0.3509644976410507 -0.35370271541474568 0 0.34486035117947689 -0.35445252643425662 0 0.3531043842153907 -0.35756891392642709 0 0.3521233670648426 -0.34967258426662379 0 0.3509644976410507 -0.35370271541474568 0 0.34486035117947689 -0.35445252643425662 0 0.3509644976410507 -0.35370271541474568 0 0.3531043842153907 -0.35756891392642709 0 0.35376988810449278 -0.35311683703167562 0 0.3521233670648426 -0.34967258426662379 0 0.3509644976410507 -0.35370271541474568 0 0.35376988810449278 -0.35311683703167562 0 0.3531043842153907 -0.35756891392642709 0 0.35376988810449278 -0.35311683703167562 0 0.35685821075542951 -0.35417222344537858 0 0.36059814756212027 -0.35669969440348243 0 0.35965442946176429 -0.3508068517352243 0 0.35685821075542951 -0.35417222344537858 0 0.35700476965528682 -0.35040778148949492 0 0.35376988810449278 -0.35311683703167562 0 0.35685821075542951 -0.35417222344537858 0 0.35965442946176429 -0.3508068517352243 0 0.35700476965528682 -0.35040778148949492 0 0.35685821075542951 -0.35417222344537858 0 0.36059814756212027 -0.35669969440348243 0 0.3531043842153907 -0.35756891392642709 0 0.35685821075542951 -0.35417222344537858 0 0.36059814756212027 -0.35669969440348243 0 0.3531043842153907 -0.35756891392642709 0 0.35772563304639438 -0.3631945958128121 0 0.3656219544493628 -0.37123733962328997 0 0.35772563304639438 -0.3631945958128121 0 0.34860021271182973 -0.36784745954629883 0 0.3531043842153907 -0.35756891392642709 0 0.35772563304639438 -0.3631945958128121 0 0.34860021271182973 -0.36784745954629883 0 0.34486035117947689 -0.35445252643425662 0 0.3531043842153907 -0.35756891392642709 0 0.34860021271182973 -0.36784745954629883 0 0.34860021271182973 -0.36784745954629883 0 0.33061655772796661 -0.36511412938036542 0 0.32740864273601289 -0.34668853417883932 0 0.3362501089924661 -0.38403083297873553 0 0.34860021271182973 -0.36784745954629883 0 0.33061655772796661 -0.36511412938036542 0 0.34486035117947689 -0.35445252643425662 0 0.34860021271182973 -0.36784745954629883 0 0.32740864273601289 -0.34668853417883932 0 0.3521233670648426 -0.34967258426662379 0 0.3389813593506924 -0.34728844014216131 0 0.33161092120774122 -0.33796869515043793 0 0.34860021271182973 -0.36784745954629883 0 0.32740864273601289 -0.34668853417883932 0 0.34486035117947689 -0.35445252643425662 0 0.3389813593506924 -0.34728844014216131 0 0.32740864273601289 -0.34668853417883932 0 0.3389813593506924 -0.34728844014216131 0 0.32740864273601289 -0.34668853417883932 0 0.33161092120774122 -0.33796869515043793 0 0.33061655772796661 -0.36511412938036542 0 0.32740864273601289 -0.34668853417883932 0 0.32229874553711219 -0.35124421126658278 0 0.32740864273601289 -0.34668853417883932 0 0.32229874553711219 -0.35124421126658278 0 0.31863763732250472 -0.34573157028999812 0 0.32229874553711219 -0.35124421126658278 0 0.31863763732250472 -0.34573157028999812 0 0.31392551393233531 -0.34935120779221041 0 0.31863763732250472 -0.34573157028999812 0 0.31392551393233531 -0.34935120779221041 0 0.31239959155228519 -0.3435970154383986 0 0.32229874553711219 -0.35124421126658278 0 0.31392551393233531 -0.34935120779221041 0 0.314686768751538 -0.35716605109578931 0 0.3362501089924661 -0.38403083297873553 0 0.31650939143736539 -0.37544749810888978 0 0.33061655772796661 -0.36511412938036542 0 0.31650939143736539 -0.37544749810888978 0 0.32229874553711219 -0.35124421126658278 0 0.31650939143736539 -0.37544749810888978 0 0.32229874553711219 -0.35124421126658278 0 0.314686768751538 -0.35716605109578931 0 0.31650939143736539 -0.37544749810888978 0 0.33061655772796661 -0.36511412938036542 0 0.32229874553711219 -0.35124421126658278 0 0.33268500061009831 -0.30824203579417092 0 0.33317213816802099 -0.3238859916064144 0 0.34282918403525958 -0.31383988266746721 0 0.33268500061009831 -0.30824203579417092 0 0.33317213816802099 -0.3238859916064144 0 0.32567939035855542 -0.31782143600484281 0 0.33317213816802099 -0.3238859916064144 0 0.33065179089220548 -0.32991054265534708 0 0.3211108367620375 -0.32726440005723678 0 0.33317213816802099 -0.3238859916064144 0 0.33671326743102248 -0.33052308380729922 0 0.33065179089220548 -0.32991054265534708 0 0.33317213816802099 -0.3238859916064144 0 0.34282918403525958 -0.31383988266746721 0 0.34324483915199988 -0.32496701384733662 0 0.33317213816802099 -0.3238859916064144 0 0.34324483915199988 -0.32496701384733662 0 0.33671326743102248 -0.33052308380729922 0 0.34776208503349271 -0.3365348209217861 0 0.33671326743102248 -0.33052308380729922 0 0.33161092120774122 -0.33796869515043793 0 0.34776208503349271 -0.3365348209217861 0 0.34324483915199988 -0.32496701384733662 0 0.33671326743102248 -0.33052308380729922 0 0.33671326743102248 -0.33052308380729922 0 0.33161092120774122 -0.33796869515043793 0 0.33065179089220548 -0.32991054265534708 0 0.33161092120774122 -0.33796869515043793 0 0.30621707276019577 -0.32552960881137999 0 0.32740864273601289 -0.34668853417883932 0 0.30621707276019577 -0.32552960881137999 0 0.33161092120774122 -0.33796869515043793 0 0.3211108367620375 -0.32726440005723678 0 0.30621707276019577 -0.32552960881137999 0 0.32740864273601289 -0.34668853417883932 0 0.31430668842175818 -0.33778297544235197 0 0.30621707276019577 -0.32552960881137999 0 0.32740864273601289 -0.34668853417883932 0 0.33161092120774122 -0.33796869515043793 0 0.30621707276019577 -0.32552960881137999 0 0.33161092120774122 -0.33796869515043793 0 0.33065179089220548 -0.32991054265534708 0 0.3211108367620375 -0.32726440005723678 0 0.31863763732250472 -0.34573157028999812 0 0.31430668842175818 -0.33778297544235197 0 0.31239959155228519 -0.3435970154383986 0 0.32740864273601289 -0.34668853417883932 0 0.31863763732250472 -0.34573157028999812 0 0.31430668842175818 -0.33778297544235197 0 0.3138701459142102 -0.32420089871241681 0 0.3211108367620375 -0.32726440005723678 0 0.30621707276019577 -0.32552960881137999 0 0.3138701459142102 -0.32420089871241681 0 0.3211108367620375 -0.32726440005723678 0 0.31805481052745621 -0.31936237222494551 0 0.3138701459142102 -0.32420089871241681 0 0.31805481052745621 -0.31936237222494551 0 0.31297074484605969 -0.31993504142882301 0 0.3211108367620375 -0.32726440005723678 0 0.32567939035855542 -0.31782143600484281 0 0.31805481052745621 -0.31936237222494551 0 0.33317213816802099 -0.3238859916064144 0 0.3211108367620375 -0.32726440005723678 0 0.32567939035855542 -0.31782143600484281 0 0.32086080165998421 -0.31108977066224253 0 0.32567939035855542 -0.31782143600484281 0 0.31805481052745621 -0.31936237222494551 0 0.32086080165998421 -0.31108977066224253 0 0.31805481052745621 -0.31936237222494551 0 0.31378919958273288 -0.31519565594433779 0 0.31805481052745621 -0.31936237222494551 0 0.31297074484605969 -0.31993504142882301 0 0.31378919958273288 -0.31519565594433779 0 0.31378919958273288 -0.31519565594433779 0 0.30934891965642669 -0.31874867003899549 0 0.3083794939108695 -0.31372816293909861 0 0.31297074484605969 -0.31993504142882301 0 0.31378919958273288 -0.31519565594433779 0 0.30934891965642669 -0.31874867003899549 0 0.31297074484605969 -0.31993504142882301 0 0.30934891965642669 -0.31874867003899549 0 0.30979064854947241 -0.32216761022341922 0 0.30934891965642669 -0.31874867003899549 0 0.3083794939108695 -0.31372816293909861 0 0.30458934338867799 -0.31763567733507481 0 0.30934891965642669 -0.31874867003899549 0 0.30458934338867799 -0.31763567733507481 0 0.30653712503570107 -0.32153051468203869 0 0.3083794939108695 -0.31372816293909861 0 0.30458934338867799 -0.31763567733507481 0 0.3021174278855534 -0.31042127376148632 0 0.30458934338867799 -0.31763567733507481 0 0.30027869152686287 -0.31596576970508039 0 0.3021174278855534 -0.31042127376148632 0 0.30458934338867799 -0.31763567733507481 0 0.29945210822223711 -0.31938349449346343 0 0.30027869152686287 -0.31596576970508039 0 0.30458934338867799 -0.31763567733507481 0 0.29945210822223711 -0.31938349449346343 0 0.30260786904147752 -0.32192596489979269 0 0.29945210822223711 -0.31938349449346343 0 0.30027869152686287 -0.31596576970508039 0 0.29450948994722681 -0.31628072850878353 0 0.30027869152686287 -0.31596576970508039 0 0.29450948994722681 -0.31628072850878353 0 0.3021174278855534 -0.31042127376148632 0 0.29974510676277522 -0.32564249355136432 0 0.3022183865994747 -0.32825175175260168 0 0.29623050679007179 -0.32856942157508218 0 0.29974510676277522 -0.32564249355136432 0 0.29623050679007179 -0.32856942157508218 0 0.29516961137165498 -0.32204022673295818 0 0.29974510676277522 -0.32564249355136432 0 0.30007268824431299 -0.32258867229013172 0 0.29516961137165498 -0.32204022673295818 0 0.29945210822223711 -0.31938349449346343 0 0.30007268824431299 -0.32258867229013172 0 0.29516961137165498 -0.32204022673295818 0 0.29945210822223711 -0.31938349449346343 0 0.30007268824431299 -0.32258867229013172 0 0.30260786904147752 -0.32192596489979269 0 0.29974510676277522 -0.32564249355136432 0 0.30007268824431299 -0.32258867229013172 0 0.30242730497287362 -0.32367320454052489 0 0.30458934338867799 -0.31763567733507481 0 0.30260786904147752 -0.32192596489979269 0 0.30653712503570107 -0.32153051468203869 0 0.30007268824431299 -0.32258867229013172 0 0.30242730497287362 -0.32367320454052489 0 0.30260786904147752 -0.32192596489979269 0 0.30260786904147752 -0.32192596489979269 0 0.30621707276019577 -0.32552960881137999 0 0.30242730497287362 -0.32367320454052489 0 0.30260786904147752 -0.32192596489979269 0 0.30621707276019577 -0.32552960881137999 0 0.29974510676277522 -0.32564249355136432 0 0.30242730497287362 -0.32367320454052489 0 0.3022183865994747 -0.32825175175260168 0 0.30242730497287362 -0.32367320454052489 0 0.30621707276019577 -0.32552960881137999 0 0.30242730497287362 -0.32367320454052489 0 0.30621707276019577 -0.32552960881137999 0 0.3022183865994747 -0.32825175175260168 0 0.30621707276019577 -0.32552960881137999 0 0.30653712503570107 -0.32153051468203869 0 0.30979064854947241 -0.32216761022341922 0 0.30260786904147752 -0.32192596489979269 0 0.30621707276019577 -0.32552960881137999 0 0.30653712503570107 -0.32153051468203869 0 0.30934891965642669 -0.31874867003899549 0 0.30653712503570107 -0.32153051468203869 0 0.30979064854947241 -0.32216761022341922 0 0.3138701459142102 -0.32420089871241681 0 0.30621707276019577 -0.32552960881137999 0 0.30979064854947241 -0.32216761022341922 0 0.3138701459142102 -0.32420089871241681 0 0.31297074484605969 -0.31993504142882301 0 0.30979064854947241 -0.32216761022341922 0 0.31430668842175818 -0.33778297544235197 0 0.30621707276019577 -0.32552960881137999 0 0.30609075157758547 -0.33151285831728661 0 0.31430668842175818 -0.33778297544235197 0 0.30680496925646072 -0.33576365976457567 0 0.30609075157758547 -0.33151285831728661 0 0.30621707276019577 -0.32552960881137999 0 0.30609075157758547 -0.33151285831728661 0 0.3022183865994747 -0.32825175175260168 0 0.31239959155228519 -0.3435970154383986 0 0.3091127756799944 -0.34000383796817391 0 0.30601534240483341 -0.34511548569925848 0 0.31430668842175818 -0.33778297544235197 0 0.31239959155228519 -0.3435970154383986 0 0.3091127756799944 -0.34000383796817391 0 0.31430668842175818 -0.33778297544235197 0 0.30680496925646072 -0.33576365976457567 0 0.3091127756799944 -0.34000383796817391 0 0.30680496925646072 -0.33576365976457567 0 0.3091127756799944 -0.34000383796817391 0 0.30377598305392789 -0.33893094234456389 0 0.3091127756799944 -0.34000383796817391 0 0.30377598305392789 -0.33893094234456389 0 0.30601534240483341 -0.34511548569925848 0 0.30377598305392789 -0.33893094234456389 0 0.29637045758140251 -0.34236133125580448 0 0.30601534240483341 -0.34511548569925848 0 0.30377598305392789 -0.33893094234456389 0 0.30020530423335268 -0.33378583827907438 0 0.29637045758140251 -0.34236133125580448 0 0.30680496925646072 -0.33576365976457567 0 0.30377598305392789 -0.33893094234456389 0 0.30020530423335268 -0.33378583827907438 0 0.30609075157758547 -0.33151285831728661 0 0.3022183865994747 -0.32825175175260168 0 0.30020530423335268 -0.33378583827907438 0 0.30680496925646072 -0.33576365976457567 0 0.30609075157758547 -0.33151285831728661 0 0.30020530423335268 -0.33378583827907438 0 0.3022183865994747 -0.32825175175260168 0 0.30020530423335268 -0.33378583827907438 0 0.29623050679007179 -0.32856942157508218 0 0.30020530423335268 -0.33378583827907438 0 0.29623050679007179 -0.32856942157508218 0 0.28922950316319979 -0.33466140170908631 0 0.29623050679007179 -0.32856942157508218 0 0.28922950316319979 -0.33466140170908631 0 0.29006498010937048 -0.32693365609037761 0 0.28922950316319979 -0.33466140170908631 0 0.29637045758140251 -0.34236133125580448 0 0.28342728329632982 -0.34680606307381129 0 0.30020530423335268 -0.33378583827907438 0 0.28922950316319979 -0.33466140170908631 0 0.29637045758140251 -0.34236133125580448 0 0.28922950316319979 -0.33466140170908631 0 0.28342728329632982 -0.34680606307381129 0 0.27631064455548299 -0.33709122828061888 0 0.28922950316319979 -0.33466140170908631 0 0.28151704616930479 -0.32823313346620941 0 0.27631064455548299 -0.33709122828061888 0 0.28922950316319979 -0.33466140170908631 0 0.28151704616930479 -0.32823313346620941 0 0.29006498010937048 -0.32693365609037761 0 0.28776988451651159 -0.321275520646641 0 0.27698468793054121 -0.30530701747601491 0 0.29105051352763839 -0.31091806759731289 0 0.28151704616930479 -0.32823313346620941 0 0.28776988451651159 -0.321275520646641 0 0.29006498010937048 -0.32693365609037761 0 0.29450948994722681 -0.31628072850878353 0 0.29105051352763839 -0.31091806759731289 0 0.3021174278855534 -0.31042127376148632 0 0.28776988451651159 -0.321275520646641 0 0.29450948994722681 -0.31628072850878353 0 0.29516961137165498 -0.32204022673295818 0 0.28776988451651159 -0.321275520646641 0 0.29450948994722681 -0.31628072850878353 0 0.29105051352763839 -0.31091806759731289 0 0.29945210822223711 -0.31938349449346343 0 0.29450948994722681 -0.31628072850878353 0 0.29516961137165498 -0.32204022673295818 0 0.29623050679007179 -0.32856942157508218 0 0.29516961137165498 -0.32204022673295818 0 0.29006498010937048 -0.32693365609037761 0 0.28776988451651159 -0.321275520646641 0 0.29516961137165498 -0.32204022673295818 0 0.29006498010937048 -0.32693365609037761 0 0.314686768751538 -0.35716605109578931 0 0.29477314436029067 -0.36703377344441313 0 0.31650939143736539 -0.37544749810888978 0 0.314686768751538 -0.35716605109578931 0 0.29477314436029067 -0.36703377344441313 0 0.314686768751538 -0.35716605109578931 0 0.30515958041948288 -0.35489572044682072 0 0.29477314436029067 -0.36703377344441313 0 0.30515958041948288 -0.35489572044682072 0 0.29416042320229552 -0.35260930043004551 0 0.29477314436029067 -0.36703377344441313 0 0.31392551393233531 -0.34935120779221041 0 0.314686768751538 -0.35716605109578931 0 0.30515958041948288 -0.35489572044682072 0 0.31392551393233531 -0.34935120779221041 0 0.30515958041948288 -0.35489572044682072 0 0.30601534240483341 -0.34511548569925848 0 0.31392551393233531 -0.34935120779221041 0 0.31239959155228519 -0.3435970154383986 0 0.30601534240483341 -0.34511548569925848 0 0.30515958041948288 -0.35489572044682072 0 0.30601534240483341 -0.34511548569925848 0 0.29416042320229552 -0.35260930043004551 0 0.29637045758140251 -0.34236133125580448 0 0.30601534240483341 -0.34511548569925848 0 0.29416042320229552 -0.35260930043004551 0 0.29637045758140251 -0.34236133125580448 0 0.28342728329632982 -0.34680606307381129 0 0.29416042320229552 -0.35260930043004551 0 0.28342728329632982 -0.34680606307381129 0 0.29416042320229552 -0.35260930043004551 0 0.27921673115143392 -0.3594434286601651 0 0.27485951996904329 -0.37690149579303689 0 0.29477314436029067 -0.36703377344441313 0 0.27485951996904329 -0.37690149579303689 0 0.29477314436029067 -0.36703377344441313 0 0.27921673115143392 -0.3594434286601651 0 0.29416042320229552 -0.35260930043004551 0 0.29477314436029067 -0.36703377344441313 0 0.27921673115143392 -0.3594434286601651 0 0.27485951996904329 -0.37690149579303689 0 0.27921673115143392 -0.3594434286601651 0 0.26452868432306459 -0.36584084285285229 0 0.28342728329632982 -0.34680606307381129 0 0.27921673115143392 -0.3594434286601651 0 0.26388135577575123 -0.34621150603928869 0 0.27921673115143392 -0.3594434286601651 0 0.26388135577575123 -0.34621150603928869 0 0.26452868432306459 -0.36584084285285229 0 0.26388135577575123 -0.34621150603928869 0 0.24453394270480289 -0.33298791311855919 0 0.2497399191412992 -0.35987856563010989 0 0.26388135577575123 -0.34621150603928869 0 0.26452868432306459 -0.36584084285285229 0 0.2497399191412992 -0.35987856563010989 0 0.2549458955777959 -0.38676921814166049 0 0.2497399191412992 -0.35987856563010989 0 0.2549458955777959 -0.38676921814166049 0 0.26452868432306459 -0.36584084285285229 0 0.2497399191412992 -0.35987856563010989 0 0.28776988451651159 -0.321275520646641 0 0.27299632907634541 -0.31974878486533481 0 0.27698468793054121 -0.30530701747601491 0 0.28151704616930479 -0.32823313346620941 0 0.28776988451651159 -0.321275520646641 0 0.27299632907634541 -0.31974878486533481 0 0.28151704616930479 -0.32823313346620941 0 0.27299632907634541 -0.31974878486533481 0 0.26590481730078719 -0.33054830552766817 0 0.26388135577575123 -0.34621150603928869 0 0.27631064455548299 -0.33709122828061888 0 0.26590481730078719 -0.33054830552766817 0 0.28151704616930479 -0.32823313346620941 0 0.27631064455548299 -0.33709122828061888 0 0.26590481730078719 -0.33054830552766817 0 0.28342728329632982 -0.34680606307381129 0 0.26388135577575123 -0.34621150603928869 0 0.27631064455548299 -0.33709122828061888 0 0.26388135577575123 -0.34621150603928869 0 0.26590481730078719 -0.33054830552766817 0 0.24453394270480289 -0.33298791311855919 0 0.26590481730078719 -0.33054830552766817 0 0.256189585523036 -0.31901726739599839 0 0.24453394270480289 -0.33298791311855919 0 0.27299632907634541 -0.31974878486533481 0 0.26590481730078719 -0.33054830552766817 0 0.256189585523036 -0.31901726739599839 0 0.27299632907634541 -0.31974878486533481 0 0.256189585523036 -0.31901726739599839 0 0.25996310732351963 -0.3045669253473261 0 0.256189585523036 -0.31901726739599839 0 0.25996310732351963 -0.3045669253473261 0 0.23932796626830671 -0.3060972606070087 0 0.25996310732351963 -0.3045669253473261 0 0.25233594931661252 -0.29378875255554898 0 0.23932796626830671 -0.3060972606070087 0 0.25434575308880369 -0.28186827525585112 0 0.25233594931661252 -0.29378875255554898 0 0.26393020765334269 -0.29007485084114959 0 0.25434575308880369 -0.28186827525585112 0 0.25233594931661252 -0.29378875255554898 0 0.24411271224908981 -0.28633645072640962 0 0.25996310732351963 -0.3045669253473261 0 0.25233594931661252 -0.29378875255554898 0 0.26393020765334269 -0.29007485084114959 0 0.26393020765334269 -0.29007485084114959 0 0.27697167940200301 -0.29032464508526051 0 0.26928052423780119 -0.26905323047484631 0 0.26393020765334269 -0.29007485084114959 0 0.27697167940200301 -0.29032464508526051 0 0.27698468793054121 -0.30530701747601491 0 0.27299632907634541 -0.31974878486533481 0 0.25996310732351963 -0.3045669253473261 0 0.27698468793054121 -0.30530701747601491 0 0.25996310732351963 -0.3045669253473261 0 0.26393020765334269 -0.29007485084114959 0 0.27698468793054121 -0.30530701747601491 0 0.27698468793054121 -0.30530701747601491 0 0.29631422519444561 -0.30043303280041611 0 0.28990707212252981 -0.28913365296232341 0 0.27698468793054121 -0.30530701747601491 0 0.29105051352763839 -0.31091806759731289 0 0.29631422519444561 -0.30043303280041611 0 0.29105051352763839 -0.31091806759731289 0 0.29631422519444561 -0.30043303280041611 0 0.3021174278855534 -0.31042127376148632 0 0.28990707212252981 -0.28913365296232341 0 0.30574208216192739 -0.28155895393205022 0 0.28793141224952912 -0.27382213851929471 0 0.27697167940200301 -0.29032464508526051 0 0.28990707212252981 -0.28913365296232341 0 0.28793141224952912 -0.27382213851929471 0 0.27697167940200301 -0.29032464508526051 0 0.27698468793054121 -0.30530701747601491 0 0.28990707212252981 -0.28913365296232341 0 0.31908621961328398 -0.29018436075917881 0 0.30574208216192739 -0.28155895393205022 0 0.30938653616528128 -0.29904257800064982 0 0.29631422519444561 -0.30043303280041611 0 0.28990707212252981 -0.28913365296232341 0 0.30574208216192739 -0.28155895393205022 0 0.29631422519444561 -0.30043303280041611 0 0.30574208216192739 -0.28155895393205022 0 0.30938653616528128 -0.29904257800064982 0 0.30938653616528128 -0.29904257800064982 0 0.31220684782225361 -0.30777617908547228 0 0.3021174278855534 -0.31042127376148632 0 0.3083794939108695 -0.31372816293909861 0 0.31220684782225361 -0.30777617908547228 0 0.3021174278855534 -0.31042127376148632 0 0.31378919958273288 -0.31519565594433779 0 0.3083794939108695 -0.31372816293909861 0 0.31220684782225361 -0.30777617908547228 0 0.29631422519444561 -0.30043303280041611 0 0.30938653616528128 -0.29904257800064982 0 0.3021174278855534 -0.31042127376148632 0 0.31712560622696973 -0.26403981267986287 0 0.30574208216192739 -0.28155895393205022 0 0.30196716706522259 -0.25609733686400699 0 0.30574208216192739 -0.28155895393205022 0 0.30196716706522259 -0.25609733686400699 0 0.28793141224952912 -0.27382213851929471 0 0.30196716706522259 -0.25609733686400699 0 0.28793141224952912 -0.27382213851929471 0 0.28255509982556509 -0.25796866242257632 0 0.27793269048731001 -0.24130386905901249 0 0.30196716706522259 -0.25609733686400699 0 0.28255509982556509 -0.25796866242257632 0 0.26158936907359942 -0.24778181586443199 0 0.28255509982556509 -0.25796866242257632 0 0.26928052423780119 -0.26905323047484631 0 0.27697167940200301 -0.29032464508526051 0 0.28793141224952912 -0.27382213851929471 0 0.26928052423780119 -0.26905323047484631 0 0.27697167940200301 -0.29032464508526051 0 0.26928052423780119 -0.26905323047484631 0 0.28793141224952912 -0.27382213851929471 0 0.28255509982556509 -0.25796866242257632 0 0.26928052423780119 -0.26905323047484631 0 0.26928052423780119 -0.26905323047484631 0 0.25026433778996959 -0.27108708297656681 0 0.25374592657866613 -0.2610258532533532 0 0.25434575308880369 -0.28186827525585112 0 0.26393020765334269 -0.29007485084114959 0 0.26928052423780119 -0.26905323047484631 0 0.25434575308880369 -0.28186827525585112 0 0.26928052423780119 -0.26905323047484631 0 0.25026433778996959 -0.27108708297656681 0 0.26158936907359942 -0.24778181586443199 0 0.26928052423780119 -0.26905323047484631 0 0.26158936907359942 -0.24778181586443199 0 0.26928052423780119 -0.26905323047484631 0 0.25374592657866613 -0.2610258532533532 0 0.26158936907359942 -0.24778181586443199 0 0.25374592657866613 -0.2610258532533532 0 0.2444299610463688 -0.25163298647013332 0 0.25026433778996959 -0.27108708297656681 0 0.25374592657866613 -0.2610258532533532 0 0.24460471021894761 -0.26375108503658701 0 0.25374592657866613 -0.2610258532533532 0 0.2444299610463688 -0.25163298647013332 0 0.24460471021894761 -0.26375108503658701 0 0.2444299610463688 -0.25163298647013332 0 0.24460471021894761 -0.26375108503658701 0 0.23761229045594809 -0.25898893147014262 0 0.24460471021894761 -0.26375108503658701 0 0.23761229045594809 -0.25898893147014262 0 0.2387537171758139 -0.2698615613798514 0 0.23761229045594809 -0.25898893147014262 0 0.2387537171758139 -0.2698615613798514 0 0.2316896441201188 -0.26348223223831668 0 0.2444299610463688 -0.25163298647013332 0 0.23761229045594809 -0.25898893147014262 0 0.23304858683527799 -0.25051591857851252 0 0.24435262320957149 -0.27741870092687648 0 0.24003390220106269 -0.27994216037685637 0 0.24411271224908981 -0.28633645072640962 0 0.25434575308880369 -0.28186827525585112 0 0.25026433778996959 -0.27108708297656681 0 0.24435262320957149 -0.27741870092687648 0 0.25026433778996959 -0.27108708297656681 0 0.24460471021894761 -0.26375108503658701 0 0.2387537171758139 -0.2698615613798514 0 0.25026433778996959 -0.27108708297656681 0 0.24435262320957149 -0.27741870092687648 0 0.2387537171758139 -0.2698615613798514 0 0.2387537171758139 -0.2698615613798514 0 0.2386053167526897 -0.27541667484572419 0 0.2312301947159936 -0.27806991323981128 0 0.2387537171758139 -0.2698615613798514 0 0.2312301947159936 -0.27806991323981128 0 0.24435262320957149 -0.27741870092687648 0 0.2387537171758139 -0.2698615613798514 0 0.2386053167526897 -0.27541667484572419 0 0.2386053167526897 -0.27541667484572419 0 0.2341219898318129 -0.27920660809545772 0 0.2312301947159936 -0.27806991323981128 0 0.2386053167526897 -0.27541667484572419 0 0.2371348047008241 -0.27837933316190372 0 0.2341219898318129 -0.27920660809545772 0 0.2371348047008241 -0.27837933316190372 0 0.24003390220106269 -0.27994216037685637 0 0.2341219898318129 -0.27920660809545772 0 0.24435262320957149 -0.27741870092687648 0 0.2386053167526897 -0.27541667484572419 0 0.24003390220106269 -0.27994216037685637 0 0.2386053167526897 -0.27541667484572419 0 0.2371348047008241 -0.27837933316190372 0 0.24003390220106269 -0.27994216037685637 0 0.22711240470797031 -0.27645130938605372 0 0.22561516590192349 -0.25919641775455021 0 0.22711240470797031 -0.27645130938605372 0 0.23166505507312729 -0.27091640245370419 0 0.22561516590192349 -0.25919641775455021 0 0.22711240470797031 -0.27645130938605372 0 0.2234206304646858 -0.27500016204592392 0 0.22561516590192349 -0.25919641775455021 0 0.22711240470797031 -0.27645130938605372 0 0.2275968259298968 -0.28203400979067611 0 0.2312301947159936 -0.27806991323981128 0 0.2275968259298968 -0.28203400979067611 0 0.2312301947159936 -0.27806991323981128 0 0.22711240470797031 -0.27645130938605372 0 0.2275968259298968 -0.28203400979067611 0 0.2341219898318129 -0.27920660809545772 0 0.2312301947159936 -0.27806991323981128 0 0.2275968259298968 -0.28203400979067611 0 0.2341219898318129 -0.27920660809545772 0 0.2312301947159936 -0.27806991323981128 0 0.2312301947159936 -0.27806991323981128 0 0.22711240470797031 -0.27645130938605372 0 0.2312301947159936 -0.27806991323981128 0 0.22711240470797031 -0.27645130938605372 0 0.23166505507312729 -0.27091640245370419 0 0.2387537171758139 -0.2698615613798514 0 0.2312301947159936 -0.27806991323981128 0 0.23166505507312729 -0.27091640245370419 0 0.2387537171758139 -0.2698615613798514 0 0.23166505507312729 -0.27091640245370419 0 0.2316896441201188 -0.26348223223831668 0 0.2234206304646858 -0.27500016204592392 0 0.2235499997480864 -0.28644919873891289 0 0.2275968259298968 -0.28203400979067611 0 0.2234206304646858 -0.27500016204592392 0 0.2235499997480864 -0.28644919873891289 0 0.22711240470797031 -0.27645130938605372 0 0.2234206304646858 -0.27500016204592392 0 0.22711240470797031 -0.27645130938605372 0 0.2234206304646858 -0.27500016204592392 0 0.2275968259298968 -0.28203400979067611 0 0.2234206304646858 -0.27500016204592392 0 0.21509827865632861 -0.2519032261317693 0 0.2231035150509792 -0.24693580309054231 0 0.23304858683527799 -0.25051591857851252 0 0.22561516590192349 -0.25919641775455021 0 0.22411792709587619 -0.2419415261230467 0 0.2234206304646858 -0.27500016204592392 0 0.22561516590192349 -0.25919641775455021 0 0.2231035150509792 -0.24693580309054231 0 0.22561516590192349 -0.25919641775455021 0 0.22411792709587619 -0.2419415261230467 0 0.2234206304646858 -0.27500016204592392 0 0.2231035150509792 -0.24693580309054231 0 0.23761229045594809 -0.25898893147014262 0 0.23304858683527799 -0.25051591857851252 0 0.22561516590192349 -0.25919641775455021 0 0.23166505507312729 -0.27091640245370419 0 0.2316896441201188 -0.26348223223831668 0 0.22561516590192349 -0.25919641775455021 0 0.23761229045594809 -0.25898893147014262 0 0.2316896441201188 -0.26348223223831668 0 0.22561516590192349 -0.25919641775455021 0 0.2234206304646858 -0.27500016204592392 0 0.21509827865632861 -0.2519032261317693 0 0.20929987001017111 -0.25901905424158411 0 0.21509827865632861 -0.2519032261317693 0 0.20929987001017111 -0.25901905424158411 0 0.20277084668220299 -0.24586474783829379 0 0.2234206304646858 -0.27500016204592392 0 0.1956044521295526 -0.26406629379079882 0 0.2088039230337464 -0.28403047294445399 0 0.2234206304646858 -0.27500016204592392 0 0.20929987001017111 -0.25901905424158411 0 0.1956044521295526 -0.26406629379079882 0 0.2234206304646858 -0.27500016204592392 0 0.1956044521295526 -0.26406629379079882 0 0.1956044521295526 -0.26406629379079882 0 0.19719199495817241 -0.28713349608976418 0 0.2088039230337464 -0.28403047294445399 0 0.1956044521295526 -0.26406629379079882 0 0.19719199495817241 -0.28713349608976418 0 0.17883234273110279 -0.2792494634842928 0 0.1956044521295526 -0.26406629379079882 0 0.20277084668220299 -0.24586474783829379 0 0.18609532454956099 -0.24561307842886959 0 0.20929987001017111 -0.25901905424158411 0 0.1956044521295526 -0.26406629379079882 0 0.20277084668220299 -0.24586474783829379 0 0.19719199495817241 -0.28713349608976418 0 0.20425253786823391 -0.30750321405687281 0 0.18183910969955819 -0.30277500239991278 0 0.2088039230337464 -0.28403047294445399 0 0.20425253786823391 -0.30750321405687281 0 0.2235499997480864 -0.28644919873891289 0 0.19719199495817241 -0.28713349608976418 0 0.2088039230337464 -0.28403047294445399 0 0.20425253786823391 -0.30750321405687281 0 0.2234206304646858 -0.27500016204592392 0 0.2088039230337464 -0.28403047294445399 0 0.2235499997480864 -0.28644919873891289 0 0.20425253786823391 -0.30750321405687281 0 0.22375989188993009 -0.30502441822098969 0 0.21504156841544 -0.31441172718467991 0 0.20425253786823391 -0.30750321405687281 0 0.2235499997480864 -0.28644919873891289 0 0.20425253786823391 -0.30750321405687281 0 0.22375989188993009 -0.30502441822098969 0 0.2235499997480864 -0.28644919873891289 0 0.2293169535115426 -0.30185757761016718 0 0.22375989188993009 -0.30502441822098969 0 0.2235499997480864 -0.28644919873891289 0 0.2293169535115426 -0.30185757761016718 0 0.22375989188993009 -0.30502441822098969 0 0.2310370810931881 -0.32168114542965842 0 0.2293169535115426 -0.30185757761016718 0 0.2310370810931881 -0.32168114542965842 0 0.2293169535115426 -0.30185757761016718 0 0.23932796626830671 -0.3060972606070087 0 0.2310370810931881 -0.32168114542965842 0 0.2293169535115426 -0.30185757761016718 0 0.2275968259298968 -0.28203400979067611 0 0.2341219898318129 -0.27920660809545772 0 0.2293169535115426 -0.30185757761016718 0 0.23932796626830671 -0.3060972606070087 0 0.22375989188993009 -0.30502441822098969 0 0.2235499997480864 -0.28644919873891289 0 0.2341219898318129 -0.27920660809545772 0 0.2293169535115426 -0.30185757761016718 0 0.2275968259298968 -0.28203400979067611 0 0.2293169535115426 -0.30185757761016718 0 0.2235499997480864 -0.28644919873891289 0 0.2275968259298968 -0.28203400979067611 0 0.2235499997480864 -0.28644919873891289 0 0.2275968259298968 -0.28203400979067611 0 0.2341219898318129 -0.27920660809545772 0 0.24411271224908981 -0.28633645072640962 0 0.23932796626830671 -0.3060972606070087 0 0.25233594931661252 -0.29378875255554898 0 0.24411271224908981 -0.28633645072640962 0 0.23932796626830671 -0.3060972606070087 0 0.2341219898318129 -0.27920660809545772 0 0.23932796626830671 -0.3060972606070087 0 0.24003390220106269 -0.27994216037685637 0 0.2341219898318129 -0.27920660809545772 0 0.24411271224908981 -0.28633645072640962 0 0.25434575308880369 -0.28186827525585112 0 0.24435262320957149 -0.27741870092687648 0 0.24411271224908981 -0.28633645072640962 0 0.256189585523036 -0.31901726739599839 0 0.23932796626830671 -0.3060972606070087 0 0.24453394270480289 -0.33298791311855919 0 0.23932796626830671 -0.3060972606070087 0 0.24453394270480289 -0.33298791311855919 0 0.2310370810931881 -0.32168114542965842 0 0.23932796626830671 -0.3060972606070087 0 0.24453394270480289 -0.33298791311855919 0 0.24453394270480289 -0.33298791311855919 0 0.22946162327872319 -0.32957690747302409 0 0.2310370810931881 -0.32168114542965842 0 0.24453394270480289 -0.33298791311855919 0 0.2301341017298201 -0.33671395573628699 0 0.23433527348343641 -0.34757737383301401 0 0.24453394270480289 -0.33298791311855919 0 0.22946162327872319 -0.32957690747302409 0 0.2301341017298201 -0.33671395573628699 0 0.2301341017298201 -0.33671395573628699 0 0.22419074589108229 -0.3424833323806446 0 0.23433527348343641 -0.34757737383301401 0 0.2301341017298201 -0.33671395573628699 0 0.22419074589108229 -0.3424833323806446 0 0.2183352750248363 -0.33493410508948862 0 0.22946162327872319 -0.32957690747302409 0 0.22396978403177389 -0.32359963770306638 0 0.2183352750248363 -0.33493410508948862 0 0.22946162327872319 -0.32957690747302409 0 0.2301341017298201 -0.33671395573628699 0 0.2183352750248363 -0.33493410508948862 0 0.22375989188993009 -0.30502441822098969 0 0.22396978403177389 -0.32359963770306638 0 0.21504156841544 -0.31441172718467991 0 0.22375989188993009 -0.30502441822098969 0 0.22396978403177389 -0.32359963770306638 0 0.22375989188993009 -0.30502441822098969 0 0.22396978403177389 -0.32359963770306638 0 0.2310370810931881 -0.32168114542965842 0 0.22946162327872319 -0.32957690747302409 0 0.22396978403177389 -0.32359963770306638 0 0.2310370810931881 -0.32168114542965842 0 0.2497399191412992 -0.35987856563010989 0 0.2432684872402181 -0.3747583675775259 0 0.2328955017645935 -0.36281243085586812 0 0.2549458955777959 -0.38676921814166049 0 0.2497399191412992 -0.35987856563010989 0 0.2432684872402181 -0.3747583675775259 0 0.2497399191412992 -0.35987856563010989 0 0.23433527348343641 -0.34757737383301401 0 0.2328955017645935 -0.36281243085586812 0 0.24453394270480289 -0.33298791311855919 0 0.2497399191412992 -0.35987856563010989 0 0.23433527348343641 -0.34757737383301401 0 0.24453394270480289 -0.33298791311855919 0 0.2497399191412992 -0.35987856563010989 0 0.22419074589108229 -0.3424833323806446 0 0.23433527348343641 -0.34757737383301401 0 0.2245174296690208 -0.35058804527661541 0 0.22419074589108229 -0.3424833323806446 0 0.2245174296690208 -0.35058804527661541 0 0.2126433856776031 -0.35011475970320122 0 0.2245174296690208 -0.35058804527661541 0 0.22393163472321179 -0.35959476414373348 0 0.2126433856776031 -0.35011475970320122 0 0.23433527348343641 -0.34757737383301401 0 0.2245174296690208 -0.35058804527661541 0 0.2328955017645935 -0.36281243085586812 0 0.2245174296690208 -0.35058804527661541 0 0.2328955017645935 -0.36281243085586812 0 0.22393163472321179 -0.35959476414373348 0 0.22393163472321179 -0.35959476414373348 0 0.21475144336958141 -0.36299651301327118 0 0.22594213730313251 -0.37650846394996412 0 0.2328955017645935 -0.36281243085586812 0 0.22393163472321179 -0.35959476414373348 0 0.22594213730313251 -0.37650846394996412 0 0.2432684872402181 -0.3747583675775259 0 0.2328955017645935 -0.36281243085586812 0 0.22594213730313251 -0.37650846394996412 0 0.21475144336958141 -0.36299651301327118 0 0.19906529219199581 -0.36519376858990482 0 0.22594213730313251 -0.37650846394996412 0 0.19906529219199581 -0.36519376858990482 0 0.22594213730313251 -0.37650846394996412 0 0.2064308598173506 -0.37873398967689642 0 0.21475144336958141 -0.36299651301327118 0 0.2126433856776031 -0.35011475970320122 0 0.19906529219199581 -0.36519376858990482 0 0.19906529219199581 -0.36519376858990482 0 0.22594213730313251 -0.37650846394996412 0 0.2126433856776031 -0.35011475970320122 0 0.1939095915823994 -0.34753749933420502 0 0.20376212501209481 -0.33762576770544039 0 0.22393163472321179 -0.35959476414373348 0 0.21475144336958141 -0.36299651301327118 0 0.2126433856776031 -0.35011475970320122 0 0.2126433856776031 -0.35011475970320122 0 0.1939095915823994 -0.34753749933420502 0 0.19906529219199581 -0.36519376858990482 0 0.1939095915823994 -0.34753749933420502 0 0.19906529219199581 -0.36519376858990482 0 0.1721884470808592 -0.35387907322984558 0 0.19906529219199581 -0.36519376858990482 0 0.18298842207273869 -0.37091600872815061 0 0.1919795317125487 -0.38409573282028281 0 0.20425253786823391 -0.30750321405687281 0 0.20838606105679339 -0.32443861351906328 0 0.21504156841544 -0.31441172718467991 0 0.22396978403177389 -0.32359963770306638 0 0.20838606105679339 -0.32443861351906328 0 0.21504156841544 -0.31441172718467991 0 0.22396978403177389 -0.32359963770306638 0 0.20838606105679339 -0.32443861351906328 0 0.2183352750248363 -0.33493410508948862 0 0.22419074589108229 -0.3424833323806446 0 0.2126433856776031 -0.35011475970320122 0 0.2183352750248363 -0.33493410508948862 0 0.2126433856776031 -0.35011475970320122 0 0.2183352750248363 -0.33493410508948862 0 0.20376212501209481 -0.33762576770544039 0 0.20838606105679339 -0.32443861351906328 0 0.2183352750248363 -0.33493410508948862 0 0.20376212501209481 -0.33762576770544039 0 0.1939095915823994 -0.34753749933420502 0 0.20376212501209481 -0.33762576770544039 0 0.18495507598838151 -0.32855722937483239 0 0.20838606105679339 -0.32443861351906328 0 0.20376212501209481 -0.33762576770544039 0 0.18495507598838151 -0.32855722937483239 0 0.20425253786823391 -0.30750321405687281 0 0.20838606105679339 -0.32443861351906328 0 0.18495507598838151 -0.32855722937483239 0 0.20425253786823391 -0.30750321405687281 0 0.18495507598838151 -0.32855722937483239 0 0.20425253786823391 -0.30750321405687281 0 0.18495507598838151 -0.32855722937483239 0 0.18183910969955819 -0.30277500239991278 0 0.18495507598838151 -0.32855722937483239 0 0.1593146493950747 -0.31909256460648522 0 0.18183910969955819 -0.30277500239991278 0 0.18495507598838151 -0.32855722937483239 0 0.1593146493950747 -0.31909256460648522 0 0.1721884470808592 -0.35387907322984558 0 0.1593146493950747 -0.31909256460648522 0 0.1721884470808592 -0.35387907322984558 0 0.1453116019697227 -0.34256437786978639 0 0.1939095915823994 -0.34753749933420502 0 0.18495507598838151 -0.32855722937483239 0 0.1721884470808592 -0.35387907322984558 0 0.19906529219199581 -0.36519376858990482 0 0.18298842207273869 -0.37091600872815061 0 0.1721884470808592 -0.35387907322984558 0 0.19906529219199581 -0.36519376858990482 0 0.1721884470808592 -0.35387907322984558 0 0.18298842207273869 -0.37091600872815061 0 0.1721884470808592 -0.35387907322984558 0 0.1687204173055511 -0.38049546027256931 0 0.1721884470808592 -0.35387907322984558 0 0.15353546690445541 -0.36481351693216441 0 0.1453116019697227 -0.34256437786978639 0 0.1721884470808592 -0.35387907322984558 0 0.1453116019697227 -0.34256437786978639 0 0.1721884470808592 -0.35387907322984558 0 0.15353546690445541 -0.36481351693216441 0 0.1687204173055511 -0.38049546027256931 0 0.15353546690445541 -0.36481351693216441 0 0.1334576568725144 -0.36734337666316108 0 0.13761108734286651 -0.39278886107704258 0 0.15353546690445541 -0.36481351693216441 0 0.1334576568725144 -0.36734337666316108 0 0.1453116019697227 -0.34256437786978639 0 0.1334576568725144 -0.36734337666316108 0 0.1453116019697227 -0.34256437786978639 0 0.1151457893227235 -0.35538430830369239 0 0.1593146493950747 -0.31909256460648522 0 0.1453116019697227 -0.34256437786978639 0 0.1327557034794242 -0.31406397942508268 0 0.1453116019697227 -0.34256437786978639 0 0.1148396108404251 -0.33048353453193308 0 0.1151457893227235 -0.35538430830369239 0 0.1453116019697227 -0.34256437786978639 0 0.1327557034794242 -0.31406397942508268 0 0.1148396108404251 -0.33048353453193308 0 0.1327557034794242 -0.31406397942508268 0 0.14440323395559029 -0.29773846118899983 0 0.1214680764032728 -0.28799396244537362 0 0.1593146493950747 -0.31909256460648522 0 0.1327557034794242 -0.31406397942508268 0 0.14440323395559029 -0.29773846118899983 0 0.1593146493950747 -0.31909256460648522 0 0.14440323395559029 -0.29773846118899983 0 0.1632037644333936 -0.29517191086136302 0 0.14440323395559029 -0.29773846118899983 0 0.14844893471109749 -0.27355094929525131 0 0.1632037644333936 -0.29517191086136302 0 0.14440323395559029 -0.29773846118899983 0 0.14844893471109749 -0.27355094929525131 0 0.1214680764032728 -0.28799396244537362 0 0.14844893471109749 -0.27355094929525131 0 0.16778827379441841 -0.25313242553567622 0 0.13997209545928421 -0.24219855728055359 0 0.14844893471109749 -0.27355094929525131 0 0.1208519130951949 -0.25967578265474978 0 0.13997209545928421 -0.24219855728055359 0 0.14844893471109749 -0.27355094929525131 0 0.1208519130951949 -0.25967578265474978 0 0.1214680764032728 -0.28799396244537362 0 0.14844893471109749 -0.27355094929525131 0 0.16778827379441841 -0.25313242553567622 0 0.17883234273110279 -0.2792494634842928 0 0.1956044521295526 -0.26406629379079882 0 0.16778827379441841 -0.25313242553567622 0 0.18609532454956099 -0.24561307842886959 0 0.1956044521295526 -0.26406629379079882 0 0.16778827379441841 -0.25313242553567622 0 0.17883234273110279 -0.2792494634842928 0 0.1956044521295526 -0.26406629379079882 0 0.16778827379441841 -0.25313242553567622 0 0.17883234273110279 -0.2792494634842928 0 0.18183910969955819 -0.30277500239991278 0 0.1632037644333936 -0.29517191086136302 0 0.19719199495817241 -0.28713349608976418 0 0.17883234273110279 -0.2792494634842928 0 0.18183910969955819 -0.30277500239991278 0 0.1593146493950747 -0.31909256460648522 0 0.18183910969955819 -0.30277500239991278 0 0.1632037644333936 -0.29517191086136302 0 0.14844893471109749 -0.27355094929525131 0 0.17883234273110279 -0.2792494634842928 0 0.1632037644333936 -0.29517191086136302 0 0.1928072589024005 -0.5 0 0.20064524300179451 -0.48408413981693582 0 0.21552450489004971 -0.50000000000000389 0 0.1928072589024005 -0.5 0 0.20064524300179451 -0.48408413981693582 0 0.17566152260556811 -0.4787645574572737 0 0.20047489497967641 -0.46924756139533819 0 0.20064524300179451 -0.48408413981693582 0 0.17566152260556811 -0.4787645574572737 0 0.20047489497967641 -0.46924756139533819 0 0.17566152260556811 -0.4787645574572737 0 0.20047489497967641 -0.46924756139533819 0 0.1870570053939955 -0.4614654288925471 0 0.17566152260556811 -0.4787645574572737 0 0.20047489497967641 -0.46924756139533819 0 0.20064524300179451 -0.48408413981693582 0 0.20806373519421659 -0.47559263039731048 0 0.20064524300179451 -0.48408413981693582 0 0.20806373519421659 -0.47559263039731048 0 0.21218654879276419 -0.48315928477010051 0 0.20047489497967641 -0.46924756139533819 0 0.20806373519421659 -0.47559263039731048 0 0.20983110277745959 -0.46589625036785659 0 0.20806373519421659 -0.47559263039731048 0 0.2171808864193884 -0.47557591563632129 0 0.20983110277745959 -0.46589625036785659 0 0.20806373519421659 -0.47559263039731048 0 0.2171808864193884 -0.47557591563632129 0 0.21218654879276419 -0.48315928477010051 0 0.2171808864193884 -0.47557591563632129 0 0.21218654879276419 -0.48315928477010051 0 0.22406485252548761 -0.48516353592158562 0 0.21218654879276419 -0.48315928477010051 0 0.21552450489004971 -0.50000000000000389 0 0.22406485252548761 -0.48516353592158562 0 0.20064524300179451 -0.48408413981693582 0 0.21218654879276419 -0.48315928477010051 0 0.21552450489004971 -0.50000000000000389 0 0.21552450489004971 -0.50000000000000389 0 0.22406485252548761 -0.48516353592158562 0 0.24350764879353751 -0.5 0 0.21552450489004971 -0.50000000000000389 0 0.22406485252548761 -0.48516353592158562 0 0.22406485252548761 -0.48516353592158562 0 0.24350764879353751 -0.5 0 0.2425495168946363 -0.48369843705736948 0 0.26311594748398032 -0.48731686452102307 0 0.24350764879353751 -0.5 0 0.2425495168946363 -0.48369843705736948 0 0.25474110227093749 -0.47463372904204348 0 0.2425495168946363 -0.48369843705736948 0 0.2326052001609237 -0.47032707184316641 0 0.25474110227093749 -0.47463372904204348 0 0.2326052001609237 -0.47032707184316641 0 0.22406485252548761 -0.48516353592158562 0 0.2425495168946363 -0.48369843705736948 0 0.2326052001609237 -0.47032707184316641 0 0.2171808864193884 -0.47557591563632129 0 0.2326052001609237 -0.47032707184316641 0 0.20983110277745959 -0.46589625036785659 0 0.22406485252548761 -0.48516353592158562 0 0.2326052001609237 -0.47032707184316641 0 0.2171808864193884 -0.47557591563632129 0 0.22406485252548761 -0.48516353592158562 0 0.2326052001609237 -0.47032707184316641 0 0.2326052001609237 -0.47032707184316641 0 0.20983110277745959 -0.46589625036785659 0 0.22080344960052009 -0.45659922845711148 0 0.23263699085818279 -0.45747566191745648 0 0.2376319712165364 -0.4487231096132106 0 0.2326052001609237 -0.47032707184316641 0 0.22080344960052009 -0.45659922845711148 0 0.20983110277745959 -0.46589625036785659 0 0.2326052001609237 -0.47032707184316641 0 0.22080344960052009 -0.45659922845711148 0 0.23263699085818279 -0.45747566191745648 0 0.25474110227093749 -0.47463372904204348 0 0.2326052001609237 -0.47032707184316641 0 0.24159037534215189 -0.45471784438485152 0 0.2326052001609237 -0.47032707184316641 0 0.24159037534215189 -0.45471784438485152 0 0.25474110227093749 -0.47463372904204348 0 0.24159037534215189 -0.45471784438485152 0 0.2326052001609237 -0.47032707184316641 0 0.23263699085818279 -0.45747566191745648 0 0.24159037534215189 -0.45471784438485152 0 0.23263699085818279 -0.45747566191745648 0 0.24159037534215189 -0.45471784438485152 0 0.2376319712165364 -0.4487231096132106 0 0.2477732989716441 -0.44397674481321819 0 0.2376319712165364 -0.4487231096132106 0 0.23030703128088109 -0.4376299845206349 0 0.2491098997289003 -0.44165477503298112 0 0.2477732989716441 -0.44397674481321819 0 0.23030703128088109 -0.4376299845206349 0 0.25098172733231872 -0.44247512965964592 0 0.2491098997289003 -0.44165477503298112 0 0.2477732989716441 -0.44397674481321819 0 0.25098172733231872 -0.44247512965964592 0 0.2477732989716441 -0.44397674481321819 0 0.2491098997289003 -0.44165477503298112 0 0.2477732989716441 -0.44397674481321819 0 0.25499664281726431 -0.45523205940263262 0 0.24159037534215189 -0.45471784438485152 0 0.2477732989716441 -0.44397674481321819 0 0.2477732989716441 -0.44397674481321819 0 0.2376319712165364 -0.4487231096132106 0 0.24159037534215189 -0.45471784438485152 0 0.2477732989716441 -0.44397674481321819 0 0.24159037534215189 -0.45471784438485152 0 0.2477732989716441 -0.44397674481321819 0 0.2376319712165364 -0.4487231096132106 0 0.24159037534215189 -0.45471784438485152 0 0.2376319712165364 -0.4487231096132106 0 0.2376319712165364 -0.4487231096132106 0 0.23030703128088109 -0.4376299845206349 0 0.22080344960052009 -0.45659922845711148 0 0.2376319712165364 -0.4487231096132106 0 0.22656537902157489 -0.4471289448821863 0 0.23030703128088109 -0.4376299845206349 0 0.22656537902157489 -0.4471289448821863 0 0.2240758720208659 -0.44031909704670952 0 0.2376319712165364 -0.4487231096132106 0 0.23030703128088109 -0.4376299845206349 0 0.22656537902157489 -0.4471289448821863 0 0.22080344960052009 -0.45659922845711148 0 0.2376319712165364 -0.4487231096132106 0 0.22080344960052009 -0.45659922845711148 0 0.22656537902157489 -0.4471289448821863 0 0.21544219972079559 -0.44204797816988067 0 0.2240758720208659 -0.44031909704670952 0 0.21544219972079559 -0.44204797816988067 0 0.22735566035906909 -0.43212067537331011 0 0.22656537902157489 -0.4471289448821863 0 0.2240758720208659 -0.44031909704670952 0 0.21544219972079559 -0.44204797816988067 0 0.21544219972079559 -0.44204797816988067 0 0.2073329635526972 -0.45176519210924959 0 0.19921671642041461 -0.44081240723241838 0 0.22080344960052009 -0.45659922845711148 0 0.21544219972079559 -0.44204797816988067 0 0.2073329635526972 -0.45176519210924959 0 0.22080344960052009 -0.45659922845711148 0 0.20983110277745959 -0.46589625036785659 0 0.20392214812829379 -0.46474663189054372 0 0.22080344960052009 -0.45659922845711148 0 0.20392214812829379 -0.46474663189054372 0 0.22080344960052009 -0.45659922845711148 0 0.2073329635526972 -0.45176519210924959 0 0.20392214812829379 -0.46474663189054372 0 0.20047489497967641 -0.46924756139533819 0 0.20983110277745959 -0.46589625036785659 0 0.20392214812829379 -0.46474663189054372 0 0.20983110277745959 -0.46589625036785659 0 0.20392214812829379 -0.46474663189054372 0 0.20392214812829379 -0.46474663189054372 0 0.1870570053939955 -0.4614654288925471 0 0.20047489497967641 -0.46924756139533819 0 0.20392214812829379 -0.46474663189054372 0 0.1870570053939955 -0.4614654288925471 0 0.2073329635526972 -0.45176519210924959 0 0.20392214812829379 -0.46474663189054372 0 0.19534549943004051 -0.45235162286799602 0 0.20392214812829379 -0.46474663189054372 0 0.19534549943004051 -0.45235162286799602 0 0.1870570053939955 -0.4614654288925471 0 0.19534549943004051 -0.45235162286799602 0 0.18199733364190479 -0.44489112908693101 0 0.1870570053939955 -0.4614654288925471 0 0.19921671642041461 -0.44081240723241838 0 0.19534549943004051 -0.45235162286799602 0 0.18199733364190479 -0.44489112908693101 0 0.19921671642041461 -0.44081240723241838 0 0.18799461530370251 -0.42986511234237718 0 0.18199733364190479 -0.44489112908693101 0 0.2073329635526972 -0.45176519210924959 0 0.19921671642041461 -0.44081240723241838 0 0.19534549943004051 -0.45235162286799602 0 0.19921671642041461 -0.44081240723241838 0 0.18799461530370251 -0.42986511234237718 0 0.20560142098923681 -0.42258657571364239 0 0.18799461530370251 -0.42986511234237718 0 0.20560142098923681 -0.42258657571364239 0 0.18384718161940369 -0.41305247605397638 0 0.20560142098923681 -0.42258657571364239 0 0.19734602417850311 -0.40124020046404257 0 0.18384718161940369 -0.41305247605397638 0 0.20560142098923681 -0.42258657571364239 0 0.18384718161940369 -0.41305247605397638 0 0.19734602417850311 -0.40124020046404257 0 0.18384718161940369 -0.41305247605397638 0 0.21466182824521801 -0.41314319401294408 0 0.20560142098923681 -0.42258657571364239 0 0.19734602417850311 -0.40124020046404257 0 0.21544219972079559 -0.44204797816988067 0 0.19921671642041461 -0.44081240723241838 0 0.20560142098923681 -0.42258657571364239 0 0.21466182824521801 -0.41314319401294408 0 0.20560142098923681 -0.42258657571364239 0 0.22735566035906909 -0.43212067537331011 0 0.20560142098923681 -0.42258657571364239 0 0.22735566035906909 -0.43212067537331011 0 0.21544219972079559 -0.44204797816988067 0 0.20560142098923681 -0.42258657571364239 0 0.22735566035906909 -0.43212067537331011 0 0.23030703128088109 -0.4376299845206349 0 0.2240758720208659 -0.44031909704670952 0 0.22735566035906909 -0.43212067537331011 0 0.2491098997289003 -0.44165477503298112 0 0.23030703128088109 -0.4376299845206349 0 0.22735566035906909 -0.43212067537331011 0 0.2491098997289003 -0.44165477503298112 0 0.22735566035906909 -0.43212067537331011 0 0.2491098997289003 -0.44165477503298112 0 0.22735566035906909 -0.43212067537331011 0 0.24180144569219239 -0.41908298329008992 0 0.24180144569219239 -0.41908298329008992 0 0.23744688929253671 -0.40489192261241602 0 0.24831737856470751 -0.40523923600381329 0 0.24180144569219239 -0.41908298329008992 0 0.2271502647051567 -0.41033677799676771 0 0.23744688929253671 -0.40489192261241602 0 0.22735566035906909 -0.43212067537331011 0 0.24180144569219239 -0.41908298329008992 0 0.2271502647051567 -0.41033677799676771 0 0.21466182824521801 -0.41314319401294408 0 0.22735566035906909 -0.43212067537331011 0 0.2271502647051567 -0.41033677799676771 0 0.21466182824521801 -0.41314319401294408 0 0.2271502647051567 -0.41033677799676771 0 0.2158557709941244 -0.39943174051695768 0 0.22857798545322969 -0.39672923448798442 0 0.24137203115764749 -0.39349542341018828 0 0.21901347483831091 -0.38763718981856449 0 0.2271502647051567 -0.41033677799676771 0 0.22857798545322969 -0.39672923448798442 0 0.2158557709941244 -0.39943174051695768 0 0.22857798545322969 -0.39672923448798442 0 0.21901347483831091 -0.38763718981856449 0 0.2158557709941244 -0.39943174051695768 0 0.2271502647051567 -0.41033677799676771 0 0.22857798545322969 -0.39672923448798442 0 0.23744688929253671 -0.40489192261241602 0 0.22857798545322969 -0.39672923448798442 0 0.23744688929253671 -0.40489192261241602 0 0.23711830066272591 -0.3985262443751913 0 0.24137203115764749 -0.39349542341018828 0 0.24604741796407301 -0.39117864681684672 0 0.21901347483831091 -0.38763718981856449 0 0.23744688929253671 -0.40489192261241602 0 0.2413572104381482 -0.39921158501295562 0 0.23711830066272591 -0.3985262443751913 0 0.22857798545322969 -0.39672923448798442 0 0.23711830066272591 -0.3985262443751913 0 0.24137203115764749 -0.39349542341018828 0 0.2413572104381482 -0.39921158501295562 0 0.23711830066272591 -0.3985262443751913 0 0.24137203115764749 -0.39349542341018828 0 0.2413572104381482 -0.39921158501295562 0 0.24137203115764749 -0.39349542341018828 0 0.2465226742300004 -0.39707615409081343 0 0.25605331583396862 -0.39248942330515091 0 0.24604741796407301 -0.39117864681684672 0 0.2465226742300004 -0.39707615409081343 0 0.24137203115764749 -0.39349542341018828 0 0.24604741796407301 -0.39117864681684672 0 0.2465226742300004 -0.39707615409081343 0 0.24137203115764749 -0.39349542341018828 0 0.24604741796407301 -0.39117864681684672 0 0.2413572104381482 -0.39921158501295562 0 0.2465226742300004 -0.39707615409081343 0 0.24831737856470751 -0.40523923600381329 0 0.23744688929253671 -0.40489192261241602 0 0.2413572104381482 -0.39921158501295562 0 0.24831737856470751 -0.40523923600381329 0 0.25281898241426859 -0.38782315931002459 0 0.22594213730313251 -0.37650846394996412 0 0.25281898241426859 -0.38782315931002459 0 0.2432684872402181 -0.3747583675775259 0 0.22594213730313251 -0.37650846394996412 0 0.25281898241426859 -0.38782315931002459 0 0.24604741796407301 -0.39117864681684672 0 0.22594213730313251 -0.37650846394996412 0 0.25281898241426859 -0.38782315931002459 0 0.24604741796407301 -0.39117864681684672 0 0.24604741796407301 -0.39117864681684672 0 0.21901347483831091 -0.38763718981856449 0 0.24604741796407301 -0.39117864681684672 0 0.22594213730313251 -0.37650846394996412 0 0.21901347483831091 -0.38763718981856449 0 0.21901347483831091 -0.38763718981856449 0 0.21084486673760211 -0.38942792487410832 0 0.1919795317125487 -0.38409573282028281 0 0.22594213730313251 -0.37650846394996412 0 0.21901347483831091 -0.38763718981856449 0 0.2064308598173506 -0.37873398967689642 0 0.21901347483831091 -0.38763718981856449 0 0.1919795317125487 -0.38409573282028281 0 0.21901347483831091 -0.38763718981856449 0 0.2064308598173506 -0.37873398967689642 0 0.1919795317125487 -0.38409573282028281 0 0.21084486673760211 -0.38942792487410832 0 0.2158557709941244 -0.39943174051695768 0 0.19734602417850311 -0.40124020046404257 0 0.21901347483831091 -0.38763718981856449 0 0.21084486673760211 -0.38942792487410832 0 0.2158557709941244 -0.39943174051695768 0 0.21466182824521801 -0.41314319401294408 0 0.2158557709941244 -0.39943174051695768 0 0.19734602417850311 -0.40124020046404257 0 0.21084486673760211 -0.38942792487410832 0 0.19734602417850311 -0.40124020046404257 0 0.19734602417850311 -0.40124020046404257 0 0.1919795317125487 -0.38409573282028281 0 0.1805244578594285 -0.39636090763527571 0 0.21084486673760211 -0.38942792487410832 0 0.19734602417850311 -0.40124020046404257 0 0.1919795317125487 -0.38409573282028281 0 0.19906529219199581 -0.36519376858990482 0 0.2064308598173506 -0.37873398967689642 0 0.1919795317125487 -0.38409573282028281 0 0.18298842207273869 -0.37091600872815061 0 0.1919795317125487 -0.38409573282028281 0 0.1687204173055511 -0.38049546027256931 0 0.1919795317125487 -0.38409573282028281 0 0.1805244578594285 -0.39636090763527571 0 0.1687204173055511 -0.38049546027256931 0 0.19734602417850311 -0.40124020046404257 0 0.1805244578594285 -0.39636090763527571 0 0.18384718161940369 -0.41305247605397638 0 0.1805244578594285 -0.39636090763527571 0 0.16072913448113541 -0.40292066856550868 0 0.18384718161940369 -0.41305247605397638 0 0.1805244578594285 -0.39636090763527571 0 0.16072913448113541 -0.40292066856550868 0 0.1687204173055511 -0.38049546027256931 0 0.15353546690445541 -0.36481351693216441 0 0.1687204173055511 -0.38049546027256931 0 0.13761108734286651 -0.39278886107704258 0 0.13761108734286651 -0.39278886107704258 0 0.1144930402045975 -0.38265705358857649 0 0.1334576568725144 -0.36734337666316108 0 0.13761108734286651 -0.39278886107704258 0 0.1144930402045975 -0.38265705358857649 0 0.13761108734286651 -0.39278886107704258 0 0.141646280669356 -0.41282192646735122 0 0.1225009137537366 -0.39774160736604708 0 0.16072913448113541 -0.40292066856550868 0 0.13761108734286651 -0.39278886107704258 0 0.16072913448113541 -0.40292066856550868 0 0.1687204173055511 -0.38049546027256931 0 0.13761108734286651 -0.39278886107704258 0 0.16072913448113541 -0.40292066856550868 0 0.13761108734286651 -0.39278886107704258 0 0.141646280669356 -0.41282192646735122 0 0.16072913448113541 -0.40292066856550868 0 0.141646280669356 -0.41282192646735122 0 0.1638742152238559 -0.43052998809842158 0 0.141646280669356 -0.41282192646735122 0 0.1229767033134104 -0.42032274230646832 0 0.1225009137537366 -0.39774160736604708 0 0.141646280669356 -0.41282192646735122 0 0.13820776455017991 -0.43111377026825298 0 0.1229767033134104 -0.42032274230646832 0 0.13820776455017991 -0.43111377026825298 0 0.1234524928730841 -0.44290387724688929 0 0.1229767033134104 -0.42032274230646832 0 0.13820776455017991 -0.43111377026825298 0 0.1638742152238559 -0.43052998809842158 0 0.14390124882830749 -0.44800750014286622 0 0.141646280669356 -0.41282192646735122 0 0.13820776455017991 -0.43111377026825298 0 0.1638742152238559 -0.43052998809842158 0 0.16072913448113541 -0.40292066856550868 0 0.1638742152238559 -0.43052998809842158 0 0.18384718161940369 -0.41305247605397638 0 0.16072913448113541 -0.40292066856550868 0 0.18384718161940369 -0.41305247605397638 0 0.1638742152238559 -0.43052998809842158 0 0.18384718161940369 -0.41305247605397638 0 0.18799461530370251 -0.42986511234237718 0 0.1638742152238559 -0.43052998809842158 0 0.18199733364190479 -0.44489112908693101 0 0.18799461530370251 -0.42986511234237718 0 0.1638742152238559 -0.43052998809842158 0 0.18384718161940369 -0.41305247605397638 0 0.18199733364190479 -0.44489112908693101 0 0.1870570053939955 -0.4614654288925471 0 0.16420688624010271 -0.45881617978036932 0 0.1870570053939955 -0.4614654288925471 0 0.16420688624010271 -0.45881617978036932 0 0.17566152260556811 -0.4787645574572737 0 0.1638742152238559 -0.43052998809842158 0 0.18199733364190479 -0.44489112908693101 0 0.16420688624010271 -0.45881617978036932 0 0.1638742152238559 -0.43052998809842158 0 0.16420688624010271 -0.45881617978036932 0 0.14390124882830749 -0.44800750014286622 0 0.1638742152238559 -0.43052998809842158 0 0.14390124882830749 -0.44800750014286622 0 0.14390124882830749 -0.44800750014286622 0 0.1239282824327588 -0.46548501218731042 0 0.1234524928730841 -0.44290387724688929 0 0.13820776455017991 -0.43111377026825298 0 0.14390124882830749 -0.44800750014286622 0 0.1234524928730841 -0.44290387724688929 0 0.14390124882830749 -0.44800750014286622 0 0.1239282824327588 -0.46548501218731042 0 0.14390124882830749 -0.44800750014286622 0 0.14430180113158239 -0.46839055337666402 0 0.1239282824327588 -0.46548501218731042 0 0.16420688624010271 -0.45881617978036932 0 0.14430180113158239 -0.46839055337666402 0 0.1579837024111293 -0.47439764629431108 0 0.16420688624010271 -0.45881617978036932 0 0.14390124882830749 -0.44800750014286622 0 0.14430180113158239 -0.46839055337666402 0 0.14430180113158239 -0.46839055337666402 0 0.14469107980833881 -0.47883227064168798 0 0.1579837024111293 -0.47439764629431108 0 0.14469107980833881 -0.47883227064168798 0 0.15084815023146 -0.4882815535192091 0 0.1579837024111293 -0.47439764629431108 0 0.14469107980833881 -0.47883227064168798 0 0.13584832944069569 -0.48566368407583238 0 0.15084815023146 -0.4882815535192091 0 0.14430180113158239 -0.46839055337666402 0 0.14469107980833881 -0.47883227064168798 0 0.13447341582682679 -0.47742791594242318 0 0.14430180113158239 -0.46839055337666402 0 0.13447341582682679 -0.47742791594242318 0 0.1239282824327588 -0.46548501218731042 0 0.13447341582682679 -0.47742791594242318 0 0.1242919016861052 -0.48274250609365499 0 0.1239282824327588 -0.46548501218731042 0 0.14469107980833881 -0.47883227064168798 0 0.13447341582682679 -0.47742791594242318 0 0.13584832944069569 -0.48566368407583238 0 0.13447341582682679 -0.47742791594242318 0 0.13584832944069569 -0.48566368407583238 0 0.1242919016861052 -0.48274250609365499 0 0.1260347778573519 -0.49779854958114461 0 0.15084815023146 -0.4882815535192091 0 0.1260347778573519 -0.49779854958114461 0 0.14737276692710191 -0.5 0 0.1246555209394526 -0.49999999999999939 0 0.1260347778573519 -0.49779854958114461 0 0.13584832944069569 -0.48566368407583238 0 0.15084815023146 -0.4882815535192091 0 0.1260347778573519 -0.49779854958114461 0 0.13584832944069569 -0.48566368407583238 0 0.1242919016861052 -0.48274250609365499 0 0.14737276692710191 -0.5 0 0.15084815023146 -0.4882815535192091 0 0.1700900129147512 -0.5 0 0.1260347778573519 -0.49779854958114461 0 0.14737276692710191 -0.5 0 0.15084815023146 -0.4882815535192091 0 0.15084815023146 -0.4882815535192091 0 0.1700900129147512 -0.5 0 0.17566152260556811 -0.4787645574572737 0 0.15084815023146 -0.4882815535192091 0 0.17566152260556811 -0.4787645574572737 0 0.15084815023146 -0.4882815535192091 0 0.1579837024111293 -0.47439764629431108 0 0.17566152260556811 -0.4787645574572737 0 0.16420688624010271 -0.45881617978036932 0 0.1579837024111293 -0.47439764629431108 0 0.17566152260556811 -0.4787645574572737 0 0.1928072589024005 -0.5 0 0.1700900129147512 -0.5 0 0.17566152260556811 -0.4787645574572737 0 0.068241918825496628 -0.48411685640401447 0 0.084485214679597562 -0.50000000000000333 0 0.062080533161057772 -0.5 0 0.068241918825496628 -0.48411685640401447 0 0.082611612746588084 -0.47259146401213048 0 0.059698997509378918 -0.46938169559242082 0 0.068241918825496628 -0.48411685640401447 0 0.082611612746588084 -0.47259146401213048 0 0.084485214679597562 -0.50000000000000333 0 0.082611612746588084 -0.47259146401213048 0 0.084485214679597562 -0.50000000000000333 0 0.1042067485561792 -0.48274250609365799 0 0.1045703678095251 -0.5 0 0.11443113474781549 -0.4913712530468281 0 0.1042067485561792 -0.48274250609365799 0 0.084485214679597562 -0.50000000000000333 0 0.1042067485561792 -0.48274250609365799 0 0.084485214679597562 -0.50000000000000333 0 0.1045703678095251 -0.5 0 0.1042067485561792 -0.48274250609365799 0 0.1246555209394526 -0.49999999999999939 0 0.1242919016861052 -0.48274250609365499 0 0.11443113474781549 -0.4913712530468281 0 0.1242919016861052 -0.48274250609365499 0 0.1042067485561792 -0.48274250609365799 0 0.1260347778573519 -0.49779854958114461 0 0.1246555209394526 -0.49999999999999939 0 0.1242919016861052 -0.48274250609365499 0 0.1045703678095251 -0.5 0 0.11443113474781549 -0.4913712530468281 0 0.1246555209394526 -0.49999999999999939 0 0.11443113474781549 -0.4913712530468281 0 0.1246555209394526 -0.49999999999999939 0 0.1242919016861052 -0.48274250609365499 0 0.1242919016861052 -0.48274250609365499 0 0.1239282824327588 -0.46548501218731042 0 0.1042067485561792 -0.48274250609365799 0 0.1239282824327588 -0.46548501218731042 0 0.1242919016861052 -0.48274250609365499 0 0.1042067485561792 -0.48274250609365799 0 0.1239282824327588 -0.46548501218731042 0 0.082611612746588084 -0.47259146401213048 0 0.1042067485561792 -0.48274250609365799 0 0.1030187111308361 -0.4574206208573286 0 0.1239282824327588 -0.46548501218731042 0 0.1234524928730841 -0.44290387724688929 0 0.1030187111308361 -0.4574206208573286 0 0.1239282824327588 -0.46548501218731042 0 0.1234524928730841 -0.44290387724688929 0 0.1042067485561792 -0.48274250609365799 0 0.1030187111308361 -0.4574206208573286 0 0.1239282824327588 -0.46548501218731042 0 0.1030187111308361 -0.4574206208573286 0 0.1234524928730841 -0.44290387724688929 0 0.1009340411971798 -0.43231724830061302 0 0.1030187111308361 -0.4574206208573286 0 0.082979088979226429 -0.44848361730337022 0 0.1009340411971798 -0.43231724830061302 0 0.082611612746588084 -0.47259146401213048 0 0.082979088979226429 -0.44848361730337022 0 0.069321746217141295 -0.45705807525833142 0 0.082611612746588084 -0.47259146401213048 0 0.1030187111308361 -0.4574206208573286 0 0.082979088979226429 -0.44848361730337022 0 0.082611612746588084 -0.47259146401213048 0 0.069321746217141295 -0.45705807525833142 0 0.059698997509378918 -0.46938169559242082 0 0.069321746217141295 -0.45705807525833142 0 0.067582041204123616 -0.44022503190574003 0 0.053892216630821208 -0.45354442811940449 0 0.082979088979226429 -0.44848361730337022 0 0.067582041204123616 -0.44022503190574003 0 0.082480004830520912 -0.43157518689135771 0 0.082979088979226429 -0.44848361730337022 0 0.069321746217141295 -0.45705807525833142 0 0.067582041204123616 -0.44022503190574003 0 0.067582041204123616 -0.44022503190574003 0 0.0724774966405346 -0.4222573561562149 0 0.082480004830520912 -0.43157518689135771 0 0.067582041204123616 -0.44022503190574003 0 0.0724774966405346 -0.4222573561562149 0 0.060794025943731463 -0.42732489045700239 0 0.0724774966405346 -0.4222573561562149 0 0.060355428887312219 -0.41152099288300509 0 0.060794025943731463 -0.42732489045700239 0 0.0724774966405346 -0.4222573561562149 0 0.074004970814653293 -0.40766809642942198 0 0.060355428887312219 -0.41152099288300509 0 0.0724774966405346 -0.4222573561562149 0 0.074004970814653293 -0.40766809642942198 0 0.088427356131540097 -0.41459268079084999 0 0.082979088979226429 -0.44848361730337022 0 0.082480004830520912 -0.43157518689135771 0 0.1009340411971798 -0.43231724830061302 0 0.088427356131540097 -0.41459268079084999 0 0.082480004830520912 -0.43157518689135771 0 0.1009340411971798 -0.43231724830061302 0 0.0724774966405346 -0.4222573561562149 0 0.088427356131540097 -0.41459268079084999 0 0.082480004830520912 -0.43157518689135771 0 0.1009340411971798 -0.43231724830061302 0 0.1229767033134104 -0.42032274230646832 0 0.10288227790137219 -0.41555923542451989 0 0.1234524928730841 -0.44290387724688929 0 0.1009340411971798 -0.43231724830061302 0 0.1229767033134104 -0.42032274230646832 0 0.1234524928730841 -0.44290387724688929 0 0.1229767033134104 -0.42032274230646832 0 0.11274961362169621 -0.40752858603981712 0 0.1229767033134104 -0.42032274230646832 0 0.10288227790137219 -0.41555923542451989 0 0.1229767033134104 -0.42032274230646832 0 0.1225009137537366 -0.39774160736604708 0 0.11274961362169621 -0.40752858603981712 0 0.1229767033134104 -0.42032274230646832 0 0.1225009137537366 -0.39774160736604708 0 0.088427356131540097 -0.41459268079084999 0 0.1009340411971798 -0.43231724830061302 0 0.10288227790137219 -0.41555923542451989 0 0.11274961362169621 -0.40752858603981712 0 0.10288227790137219 -0.41555923542451989 0 0.1024905652497286 -0.39763065736549641 0 0.088427356131540097 -0.41459268079084999 0 0.10288227790137219 -0.41555923542451989 0 0.1024905652497286 -0.39763065736549641 0 0.11274961362169621 -0.40752858603981712 0 0.1024905652497286 -0.39763065736549641 0 0.1225009137537366 -0.39774160736604708 0 0.13761108734286651 -0.39278886107704258 0 0.1225009137537366 -0.39774160736604708 0 0.1144930402045975 -0.38265705358857649 0 0.1024905652497286 -0.39763065736549641 0 0.1225009137537366 -0.39774160736604708 0 0.1144930402045975 -0.38265705358857649 0 0.1144930402045975 -0.38265705358857649 0 0.091374993066328458 -0.3725252461001104 0 0.1024905652497286 -0.39763065736549641 0 0.1144930402045975 -0.38265705358857649 0 0.091374993066328458 -0.3725252461001104 0 0.1024905652497286 -0.39763065736549641 0 0.083428398059003955 -0.39448806637310951 0 0.091374993066328458 -0.3725252461001104 0 0.083428398059003955 -0.39448806637310951 0 0.074126490528669708 -0.3810357822965933 0 0.091374993066328458 -0.3725252461001104 0 0.074126490528669708 -0.3810357822965933 0 0.091374993066328458 -0.3725252461001104 0 0.070476203138644583 -0.37193989048341669 0 0.088427356131540097 -0.41459268079084999 0 0.1024905652497286 -0.39763065736549641 0 0.083428398059003955 -0.39448806637310951 0 0.074004970814653293 -0.40766809642942198 0 0.088427356131540097 -0.41459268079084999 0 0.083428398059003955 -0.39448806637310951 0 0.074004970814653293 -0.40766809642942198 0 0.066910266128499402 -0.39587498563608903 0 0.060355428887312219 -0.41152099288300509 0 0.074004970814653293 -0.40766809642942198 0 0.083428398059003955 -0.39448806637310951 0 0.066910266128499402 -0.39587498563608903 0 0.083428398059003955 -0.39448806637310951 0 0.066910266128499402 -0.39587498563608903 0 0.074126490528669708 -0.3810357822965933 0 0.066910266128499402 -0.39587498563608903 0 0.074126490528669708 -0.3810357822965933 0 0.056152256193627827 -0.38561788606827802 0 0.074126490528669708 -0.3810357822965933 0 0.056152256193627827 -0.38561788606827802 0 0.060686833499801411 -0.37146230490899262 0 0.056152256193627827 -0.38561788606827802 0 0.043208939861749812 -0.40441648592375279 0 0.044233222027100921 -0.37673647323923198 0 0.056152256193627827 -0.38561788606827802 0 0.044233222027100921 -0.37673647323923198 0 0.060686833499801411 -0.37146230490899262 0 0.056152256193627827 -0.38561788606827802 0 0.056656722767797318 -0.39935758762778117 0 0.043208939861749812 -0.40441648592375279 0 0.066910266128499402 -0.39587498563608903 0 0.056152256193627827 -0.38561788606827802 0 0.056656722767797318 -0.39935758762778117 0 0.066910266128499402 -0.39587498563608903 0 0.056656722767797318 -0.39935758762778117 0 0.060355428887312219 -0.41152099288300509 0 0.056656722767797318 -0.39935758762778117 0 0.043208939861749812 -0.40441648592375279 0 0.060355428887312219 -0.41152099288300509 0 0.043208939861749812 -0.40441648592375279 0 0.044233222027100921 -0.37673647323923198 0 0.03008237540444398 -0.39549577314692858 0 0.043208939861749812 -0.40441648592375279 0 0.03008237540444398 -0.39549577314692858 0 0.031547774565697351 -0.40644807632678898 0 0.044233222027100921 -0.37673647323923198 0 0.02421358875389212 -0.38315372187596553 0 0.03008237540444398 -0.39549577314692858 0 0.044233222027100921 -0.37673647323923198 0 0.02421358875389212 -0.38315372187596553 0 0.043208939861749812 -0.40441648592375279 0 0.044233222027100921 -0.37673647323923198 0 0.044233222027100921 -0.37673647323923198 0 0.040577722158604217 -0.37666825725092068 0 0.02421358875389212 -0.38315372187596553 0 0.040577722158604217 -0.37666825725092068 0 0.02421358875389212 -0.38315372187596553 0 0.029676008360573811 -0.37304877221119881 0 0.02421358875389212 -0.38315372187596553 0 0.0041939554806844116 -0.38957097051270262 0 0.018499833625369319 -0.39321557925230638 0 0.02421358875389212 -0.38315372187596553 0 0.0076842696074928066 -0.37577012380638192 0 0.01540667747605797 -0.37214245514119271 0 0.02421358875389212 -0.38315372187596553 0 0.02260251740774721 -0.36929925179791162 0 0.029676008360573811 -0.37304877221119881 0 0.02421358875389212 -0.38315372187596553 0 0.018499833625369319 -0.39321557925230638 0 0.03008237540444398 -0.39549577314692858 0 0.0027496584346183182 -0.38805443786178262 0 0.0076842696074928066 -0.37577012380638192 0 0.00065337166189073257 -0.37156093050329603 0 0.0027496584346183182 -0.38805443786178262 0 0.00065337166189073257 -0.37156093050329603 0 -0.0018100324986049449 -0.37915965720735212 0 0.0027496584346183182 -0.38805443786178262 0 0.00065337166189073257 -0.37156093050329603 0 0.02421358875389212 -0.38315372187596553 0 0.0041939554806844116 -0.38957097051270262 0 0.0076842696074928066 -0.37577012380638192 0 0.02421358875389212 -0.38315372187596553 0 0.0041939554806844116 -0.38957097051270262 0 0.0041939554806844116 -0.38957097051270262 0 0.0027496584346183182 -0.38805443786178262 0 0.0076842696074928066 -0.37577012380638192 0 0.0041939554806844116 -0.38957097051270262 0 0.0027496584346183182 -0.38805443786178262 0 0.0041939554806844116 -0.38957097051270262 0 0.019031246159093049 -0.40515033891639268 0 0.0061376548268578923 -0.41471106907891653 0 -0.0047464050549406306 -0.40351715614234662 0 0.0041939554806844116 -0.38957097051270262 0 0.0061376548268578923 -0.41471106907891653 0 0.0041939554806844116 -0.38957097051270262 0 0.0061376548268578923 -0.41471106907891653 0 0.0041939554806844116 -0.38957097051270262 0 0.019031246159093049 -0.40515033891639268 0 0.0041939554806844116 -0.38957097051270262 0 0.019031246159093049 -0.40515033891639268 0 0.018499833625369319 -0.39321557925230638 0 0.019031246159093049 -0.40515033891639268 0 0.018499833625369319 -0.39321557925230638 0 0.03008237540444398 -0.39549577314692858 0 0.019031246159093049 -0.40515033891639268 0 0.03008237540444398 -0.39549577314692858 0 0.031547774565697351 -0.40644807632678898 0 0.019031246159093049 -0.40515033891639268 0 0.033868536837502558 -0.42072970732008202 0 0.031547774565697351 -0.40644807632678898 0 0.019031246159093049 -0.40515033891639268 0 0.033868536837502558 -0.42072970732008202 0 0.019031246159093049 -0.40515033891639268 0 0.018711757312224419 -0.42459682780592511 0 0.033868536837502558 -0.42072970732008202 0 0.019031246159093049 -0.40515033891639268 0 0.0061376548268578923 -0.41471106907891653 0 0.018711757312224419 -0.42459682780592511 0 0.0061376548268578923 -0.41471106907891653 0 0.0092839102205797275 -0.43946569099571309 0 -0.0091407789890462932 -0.42347339928148231 0 0.0061376548268578923 -0.41471106907891653 0 0.0092839102205797275 -0.43946569099571309 0 0.0061376548268578923 -0.41471106907891653 0 0.018711757312224419 -0.42459682780592511 0 0.0092839102205797275 -0.43946569099571309 0 0.018711757312224419 -0.42459682780592511 0 0.028414524774147319 -0.43292376902742008 0 0.0092839102205797275 -0.43946569099571309 0 0.018711757312224419 -0.42459682780592511 0 0.028414524774147319 -0.43292376902742008 0 0.033868536837502558 -0.42072970732008202 0 0.042184657696397371 -0.43209649860827359 0 0.050869050522879072 -0.422720575748184 0 0.028414524774147319 -0.43292376902742008 0 0.042184657696397371 -0.43209649860827359 0 0.033868536837502558 -0.42072970732008202 0 0.043208939861749812 -0.40441648592375279 0 0.042184657696397371 -0.43209649860827359 0 0.043208939861749812 -0.40441648592375279 0 0.033868536837502558 -0.42072970732008202 0 0.031547774565697351 -0.40644807632678898 0 0.043208939861749812 -0.40441648592375279 0 0.042184657696397371 -0.43209649860827359 0 0.050869050522879072 -0.422720575748184 0 0.043208939861749812 -0.40441648592375279 0 0.042184657696397371 -0.43209649860827359 0 0.033868536837502558 -0.42072970732008202 0 0.060355428887312219 -0.41152099288300509 0 0.060794025943731463 -0.42732489045700239 0 0.050869050522879072 -0.422720575748184 0 0.043208939861749812 -0.40441648592375279 0 0.060355428887312219 -0.41152099288300509 0 0.050869050522879072 -0.422720575748184 0 0.060794025943731463 -0.42732489045700239 0 0.052834173441298933 -0.43684815007378819 0 0.050869050522879072 -0.422720575748184 0 0.067582041204123616 -0.44022503190574003 0 0.060794025943731463 -0.42732489045700239 0 0.052834173441298933 -0.43684815007378819 0 0.042184657696397371 -0.43209649860827359 0 0.052834173441298933 -0.43684815007378819 0 0.050869050522879072 -0.422720575748184 0 0.052834173441298933 -0.43684815007378819 0 0.053892216630821208 -0.45354442811940449 0 0.041757079138585403 -0.44365130284508453 0 0.067582041204123616 -0.44022503190574003 0 0.052834173441298933 -0.43684815007378819 0 0.053892216630821208 -0.45354442811940449 0 0.046941103239344348 -0.46586409556514019 0 0.053892216630821208 -0.45354442811940449 0 0.059698997509378918 -0.46938169559242082 0 0.069321746217141295 -0.45705807525833142 0 0.053892216630821208 -0.45354442811940449 0 0.059698997509378918 -0.46938169559242082 0 0.046941103239344348 -0.46586409556514019 0 0.053892216630821208 -0.45354442811940449 0 0.040787388908065082 -0.45646246558822567 0 0.040787388908065082 -0.45646246558822567 0 0.034557686038241928 -0.46842939993993787 0 0.02730741165534372 -0.4481584057603889 0 0.046941103239344348 -0.46586409556514019 0 0.040787388908065082 -0.45646246558822567 0 0.034557686038241928 -0.46842939993993787 0 0.040787388908065082 -0.45646246558822567 0 0.041757079138585403 -0.44365130284508453 0 0.02730741165534372 -0.4481584057603889 0 0.028414524774147319 -0.43292376902742008 0 0.042184657696397371 -0.43209649860827359 0 0.02730741165534372 -0.4481584057603889 0 0.042184657696397371 -0.43209649860827359 0 0.02730741165534372 -0.4481584057603889 0 0.042184657696397371 -0.43209649860827359 0 0.041757079138585403 -0.44365130284508453 0 0.02730741165534372 -0.4481584057603889 0 0.053892216630821208 -0.45354442811940449 0 0.040787388908065082 -0.45646246558822567 0 0.041757079138585403 -0.44365130284508453 0 0.042184657696397371 -0.43209649860827359 0 0.052834173441298933 -0.43684815007378819 0 0.041757079138585403 -0.44365130284508453 0 0.042184657696397371 -0.43209649860827359 0 0.041757079138585403 -0.44365130284508453 0 0.02730741165534372 -0.4481584057603889 0 0.0092839102205797275 -0.43946569099571309 0 0.0124301656142967 -0.46422031291251031 0 0.028414524774147319 -0.43292376902742008 0 0.02730741165534372 -0.4481584057603889 0 0.0092839102205797275 -0.43946569099571309 0 -0.0095398701285203391 -0.45199838458689112 0 0.0092839102205797275 -0.43946569099571309 0 0.0124301656142967 -0.46422031291251031 0 0.0092839102205797275 -0.43946569099571309 0 0.0124301656142967 -0.46422031291251031 0 -0.0095398701285203391 -0.45199838458689112 0 0.0124301656142967 -0.46422031291251031 0 0.0079502112514302607 -0.46905700182815052 0 0.0124301656142967 -0.46422031291251031 0 0.0079502112514302607 -0.46905700182815052 0 0.02730741165534372 -0.4481584057603889 0 0.0124301656142967 -0.46422031291251031 0 0.02730741165534372 -0.4481584057603889 0 0.0124301656142967 -0.46422031291251031 0 0.02295638175001485 -0.46858036516352791 0 0.034557686038241928 -0.46842939993993787 0 0.02730741165534372 -0.4481584057603889 0 0.02295638175001485 -0.46858036516352791 0 0.034557686038241928 -0.46842939993993787 0 0.02295638175001485 -0.46858036516352791 0 0.026720832361569871 -0.48736456906826758 0 0.02295638175001485 -0.46858036516352791 0 0.01376581308062028 -0.47472913813653472 0 0.026720832361569871 -0.48736456906826758 0 0.01376581308062028 -0.47472913813653472 0 0.026720832361569871 -0.48736456906826758 0 0.0124301656142967 -0.46422031291251031 0 0.02295638175001485 -0.46858036516352791 0 0.01376581308062028 -0.47472913813653472 0 0.0124301656142967 -0.46422031291251031 0 0.0079502112514302607 -0.46905700182815052 0 0.01376581308062028 -0.47472913813653472 0 -0.0033431163747408531 -0.48124960651246851 0 0.01376581308062028 -0.47472913813653472 0 0.0065593234316104216 -0.48899468616224923 0 0.0124301656142967 -0.46422031291251031 0 0.01376581308062028 -0.47472913813653472 0 -0.0033431163747408531 -0.48124960651246851 0 0.0079502112514302607 -0.46905700182815052 0 0.01376581308062028 -0.47472913813653472 0 0.0079502112514302607 -0.46905700182815052 0 0.01376581308062028 -0.47472913813653472 0 -0.0033431163747408531 -0.48124960651246851 0 0.0079502112514302607 -0.46905700182815052 0 0.01376581308062028 -0.47472913813653472 0 0.016977681381782121 -0.49999999999999312 0 0.01376581308062028 -0.47472913813653472 0 0.0065593234316104216 -0.48899468616224923 0 0.016977681381782121 -0.49999999999999312 0 -0.0011630843612175921 -0.5 0 -0.0033431163747408531 -0.48124960651246851 0 0.0065593234316104216 -0.48899468616224923 0 -0.0011630843612175921 -0.5 0 0.0065593234316104216 -0.48899468616224923 0 0.016977681381782121 -0.49999999999999312 0 0.01376581308062028 -0.47472913813653472 0 0.016977681381782121 -0.49999999999999312 0 0.026720832361569871 -0.48736456906826758 0 0.016977681381782121 -0.49999999999999312 0 0.026720832361569871 -0.48736456906826758 0 0.039675851642517863 -0.50000000000000222 0 0.026720832361569871 -0.48736456906826758 0 0.039675851642517863 -0.50000000000000222 0 0.026720832361569871 -0.48736456906826758 0 0.039675851642517863 -0.50000000000000222 0 0.045769227110214618 -0.4815024885857121 0 0.034557686038241928 -0.46842939993993787 0 0.026720832361569871 -0.48736456906826758 0 0.045769227110214618 -0.4815024885857121 0 0.046941103239344348 -0.46586409556514019 0 0.034557686038241928 -0.46842939993993787 0 0.045769227110214618 -0.4815024885857121 0 0.068241918825496628 -0.48411685640401447 0 0.045769227110214618 -0.4815024885857121 0 0.059698997509378918 -0.46938169559242082 0 0.046941103239344348 -0.46586409556514019 0 0.045769227110214618 -0.4815024885857121 0 0.059698997509378918 -0.46938169559242082 0 0.039675851642517863 -0.50000000000000222 0 0.045769227110214618 -0.4815024885857121 0 0.062080533161057772 -0.5 0 0.068241918825496628 -0.48411685640401447 0 0.045769227110214618 -0.4815024885857121 0 0.062080533161057772 -0.5 0 0.077131942376116147 -0.30204355696079072 0 0.067780811587607057 -0.28372198045081959 0 0.094946381541846148 -0.29155577518610659 0 0.077131942376116147 -0.30204355696079072 0 0.094946381541846148 -0.29155577518610659 0 0.096035701395516482 -0.31903277938797869 0 0.077131942376116147 -0.30204355696079072 0 0.071845440756318601 -0.32091801216652299 0 0.052989109742092907 -0.30120774425928232 0 0.077131942376116147 -0.30204355696079072 0 0.067780811587607057 -0.28372198045081959 0 0.052989109742092907 -0.30120774425928232 0 0.067780811587607057 -0.28372198045081959 0 0.064743005473060042 -0.26615297314853942 0 0.058726578274061067 -0.27673115848829982 0 0.067780811587607057 -0.28372198045081959 0 0.082572513433121358 -0.26623621664235703 0 0.067780811587607057 -0.28372198045081959 0 0.064743005473060042 -0.26615297314853942 0 0.082572513433121358 -0.26623621664235703 0 0.064743005473060042 -0.26615297314853942 0 0.082572513433121358 -0.26623621664235703 0 0.076890590294862421 -0.2411056895388187 0 0.064743005473060042 -0.26615297314853942 0 0.052891795375796517 -0.25211429193864299 0 0.076890590294862421 -0.2411056895388187 0 0.082572513433121358 -0.26623621664235703 0 0.076890590294862421 -0.2411056895388187 0 0.09736421527863566 -0.24875045283389441 0 0.082572513433121358 -0.26623621664235703 0 0.09736421527863566 -0.24875045283389441 0 0.067780811587607057 -0.28372198045081959 0 0.082572513433121358 -0.26623621664235703 0 0.094946381541846148 -0.29155577518610659 0 0.082572513433121358 -0.26623621664235703 0 0.1032627861336944 -0.27200341917754622 0 0.094946381541846148 -0.29155577518610659 0 0.1032627861336944 -0.27200341917754622 0 0.1208519130951949 -0.25967578265474978 0 0.09736421527863566 -0.24875045283389441 0 0.082572513433121358 -0.26623621664235703 0 0.1032627861336944 -0.27200341917754622 0 0.09736421527863566 -0.24875045283389441 0 0.1032627861336944 -0.27200341917754622 0 0.1208519130951949 -0.25967578265474978 0 0.1214680764032728 -0.28799396244537362 0 0.1032627861336944 -0.27200341917754622 0 0.1214680764032728 -0.28799396244537362 0 0.094946381541846148 -0.29155577518610659 0 0.1214680764032728 -0.28799396244537362 0 0.094946381541846148 -0.29155577518610659 0 0.1105547228364564 -0.30599257357122089 0 0.094946381541846148 -0.29155577518610659 0 0.1105547228364564 -0.30599257357122089 0 0.096035701395516482 -0.31903277938797869 0 0.1327557034794242 -0.31406397942508268 0 0.1214680764032728 -0.28799396244537362 0 0.1105547228364564 -0.30599257357122089 0 0.1327557034794242 -0.31406397942508268 0 0.1105547228364564 -0.30599257357122089 0 0.1148396108404251 -0.33048353453193308 0 0.1148396108404251 -0.33048353453193308 0 0.096035701395516482 -0.31903277938797869 0 0.089234146038707524 -0.34586318863383742 0 0.1105547228364564 -0.30599257357122089 0 0.1148396108404251 -0.33048353453193308 0 0.096035701395516482 -0.31903277938797869 0 0.1334576568725144 -0.36734337666316108 0 0.1144930402045975 -0.38265705358857649 0 0.1151457893227235 -0.35538430830369239 0 0.1151457893227235 -0.35538430830369239 0 0.091374993066328458 -0.3725252461001104 0 0.089234146038707524 -0.34586318863383742 0 0.1148396108404251 -0.33048353453193308 0 0.1151457893227235 -0.35538430830369239 0 0.089234146038707524 -0.34586318863383742 0 0.1144930402045975 -0.38265705358857649 0 0.1151457893227235 -0.35538430830369239 0 0.091374993066328458 -0.3725252461001104 0 0.091374993066328458 -0.3725252461001104 0 0.089234146038707524 -0.34586318863383742 0 0.06825694592805942 -0.36239343861164419 0 0.091374993066328458 -0.3725252461001104 0 0.06825694592805942 -0.36239343861164419 0 0.089234146038707524 -0.34586318863383742 0 0.06825694592805942 -0.36239343861164419 0 0.061737014902558403 -0.34250403441755251 0 0.091374993066328458 -0.3725252461001104 0 0.06825694592805942 -0.36239343861164419 0 0.070476203138644583 -0.37193989048341669 0 0.074126490528669708 -0.3810357822965933 0 0.070476203138644583 -0.37193989048341669 0 0.060686833499801411 -0.37146230490899262 0 0.06825694592805942 -0.36239343861164419 0 0.070476203138644583 -0.37193989048341669 0 0.060686833499801411 -0.37146230490899262 0 0.077131942376116147 -0.30204355696079072 0 0.096035701395516482 -0.31903277938797869 0 0.071845440756318601 -0.32091801216652299 0 0.096035701395516482 -0.31903277938797869 0 0.089234146038707524 -0.34586318863383742 0 0.071845440756318601 -0.32091801216652299 0 0.089234146038707524 -0.34586318863383742 0 0.071845440756318601 -0.32091801216652299 0 0.061737014902558403 -0.34250403441755251 0 0.071845440756318601 -0.32091801216652299 0 0.048808944663990529 -0.32662290425339802 0 0.052989109742092907 -0.30120774425928232 0 0.048808944663990529 -0.32662290425339802 0 0.052989109742092907 -0.30120774425928232 0 0.071845440756318601 -0.32091801216652299 0 0.048808944663990529 -0.32662290425339802 0 0.061737014902558403 -0.34250403441755251 0 0.048808944663990529 -0.32662290425339802 0 0.045009790617959913 -0.34972153938337119 0 0.048808944663990529 -0.32662290425339802 0 0.061737014902558403 -0.34250403441755251 0 0.045009790617959913 -0.34972153938337119 0 0.048808944663990529 -0.32662290425339802 0 0.036655626533974632 -0.33699996620385642 0 0.036173989476518807 -0.32108545842939867 0 0.048808944663990529 -0.32662290425339802 0 0.036655626533974632 -0.33699996620385642 0 0.045009790617959913 -0.34972153938337119 0 0.036655626533974632 -0.33699996620385642 0 0.044628779585887443 -0.35203806424751349 0 0.019358869210944801 -0.34096317259951509 0 0.048808944663990529 -0.32662290425339802 0 0.036173989476518807 -0.32108545842939867 0 0.052989109742092907 -0.30120774425928232 0 0.044233222027100921 -0.37673647323923198 0 0.060686833499801411 -0.37146230490899262 0 0.044233222027100921 -0.37673647323923198 0 0.060686833499801411 -0.37146230490899262 0 0.044628779585887443 -0.35203806424751349 0 0.06825694592805942 -0.36239343861164419 0 0.060686833499801411 -0.37146230490899262 0 0.044628779585887443 -0.35203806424751349 0 0.061737014902558403 -0.34250403441755251 0 0.045009790617959913 -0.34972153938337119 0 0.044628779585887443 -0.35203806424751349 0 0.06825694592805942 -0.36239343861164419 0 0.061737014902558403 -0.34250403441755251 0 0.044628779585887443 -0.35203806424751349 0 0.06825694592805942 -0.36239343861164419 0 0.044628779585887443 -0.35203806424751349 0 0.044628779585887443 -0.35203806424751349 0 0.033394165312498579 -0.35957155917320538 0 0.027534951741865179 -0.35361150629561688 0 0.044628779585887443 -0.35203806424751349 0 0.019358869210944801 -0.34096317259951509 0 0.036655626533974632 -0.33699996620385642 0 0.045009790617959913 -0.34972153938337119 0 0.044628779585887443 -0.35203806424751349 0 0.045009790617959913 -0.34972153938337119 0 0.044628779585887443 -0.35203806424751349 0 0.044628779585887443 -0.35203806424751349 0 0.033394165312498579 -0.35957155917320538 0 0.037687369165701402 -0.36453485844688732 0 0.040577722158604217 -0.37666825725092068 0 0.044628779585887443 -0.35203806424751349 0 0.040577722158604217 -0.37666825725092068 0 0.044628779585887443 -0.35203806424751349 0 0.037687369165701402 -0.36453485844688732 0 0.044233222027100921 -0.37673647323923198 0 0.040577722158604217 -0.37666825725092068 0 0.044628779585887443 -0.35203806424751349 0 0.044233222027100921 -0.37673647323923198 0 0.044628779585887443 -0.35203806424751349 0 0.033394165312498579 -0.35957155917320538 0 0.037687369165701402 -0.36453485844688732 0 0.030655854562728489 -0.36629906792779549 0 0.037687369165701402 -0.36453485844688732 0 0.03493509224399069 -0.37022548744946149 0 0.030655854562728489 -0.36629906792779549 0 0.040577722158604217 -0.37666825725092068 0 0.03493509224399069 -0.37022548744946149 0 0.029676008360573811 -0.37304877221119881 0 0.040577722158604217 -0.37666825725092068 0 0.037687369165701402 -0.36453485844688732 0 0.03493509224399069 -0.37022548744946149 0 0.03493509224399069 -0.37022548744946149 0 0.029676008360573811 -0.37304877221119881 0 0.030655854562728489 -0.36629906792779549 0 0.02421358875389212 -0.38315372187596553 0 0.02260251740774721 -0.36929925179791162 0 0.01540667747605797 -0.37214245514119271 0 0.02260251740774721 -0.36929925179791162 0 0.014578483197128079 -0.36420028531043769 0 0.01540667747605797 -0.37214245514119271 0 0.02260251740774721 -0.36929925179791162 0 0.029676008360573811 -0.37304877221119881 0 0.030655854562728489 -0.36629906792779549 0 0.02260251740774721 -0.36929925179791162 0 0.030655854562728489 -0.36629906792779549 0 0.025639974885859271 -0.36111447848810913 0 0.033394165312498579 -0.35957155917320538 0 0.030655854562728489 -0.36629906792779549 0 0.025639974885859271 -0.36111447848810913 0 0.025639974885859271 -0.36111447848810913 0 0.019192682991220129 -0.35566565007111178 0 0.014578483197128079 -0.36420028531043769 0 0.02260251740774721 -0.36929925179791162 0 0.025639974885859271 -0.36111447848810913 0 0.014578483197128079 -0.36420028531043769 0 0.044628779585887443 -0.35203806424751349 0 0.027534951741865179 -0.35361150629561688 0 0.019358869210944801 -0.34096317259951509 0 0.025639974885859271 -0.36111447848810913 0 0.019192682991220129 -0.35566565007111178 0 0.027534951741865179 -0.35361150629561688 0 0.033394165312498579 -0.35957155917320538 0 0.025639974885859271 -0.36111447848810913 0 0.027534951741865179 -0.35361150629561688 0 0.019192682991220129 -0.35566565007111178 0 0.009555857925397232 -0.35255163900730457 0 0.019358869210944801 -0.34096317259951509 0 0.019192682991220129 -0.35566565007111178 0 0.027534951741865179 -0.35361150629561688 0 0.019358869210944801 -0.34096317259951509 0 -0.0045683341259116954 -0.33047674109012498 0 -0.001957481232011143 -0.35101883579671062 0 0.009555857925397232 -0.35255163900730457 0 0.009555857925397232 -0.35255163900730457 0 0.019358869210944801 -0.34096317259951509 0 -0.001957481232011143 -0.35101883579671062 0 0.009555857925397232 -0.35255163900730457 0 0.0061569519932870966 -0.36152411670660323 0 0.019192682991220129 -0.35566565007111178 0 0.009555857925397232 -0.35255163900730457 0 0.014578483197128079 -0.36420028531043769 0 -0.001957481232011143 -0.35101883579671062 0 0.0061569519932870966 -0.36152411670660323 0 0.00065337166189073257 -0.37156093050329603 0 0.014578483197128079 -0.36420028531043769 0 0.0061569519932870966 -0.36152411670660323 0 0.0088959507871715273 -0.3690395822935823 0 0.009555857925397232 -0.35255163900730457 0 0.014578483197128079 -0.36420028531043769 0 0.0061569519932870966 -0.36152411670660323 0 0.0061569519932870966 -0.36152411670660323 0 0.00065337166189073257 -0.37156093050329603 0 0.0088959507871715273 -0.3690395822935823 0 0.0076842696074928066 -0.37577012380638192 0 0.00065337166189073257 -0.37156093050329603 0 0.0088959507871715273 -0.3690395822935823 0 0.0076842696074928066 -0.37577012380638192 0 0.00065337166189073257 -0.37156093050329603 0 0.014578483197128079 -0.36420028531043769 0 0.0088959507871715273 -0.3690395822935823 0 0.01540667747605797 -0.37214245514119271 0 0.0076842696074928066 -0.37577012380638192 0 0.0088959507871715273 -0.3690395822935823 0 0.01540667747605797 -0.37214245514119271 0 0.036173989476518807 -0.32108545842939867 0 0.01744882103837565 -0.31850042884218732 0 0.019358869210944801 -0.34096317259951509 0 0.036173989476518807 -0.32108545842939867 0 0.01744882103837565 -0.31850042884218732 0 0.024116554326934429 -0.30592926499214601 0 0.036655626533974632 -0.33699996620385642 0 0.036173989476518807 -0.32108545842939867 0 0.019358869210944801 -0.34096317259951509 0 0.036173989476518807 -0.32108545842939867 0 0.019358869210944801 -0.34096317259951509 0 -0.0045683341259116954 -0.33047674109012498 0 0.019358869210944801 -0.34096317259951509 0 -0.0045683341259116954 -0.33047674109012498 0 0.009555857925397232 -0.35255163900730457 0 0.019358869210944801 -0.34096317259951509 0 -0.0045683341259116954 -0.33047674109012498 0 0.019358869210944801 -0.34096317259951509 0 0.0040981006955792022 -0.31953741139356839 0 0.01744882103837565 -0.31850042884218732 0 0.019358869210944801 -0.34096317259951509 0 0.0040981006955792022 -0.31953741139356839 0 0.01744882103837565 -0.31850042884218732 0 0.0040981006955792022 -0.31953741139356839 0 0.0089445439175262591 -0.30818744038092027 0 0.0089445439175262591 -0.30818744038092027 0 0.0080387197440938973 -0.29217093039849179 0 0.024116554326934429 -0.30592926499214601 0 -0.0077929770141077753 -0.30510536924497561 0 0.0089445439175262591 -0.30818744038092027 0 0.0080387197440938973 -0.29217093039849179 0 -0.0077929770141077753 -0.30510536924497561 0 0.0040981006955792022 -0.31953741139356839 0 0.0089445439175262591 -0.30818744038092027 0 -0.01101761990230157 -0.27973399739982591 0 0.0080387197440938973 -0.29217093039849179 0 0.0048942055376650917 -0.2741314967382914 0 0.0080387197440938973 -0.29217093039849179 0 0.020877789927600591 -0.27903042670402939 0 0.0048942055376650917 -0.2741314967382914 0 0.0080387197440938973 -0.29217093039849179 0 0.027243186926685009 -0.29104055061929668 0 0.020877789927600591 -0.27903042670402939 0 0.0080387197440938973 -0.29217093039849179 0 0.027243186926685009 -0.29104055061929668 0 0.024116554326934429 -0.30592926499214601 0 0.027243186926685009 -0.29104055061929668 0 0.034101878197347918 -0.27659844990516153 0 0.020877789927600591 -0.27903042670402939 0 0.01744882103837565 -0.31850042884218732 0 0.0089445439175262591 -0.30818744038092027 0 0.024116554326934429 -0.30592926499214601 0 0.027243186926685009 -0.29104055061929668 0 0.024116554326934429 -0.30592926499214601 0 0.038203796810373343 -0.2996991961433092 0 0.036173989476518807 -0.32108545842939867 0 0.038203796810373343 -0.2996991961433092 0 0.052989109742092907 -0.30120774425928232 0 0.036173989476518807 -0.32108545842939867 0 0.024116554326934429 -0.30592926499214601 0 0.038203796810373343 -0.2996991961433092 0 0.036173989476518807 -0.32108545842939867 0 0.052989109742092907 -0.30120774425928232 0 0.038203796810373343 -0.2996991961433092 0 0.047175715537712708 -0.2926969566375287 0 0.052989109742092907 -0.30120774425928232 0 0.027243186926685009 -0.29104055061929668 0 0.038203796810373343 -0.2996991961433092 0 0.040226671751381761 -0.28697197094733279 0 0.027243186926685009 -0.29104055061929668 0 0.040226671751381761 -0.28697197094733279 0 0.034101878197347918 -0.27659844990516153 0 0.040226671751381761 -0.28697197094733279 0 0.047175715537712708 -0.2926969566375287 0 0.050790025639619221 -0.28417862930561599 0 0.038203796810373343 -0.2996991961433092 0 0.040226671751381761 -0.28697197094733279 0 0.047175715537712708 -0.2926969566375287 0 0.067780811587607057 -0.28372198045081959 0 0.050790025639619221 -0.28417862930561599 0 0.058726578274061067 -0.27673115848829982 0 0.067780811587607057 -0.28372198045081959 0 0.054076043948834467 -0.29459924764461048 0 0.050790025639619221 -0.28417862930561599 0 0.047175715537712708 -0.2926969566375287 0 0.054076043948834467 -0.29459924764461048 0 0.050790025639619221 -0.28417862930561599 0 0.067780811587607057 -0.28372198045081959 0 0.052989109742092907 -0.30120774425928232 0 0.047175715537712708 -0.2926969566375287 0 0.054076043948834467 -0.29459924764461048 0 0.052989109742092907 -0.30120774425928232 0 0.067780811587607057 -0.28372198045081959 0 0.054076043948834467 -0.29459924764461048 0 0.052989109742092907 -0.30120774425928232 0 0.054076043948834467 -0.29459924764461048 0 0.052989109742092907 -0.30120774425928232 0 0.064743005473060042 -0.26615297314853942 0 0.052891795375796517 -0.25211429193864299 0 0.047422539802036381 -0.27200491161857782 0 0.064743005473060042 -0.26615297314853942 0 0.058726578274061067 -0.27673115848829982 0 0.047422539802036381 -0.27200491161857782 0 0.050790025639619221 -0.28417862930561599 0 0.058726578274061067 -0.27673115848829982 0 0.047422539802036381 -0.27200491161857782 0 0.047422539802036381 -0.27200491161857782 0 0.034101878197347918 -0.27659844990516153 0 0.028893000456730811 -0.26312289433846719 0 0.040226671751381761 -0.28697197094733279 0 0.047422539802036381 -0.27200491161857782 0 0.034101878197347918 -0.27659844990516153 0 0.040226671751381761 -0.28697197094733279 0 0.050790025639619221 -0.28417862930561599 0 0.047422539802036381 -0.27200491161857782 0 0.052891795375796517 -0.25211429193864299 0 0.047422539802036381 -0.27200491161857782 0 0.028893000456730811 -0.26312289433846719 0 0.052891795375796517 -0.25211429193864299 0 0.028893000456730811 -0.26312289433846719 0 0.037887571345962913 -0.24807643085114139 0 0.052891795375796517 -0.25211429193864299 0 0.028893000456730811 -0.26312289433846719 0 0.028893000456730811 -0.26312289433846719 0 0.012915362636422151 -0.25863433554944881 0 0.025057743262430921 -0.24169993996191749 0 0.028893000456730811 -0.26312289433846719 0 0.025057743262430921 -0.24169993996191749 0 0.037887571345962913 -0.24807643085114139 0 0.034101878197347918 -0.27659844990516153 0 0.028893000456730811 -0.26312289433846719 0 0.020877789927600591 -0.27903042670402939 0 0.028893000456730811 -0.26312289433846719 0 0.0048942055376650917 -0.2741314967382914 0 0.028893000456730811 -0.26312289433846719 0 0.020877789927600591 -0.27903042670402939 0 0.0048942055376650917 -0.2741314967382914 0 0.028893000456730811 -0.26312289433846719 0 0.0048942055376650917 -0.2741314967382914 0 0.012915362636422151 -0.25863433554944881 0 -0.00053764115848484954 -0.26240285167879379 0 0.0048942055376650917 -0.2741314967382914 0 0.012915362636422151 -0.25863433554944881 0 -0.00053764115848484954 -0.26240285167879379 0 0.012915362636422151 -0.25863433554944881 0 0.0054077402359684022 -0.24803128275829681 0 0.0054077402359684022 -0.24803128275829681 0 0.025057743262430921 -0.24169993996191749 0 0.012915362636422151 -0.25863433554944881 0 0.0054077402359684022 -0.24803128275829681 0 0.025057743262430921 -0.24169993996191749 0 0.0054077402359684022 -0.24803128275829681 0 0.01164995217655071 -0.22814433722524691 0 0.025057743262430921 -0.24169993996191749 0 -0.0040268346632878179 -0.23544582594765409 0 0.0054077402359684022 -0.24803128275829681 0 0.01164995217655071 -0.22814433722524691 0 -0.0052717693155240868 -0.21935920381125151 0 0.01164995217655071 -0.22814433722524691 0 0.0086958910760906415 -0.20960854745756699 0 -0.0040268346632878179 -0.23544582594765409 0 -0.0052717693155240868 -0.21935920381125151 0 0.01164995217655071 -0.22814433722524691 0 0.01164995217655071 -0.22814433722524691 0 0.029055143069391099 -0.22732900707652129 0 0.025057743262430921 -0.24169993996191749 0 0.01164995217655071 -0.22814433722524691 0 0.029055143069391099 -0.22732900707652129 0 0.024279592965657772 -0.21336133237912719 0 0.029055143069391099 -0.22732900707652129 0 0.024279592965657772 -0.21336133237912719 0 0.039580680653422677 -0.21807082865077679 0 -0.00037765436845475011 -0.19560370237634589 0 0.0086958910760906415 -0.20960854745756699 0 0.019753345640502538 -0.19174178037020631 0 -0.00037765436845475011 -0.19560370237634589 0 0.019753345640502538 -0.19174178037020631 0 0.01229516926355444 -0.18167223964580559 0 -0.0052717693155240868 -0.21935920381125151 0 -0.00037765436845475011 -0.19560370237634589 0 0.0086958910760906415 -0.20960854745756699 0 0.01164995217655071 -0.22814433722524691 0 0.0086958910760906415 -0.20960854745756699 0 0.024279592965657772 -0.21336133237912719 0 0.0086958910760906415 -0.20960854745756699 0 0.024279592965657772 -0.21336133237912719 0 0.019753345640502538 -0.19174178037020631 0 0.024279592965657772 -0.21336133237912719 0 0.019753345640502538 -0.19174178037020631 0 0.040120483787690293 -0.20242111037550509 0 0.019753345640502538 -0.19174178037020631 0 0.040120483787690293 -0.20242111037550509 0 0.037949984180577177 -0.18230494039148359 0 0.040120483787690293 -0.20242111037550509 0 0.05769121204082208 -0.1954525274858572 0 0.037949984180577177 -0.18230494039148359 0 0.024279592965657772 -0.21336133237912719 0 0.040120483787690293 -0.20242111037550509 0 0.039580680653422677 -0.21807082865077679 0 0.040120483787690293 -0.20242111037550509 0 0.039580680653422677 -0.21807082865077679 0 0.062782130754298143 -0.21185704542607089 0 0.040120483787690293 -0.20242111037550509 0 0.05769121204082208 -0.1954525274858572 0 0.062782130754298143 -0.21185704542607089 0 0.029055143069391099 -0.22732900707652129 0 0.025057743262430921 -0.24169993996191749 0 0.044707746288893388 -0.23536859716553821 0 0.025057743262430921 -0.24169993996191749 0 0.044707746288893388 -0.23536859716553821 0 0.052891795375796517 -0.25211429193864299 0 0.044707746288893388 -0.23536859716553821 0 0.037887571345962913 -0.24807643085114139 0 0.025057743262430921 -0.24169993996191749 0 0.044707746288893388 -0.23536859716553821 0 0.037887571345962913 -0.24807643085114139 0 0.029055143069391099 -0.22732900707652129 0 0.039580680653422677 -0.21807082865077679 0 0.044707746288893388 -0.23536859716553821 0 0.044707746288893388 -0.23536859716553821 0 0.061793252454023888 -0.2332207134355552 0 0.062782130754298143 -0.21185704542607089 0 0.039580680653422677 -0.21807082865077679 0 0.044707746288893388 -0.23536859716553821 0 0.062782130754298143 -0.21185704542607089 0 0.052891795375796517 -0.25211429193864299 0 0.044707746288893388 -0.23536859716553821 0 0.061793252454023888 -0.2332207134355552 0 0.052891795375796517 -0.25211429193864299 0 0.061793252454023888 -0.2332207134355552 0 0.076890590294862421 -0.2411056895388187 0 0.052891795375796517 -0.25211429193864299 0 0.076890590294862421 -0.2411056895388187 0 0.076890590294862421 -0.2411056895388187 0 0.087469023939224094 -0.22156086722575091 0 0.09736421527863566 -0.24875045283389441 0 0.076890590294862421 -0.2411056895388187 0 0.087469023939224094 -0.22156086722575091 0 0.071693999556268984 -0.22565794310870529 0 0.061793252454023888 -0.2332207134355552 0 0.071693999556268984 -0.22565794310870529 0 0.062782130754298143 -0.21185704542607089 0 0.087469023939224094 -0.22156086722575091 0 0.071693999556268984 -0.22565794310870529 0 0.062782130754298143 -0.21185704542607089 0 0.061793252454023888 -0.2332207134355552 0 0.076890590294862421 -0.2411056895388187 0 0.071693999556268984 -0.22565794310870529 0 0.087469023939224094 -0.22156086722575091 0 0.062782130754298143 -0.21185704542607089 0 0.05769121204082208 -0.1954525274858572 0 0.062782130754298143 -0.21185704542607089 0 0.07627374039000763 -0.20371239648550901 0 0.087469023939224094 -0.22156086722575091 0 0.062782130754298143 -0.21185704542607089 0 0.07627374039000763 -0.20371239648550901 0 0.05769121204082208 -0.1954525274858572 0 0.07627374039000763 -0.20371239648550901 0 0.07314042600564688 -0.1882311252049641 0 0.07627374039000763 -0.20371239648550901 0 0.07314042600564688 -0.1882311252049641 0 0.084523948586996384 -0.1971848975526613 0 0.07314042600564688 -0.1882311252049641 0 0.084523948586996384 -0.1971848975526613 0 0.084604223054476541 -0.1862526904276115 0 0.07627374039000763 -0.20371239648550901 0 0.084523948586996384 -0.1971848975526613 0 0.09071066371140718 -0.20602988481688911 0 0.084523948586996384 -0.1971848975526613 0 0.09071066371140718 -0.20602988481688911 0 0.096830247115943194 -0.19504540124113881 0 0.084523948586996384 -0.1971848975526613 0 0.096830247115943194 -0.19504540124113881 0 0.084604223054476541 -0.1862526904276115 0 0.096830247115943194 -0.19504540124113881 0 0.094626556474964832 -0.18144418743899371 0 0.084604223054476541 -0.1862526904276115 0 0.087469023939224094 -0.22156086722575091 0 0.07627374039000763 -0.20371239648550901 0 0.09071066371140718 -0.20602988481688911 0 0.087469023939224094 -0.22156086722575091 0 0.10580628392156249 -0.20872979917766479 0 0.1089647703621341 -0.22000141455042921 0 0.087469023939224094 -0.22156086722575091 0 0.09071066371140718 -0.20602988481688911 0 0.10580628392156249 -0.20872979917766479 0 0.09071066371140718 -0.20602988481688911 0 0.10580628392156249 -0.20872979917766479 0 0.096830247115943194 -0.19504540124113881 0 0.096830247115943194 -0.19504540124113881 0 0.105472011792531 -0.18633735691431011 0 0.094626556474964832 -0.18144418743899371 0 0.10580628392156249 -0.20872979917766479 0 0.096830247115943194 -0.19504540124113881 0 0.110743004968013 -0.19738096115898099 0 0.096830247115943194 -0.19504540124113881 0 0.110743004968013 -0.19738096115898099 0 0.105472011792531 -0.18633735691431011 0 0.110743004968013 -0.19738096115898099 0 0.12231667521256109 -0.1880412671620785 0 0.105472011792531 -0.18633735691431011 0 0.10580628392156249 -0.20872979917766479 0 0.110743004968013 -0.19738096115898099 0 0.1221371923938749 -0.2018438141336171 0 0.110743004968013 -0.19738096115898099 0 0.1221371923938749 -0.2018438141336171 0 0.12231667521256109 -0.1880412671620785 0 0.10580628392156249 -0.20872979917766479 0 0.1221371923938749 -0.2018438141336171 0 0.1212988593254847 -0.2142063591558602 0 0.10580628392156249 -0.20872979917766479 0 0.1212988593254847 -0.2142063591558602 0 0.1089647703621341 -0.22000141455042921 0 0.1212988593254847 -0.2142063591558602 0 0.1180937675002493 -0.22424535816743801 0 0.1262666187287034 -0.22077884528595471 0 0.1180937675002493 -0.22424535816743801 0 0.1262666187287034 -0.22077884528595471 0 0.13025041077718519 -0.2280131466272067 0 0.1180937675002493 -0.22424535816743801 0 0.1121559171241498 -0.23126468902543171 0 0.13025041077718519 -0.2280131466272067 0 0.1212988593254847 -0.2142063591558602 0 0.1180937675002493 -0.22424535816743801 0 0.1089647703621341 -0.22000141455042921 0 0.1180937675002493 -0.22424535816743801 0 0.1121559171241498 -0.23126468902543171 0 0.1089647703621341 -0.22000141455042921 0 0.1180937675002493 -0.22424535816743801 0 0.1121559171241498 -0.23126468902543171 0 0.1208519130951949 -0.25967578265474978 0 0.1121559171241498 -0.23126468902543171 0 0.13997209545928421 -0.24219855728055359 0 0.1208519130951949 -0.25967578265474978 0 0.1121559171241498 -0.23126468902543171 0 0.09736421527863566 -0.24875045283389441 0 0.1121559171241498 -0.23126468902543171 0 0.09736421527863566 -0.24875045283389441 0 0.087469023939224094 -0.22156086722575091 0 0.1121559171241498 -0.23126468902543171 0 0.087469023939224094 -0.22156086722575091 0 0.1121559171241498 -0.23126468902543171 0 0.09736421527863566 -0.24875045283389441 0 0.087469023939224094 -0.22156086722575091 0 0.1121559171241498 -0.23126468902543171 0 0.1089647703621341 -0.22000141455042921 0 0.1017656046099361 -0.14285759524023561 0 0.1035702037753766 -0.16402729888182391 0 0.1017656046099361 -0.14285759524023561 0 0.1035702037753766 -0.16402729888182391 0 0.087666678014282948 -0.1499589337403657 0 0.1017656046099361 -0.14285759524023561 0 0.1139234463076481 -0.153202987128505 0 0.1035702037753766 -0.16402729888182391 0 0.1017656046099361 -0.14285759524023561 0 0.087666678014282948 -0.1499589337403657 0 0.092056255572648737 -0.1406088123182862 0 0.1017656046099361 -0.14285759524023561 0 0.095619837333231955 -0.13491242503267989 0 0.092056255572648737 -0.1406088123182862 0 0.1017656046099361 -0.14285759524023561 0 0.099961005444495502 -0.12168789159864719 0 0.1017656046099361 -0.14285759524023561 0 0.095619837333231955 -0.13491242503267989 0 0.099961005444495502 -0.12168789159864719 0 0.1017656046099361 -0.14285759524023561 0 0.1145263804941028 -0.128967240922847 0 0.099961005444495502 -0.12168789159864719 0 0.095619837333231955 -0.13491242503267989 0 0.093180028052593844 -0.12952414309760249 0 0.099961005444495502 -0.12168789159864719 0 0.1145263804941028 -0.128967240922847 0 0.121251820104277 -0.14271189394047279 0 0.13117736198413379 -0.12665691843031379 0 0.1017656046099361 -0.14285759524023561 0 0.1145263804941028 -0.128967240922847 0 0.121251820104277 -0.14271189394047279 0 0.121251820104277 -0.14271189394047279 0 0.1139234463076481 -0.153202987128505 0 0.12910615674100259 -0.1632151604514876 0 0.1017656046099361 -0.14285759524023561 0 0.121251820104277 -0.14271189394047279 0 0.1139234463076481 -0.153202987128505 0 0.1035702037753766 -0.16402729888182391 0 0.12910615674100259 -0.1632151604514876 0 0.12940385266922641 -0.1667074232744796 0 0.1035702037753766 -0.16402729888182391 0 0.12910615674100259 -0.1632151604514876 0 0.1041655956318242 -0.17101182452780811 0 0.12940385266922641 -0.1667074232744796 0 0.1139234463076481 -0.153202987128505 0 0.1035702037753766 -0.16402729888182391 0 0.12910615674100259 -0.1632151604514876 0 0.1035702037753766 -0.16402729888182391 0 0.1041655956318242 -0.17101182452780811 0 0.12940385266922641 -0.1667074232744796 0 0.12231667521256109 -0.1880412671620785 0 0.1153395338265357 -0.17802446796966889 0 0.105472011792531 -0.18633735691431011 0 0.1153395338265357 -0.17802446796966889 0 0.1041655956318242 -0.17101182452780811 0 0.12940385266922641 -0.1667074232744796 0 0.12231667521256109 -0.1880412671620785 0 0.1153395338265357 -0.17802446796966889 0 0.12940385266922641 -0.1667074232744796 0 0.105472011792531 -0.18633735691431011 0 0.1041655956318242 -0.17101182452780811 0 0.1153395338265357 -0.17802446796966889 0 0.105472011792531 -0.18633735691431011 0 0.1041655956318242 -0.17101182452780811 0 0.105472011792531 -0.18633735691431011 0 0.094626556474964832 -0.18144418743899371 0 0.1041655956318242 -0.17101182452780811 0 0.1035702037753766 -0.16402729888182391 0 0.1041655956318242 -0.17101182452780811 0 0.08209372514807517 -0.1747761964823662 0 0.1035702037753766 -0.16402729888182391 0 0.1041655956318242 -0.17101182452780811 0 0.1035702037753766 -0.16402729888182391 0 0.07894142819540885 -0.1648105856918991 0 0.087666678014282948 -0.1499589337403657 0 0.1035702037753766 -0.16402729888182391 0 0.07894142819540885 -0.1648105856918991 0 0.08209372514807517 -0.1747761964823662 0 0.1035702037753766 -0.16402729888182391 0 0.07894142819540885 -0.1648105856918991 0 0.094626556474964832 -0.18144418743899371 0 0.1041655956318242 -0.17101182452780811 0 0.08209372514807517 -0.1747761964823662 0 0.1041655956318242 -0.17101182452780811 0 0.08209372514807517 -0.1747761964823662 0 0.094626556474964832 -0.18144418743899371 0 0.08209372514807517 -0.1747761964823662 0 0.084604223054476541 -0.1862526904276115 0 0.07314042600564688 -0.1882311252049641 0 0.08209372514807517 -0.1747761964823662 0 0.084604223054476541 -0.1862526904276115 0 0.07894142819540885 -0.1648105856918991 0 0.08209372514807517 -0.1747761964823662 0 0.060021854664326177 -0.1785405684369249 0 0.05769121204082208 -0.1954525274858572 0 0.07314042600564688 -0.1882311252049641 0 0.060021854664326177 -0.1785405684369249 0 0.07314042600564688 -0.1882311252049641 0 0.08209372514807517 -0.1747761964823662 0 0.060021854664326177 -0.1785405684369249 0 0.08209372514807517 -0.1747761964823662 0 0.060021854664326177 -0.1785405684369249 0 0.07894142819540885 -0.1648105856918991 0 0.06628671875511484 -0.154501543929392 0 0.054312652615441097 -0.16559387250197319 0 0.07894142819540885 -0.1648105856918991 0 0.054312652615441097 -0.16559387250197319 0 0.07894142819540885 -0.1648105856918991 0 0.060021854664326177 -0.1785405684369249 0 0.054312652615441097 -0.16559387250197319 0 0.07894142819540885 -0.1648105856918991 0 0.06628671875511484 -0.154501543929392 0 0.076823387883065419 -0.1532012299036685 0 0.06628671875511484 -0.154501543929392 0 0.074398726567455054 -0.14353385625301729 0 0.062375890646362432 -0.14406104381856549 0 0.06628671875511484 -0.154501543929392 0 0.074398726567455054 -0.14353385625301729 0 0.076823387883065419 -0.1532012299036685 0 0.074398726567455054 -0.14353385625301729 0 0.076823387883065419 -0.1532012299036685 0 0.087666678014282948 -0.1499589337403657 0 0.07894142819540885 -0.1648105856918991 0 0.076823387883065419 -0.1532012299036685 0 0.087666678014282948 -0.1499589337403657 0 0.074398726567455054 -0.14353385625301729 0 0.087666678014282948 -0.1499589337403657 0 0.084780926663828221 -0.13871088051695951 0 0.087666678014282948 -0.1499589337403657 0 0.092056255572648737 -0.1406088123182862 0 0.084780926663828221 -0.13871088051695951 0 0.093180028052593844 -0.12952414309760249 0 0.084566277672836851 -0.13274394945208279 0 0.077551670074185175 -0.12697256784210889 0 0.093180028052593844 -0.12952414309760249 0 0.090267162361827469 -0.13574121236449591 0 0.084566277672836851 -0.13274394945208279 0 0.095619837333231955 -0.13491242503267989 0 0.093180028052593844 -0.12952414309760249 0 0.090267162361827469 -0.13574121236449591 0 0.095619837333231955 -0.13491242503267989 0 0.090267162361827469 -0.13574121236449591 0 0.092056255572648737 -0.1406088123182862 0 0.090267162361827469 -0.13574121236449591 0 0.092056255572648737 -0.1406088123182862 0 0.084780926663828221 -0.13871088051695951 0 0.090267162361827469 -0.13574121236449591 0 0.084780926663828221 -0.13871088051695951 0 0.084566277672836851 -0.13274394945208279 0 0.074398726567455054 -0.14353385625301729 0 0.084780926663828221 -0.13871088051695951 0 0.078054939978267804 -0.13452955258579041 0 0.084780926663828221 -0.13871088051695951 0 0.084566277672836851 -0.13274394945208279 0 0.078054939978267804 -0.13452955258579041 0 0.084566277672836851 -0.13274394945208279 0 0.077551670074185175 -0.12697256784210889 0 0.078054939978267804 -0.13452955258579041 0 0.077551670074185175 -0.12697256784210889 0 0.078054939978267804 -0.13452955258579041 0 0.068419627575096092 -0.13369924386383469 0 0.077551670074185175 -0.12697256784210889 0 0.068419627575096092 -0.13369924386383469 0 0.06729473245905529 -0.1182276396448243 0 0.074398726567455054 -0.14353385625301729 0 0.078054939978267804 -0.13452955258579041 0 0.068419627575096092 -0.13369924386383469 0 0.074398726567455054 -0.14353385625301729 0 0.068419627575096092 -0.13369924386383469 0 0.062375890646362432 -0.14406104381856549 0 0.068419627575096092 -0.13369924386383469 0 0.05128039156228005 -0.13590170362993759 0 0.06729473245905529 -0.1182276396448243 0 0.05128039156228005 -0.13590170362993759 0 0.06729473245905529 -0.1182276396448243 0 0.05128039156228005 -0.13590170362993759 0 0.049664052496257063 -0.1229689177336119 0 0.06729473245905529 -0.1182276396448243 0 0.068419627575096092 -0.13369924386383469 0 0.05128039156228005 -0.13590170362993759 0 0.062375890646362432 -0.14406104381856549 0 0.05128039156228005 -0.13590170362993759 0 0.062375890646362432 -0.14406104381856549 0 0.051493988771866027 -0.15266887141664601 0 0.06628671875511484 -0.154501543929392 0 0.062375890646362432 -0.14406104381856549 0 0.051493988771866027 -0.15266887141664601 0 0.05128039156228005 -0.13590170362993759 0 0.051493988771866027 -0.15266887141664601 0 0.035266050665501217 -0.15357576761504771 0 0.05128039156228005 -0.13590170362993759 0 0.035266050665501217 -0.15357576761504771 0 0.05128039156228005 -0.13590170362993759 0 0.035266050665501217 -0.15357576761504771 0 0.030599198566610031 -0.13729073163817521 0 0.05128039156228005 -0.13590170362993759 0 0.030599198566610031 -0.13729073163817521 0 0.049664052496257063 -0.1229689177336119 0 0.030599198566610031 -0.13729073163817521 0 0.049664052496257063 -0.1229689177336119 0 0.035277182687474103 -0.1189573710643667 0 0.05769121204082208 -0.1954525274858572 0 0.060021854664326177 -0.1785405684369249 0 0.037949984180577177 -0.18230494039148359 0 0.060021854664326177 -0.1785405684369249 0 0.037949984180577177 -0.18230494039148359 0 0.060021854664326177 -0.1785405684369249 0 0.054312652615441097 -0.16559387250197319 0 0.040571403361035541 -0.16756584874911079 0 0.06628671875511484 -0.154501543929392 0 0.051493988771866027 -0.15266887141664601 0 0.054312652615441097 -0.16559387250197319 0 0.051493988771866027 -0.15266887141664601 0 0.054312652615441097 -0.16559387250197319 0 0.040571403361035541 -0.16756584874911079 0 0.035266050665501217 -0.15357576761504771 0 0.040571403361035541 -0.16756584874911079 0 0.01925170976872239 -0.17124983160015769 0 0.051493988771866027 -0.15266887141664601 0 0.035266050665501217 -0.15357576761504771 0 0.040571403361035541 -0.16756584874911079 0 0.060021854664326177 -0.1785405684369249 0 0.040571403361035541 -0.16756584874911079 0 0.037949984180577177 -0.18230494039148359 0 0.040571403361035541 -0.16756584874911079 0 0.037949984180577177 -0.18230494039148359 0 0.01925170976872239 -0.17124983160015769 0 0.019753345640502538 -0.19174178037020631 0 0.037949984180577177 -0.18230494039148359 0 0.01925170976872239 -0.17124983160015769 0 0.019753345640502538 -0.19174178037020631 0 0.01925170976872239 -0.17124983160015769 0 0.01229516926355444 -0.18167223964580559 0 0.035266050665501217 -0.15357576761504771 0 0.01925170976872239 -0.17124983160015769 0 0.035266050665501217 -0.15357576761504771 0 0.020742998962235429 -0.15670380672626699 0 0.01925170976872239 -0.17124983160015769 0 0.020742998962235429 -0.15670380672626699 0 0.004516460578614578 -0.17184820094144029 0 0.0094105755256839122 -0.1480926995065347 0 0.020742998962235429 -0.15670380672626699 0 0.01925170976872239 -0.17124983160015769 0 0.004516460578614578 -0.17184820094144029 0 -0.0091268405377329317 -0.15790126591868739 0 0.004516460578614578 -0.17184820094144029 0 0.0094105755256839122 -0.1480926995065347 0 0.004516460578614578 -0.17184820094144029 0 0.0094105755256839122 -0.1480926995065347 0 -0.00037765436845475011 -0.19560370237634589 0 0.004516460578614578 -0.17184820094144029 0 -0.00037765436845475011 -0.19560370237634589 0 0.004516460578614578 -0.17184820094144029 0 0.01229516926355444 -0.18167223964580559 0 0.01925170976872239 -0.17124983160015769 0 0.004516460578614578 -0.17184820094144029 0 0.01229516926355444 -0.18167223964580559 0 0.030599198566610031 -0.13729073163817521 0 0.0094105755256839122 -0.1480926995065347 0 0.01430469047275292 -0.124337198071629 0 0.030599198566610031 -0.13729073163817521 0 0.01430469047275292 -0.124337198071629 0 0.035277182687474103 -0.1189573710643667 0 0.035266050665501217 -0.15357576761504771 0 0.020742998962235429 -0.15670380672626699 0 0.030599198566610031 -0.13729073163817521 0 0.020742998962235429 -0.15670380672626699 0 0.030599198566610031 -0.13729073163817521 0 0.0094105755256839122 -0.1480926995065347 0 -0.006255808653915158 -0.12961134133280849 0 0.0094105755256839122 -0.1480926995065347 0 0.01430469047275292 -0.124337198071629 0 0.0094105755256839122 -0.1480926995065347 0 0.01430469047275292 -0.124337198071629 0 -0.006255808653915158 -0.12961134133280849 0 0.01430469047275292 -0.124337198071629 0 -0.0065521411640195489 -0.1138300235372187 0 -0.006255808653915158 -0.12961134133280849 0 0.01430469047275292 -0.124337198071629 0 0.01430469047275292 -0.124337198071629 0 0.018628621842939459 -0.10334930567844811 0 0.0055003327058907071 -0.1083906823608586 0 -0.0065521411640195489 -0.1138300235372187 0 0.01430469047275292 -0.124337198071629 0 0.0055003327058907071 -0.1083906823608586 0 0.01430469047275292 -0.124337198071629 0 0.018628621842939459 -0.10334930567844811 0 0.035277182687474103 -0.1189573710643667 0 0.018628621842939459 -0.10334930567844811 0 0.035277182687474103 -0.1189573710643667 0 0.037439148372567413 -0.1084634248677761 0 0.01430469047275292 -0.124337198071629 0 0.018628621842939459 -0.10334930567844811 0 0.01430469047275292 -0.124337198071629 0 0.035277182687474103 -0.1189573710643667 0 0.018628621842939459 -0.10334930567844811 0 0.037439148372567413 -0.1084634248677761 0 0.018628621842939459 -0.10334930567844811 0 0.019830795918298321 -0.0975140835226741 0 0.038162929879743908 -0.1055143404192561 0 0.019830795918298321 -0.0975140835226741 0 0.038162929879743908 -0.1055143404192561 0 0.019830795918298321 -0.0975140835226741 0 0.038162929879743908 -0.1055143404192561 0 0.032085159196120802 -0.097374137609831671 0 0.019830795918298321 -0.0975140835226741 0 0.021629825244582679 -0.088781790921400178 0 0.032085159196120802 -0.097374137609831671 0 0.018628621842939459 -0.10334930567844811 0 0.019830795918298321 -0.0975140835226741 0 -0.0032681753368222072 -0.097396105460184401 0 0.018628621842939459 -0.10334930567844811 0 0.0011594143531981141 -0.089365776868953806 0 -0.0032681753368222072 -0.097396105460184401 0 0.018628621842939459 -0.10334930567844811 0 0.0055003327058907071 -0.1083906823608586 0 0.018628621842939459 -0.10334930567844811 0 0.019830795918298321 -0.0975140835226741 0 0.0011594143531981141 -0.089365776868953806 0 -0.0032681753368222072 -0.097396105460184401 0 0.018628621842939459 -0.10334930567844811 0 0.019830795918298321 -0.0975140835226741 0 0.0011594143531981141 -0.089365776868953806 0 0.01099990767544287 -0.089944902516057565 0 0.0011594143531981141 -0.089365776868953806 0 0.0048741855587916411 -0.086163403631125568 0 0.01099990767544287 -0.089944902516057565 0 0.019830795918298321 -0.0975140835226741 0 0.0011594143531981141 -0.089365776868953806 0 -0.0029772157873130208 -0.081715700578056397 0 0.0011594143531981141 -0.089365776868953806 0 0.0048741855587916411 -0.086163403631125568 0 0.0048741855587916411 -0.086163403631125568 0 0.002185648973446259 -0.076653208650150823 0 0.01267901692674215 -0.076305490266640991 0 -0.0029772157873130208 -0.081715700578056397 0 0.0048741855587916411 -0.086163403631125568 0 0.002185648973446259 -0.076653208650150823 0 0.0048741855587916411 -0.086163403631125568 0 0.01267901692674215 -0.076305490266640991 0 0.0048741855587916411 -0.086163403631125568 0 0.01306540098728603 -0.086154284073997223 0 0.01267901692674215 -0.076305490266640991 0 0.0048741855587916411 -0.086163403631125568 0 0.01306540098728603 -0.086154284073997223 0 0.01099990767544287 -0.089944902516057565 0 0.01306540098728603 -0.086154284073997223 0 0.01099990767544287 -0.089944902516057565 0 0.016069741559639909 -0.090526964483537781 0 -0.00013189539463332069 -0.062397079718219763 0 0.01267901692674215 -0.076305490266640991 0 0.01202426097766549 -0.057983746330002521 0 -0.00013189539463332069 -0.062397079718219763 0 0.01267901692674215 -0.076305490266640991 0 -0.00013189539463332069 -0.062397079718219763 0 0.002185648973446259 -0.076653208650150823 0 0.01267901692674215 -0.076305490266640991 0 0.01267901692674215 -0.076305490266640991 0 0.023323171294268041 -0.06286136230967837 0 0.01202426097766549 -0.057983746330002521 0 0.01267901692674215 -0.076305490266640991 0 0.023323171294268041 -0.06286136230967837 0 0.01267901692674215 -0.076305490266640991 0 0.02381433818298051 -0.073291228076092299 0 0.027983053133350429 -0.081680815201347359 0 0.01267901692674215 -0.076305490266640991 0 0.023323171294268041 -0.06286136230967837 0 0.02381433818298051 -0.073291228076092299 0 0.02381433818298051 -0.073291228076092299 0 0.027983053133350429 -0.081680815201347359 0 0.036102484733807207 -0.07871323560585454 0 0.023323171294268041 -0.06286136230967837 0 0.02381433818298051 -0.073291228076092299 0 0.038131932137544497 -0.069027440263210046 0 0.01267901692674215 -0.076305490266640991 0 0.021629825244582679 -0.088781790921400178 0 0.032085159196120802 -0.097374137609831671 0 0.01267901692674215 -0.076305490266640991 0 0.027983053133350429 -0.081680815201347359 0 0.032085159196120802 -0.097374137609831671 0 0.01267901692674215 -0.076305490266640991 0 0.032085159196120802 -0.097374137609831671 0 0.01306540098728603 -0.086154284073997223 0 0.021629825244582679 -0.088781790921400178 0 0.016069741559639909 -0.090526964483537781 0 0.019830795918298321 -0.0975140835226741 0 0.021629825244582679 -0.088781790921400178 0 0.016069741559639909 -0.090526964483537781 0 0.019830795918298321 -0.0975140835226741 0 0.01099990767544287 -0.089944902516057565 0 0.016069741559639909 -0.090526964483537781 0 0.019830795918298321 -0.0975140835226741 0 0.021629825244582679 -0.088781790921400178 0 0.01306540098728603 -0.086154284073997223 0 0.01267901692674215 -0.076305490266640991 0 0.021629825244582679 -0.088781790921400178 0 0.027983053133350429 -0.081680815201347359 0 0.037040548417206158 -0.087865078540872096 0 0.032085159196120802 -0.097374137609831671 0 0.037040548417206158 -0.087865078540872096 0 0.032085159196120802 -0.097374137609831671 0 0.043451495748791889 -0.095537587066828369 0 0.027983053133350429 -0.081680815201347359 0 0.037040548417206158 -0.087865078540872096 0 0.036102484733807207 -0.07871323560585454 0 0.037040548417206158 -0.087865078540872096 0 0.036102484733807207 -0.07871323560585454 0 0.044775877434871533 -0.085067032807546031 0 0.036102484733807207 -0.07871323560585454 0 0.044775877434871533 -0.085067032807546031 0 0.046933045064893313 -0.075441324862944484 0 0.037040548417206158 -0.087865078540872096 0 0.044775877434871533 -0.085067032807546031 0 0.043451495748791889 -0.095537587066828369 0 0.023323171294268041 -0.06286136230967837 0 0.038131932137544497 -0.069027440263210046 0 0.034249836304144438 -0.059571878974144343 0 0.02381433818298051 -0.073291228076092299 0 0.036102484733807207 -0.07871323560585454 0 0.038131932137544497 -0.069027440263210046 0 0.036102484733807207 -0.07871323560585454 0 0.038131932137544497 -0.069027440263210046 0 0.046933045064893313 -0.075441324862944484 0 0.038131932137544497 -0.069027440263210046 0 0.052800373945666723 -0.067280174290593825 0 0.046933045064893313 -0.075441324862944484 0 0.038131932137544497 -0.069027440263210046 0 0.052349274414971322 -0.058273431086664232 0 0.038131932137544497 -0.069027440263210046 0 0.052800373945666723 -0.067280174290593825 0 0.052349274414971322 -0.058273431086664232 0 0.046933045064893313 -0.075441324862944484 0 0.054973643421062951 -0.073108340495940602 0 0.05389409785262194 -0.081257950660414871 0 0.052800373945666723 -0.067280174290593825 0 0.046933045064893313 -0.075441324862944484 0 0.054973643421062951 -0.073108340495940602 0 0.061520594855873578 -0.076347379000701932 0 0.054973643421062951 -0.073108340495940602 0 0.060952774156679101 -0.068343560690115324 0 0.061520594855873578 -0.076347379000701932 0 0.054973643421062951 -0.073108340495940602 0 0.05389409785262194 -0.081257950660414871 0 0.052800373945666723 -0.067280174290593825 0 0.060952774156679101 -0.068343560690115324 0 0.063461574478849148 -0.059486948344688241 0 0.052800373945666723 -0.067280174290593825 0 0.054973643421062951 -0.073108340495940602 0 0.060952774156679101 -0.068343560690115324 0 0.044775877434871533 -0.085067032807546031 0 0.053010584964821902 -0.089959692198109759 0 0.043451495748791889 -0.095537587066828369 0 0.044775877434871533 -0.085067032807546031 0 0.046933045064893313 -0.075441324862944484 0 0.05389409785262194 -0.081257950660414871 0 0.044775877434871533 -0.085067032807546031 0 0.053010584964821902 -0.089959692198109759 0 0.05389409785262194 -0.081257950660414871 0 0.053010584964821902 -0.089959692198109759 0 0.05389409785262194 -0.081257950660414871 0 0.061462901594500637 -0.084888849622130502 0 0.061520594855873578 -0.076347379000701932 0 0.05389409785262194 -0.081257950660414871 0 0.061462901594500637 -0.084888849622130502 0 0.053010584964821902 -0.089959692198109759 0 0.061462901594500637 -0.084888849622130502 0 0.061531053782275927 -0.094251051718790252 0 0.053010584964821902 -0.089959692198109759 0 0.061531053782275927 -0.094251051718790252 0 0.053473899625842952 -0.098674013012410217 0 0.057283134799926749 -0.11385851636726541 0 0.038162929879743908 -0.1055143404192561 0 0.046393925854966843 -0.10338236550415079 0 0.061531053782275927 -0.094251051718790252 0 0.059282401436407513 -0.099492000139506334 0 0.053473899625842952 -0.098674013012410217 0 0.061531053782275927 -0.094251051718790252 0 0.059282401436407513 -0.099492000139506334 0 0.063655448418436691 -0.1031526609834184 0 0.059282401436407513 -0.099492000139506334 0 0.053473899625842952 -0.098674013012410217 0 0.057707628667700031 -0.1059674671212858 0 0.053473899625842952 -0.098674013012410217 0 0.043451495748791889 -0.095537587066828369 0 0.046393925854966843 -0.10338236550415079 0 0.053010584964821902 -0.089959692198109759 0 0.053473899625842952 -0.098674013012410217 0 0.043451495748791889 -0.095537587066828369 0 0.053517629497424751 -0.1053846107384214 0 0.057283134799926749 -0.11385851636726541 0 0.046393925854966843 -0.10338236550415079 0 0.053473899625842952 -0.098674013012410217 0 0.053517629497424751 -0.1053846107384214 0 0.046393925854966843 -0.10338236550415079 0 0.053517629497424751 -0.1053846107384214 0 0.057707628667700031 -0.1059674671212858 0 0.057283134799926749 -0.11385851636726541 0 0.053473899625842952 -0.098674013012410217 0 0.053517629497424751 -0.1053846107384214 0 0.057707628667700031 -0.1059674671212858 0 0.059282401436407513 -0.099492000139506334 0 0.057707628667700031 -0.1059674671212858 0 0.063655448418436691 -0.1031526609834184 0 0.057707628667700031 -0.1059674671212858 0 0.060784225145630782 -0.1092272285126536 0 0.063655448418436691 -0.1031526609834184 0 0.057283134799926749 -0.11385851636726541 0 0.06729473245905529 -0.1182276396448243 0 0.057283134799926749 -0.11385851636726541 0 0.038162929879743908 -0.1055143404192561 0 0.060784225145630782 -0.1092272285126536 0 0.057283134799926749 -0.11385851636726541 0 0.06729473245905529 -0.1182276396448243 0 0.057707628667700031 -0.1059674671212858 0 0.060784225145630782 -0.1092272285126536 0 0.057283134799926749 -0.11385851636726541 0 0.049664052496257063 -0.1229689177336119 0 0.057283134799926749 -0.11385851636726541 0 0.06729473245905529 -0.1182276396448243 0 0.057283134799926749 -0.11385851636726541 0 0.037439148372567413 -0.1084634248677761 0 0.049664052496257063 -0.1229689177336119 0 0.057283134799926749 -0.11385851636726541 0 0.035277182687474103 -0.1189573710643667 0 0.057283134799926749 -0.11385851636726541 0 0.035277182687474103 -0.1189573710643667 0 0.057283134799926749 -0.11385851636726541 0 0.035277182687474103 -0.1189573710643667 0 0.037439148372567413 -0.1084634248677761 0 0.018628621842939459 -0.10334930567844811 0 0.037439148372567413 -0.1084634248677761 0 0.038162929879743908 -0.1055143404192561 0 0.057283134799926749 -0.11385851636726541 0 0.037439148372567413 -0.1084634248677761 0 0.038162929879743908 -0.1055143404192561 0 0.038162929879743908 -0.1055143404192561 0 0.032085159196120802 -0.097374137609831671 0 0.043451495748791889 -0.095537587066828369 0 0.038162929879743908 -0.1055143404192561 0 0.043451495748791889 -0.095537587066828369 0 0.046393925854966843 -0.10338236550415079 0 0.021358438075749119 -0.01346850733666991 0 0.034046004365684841 -0.028273678694493789 0 0.037609040516515958 -0.002694215823619749 0 0.024746283423928109 0.012135358359482091 0 0.021358438075749119 -0.01346850733666991 0 0.037609040516515958 -0.002694215823619749 0 -0.0032704433637422889 -0.021708726878872899 0 0.0064513957917756229 0.0050175021511877811 0 -0.0032704433637422889 -0.021708726878872899 0 0.0064513957917756229 0.0050175021511877811 0 0.021358438075749119 -0.01346850733666991 0 -0.0032704433637422889 -0.021708726878872899 0 0.021358438075749119 -0.01346850733666991 0 0.012973912348864631 -0.030342788128586609 0 0.021358438075749119 -0.01346850733666991 0 0.024034592306862241 -0.03149707256717188 0 0.034046004365684841 -0.028273678694493789 0 0.021358438075749119 -0.01346850733666991 0 0.012973912348864631 -0.030342788128586609 0 0.024034592306862241 -0.03149707256717188 0 0.024034592306862241 -0.03149707256717188 0 0.031437665474670737 -0.037103903587571478 0 0.034046004365684841 -0.028273678694493789 0 0.024034592306862241 -0.03149707256717188 0 0.02598041271895242 -0.040912454545210322 0 0.031437665474670737 -0.037103903587571478 0 0.02598041271895242 -0.040912454545210322 0 0.033967325661793613 -0.049417234352715472 0 0.031437665474670737 -0.037103903587571478 0 0.02598041271895242 -0.040912454545210322 0 0.022101834992405232 -0.050108000167493109 0 0.033967325661793613 -0.049417234352715472 0 0.02598041271895242 -0.040912454545210322 0 0.018379681793196871 -0.039483369758389057 0 0.022101834992405232 -0.050108000167493109 0 0.018379681793196871 -0.039483369758389057 0 0.006807656598899833 -0.044556533383483428 0 0.022101834992405232 -0.050108000167493109 0 0.024034592306862241 -0.03149707256717188 0 0.02598041271895242 -0.040912454545210322 0 0.018379681793196871 -0.039483369758389057 0 0.012973912348864631 -0.030342788128586609 0 0.024034592306862241 -0.03149707256717188 0 0.018379681793196871 -0.039483369758389057 0 0.012973912348864631 -0.030342788128586609 0 0.018379681793196871 -0.039483369758389057 0 0.006807656598899833 -0.044556533383483428 0 -0.0032704433637422889 -0.021708726878872899 0 0.012973912348864631 -0.030342788128586609 0 0.006807656598899833 -0.044556533383483428 0 0.006807656598899833 -0.044556533383483428 0 0.01202426097766549 -0.057983746330002521 0 0.022101834992405232 -0.050108000167493109 0 -0.00013189539463332069 -0.062397079718219763 0 0.006807656598899833 -0.044556533383483428 0 0.01202426097766549 -0.057983746330002521 0 0.023323171294268041 -0.06286136230967837 0 0.01202426097766549 -0.057983746330002521 0 0.022101834992405232 -0.050108000167493109 0 0.023323171294268041 -0.06286136230967837 0 0.022101834992405232 -0.050108000167493109 0 0.033967325661793613 -0.049417234352715472 0 0.022101834992405232 -0.050108000167493109 0 0.033967325661793613 -0.049417234352715472 0 0.023323171294268041 -0.06286136230967837 0 0.033967325661793613 -0.049417234352715472 0 0.023323171294268041 -0.06286136230967837 0 0.034249836304144438 -0.059571878974144343 0 0.033967325661793613 -0.049417234352715472 0 0.033967325661793613 -0.049417234352715472 0 0.05026697117709579 -0.048468328131416903 0 0.033967325661793613 -0.049417234352715472 0 0.04157691612297159 -0.056981478970973477 0 0.05026697117709579 -0.048468328131416903 0 0.038131932137544497 -0.069027440263210046 0 0.034249836304144438 -0.059571878974144343 0 0.04157691612297159 -0.056981478970973477 0 0.034249836304144438 -0.059571878974144343 0 0.033967325661793613 -0.049417234352715472 0 0.04157691612297159 -0.056981478970973477 0 0.038131932137544497 -0.069027440263210046 0 0.04157691612297159 -0.056981478970973477 0 0.052349274414971322 -0.058273431086664232 0 0.052349274414971322 -0.058273431086664232 0 0.05026697117709579 -0.048468328131416903 0 0.066566616692397912 -0.047519421910118077 0 0.05026697117709579 -0.048468328131416903 0 0.066566616692397912 -0.047519421910118077 0 0.052349274414971322 -0.058273431086664232 0 0.066566616692397912 -0.047519421910118077 0 0.063461574478849148 -0.059486948344688241 0 0.052800373945666723 -0.067280174290593825 0 0.052349274414971322 -0.058273431086664232 0 0.063461574478849148 -0.059486948344688241 0 0.052349274414971322 -0.058273431086664232 0 0.066566616692397912 -0.047519421910118077 0 0.04157691612297159 -0.056981478970973477 0 0.052349274414971322 -0.058273431086664232 0 0.05026697117709579 -0.048468328131416903 0 0.05026697117709579 -0.048468328131416903 0 0.058022815244797951 -0.040592873266467933 0 0.066566616692397912 -0.047519421910118077 0 0.05026697117709579 -0.048468328131416903 0 0.048715619426201853 -0.041134343680760133 0 0.058022815244797951 -0.040592873266467933 0 0.058022815244797951 -0.040592873266467933 0 0.057428531409408609 -0.029150407499700558 0 0.063799811876805362 -0.024129556836538661 0 0.048715619426201853 -0.041134343680760133 0 0.058022815244797951 -0.040592873266467933 0 0.053219653169468938 -0.035478013086818777 0 0.058022815244797951 -0.040592873266467933 0 0.053219653169468938 -0.035478013086818777 0 0.057428531409408609 -0.029150407499700558 0 0.053219653169468938 -0.035478013086818777 0 0.047084140678495597 -0.032850005676439857 0 0.057428531409408609 -0.029150407499700558 0 0.048715619426201853 -0.041134343680760133 0 0.053219653169468938 -0.035478013086818777 0 0.047084140678495597 -0.032850005676439857 0 0.033967325661793613 -0.049417234352715472 0 0.05026697117709579 -0.048468328131416903 0 0.048715619426201853 -0.041134343680760133 0 0.033967325661793613 -0.049417234352715472 0 0.047084140678495597 -0.032850005676439857 0 0.033967325661793613 -0.049417234352715472 0 0.047084140678495597 -0.032850005676439857 0 0.039159992320060573 -0.035419077778265903 0 0.033967325661793613 -0.049417234352715472 0 0.048715619426201853 -0.041134343680760133 0 0.047084140678495597 -0.032850005676439857 0 0.033967325661793613 -0.049417234352715472 0 0.039159992320060573 -0.035419077778265903 0 0.031437665474670737 -0.037103903587571478 0 0.039159992320060573 -0.035419077778265903 0 0.031437665474670737 -0.037103903587571478 0 0.034046004365684841 -0.028273678694493789 0 0.034046004365684841 -0.028273678694493789 0 0.052292387754216393 -0.016941560454893069 0 0.037609040516515958 -0.002694215823619749 0 0.039159992320060573 -0.035419077778265903 0 0.034046004365684841 -0.028273678694493789 0 0.052292387754216393 -0.016941560454893069 0 0.047084140678495597 -0.032850005676439857 0 0.039159992320060573 -0.035419077778265903 0 0.052292387754216393 -0.016941560454893069 0 0.039159992320060573 -0.035419077778265903 0 0.052292387754216393 -0.016941560454893069 0 0.047084140678495597 -0.032850005676439857 0 0.060200955695197969 -0.01628277700016461 0 0.052292387754216393 -0.016941560454893069 0 0.047084140678495597 -0.032850005676439857 0 0.057428531409408609 -0.029150407499700558 0 0.060200955695197969 -0.01628277700016461 0 0.047084140678495597 -0.032850005676439857 0 0.060200955695197969 -0.01628277700016461 0 0.057428531409408609 -0.029150407499700558 0 0.060200955695197969 -0.01628277700016461 0 0.063799811876805362 -0.024129556836538661 0 0.065424783188372249 0.00153595686847981 0 0.052292387754216393 -0.016941560454893069 0 0.065424783188372249 0.00153595686847981 0 0.060200955695197969 -0.01628277700016461 0 0.052292387754216393 -0.016941560454893069 0 0.065424783188372249 0.00153595686847981 0 0.052292387754216393 -0.016941560454893069 0 0.051841861605487469 -0.0027158551788205791 0 0.052292387754216393 -0.016941560454893069 0 0.051841861605487469 -0.0027158551788205791 0 0.037609040516515958 -0.002694215823619749 0 0.034046004365684841 -0.028273678694493789 0 0.037609040516515958 -0.002694215823619749 0 0.090190712691382735 -0.002244999235090887 0 0.07410676396809035 -0.021418936250779411 0 0.088842684210436965 -0.017571912303406372 0 0.090190712691382735 -0.002244999235090887 0 0.075819305506104218 -0.0062473973239618903 0 0.07410676396809035 -0.021418936250779411 0 0.090190712691382735 -0.002244999235090887 0 0.07410676396809035 -0.021418936250779411 0 0.090190712691382735 -0.002244999235090887 0 0.088842684210436965 -0.017571912303406372 0 0.096600136089238633 -0.011282230784075579 0 0.080134274616143808 0.0040937821631618111 0 0.090190712691382735 -0.002244999235090887 0 0.075819305506104218 -0.0062473973239618903 0 0.065424783188372249 0.00153595686847981 0 0.080134274616143808 0.0040937821631618111 0 0.075819305506104218 -0.0062473973239618903 0 0.065424783188372249 0.00153595686847981 0 0.060200955695197969 -0.01628277700016461 0 0.069239993066531905 -0.01320279016558077 0 0.065424783188372249 0.00153595686847981 0 0.075819305506104218 -0.0062473973239618903 0 0.069239993066531905 -0.01320279016558077 0 0.075819305506104218 -0.0062473973239618903 0 0.069239993066531905 -0.01320279016558077 0 0.07410676396809035 -0.021418936250779411 0 0.058022815244797951 -0.040592873266467933 0 0.07410676396809035 -0.021418936250779411 0 0.063799811876805362 -0.024129556836538661 0 0.058022815244797951 -0.040592873266467933 0 0.07410676396809035 -0.021418936250779411 0 0.060200955695197969 -0.01628277700016461 0 0.069239993066531905 -0.01320279016558077 0 0.063799811876805362 -0.024129556836538661 0 0.069239993066531905 -0.01320279016558077 0 0.07410676396809035 -0.021418936250779411 0 0.063799811876805362 -0.024129556836538661 0 0.07410676396809035 -0.021418936250779411 0 0.083938255583524871 -0.034379500228453173 0 0.070658612872202833 -0.035977682913954728 0 0.088842684210436965 -0.017571912303406372 0 0.083938255583524871 -0.034379500228453173 0 0.1013098944746515 -0.02123957854678795 0 0.083938255583524871 -0.034379500228453173 0 0.1013098944746515 -0.02123957854678795 0 0.07410676396809035 -0.021418936250779411 0 0.088842684210436965 -0.017571912303406372 0 0.083938255583524871 -0.034379500228453173 0 0.08823929284268435 -0.046257717340413548 0 0.083938255583524871 -0.034379500228453173 0 0.066566616692397912 -0.047519421910118077 0 0.08823929284268435 -0.046257717340413548 0 0.083938255583524871 -0.034379500228453173 0 0.098504874234579071 -0.035822807074255753 0 0.083938255583524871 -0.034379500228453173 0 0.070658612872202833 -0.035977682913954728 0 0.066566616692397912 -0.047519421910118077 0 0.083938255583524871 -0.034379500228453173 0 0.066566616692397912 -0.047519421910118077 0 0.058022815244797951 -0.040592873266467933 0 0.07410676396809035 -0.021418936250779411 0 0.070658612872202833 -0.035977682913954728 0 0.058022815244797951 -0.040592873266467933 0 0.070658612872202833 -0.035977682913954728 0 0.066566616692397912 -0.047519421910118077 0 0.08823929284268435 -0.046257717340413548 0 0.066566616692397912 -0.047519421910118077 0 0.08823929284268435 -0.046257717340413548 0 0.066566616692397912 -0.047519421910118077 0 0.078309762657110635 -0.0579433375499658 0 0.066566616692397912 -0.047519421910118077 0 0.063461574478849148 -0.059486948344688241 0 0.078309762657110635 -0.0579433375499658 0 0.063461574478849148 -0.059486948344688241 0 0.078309762657110635 -0.0579433375499658 0 0.071265110550561714 -0.069759098189123792 0 0.08823929284268435 -0.046257717340413548 0 0.078309762657110635 -0.0579433375499658 0 0.099449543769593168 -0.058246566603929073 0 0.078309762657110635 -0.0579433375499658 0 0.099449543769593168 -0.058246566603929073 0 0.086561829374174448 -0.070494467407892544 0 0.08823929284268435 -0.046257717340413548 0 0.099449543769593168 -0.058246566603929073 0 0.1099119689929708 -0.044996012770709512 0 0.1099119689929708 -0.044996012770709512 0 0.13158464514325721 -0.043734308201003359 0 0.12592988142988951 -0.053515555559283563 0 0.099449543769593168 -0.058246566603929073 0 0.1099119689929708 -0.044996012770709512 0 0.12592988142988951 -0.053515555559283563 0 0.099449543769593168 -0.058246566603929073 0 0.1067840073689712 -0.074645704179486294 0 0.12592988142988951 -0.053515555559283563 0 0.1099119689929708 -0.044996012770709512 0 0.13158464514325721 -0.043734308201003359 0 0.1099119689929708 -0.044996012770709512 0 0.11658465197206409 -0.031461827184536308 0 0.13158464514325721 -0.043734308201003359 0 0.08823929284268435 -0.046257717340413548 0 0.1099119689929708 -0.044996012770709512 0 0.098504874234579071 -0.035822807074255753 0 0.1099119689929708 -0.044996012770709512 0 0.11658465197206409 -0.031461827184536308 0 0.098504874234579071 -0.035822807074255753 0 0.08823929284268435 -0.046257717340413548 0 0.1099119689929708 -0.044996012770709512 0 0.083938255583524871 -0.034379500228453173 0 0.098504874234579071 -0.035822807074255753 0 0.1013098944746515 -0.02123957854678795 0 0.11658465197206409 -0.031461827184536308 0 0.098504874234579071 -0.035822807074255753 0 0.1013098944746515 -0.02123957854678795 0 0.088842684210436965 -0.017571912303406372 0 0.1013098944746515 -0.02123957854678795 0 0.096600136089238633 -0.011282230784075579 0 0.11658465197206409 -0.031461827184536308 0 0.1013098944746515 -0.02123957854678795 0 0.1231084193729178 -0.017030089600476989 0 0.11658465197206409 -0.031461827184536308 0 0.1231084193729178 -0.017030089600476989 0 0.12581890553593969 -0.026161097869136039 0 0.11658465197206409 -0.031461827184536308 0 0.12581890553593969 -0.026161097869136039 0 0.13062696563361359 -0.033599875564541228 0 0.1013098944746515 -0.02123957854678795 0 0.1231084193729178 -0.017030089600476989 0 0.1186815333657793 -0.0080996568651242658 0 0.1013098944746515 -0.02123957854678795 0 0.1186815333657793 -0.0080996568651242658 0 0.1231084193729178 -0.017030089600476989 0 0.1186815333657793 -0.0080996568651242658 0 0.1231084193729178 -0.017030089600476989 0 0.1186815333657793 -0.0080996568651242658 0 0.12987870673538801 -0.009995887487841389 0 0.1112154668307228 0.0069617666460044213 0 0.1186815333657793 -0.0080996568651242658 0 0.1112154668307228 0.0069617666460044213 0 0.1186815333657793 -0.0080996568651242658 0 0.1054165138138201 -0.0048713011027633141 0 0.1013098944746515 -0.02123957854678795 0 0.1186815333657793 -0.0080996568651242658 0 0.1054165138138201 -0.0048713011027633141 0 0.1013098944746515 -0.02123957854678795 0 0.1054165138138201 -0.0048713011027633141 0 0.096600136089238633 -0.011282230784075579 0 0.090190712691382735 -0.002244999235090887 0 0.1054165138138201 -0.0048713011027633141 0 0.096600136089238633 -0.011282230784075579 0 0.1006728258854344 0.0067284981921742707 0 0.090190712691382735 -0.002244999235090887 0 0.1054165138138201 -0.0048713011027633141 0 0.087638133308052979 -0.095775852799689032 0 0.084085908736839604 -0.109987311143167 0 0.06729473245905529 -0.1182276396448243 0 0.087638133308052979 -0.095775852799689032 0 0.073190060918706251 -0.102528583137815 0 0.077787374420948616 -0.095506912627961349 0 0.087638133308052979 -0.095775852799689032 0 0.09093260219937227 -0.10463326807165731 0 0.098156406279054934 -0.1005181879570589 0 0.087638133308052979 -0.095775852799689032 0 0.09093260219937227 -0.10463326807165731 0 0.084085908736839604 -0.109987311143167 0 0.09093260219937227 -0.10463326807165731 0 0.089959973906702712 -0.1104777667105977 0 0.084085908736839604 -0.109987311143167 0 0.09093260219937227 -0.10463326807165731 0 0.089959973906702712 -0.1104777667105977 0 0.095093233242139308 -0.10803541618589579 0 0.093180028052593844 -0.12952414309760249 0 0.06729473245905529 -0.1182276396448243 0 0.089959973906702712 -0.1104777667105977 0 0.095093233242139308 -0.10803541618589579 0 0.094224226534726091 -0.1130764018675933 0 0.093180028052593844 -0.12952414309760249 0 0.093109250014256503 -0.12359875532379321 0 0.06729473245905529 -0.1182276396448243 0 0.08732234373138377 -0.11539269840410139 0 0.093109250014256503 -0.12359875532379321 0 0.06729473245905529 -0.1182276396448243 0 0.08732234373138377 -0.11539269840410139 0 0.084085908736839604 -0.109987311143167 0 0.06729473245905529 -0.1182276396448243 0 0.089959973906702712 -0.1104777667105977 0 0.08732234373138377 -0.11539269840410139 0 0.094224226534726091 -0.1130764018675933 0 0.093180028052593844 -0.12952414309760249 0 0.077551670074185175 -0.12697256784210889 0 0.06729473245905529 -0.1182276396448243 0 0.093109250014256503 -0.12359875532379321 0 0.06729473245905529 -0.1182276396448243 0 0.08732234373138377 -0.11539269840410139 0 0.093654206431215456 -0.1184389367985338 0 0.094224226534726091 -0.1130764018675933 0 0.089959973906702712 -0.1104777667105977 0 0.08732234373138377 -0.11539269840410139 0 0.084085908736839604 -0.109987311143167 0 0.08732234373138377 -0.11539269840410139 0 0.093109250014256503 -0.12359875532379321 0 0.093654206431215456 -0.1184389367985338 0 0.06729473245905529 -0.1182276396448243 0 0.06555221180334149 -0.1085412294097399 0 0.073190060918706251 -0.102528583137815 0 0.060784225145630782 -0.1092272285126536 0 0.06729473245905529 -0.1182276396448243 0 0.06555221180334149 -0.1085412294097399 0 0.087638133308052979 -0.095775852799689032 0 0.06729473245905529 -0.1182276396448243 0 0.073190060918706251 -0.102528583137815 0 0.087638133308052979 -0.095775852799689032 0 0.06729473245905529 -0.1182276396448243 0 0.060784225145630782 -0.1092272285126536 0 0.06555221180334149 -0.1085412294097399 0 0.063655448418436691 -0.1031526609834184 0 0.06555221180334149 -0.1085412294097399 0 0.063655448418436691 -0.1031526609834184 0 0.068114887854425654 -0.10380640396583191 0 0.063655448418436691 -0.1031526609834184 0 0.068114887854425654 -0.10380640396583191 0 0.068542385636517544 -0.10019424491227499 0 0.068114887854425654 -0.10380640396583191 0 0.073190060918706251 -0.102528583137815 0 0.068542385636517544 -0.10019424491227499 0 0.06555221180334149 -0.1085412294097399 0 0.068114887854425654 -0.10380640396583191 0 0.073190060918706251 -0.102528583137815 0 0.073190060918706251 -0.102528583137815 0 0.071948729166562211 -0.09470452405309604 0 0.068542385636517544 -0.10019424491227499 0 0.073190060918706251 -0.102528583137815 0 0.077787374420948616 -0.095506912627961349 0 0.071948729166562211 -0.09470452405309604 0 0.061531053782275927 -0.094251051718790252 0 0.071948729166562211 -0.09470452405309604 0 0.068542385636517544 -0.10019424491227499 0 0.061531053782275927 -0.094251051718790252 0 0.063655448418436691 -0.1031526609834184 0 0.068542385636517544 -0.10019424491227499 0 0.061462901594500637 -0.084888849622130502 0 0.061531053782275927 -0.094251051718790252 0 0.068319813684605282 -0.088494546816622721 0 0.061531053782275927 -0.094251051718790252 0 0.071948729166562211 -0.09470452405309604 0 0.068319813684605282 -0.088494546816622721 0 0.061462901594500637 -0.084888849622130502 0 0.068319813684605282 -0.088494546816622721 0 0.069803254229915263 -0.080418515587930964 0 0.061520594855873578 -0.076347379000701932 0 0.061462901594500637 -0.084888849622130502 0 0.069803254229915263 -0.080418515587930964 0 0.068319813684605282 -0.088494546816622721 0 0.069803254229915263 -0.080418515587930964 0 0.076853129649772381 -0.088209793101165862 0 0.069803254229915263 -0.080418515587930964 0 0.076853129649772381 -0.088209793101165862 0 0.078598399238624453 -0.078400788571160063 0 0.071948729166562211 -0.09470452405309604 0 0.068319813684605282 -0.088494546816622721 0 0.076853129649772381 -0.088209793101165862 0 0.077787374420948616 -0.095506912627961349 0 0.071948729166562211 -0.09470452405309604 0 0.076853129649772381 -0.088209793101165862 0 0.060952774156679101 -0.068343560690115324 0 0.063461574478849148 -0.059486948344688241 0 0.071265110550561714 -0.069759098189123792 0 0.061520594855873578 -0.076347379000701932 0 0.060952774156679101 -0.068343560690115324 0 0.071265110550561714 -0.069759098189123792 0 0.061520594855873578 -0.076347379000701932 0 0.069803254229915263 -0.080418515587930964 0 0.071265110550561714 -0.069759098189123792 0 0.069803254229915263 -0.080418515587930964 0 0.071265110550561714 -0.069759098189123792 0 0.078598399238624453 -0.078400788571160063 0 0.086561829374174448 -0.070494467407892544 0 0.08739815184253541 -0.081652298244406799 0 0.1067840073689712 -0.074645704179486294 0 0.078309762657110635 -0.0579433375499658 0 0.071265110550561714 -0.069759098189123792 0 0.086561829374174448 -0.070494467407892544 0 0.071265110550561714 -0.069759098189123792 0 0.086561829374174448 -0.070494467407892544 0 0.078598399238624453 -0.078400788571160063 0 0.086561829374174448 -0.070494467407892544 0 0.078598399238624453 -0.078400788571160063 0 0.08739815184253541 -0.081652298244406799 0 0.087638133308052979 -0.095775852799689032 0 0.076853129649772381 -0.088209793101165862 0 0.08739815184253541 -0.081652298244406799 0 0.087638133308052979 -0.095775852799689032 0 0.077787374420948616 -0.095506912627961349 0 0.076853129649772381 -0.088209793101165862 0 0.076853129649772381 -0.088209793101165862 0 0.078598399238624453 -0.078400788571160063 0 0.08739815184253541 -0.081652298244406799 0 0.087638133308052979 -0.095775852799689032 0 0.1067840073689712 -0.074645704179486294 0 0.087638133308052979 -0.095775852799689032 0 0.08739815184253541 -0.081652298244406799 0 0.1067840073689712 -0.074645704179486294 0 0.1067840073689712 -0.074645704179486294 0 0.1125984847406882 -0.090142375741801145 0 0.098156406279054934 -0.1005181879570589 0 0.087638133308052979 -0.095775852799689032 0 0.1067840073689712 -0.074645704179486294 0 0.098156406279054934 -0.1005181879570589 0 0.099449543769593168 -0.058246566603929073 0 0.086561829374174448 -0.070494467407892544 0 0.1067840073689712 -0.074645704179486294 0 0.1067840073689712 -0.074645704179486294 0 0.12592988142988951 -0.053515555559283563 0 0.1067840073689712 -0.074645704179486294 0 0.13438426325014971 -0.07336065065316362 0 0.12592988142988951 -0.053515555559283563 0 0.1067840073689712 -0.074645704179486294 0 0.1125984847406882 -0.090142375741801145 0 0.13438426325014971 -0.07336065065316362 0 0.1125984847406882 -0.090142375741801145 0 0.1202838760541025 -0.10172477634153999 0 0.13438426325014971 -0.07336065065316362 0 0.1125984847406882 -0.090142375741801145 0 0.1202838760541025 -0.10172477634153999 0 0.10338387075116259 -0.1004625595777569 0 0.1202838760541025 -0.10172477634153999 0 0.10338387075116259 -0.1004625595777569 0 0.1058014173859827 -0.1073933575306157 0 0.1202838760541025 -0.10172477634153999 0 0.10338387075116259 -0.1004625595777569 0 0.1202838760541025 -0.10172477634153999 0 0.1058014173859827 -0.1073933575306157 0 0.1126701278508699 -0.1123334419039958 0 0.1125984847406882 -0.090142375741801145 0 0.10338387075116259 -0.1004625595777569 0 0.098156406279054934 -0.1005181879570589 0 0.1058014173859827 -0.1073933575306157 0 0.098156406279054934 -0.1005181879570589 0 0.1043885114258833 -0.1158260152552439 0 0.10338387075116259 -0.1004625595777569 0 0.1058014173859827 -0.1073933575306157 0 0.098156406279054934 -0.1005181879570589 0 0.09093260219937227 -0.10463326807165731 0 0.095093233242139308 -0.10803541618589579 0 0.098156406279054934 -0.1005181879570589 0 0.098156406279054934 -0.1005181879570589 0 0.099961005444495502 -0.12168789159864719 0 0.1043885114258833 -0.1158260152552439 0 0.095093233242139308 -0.10803541618589579 0 0.098156406279054934 -0.1005181879570589 0 0.099961005444495502 -0.12168789159864719 0 0.098156406279054934 -0.1005181879570589 0 0.099961005444495502 -0.12168789159864719 0 0.093654206431215456 -0.1184389367985338 0 0.099961005444495502 -0.12168789159864719 0 0.094224226534726091 -0.1130764018675933 0 0.093180028052593844 -0.12952414309760249 0 0.093109250014256503 -0.12359875532379321 0 0.099961005444495502 -0.12168789159864719 0 0.093109250014256503 -0.12359875532379321 0 0.093654206431215456 -0.1184389367985338 0 0.099961005444495502 -0.12168789159864719 0 0.095093233242139308 -0.10803541618589579 0 0.099961005444495502 -0.12168789159864719 0 0.094224226534726091 -0.1130764018675933 0 0.1058014173859827 -0.1073933575306157 0 0.1043885114258833 -0.1158260152552439 0 0.1126701278508699 -0.1123334419039958 0 0.1043885114258833 -0.1158260152552439 0 0.1096503773773204 -0.12075330089597421 0 0.1126701278508699 -0.1123334419039958 0 0.099961005444495502 -0.12168789159864719 0 0.1043885114258833 -0.1158260152552439 0 0.1096503773773204 -0.12075330089597421 0 0.1145263804941028 -0.128967240922847 0 0.099961005444495502 -0.12168789159864719 0 0.1096503773773204 -0.12075330089597421 0 0.1145263804941028 -0.128967240922847 0 0.1249384234705134 -0.11453697773573129 0 0.13117736198413379 -0.12665691843031379 0 0.1145263804941028 -0.128967240922847 0 0.1096503773773204 -0.12075330089597421 0 0.1249384234705134 -0.11453697773573129 0 0.1096503773773204 -0.12075330089597421 0 0.1126701278508699 -0.1123334419039958 0 0.1249384234705134 -0.11453697773573129 0 0.1202838760541025 -0.10172477634153999 0 0.1126701278508699 -0.1123334419039958 0 0.1249384234705134 -0.11453697773573129 0 0.1249384234705134 -0.11453697773573129 0 0.1378670318921674 -0.110216283289641 0 0.13117736198413379 -0.12665691843031379 0 0.1378670318921674 -0.110216283289641 0 0.14685392222748619 -0.11323629758967579 0 0.13117736198413379 -0.12665691843031379 0 0.14685392222748619 -0.11323629758967579 0 0.16012322209323671 -0.12189297383967621 0 0.13117736198413379 -0.12665691843031379 0 0.16012322209323671 -0.12189297383967621 0 0.13117736198413379 -0.12665691843031379 0 0.14685392222748619 -0.11323629758967579 0 0.16012322209323671 -0.12189297383967621 0 0.1605201994492747 -0.1047299210732726 0 0.1561244935268207 -0.102173379736565 0 0.1371838813570424 -0.102986993105324 0 0.1605201994492747 -0.1047299210732726 0 0.1371838813570424 -0.102986993105324 0 0.1605201994492747 -0.1047299210732726 0 0.14685392222748619 -0.11323629758967579 0 0.1371838813570424 -0.102986993105324 0 0.1605201994492747 -0.1047299210732726 0 0.1561244935268207 -0.102173379736565 0 0.1371838813570424 -0.102986993105324 0 0.14932678126667381 -0.092557655400931971 0 0.1378670318921674 -0.110216283289641 0 0.14685392222748619 -0.11323629758967579 0 0.1371838813570424 -0.102986993105324 0 0.1202838760541025 -0.10172477634153999 0 0.1371838813570424 -0.102986993105324 0 0.1202838760541025 -0.10172477634153999 0 0.1249384234705134 -0.11453697773573129 0 0.1371838813570424 -0.102986993105324 0 0.1249384234705134 -0.11453697773573129 0 0.1378670318921674 -0.110216283289641 0 0.1371838813570424 -0.102986993105324 0 0.1378670318921674 -0.110216283289641 0 0.1371838813570424 -0.102986993105324 0 0.1371838813570424 -0.102986993105324 0 0.13438426325014971 -0.07336065065316362 0 0.14562239676259611 -0.079819981743459723 0 0.1371838813570424 -0.102986993105324 0 0.13438426325014971 -0.07336065065316362 0 0.1202838760541025 -0.10172477634153999 0 0.1371838813570424 -0.102986993105324 0 0.13438426325014971 -0.07336065065316362 0 0.14562239676259611 -0.079819981743459723 0 0.14362585268346381 -0.060626396971378733 0 0.15281031609849599 -0.0624540575125207 0 0.14562239676259611 -0.079819981743459723 0 0.16062821331365229 -0.068327154300193468 0 0.15281031609849599 -0.0624540575125207 0 0.14562239676259611 -0.079819981743459723 0 0.15837635342023629 -0.085250267018379206 0 0.16062821331365229 -0.068327154300193468 0 0.13438426325014971 -0.07336065065316362 0 0.14562239676259611 -0.079819981743459723 0 0.14362585268346381 -0.060626396971378733 0 0.14562239676259611 -0.079819981743459723 0 0.16062821331365229 -0.068327154300193468 0 0.1371838813570424 -0.102986993105324 0 0.14562239676259611 -0.079819981743459723 0 0.14932678126667381 -0.092557655400931971 0 0.1561244935268207 -0.102173379736565 0 0.14932678126667381 -0.092557655400931971 0 0.15837635342023629 -0.085250267018379206 0 0.14562239676259611 -0.079819981743459723 0 0.14932678126667381 -0.092557655400931971 0 0.15837635342023629 -0.085250267018379206 0 0.15837635342023629 -0.085250267018379206 0 0.16062821331365229 -0.068327154300193468 0 0.17390425222357239 -0.08612717668903562 0 0.1561244935268207 -0.102173379736565 0 0.15837635342023629 -0.085250267018379206 0 0.15837635342023629 -0.085250267018379206 0 0.17390425222357239 -0.08612717668903562 0 0.16350312971636 -0.094543834523885525 0 0.16395198690564089 -0.065781504336845459 0 0.16062821331365229 -0.068327154300193468 0 0.17390425222357239 -0.08612717668903562 0 0.15837635342023629 -0.085250267018379206 0 0.16062821331365229 -0.068327154300193468 0 0.16395198690564089 -0.065781504336845459 0 0.17390425222357239 -0.08612717668903562 0 0.16062821331365229 -0.068327154300193468 0 0.15281031609849599 -0.0624540575125207 0 0.16160530718495339 -0.060984126535175778 0 0.16395198690564089 -0.065781504336845459 0 0.16062821331365229 -0.068327154300193468 0 0.16160530718495339 -0.060984126535175778 0 0.16395198690564089 -0.065781504336845459 0 0.16160530718495339 -0.060984126535175778 0 0.16062821331365229 -0.068327154300193468 0 0.16160530718495339 -0.060984126535175778 0 0.16395198690564089 -0.065781504336845459 0 0.16062821331365229 -0.068327154300193468 0 0.16395198690564089 -0.065781504336845459 0 0.1848490297697328 -0.070094395614981 0 0.17390425222357239 -0.08612717668903562 0 0.1848490297697328 -0.070094395614981 0 0.17390425222357239 -0.08612717668903562 0 0.1963711083878964 -0.091889512955056457 0 0.18385651754150681 -0.10647284904122439 0 0.17339225532158919 -0.1125561933008031 0 0.1605201994492747 -0.1047299210732726 0 0.17390425222357239 -0.08612717668903562 0 0.18385651754150681 -0.10647284904122439 0 0.1963711083878964 -0.091889512955056457 0 0.18385651754150681 -0.10647284904122439 0 0.1605201994492747 -0.1047299210732726 0 0.17390425222357239 -0.08612717668903562 0 0.18385651754150681 -0.10647284904122439 0 0.16350312971636 -0.094543834523885525 0 0.17390425222357239 -0.08612717668903562 0 0.18385651754150681 -0.10647284904122439 0 0.16012322209323671 -0.12189297383967621 0 0.1890690822023397 -0.1171290292490392 0 0.18385651754150681 -0.10647284904122439 0 0.17339225532158919 -0.1125561933008031 0 0.1890690822023397 -0.1171290292490392 0 0.18385651754150681 -0.10647284904122439 0 0.1890690822023397 -0.1171290292490392 0 0.16012322209323671 -0.12189297383967621 0 0.1890690822023397 -0.1171290292490392 0 0.17676988930472851 -0.1327186890943779 0 0.17339225532158919 -0.1125561933008031 0 0.16012322209323671 -0.12189297383967621 0 0.1890690822023397 -0.1171290292490392 0 0.17339225532158919 -0.1125561933008031 0 0.16012322209323671 -0.12189297383967621 0 0.1605201994492747 -0.1047299210732726 0 0.18385651754150681 -0.10647284904122439 0 0.1605201994492747 -0.1047299210732726 0 0.16350312971636 -0.094543834523885525 0 0.1561244935268207 -0.102173379736565 0 0.15837635342023629 -0.085250267018379206 0 0.16350312971636 -0.094543834523885525 0 0.1561244935268207 -0.102173379736565 0 0.1605201994492747 -0.1047299210732726 0 0.16350312971636 -0.094543834523885525 0 0.1499659599275856 -0.0028357427761619 0 0.15620695430303139 -0.014746089308780059 0 0.13782322314636389 -0.01236579952680261 0 0.1394184874939306 0.0075857919787062364 0 0.1499659599275856 -0.0028357427761619 0 0.13782322314636389 -0.01236579952680261 0 0.1394184874939306 0.0075857919787062364 0 0.1186815333657793 -0.0080996568651242658 0 0.12987870673538801 -0.009995887487841389 0 0.1394184874939306 0.0075857919787062364 0 0.12987870673538801 -0.009995887487841389 0 0.13782322314636389 -0.01236579952680261 0 0.1394184874939306 0.0075857919787062364 0 0.1186815333657793 -0.0080996568651242658 0 0.12987870673538801 -0.009995887487841389 0 0.13782322314636389 -0.01236579952680261 0 0.1329555851651634 -0.022552599126989651 0 0.13782322314636389 -0.01236579952680261 0 0.1329555851651634 -0.022552599126989651 0 0.14519651684708981 -0.02743921376959927 0 0.1231084193729178 -0.017030089600476989 0 0.12987870673538801 -0.009995887487841389 0 0.1329555851651634 -0.022552599126989651 0 0.1231084193729178 -0.017030089600476989 0 0.1329555851651634 -0.022552599126989651 0 0.12581890553593969 -0.026161097869136039 0 0.1329555851651634 -0.022552599126989651 0 0.12581890553593969 -0.026161097869136039 0 0.13062696563361359 -0.033599875564541228 0 0.1329555851651634 -0.022552599126989651 0 0.14519651684708981 -0.02743921376959927 0 0.13062696563361359 -0.033599875564541228 0 0.15620695430303139 -0.014746089308780059 0 0.14519651684708981 -0.02743921376959927 0 0.15686858372827389 -0.030572980715218821 0 0.15620695430303139 -0.014746089308780059 0 0.13782322314636389 -0.01236579952680261 0 0.14519651684708981 -0.02743921376959927 0 0.13782322314636389 -0.01236579952680261 0 0.14519651684708981 -0.02743921376959927 0 0.15256981054781521 -0.042512628012396102 0 0.13158464514325721 -0.043734308201003359 0 0.15256981054781521 -0.042512628012396102 0 0.139994484542944 -0.036821506386885819 0 0.13158464514325721 -0.043734308201003359 0 0.14519651684708981 -0.02743921376959927 0 0.15256981054781521 -0.042512628012396102 0 0.14519651684708981 -0.02743921376959927 0 0.15256981054781521 -0.042512628012396102 0 0.15686858372827389 -0.030572980715218821 0 0.14519651684708981 -0.02743921376959927 0 0.15256981054781521 -0.042512628012396102 0 0.139994484542944 -0.036821506386885819 0 0.139994484542944 -0.036821506386885819 0 0.13062696563361359 -0.033599875564541228 0 0.13158464514325721 -0.043734308201003359 0 0.14519651684708981 -0.02743921376959927 0 0.139994484542944 -0.036821506386885819 0 0.13062696563361359 -0.033599875564541228 0 0.13062696563361359 -0.033599875564541228 0 0.13158464514325721 -0.043734308201003359 0 0.11658465197206409 -0.031461827184536308 0 0.13062696563361359 -0.033599875564541228 0 0.13158464514325721 -0.043734308201003359 0 0.13438426325014971 -0.07336065065316362 0 0.13158464514325721 -0.043734308201003359 0 0.14362585268346381 -0.060626396971378733 0 0.13438426325014971 -0.07336065065316362 0 0.13158464514325721 -0.043734308201003359 0 0.13438426325014971 -0.07336065065316362 0 0.13158464514325721 -0.043734308201003359 0 0.12592988142988951 -0.053515555559283563 0 0.15256981054781521 -0.042512628012396102 0 0.14362585268346381 -0.060626396971378733 0 0.15281031609849599 -0.0624540575125207 0 0.15256981054781521 -0.042512628012396102 0 0.15281031609849599 -0.0624540575125207 0 0.16160530718495339 -0.060984126535175778 0 0.15256981054781521 -0.042512628012396102 0 0.13158464514325721 -0.043734308201003359 0 0.14362585268346381 -0.060626396971378733 0 0.15256981054781521 -0.042512628012396102 0 0.16160530718495339 -0.060984126535175778 0 0.16160530718495339 -0.060984126535175778 0 0.1713756795348568 -0.052541801431533842 0 0.16415293053476729 -0.041838300794216417 0 0.16160530718495339 -0.060984126535175778 0 0.16415293053476729 -0.041838300794216417 0 0.15256981054781521 -0.042512628012396102 0 0.16160530718495339 -0.060984126535175778 0 0.16415293053476729 -0.041838300794216417 0 0.16395198690564089 -0.065781504336845459 0 0.16160530718495339 -0.060984126535175778 0 0.1713756795348568 -0.052541801431533842 0 0.16395198690564089 -0.065781504336845459 0 0.1841007662380012 -0.050349725381574832 0 0.16395198690564089 -0.065781504336845459 0 0.1713756795348568 -0.052541801431533842 0 0.1841007662380012 -0.050349725381574832 0 0.16395198690564089 -0.065781504336845459 0 0.1848490297697328 -0.070094395614981 0 0.1841007662380012 -0.050349725381574832 0 0.1713756795348568 -0.052541801431533842 0 0.1841007662380012 -0.050349725381574832 0 0.17774143231709641 -0.041047227524108117 0 0.1841007662380012 -0.050349725381574832 0 0.17774143231709641 -0.041047227524108117 0 0.18882084081925471 -0.03525687123266262 0 0.17774143231709641 -0.041047227524108117 0 0.17964367483989521 -0.02954813549999508 0 0.18882084081925471 -0.03525687123266262 0 0.17774143231709641 -0.041047227524108117 0 0.17171038183293769 -0.03489957152688352 0 0.17964367483989521 -0.02954813549999508 0 0.16415293053476729 -0.041838300794216417 0 0.1662167064086659 -0.026328671691101029 0 0.17171038183293769 -0.03489957152688352 0 0.16415293053476729 -0.041838300794216417 0 0.1662167064086659 -0.026328671691101029 0 0.17774143231709641 -0.041047227524108117 0 0.17171038183293769 -0.03489957152688352 0 0.16415293053476729 -0.041838300794216417 0 0.1713756795348568 -0.052541801431533842 0 0.17774143231709641 -0.041047227524108117 0 0.16415293053476729 -0.041838300794216417 0 0.17774143231709641 -0.041047227524108117 0 0.16415293053476729 -0.041838300794216417 0 0.15256981054781521 -0.042512628012396102 0 0.16415293053476729 -0.041838300794216417 0 0.16415293053476729 -0.041838300794216417 0 0.15686858372827389 -0.030572980715218821 0 0.1662167064086659 -0.026328671691101029 0 0.15256981054781521 -0.042512628012396102 0 0.16415293053476729 -0.041838300794216417 0 0.15686858372827389 -0.030572980715218821 0 0.15620695430303139 -0.014746089308780059 0 0.15686858372827389 -0.030572980715218821 0 0.1662167064086659 -0.026328671691101029 0 0.15620695430303139 -0.014746089308780059 0 0.1662167064086659 -0.026328671691101029 0 0.17365852882115621 -0.0099512103645301598 0 0.17964367483989521 -0.02954813549999508 0 0.19001648481368241 -0.019370424709481169 0 0.18882084081925471 -0.03525687123266262 0 0.17171038183293769 -0.03489957152688352 0 0.1662167064086659 -0.026328671691101029 0 0.17964367483989521 -0.02954813549999508 0 0.17964367483989521 -0.02954813549999508 0 0.17365852882115621 -0.0099512103645301598 0 0.19001648481368241 -0.019370424709481169 0 0.1662167064086659 -0.026328671691101029 0 0.17964367483989521 -0.02954813549999508 0 0.17365852882115621 -0.0099512103645301598 0 0.193411862040101 0.0087804595257519359 0 0.17365852882115621 -0.0099512103645301598 0 0.19001648481368241 -0.019370424709481169 0 0.1664151747670157 0.0081831257522299462 0 0.15620695430303139 -0.014746089308780059 0 0.17365852882115621 -0.0099512103645301598 0 0.1664151747670157 0.0081831257522299462 0 0.1499659599275856 -0.0028357427761619 0 0.15620695430303139 -0.014746089308780059 0 0.22040854931318621 0.0093777932992746577 0 0.20649695332801041 -0.011123257156358399 0 0.2243983249027213 -0.01948616747103284 0 0.193411862040101 0.0087804595257519359 0 0.20649695332801041 -0.011123257156358399 0 0.19001648481368241 -0.019370424709481169 0 0.19001648481368241 -0.019370424709481169 0 0.20424954557036121 -0.034917946426303879 0 0.18882084081925471 -0.03525687123266262 0 0.20649695332801041 -0.011123257156358399 0 0.19001648481368241 -0.019370424709481169 0 0.20424954557036121 -0.034917946426303879 0 0.20649695332801041 -0.011123257156358399 0 0.20424954557036121 -0.034917946426303879 0 0.2243983249027213 -0.01948616747103284 0 0.20424954557036121 -0.034917946426303879 0 0.22500998443226031 -0.039144816089367998 0 0.2243983249027213 -0.01948616747103284 0 0.20424954557036121 -0.034917946426303879 0 0.2243983249027213 -0.01948616747103284 0 0.20424954557036121 -0.034917946426303879 0 0.21945389410262789 -0.055982382971954812 0 0.22500998443226031 -0.039144816089367998 0 0.1841007662380012 -0.050349725381574832 0 0.20424954557036121 -0.034917946426303879 0 0.1841007662380012 -0.050349725381574832 0 0.20424954557036121 -0.034917946426303879 0 0.18882084081925471 -0.03525687123266262 0 0.1841007662380012 -0.050349725381574832 0 0.20424954557036121 -0.034917946426303879 0 0.20107375906444741 -0.057706347196407937 0 0.1848490297697328 -0.070094395614981 0 0.1841007662380012 -0.050349725381574832 0 0.20107375906444741 -0.057706347196407937 0 0.20107375906444741 -0.057706347196407937 0 0.21945389410262789 -0.055982382971954812 0 0.2178769706980917 -0.071860039491261449 0 0.20424954557036121 -0.034917946426303879 0 0.20107375906444741 -0.057706347196407937 0 0.21945389410262789 -0.055982382971954812 0 0.21945389410262789 -0.055982382971954812 0 0.23954444061722649 -0.049417082736679128 0 0.22500998443226031 -0.039144816089367998 0 0.21945389410262789 -0.055982382971954812 0 0.23954444061722649 -0.049417082736679128 0 0.23497048707199361 -0.065430103551947436 0 0.25726925547570079 -0.051347076797932878 0 0.23954444061722649 -0.049417082736679128 0 0.2489147091691396 -0.061047690623056629 0 0.23954444061722649 -0.049417082736679128 0 0.2489147091691396 -0.061047690623056629 0 0.23497048707199361 -0.065430103551947436 0 0.25726925547570079 -0.051347076797932878 0 0.25104537145499961 -0.037501163253547333 0 0.23954444061722649 -0.049417082736679128 0 0.25104537145499961 -0.037501163253547333 0 0.23954444061722649 -0.049417082736679128 0 0.23729256234363871 -0.033734339859473363 0 0.25104537145499961 -0.037501163253547333 0 0.23729256234363871 -0.033734339859473363 0 0.24646469031098589 -0.02312246974673951 0 0.23954444061722649 -0.049417082736679128 0 0.23729256234363871 -0.033734339859473363 0 0.22500998443226031 -0.039144816089367998 0 0.23729256234363871 -0.033734339859473363 0 0.22500998443226031 -0.039144816089367998 0 0.2243983249027213 -0.01948616747103284 0 0.23729256234363871 -0.033734339859473363 0 0.2243983249027213 -0.01948616747103284 0 0.24646469031098589 -0.02312246974673951 0 0.2243983249027213 -0.01948616747103284 0 0.24454710423508169 -0.0040543885157620588 0 0.24646469031098589 -0.02312246974673951 0 0.24986078142061541 -0.0070112464674283144 0 0.24454710423508169 -0.0040543885157620588 0 0.2243983249027213 -0.01948616747103284 0 0.24646469031098589 -0.02312246974673951 0 0.24454710423508169 -0.0040543885157620588 0 0.24986078142061541 -0.0070112464674283144 0 0.24454710423508169 -0.0040543885157620588 0 0.22040854931318621 0.0093777932992746577 0 0.2243983249027213 -0.01948616747103284 0 0.24454710423508169 -0.0040543885157620588 0 0.20791749343059771 -0.1082698997862245 0 0.1963711083878964 -0.091889512955056457 0 0.2165574899412904 -0.088059105932164206 0 0.20791749343059771 -0.1082698997862245 0 0.2165574899412904 -0.088059105932164206 0 0.22236958319249031 -0.099957695899208845 0 0.20791749343059771 -0.1082698997862245 0 0.21052377576101411 -0.11359798989013239 0 0.23197846931968849 -0.1100669505312265 0 0.21052377576101411 -0.11359798989013239 0 0.2193016884711986 -0.12268676968434 0 0.20601257999632211 -0.12500757691203401 0 0.20791749343059771 -0.1082698997862245 0 0.21052377576101411 -0.11359798989013239 0 0.1890690822023397 -0.1171290292490392 0 0.18385651754150681 -0.10647284904122439 0 0.20791749343059771 -0.1082698997862245 0 0.1890690822023397 -0.1171290292490392 0 0.21052377576101411 -0.11359798989013239 0 0.1890690822023397 -0.1171290292490392 0 0.20601257999632211 -0.12500757691203401 0 0.21052377576101411 -0.11359798989013239 0 0.1890690822023397 -0.1171290292490392 0 0.18385651754150681 -0.10647284904122439 0 0.20791749343059771 -0.1082698997862245 0 0.18385651754150681 -0.10647284904122439 0 0.20791749343059771 -0.1082698997862245 0 0.1963711083878964 -0.091889512955056457 0 0.1848490297697328 -0.070094395614981 0 0.1963711083878964 -0.091889512955056457 0 0.20218326692818361 -0.074844928358000842 0 0.1848490297697328 -0.070094395614981 0 0.20107375906444741 -0.057706347196407937 0 0.20218326692818361 -0.074844928358000842 0 0.20107375906444741 -0.057706347196407937 0 0.20218326692818361 -0.074844928358000842 0 0.2178769706980917 -0.071860039491261449 0 0.20218326692818361 -0.074844928358000842 0 0.2178769706980917 -0.071860039491261449 0 0.2165574899412904 -0.088059105932164206 0 0.1963711083878964 -0.091889512955056457 0 0.20218326692818361 -0.074844928358000842 0 0.2165574899412904 -0.088059105932164206 0 0.2178769706980917 -0.071860039491261449 0 0.2165574899412904 -0.088059105932164206 0 0.2332919491882367 -0.078765513220923164 0 0.2165574899412904 -0.088059105932164206 0 0.2332919491882367 -0.078765513220923164 0 0.2330248800783844 -0.09343482734722057 0 0.21945389410262789 -0.055982382971954812 0 0.2178769706980917 -0.071860039491261449 0 0.23497048707199361 -0.065430103551947436 0 0.2178769706980917 -0.071860039491261449 0 0.2332919491882367 -0.078765513220923164 0 0.23497048707199361 -0.065430103551947436 0 0.2332919491882367 -0.078765513220923164 0 0.23497048707199361 -0.065430103551947436 0 0.24957985668624191 -0.073926873436579998 0 0.2489147091691396 -0.061047690623056629 0 0.23497048707199361 -0.065430103551947436 0 0.24957985668624191 -0.073926873436579998 0 0.2332919491882367 -0.078765513220923164 0 0.24957985668624191 -0.073926873436579998 0 0.24464721597715799 -0.088843798637905619 0 0.2332919491882367 -0.078765513220923164 0 0.2330248800783844 -0.09343482734722057 0 0.24464721597715799 -0.088843798637905619 0 0.25247124487397088 -0.099797793390608916 0 0.24464721597715799 -0.088843798637905619 0 0.24117482369513821 -0.1000545135642834 0 0.2330248800783844 -0.09343482734722057 0 0.24117482369513821 -0.1000545135642834 0 0.23197846931968849 -0.1100669505312265 0 0.25247124487397088 -0.099797793390608916 0 0.2437523082264893 -0.10812919791445549 0 0.24117482369513821 -0.1000545135642834 0 0.2437523082264893 -0.10812919791445549 0 0.24117482369513821 -0.1000545135642834 0 0.23197846931968849 -0.1100669505312265 0 0.2437523082264893 -0.10812919791445549 0 0.23197846931968849 -0.1100669505312265 0 0.2330248800783844 -0.09343482734722057 0 0.24464721597715799 -0.088843798637905619 0 0.24117482369513821 -0.1000545135642834 0 0.20791749343059771 -0.1082698997862245 0 0.23197846931968849 -0.1100669505312265 0 0.2330248800783844 -0.09343482734722057 0 0.22236958319249031 -0.099957695899208845 0 0.23197846931968849 -0.1100669505312265 0 0.2165574899412904 -0.088059105932164206 0 0.2330248800783844 -0.09343482734722057 0 0.22236958319249031 -0.099957695899208845 0 0.20791749343059771 -0.1082698997862245 0 0.22236958319249031 -0.099957695899208845 0 0.23197846931968849 -0.1100669505312265 0 0.21052377576101411 -0.11359798989013239 0 0.2193016884711986 -0.12268676968434 0 0.23197846931968849 -0.1100669505312265 0 0.21052377576101411 -0.11359798989013239 0 0.23197846931968849 -0.1100669505312265 0 0.2193016884711986 -0.12268676968434 0 0.23197846931968849 -0.1100669505312265 0 0.23152589638932139 -0.1219920506077375 0 0.25422785205669218 -0.1117286981680507 0 0.23197846931968849 -0.1100669505312265 0 0.25422785205669218 -0.1117286981680507 0 0.23197846931968849 -0.1100669505312265 0 0.24217032514656181 -0.1233876961788135 0 0.25422785205669218 -0.1117286981680507 0 0.2437523082264893 -0.10812919791445549 0 0.23197846931968849 -0.1100669505312265 0 0.23197846931968849 -0.1100669505312265 0 0.23152589638932139 -0.1219920506077375 0 0.24217032514656181 -0.1233876961788135 0 0.25422785205669218 -0.1117286981680507 0 0.2525608327608555 -0.12289103938169629 0 0.24217032514656181 -0.1233876961788135 0 0.25177330827706301 -0.13290269088953879 0 0.24217032514656181 -0.1233876961788135 0 0.23816926123831089 -0.13458470912756629 0 0.2525608327608555 -0.12289103938169629 0 0.25177330827706301 -0.13290269088953879 0 0.24217032514656181 -0.1233876961788135 0 0.25177330827706301 -0.13290269088953879 0 0.23816926123831089 -0.13458470912756629 0 0.24227243407568111 -0.14745761285582429 0 0.23152589638932139 -0.1219920506077375 0 0.24217032514656181 -0.1233876961788135 0 0.23816926123831089 -0.13458470912756629 0 0.23816926123831089 -0.13458470912756629 0 0.24227243407568111 -0.14745761285582429 0 0.22801093651058291 -0.14032259914959011 0 0.24227243407568111 -0.14745761285582429 0 0.2187785015960573 -0.15146451841435901 0 0.24227243407568111 -0.14745761285582429 0 0.2187785015960573 -0.15146451841435901 0 0.23197446896547499 -0.15795708187618979 0 0.24227243407568111 -0.14745761285582429 0 0.2187785015960573 -0.15146451841435901 0 0.22801093651058291 -0.14032259914959011 0 0.2187785015960573 -0.15146451841435901 0 0.22801093651058291 -0.14032259914959011 0 0.21338488854844889 -0.1366800292613698 0 0.23152589638932139 -0.1219920506077375 0 0.23816926123831089 -0.13458470912756629 0 0.2274495970944162 -0.13142612608883111 0 0.23816926123831089 -0.13458470912756629 0 0.2274495970944162 -0.13142612608883111 0 0.22801093651058291 -0.14032259914959011 0 0.2274495970944162 -0.13142612608883111 0 0.22801093651058291 -0.14032259914959011 0 0.21338488854844889 -0.1366800292613698 0 0.2193016884711986 -0.12268676968434 0 0.23152589638932139 -0.1219920506077375 0 0.2274495970944162 -0.13142612608883111 0 0.2193016884711986 -0.12268676968434 0 0.2274495970944162 -0.13142612608883111 0 0.21338488854844889 -0.1366800292613698 0 0.2193016884711986 -0.12268676968434 0 0.20601257999632211 -0.12500757691203401 0 0.21338488854844889 -0.1366800292613698 0 0.20601257999632211 -0.12500757691203401 0 0.21338488854844889 -0.1366800292613698 0 0.1977834649986091 -0.1349440664752892 0 0.2187785015960573 -0.15146451841435901 0 0.21338488854844889 -0.1366800292613698 0 0.20663041325885159 -0.1535363828298261 0 0.21338488854844889 -0.1366800292613698 0 0.20663041325885159 -0.1535363828298261 0 0.1977834649986091 -0.1349440664752892 0 0.2187785015960573 -0.15146451841435901 0 0.20663041325885159 -0.1535363828298261 0 0.20280996320538819 -0.16087110484594769 0 0.2187785015960573 -0.15146451841435901 0 0.20663041325885159 -0.1535363828298261 0 0.1952845691164336 -0.1554714239728936 0 0.1977834649986091 -0.1349440664752892 0 0.18656949747281029 -0.14165458745521919 0 0.20663041325885159 -0.1535363828298261 0 0.1977834649986091 -0.1349440664752892 0 0.20663041325885159 -0.1535363828298261 0 0.1952845691164336 -0.1554714239728936 0 0.1977834649986091 -0.1349440664752892 0 0.20663041325885159 -0.1535363828298261 0 0.1952845691164336 -0.1554714239728936 0 0.1952845691164336 -0.1554714239728936 0 0.18656949747281029 -0.14165458745521919 0 0.18124139520631979 -0.15085640812074819 0 0.1890690822023397 -0.1171290292490392 0 0.1977834649986091 -0.1349440664752892 0 0.18774275091037951 -0.12951942841800149 0 0.1977834649986091 -0.1349440664752892 0 0.18656949747281029 -0.14165458745521919 0 0.1890690822023397 -0.1171290292490392 0 0.18774275091037951 -0.12951942841800149 0 0.1977834649986091 -0.1349440664752892 0 0.1890690822023397 -0.1171290292490392 0 0.20601257999632211 -0.12500757691203401 0 0.1977834649986091 -0.1349440664752892 0 0.19344005624135061 -0.17488752787842241 0 0.2077977356423881 -0.18050414920156391 0 0.19899755453136389 -0.1927184801215108 0 0.19344005624135061 -0.17488752787842241 0 0.19899755453136389 -0.1927184801215108 0 0.1807425574357093 -0.18972247438817211 0 0.20280996320538819 -0.16087110484594769 0 0.18686416921845081 -0.16137824049569091 0 0.19344005624135061 -0.17488752787842241 0 0.20280996320538819 -0.16087110484594769 0 0.18686416921845081 -0.16137824049569091 0 0.1952845691164336 -0.1554714239728936 0 0.20280996320538819 -0.16087110484594769 0 0.18686416921845081 -0.16137824049569091 0 0.20663041325885159 -0.1535363828298261 0 0.1952845691164336 -0.1554714239728936 0 0.20280996320538819 -0.16087110484594769 0 0.2187785015960573 -0.15146451841435901 0 0.20280996320538819 -0.16087110484594769 0 0.21413894758827171 -0.1618457707141063 0 0.19344005624135061 -0.17488752787842241 0 0.21413894758827171 -0.1618457707141063 0 0.2226788462779701 -0.16935349946998571 0 0.19344005624135061 -0.17488752787842241 0 0.20280996320538819 -0.16087110484594769 0 0.21413894758827171 -0.1618457707141063 0 0.19344005624135061 -0.17488752787842241 0 0.2226788462779701 -0.16935349946998571 0 0.21607448551886779 -0.18505708933633649 0 0.2077977356423881 -0.18050414920156391 0 0.2226788462779701 -0.16935349946998571 0 0.19344005624135061 -0.17488752787842241 0 0.2077977356423881 -0.18050414920156391 0 0.2226788462779701 -0.16935349946998571 0 0.21607448551886779 -0.18505708933633649 0 0.2077977356423881 -0.18050414920156391 0 0.19899755453136389 -0.1927184801215108 0 0.21607448551886779 -0.18505708933633649 0 0.2329725169931933 -0.18289448719548229 0 0.2226788462779701 -0.16935349946998571 0 0.2187785015960573 -0.15146451841435901 0 0.21413894758827171 -0.1618457707141063 0 0.23197446896547499 -0.15795708187618979 0 0.21413894758827171 -0.1618457707141063 0 0.2226788462779701 -0.16935349946998571 0 0.23197446896547499 -0.15795708187618979 0 0.25191763631458969 -0.1638194710615489 0 0.24227243407568111 -0.14745761285582429 0 0.23197446896547499 -0.15795708187618979 0 0.25191763631458969 -0.1638194710615489 0 0.2226788462779701 -0.16935349946998571 0 0.23197446896547499 -0.15795708187618979 0 0.25191763631458969 -0.1638194710615489 0 0.2226788462779701 -0.16935349946998571 0 0.25191763631458969 -0.1638194710615489 0 0.2329725169931933 -0.18289448719548229 0 0.2329725169931933 -0.18289448719548229 0 0.24968987140106341 -0.18092922336105319 0 0.24254979627140069 -0.19512410210957429 0 0.25191763631458969 -0.1638194710615489 0 0.2329725169931933 -0.18289448719548229 0 0.24968987140106341 -0.18092922336105319 0 0.25191763631458969 -0.1638194710615489 0 0.2329725169931933 -0.18289448719548229 0 0.2226788462779701 -0.16935349946998571 0 0.24254979627140069 -0.19512410210957429 0 0.2482240050903991 -0.21081725168179599 0 0.2329725169931933 -0.18289448719548229 0 0.24254979627140069 -0.19512410210957429 0 0.2302656663224267 -0.1990849403921548 0 0.24254979627140069 -0.19512410210957429 0 0.23396280579059731 -0.2142399522917168 0 0.2302656663224267 -0.1990849403921548 0 0.24254979627140069 -0.19512410210957429 0 0.2482240050903991 -0.21081725168179599 0 0.23396280579059731 -0.2142399522917168 0 0.25389821390939737 -0.22651040125401781 0 0.2482240050903991 -0.21081725168179599 0 0.23396280579059731 -0.2142399522917168 0 0.23396280579059731 -0.2142399522917168 0 0.22374389160092889 -0.21839007751040071 0 0.21402739767179721 -0.20196950332941579 0 0.23396280579059731 -0.2142399522917168 0 0.21402739767179721 -0.20196950332941579 0 0.23396280579059731 -0.2142399522917168 0 0.2302656663224267 -0.1990849403921548 0 0.21402739767179721 -0.20196950332941579 0 0.21607448551886779 -0.18505708933633649 0 0.2329725169931933 -0.18289448719548229 0 0.21402739767179721 -0.20196950332941579 0 0.2329725169931933 -0.18289448719548229 0 0.2302656663224267 -0.1990849403921548 0 0.21402739767179721 -0.20196950332941579 0 0.2329725169931933 -0.18289448719548229 0 0.21402739767179721 -0.20196950332941579 0 0.2444299610463688 -0.25163298647013332 0 0.23304858683527799 -0.25051591857851252 0 0.23485631178312291 -0.24148885289861141 0 0.2444299610463688 -0.25163298647013332 0 0.2473748297805245 -0.23965382761963189 0 0.23485631178312291 -0.24148885289861141 0 0.2473748297805245 -0.23965382761963189 0 0.23485631178312291 -0.24148885289861141 0 0.23766727421388409 -0.23298652293799599 0 0.25389821390939737 -0.22651040125401781 0 0.23396280579059731 -0.2142399522917168 0 0.2356838041875596 -0.2243252958757769 0 0.25389821390939737 -0.22651040125401781 0 0.23396280579059731 -0.2142399522917168 0 0.25389821390939737 -0.22651040125401781 0 0.23766727421388409 -0.23298652293799599 0 0.2356838041875596 -0.2243252958757769 0 0.25389821390939737 -0.22651040125401781 0 0.2473748297805245 -0.23965382761963189 0 0.23766727421388409 -0.23298652293799599 0 0.23396280579059731 -0.2142399522917168 0 0.22374389160092889 -0.21839007751040071 0 0.2356838041875596 -0.2243252958757769 0 0.22374389160092889 -0.21839007751040071 0 0.2356838041875596 -0.2243252958757769 0 0.2271195898878742 -0.22889843195869611 0 0.22374389160092889 -0.21839007751040071 0 0.2271195898878742 -0.22889843195869611 0 0.21853099633066889 -0.22565145104501491 0 0.2271195898878742 -0.22889843195869611 0 0.21977890090186969 -0.23548315344267359 0 0.21853099633066889 -0.22565145104501491 0 0.2271195898878742 -0.22889843195869611 0 0.2285862353044133 -0.23643469763204711 0 0.21977890090186969 -0.23548315344267359 0 0.23766727421388409 -0.23298652293799599 0 0.2356838041875596 -0.2243252958757769 0 0.2271195898878742 -0.22889843195869611 0 0.23766727421388409 -0.23298652293799599 0 0.2271195898878742 -0.22889843195869611 0 0.2285862353044133 -0.23643469763204711 0 0.22561516590192349 -0.25919641775455021 0 0.22411792709587619 -0.2419415261230467 0 0.2231035150509792 -0.24693580309054231 0 0.23485631178312291 -0.24148885289861141 0 0.2285862353044133 -0.23643469763204711 0 0.22411792709587619 -0.2419415261230467 0 0.23485631178312291 -0.24148885289861141 0 0.23766727421388409 -0.23298652293799599 0 0.2285862353044133 -0.23643469763204711 0 0.2285862353044133 -0.23643469763204711 0 0.21977890090186969 -0.23548315344267359 0 0.22411792709587619 -0.2419415261230467 0 0.21977890090186969 -0.23548315344267359 0 0.22411792709587619 -0.2419415261230467 0 0.21899388632062661 -0.24346719073442449 0 0.21509827865632861 -0.2519032261317693 0 0.21899388632062661 -0.24346719073442449 0 0.2231035150509792 -0.24693580309054231 0 0.22411792709587619 -0.2419415261230467 0 0.21899388632062661 -0.24346719073442449 0 0.2231035150509792 -0.24693580309054231 0 0.23304858683527799 -0.25051591857851252 0 0.23485631178312291 -0.24148885289861141 0 0.22411792709587619 -0.2419415261230467 0 0.21287080989807949 -0.2410722448840904 0 0.20829732945973789 -0.22979322638293129 0 0.20277084668220299 -0.24586474783829379 0 0.21509827865632861 -0.2519032261317693 0 0.21287080989807949 -0.2410722448840904 0 0.20277084668220299 -0.24586474783829379 0 0.21509827865632861 -0.2519032261317693 0 0.21899388632062661 -0.24346719073442449 0 0.21287080989807949 -0.2410722448840904 0 0.21977890090186969 -0.23548315344267359 0 0.21287080989807949 -0.2410722448840904 0 0.20829732945973789 -0.22979322638293129 0 0.21977890090186969 -0.23548315344267359 0 0.21899388632062661 -0.24346719073442449 0 0.21287080989807949 -0.2410722448840904 0 0.21977890090186969 -0.23548315344267359 0 0.20829732945973789 -0.22979322638293129 0 0.21853099633066889 -0.22565145104501491 0 0.22374389160092889 -0.21839007751040071 0 0.21853099633066889 -0.22565145104501491 0 0.21313875573707669 -0.2152558305617836 0 0.20829732945973789 -0.22979322638293129 0 0.21853099633066889 -0.22565145104501491 0 0.21313875573707669 -0.2152558305617836 0 0.20829732945973789 -0.22979322638293129 0 0.21313875573707669 -0.2152558305617836 0 0.20131166261964431 -0.2147724235517601 0 0.20829732945973789 -0.22979322638293129 0 0.18859592756749169 -0.22757534377410471 0 0.20131166261964431 -0.2147724235517601 0 0.18859592756749169 -0.22757534377410471 0 0.20131166261964431 -0.2147724235517601 0 0.20829732945973789 -0.22979322638293129 0 0.18859592756749169 -0.22757534377410471 0 0.20277084668220299 -0.24586474783829379 0 0.18859592756749169 -0.22757534377410471 0 0.20277084668220299 -0.24586474783829379 0 0.18609532454956099 -0.24561307842886959 0 0.21607448551886779 -0.18505708933633649 0 0.21402739767179721 -0.20196950332941579 0 0.19899755453136389 -0.1927184801215108 0 0.21402739767179721 -0.20196950332941579 0 0.19899755453136389 -0.1927184801215108 0 0.22374389160092889 -0.21839007751040071 0 0.21402739767179721 -0.20196950332941579 0 0.21313875573707669 -0.2152558305617836 0 0.21402739767179721 -0.20196950332941579 0 0.20131166261964431 -0.2147724235517601 0 0.19899755453136389 -0.1927184801215108 0 0.21402739767179721 -0.20196950332941579 0 0.21313875573707669 -0.2152558305617836 0 0.20131166261964431 -0.2147724235517601 0 0.21402739767179721 -0.20196950332941579 0 0.20131166261964431 -0.2147724235517601 0 0.18859592756749169 -0.22757534377410471 0 0.20131166261964431 -0.2147724235517601 0 0.18229818337455189 -0.20857159488521021 0 0.20131166261964431 -0.2147724235517601 0 0.19899755453136389 -0.1927184801215108 0 0.18229818337455189 -0.20857159488521021 0 0.1807425574357093 -0.18972247438817211 0 0.18229818337455189 -0.20857159488521021 0 0.155488888443855 -0.20446377489488041 0 0.19899755453136389 -0.1927184801215108 0 0.1807425574357093 -0.18972247438817211 0 0.18229818337455189 -0.20857159488521021 0 0.18229818337455189 -0.20857159488521021 0 0.16758750524756219 -0.2236048893384045 0 0.155488888443855 -0.20446377489488041 0 0.1807425574357093 -0.18972247438817211 0 0.155488888443855 -0.20446377489488041 0 0.16420126620473141 -0.1804215562868608 0 0.155488888443855 -0.20446377489488041 0 0.16420126620473141 -0.1804215562868608 0 0.18859592756749169 -0.22757534377410471 0 0.18609532454956099 -0.24561307842886959 0 0.1739472364541618 -0.23730228083078531 0 0.16778827379441841 -0.25313242553567622 0 0.18609532454956099 -0.24561307842886959 0 0.1739472364541618 -0.23730228083078531 0 0.18859592756749169 -0.22757534377410471 0 0.1739472364541618 -0.23730228083078531 0 0.16758750524756219 -0.2236048893384045 0 0.18859592756749169 -0.22757534377410471 0 0.18229818337455189 -0.20857159488521021 0 0.16758750524756219 -0.2236048893384045 0 0.16758750524756219 -0.2236048893384045 0 0.14677651068297559 -0.22850599350289891 0 0.155488888443855 -0.20446377489488041 0 0.16758750524756219 -0.2236048893384045 0 0.1596691511117756 -0.23658566707687151 0 0.14677651068297559 -0.22850599350289891 0 0.1739472364541618 -0.23730228083078531 0 0.16758750524756219 -0.2236048893384045 0 0.1596691511117756 -0.23658566707687151 0 0.16778827379441841 -0.25313242553567622 0 0.1739472364541618 -0.23730228083078531 0 0.1596691511117756 -0.23658566707687151 0 0.16778827379441841 -0.25313242553567622 0 0.13997209545928421 -0.24219855728055359 0 0.1596691511117756 -0.23658566707687151 0 0.14677651068297559 -0.22850599350289891 0 0.13997209545928421 -0.24219855728055359 0 0.16778827379441841 -0.25313242553567622 0 0.1596691511117756 -0.23658566707687151 0 0.13997209545928421 -0.24219855728055359 0 0.1121559171241498 -0.23126468902543171 0 0.13025041077718519 -0.2280131466272067 0 0.13997209545928421 -0.24219855728055359 0 0.14677651068297559 -0.22850599350289891 0 0.13025041077718519 -0.2280131466272067 0 0.13421570642561351 -0.21525275999518159 0 0.14677651068297559 -0.22850599350289891 0 0.13025041077718519 -0.2280131466272067 0 0.13997209545928421 -0.24219855728055359 0 0.1262666187287034 -0.22077884528595471 0 0.13025041077718519 -0.2280131466272067 0 0.13421570642561351 -0.21525275999518159 0 0.1121559171241498 -0.23126468902543171 0 0.13997209545928421 -0.24219855728055359 0 0.155488888443855 -0.20446377489488041 0 0.13735515214316399 -0.200658115298852 0 0.13788145181467121 -0.18540310991329009 0 0.155488888443855 -0.20446377489488041 0 0.13788145181467121 -0.18540310991329009 0 0.16420126620473141 -0.1804215562868608 0 0.14677651068297559 -0.22850599350289891 0 0.155488888443855 -0.20446377489488041 0 0.155488888443855 -0.20446377489488041 0 0.13421570642561351 -0.21525275999518159 0 0.13735515214316399 -0.200658115298852 0 0.14677651068297559 -0.22850599350289891 0 0.155488888443855 -0.20446377489488041 0 0.13421570642561351 -0.21525275999518159 0 0.1212988593254847 -0.2142063591558602 0 0.1262666187287034 -0.22077884528595471 0 0.13421570642561351 -0.21525275999518159 0 0.1221371923938749 -0.2018438141336171 0 0.13421570642561351 -0.21525275999518159 0 0.13735515214316399 -0.200658115298852 0 0.1221371923938749 -0.2018438141336171 0 0.1212988593254847 -0.2142063591558602 0 0.13421570642561351 -0.21525275999518159 0 0.1221371923938749 -0.2018438141336171 0 0.12231667521256109 -0.1880412671620785 0 0.13735515214316399 -0.200658115298852 0 0.12231667521256109 -0.1880412671620785 0 0.13735515214316399 -0.200658115298852 0 0.13788145181467121 -0.18540310991329009 0 0.12231667521256109 -0.1880412671620785 0 0.13788145181467121 -0.18540310991329009 0 0.12940385266922641 -0.1667074232744796 0 0.13788145181467121 -0.18540310991329009 0 0.16420126620473141 -0.1804215562868608 0 0.13788145181467121 -0.18540310991329009 0 0.1546421097066287 -0.16240302202115089 0 0.16420126620473141 -0.1804215562868608 0 0.1546421097066287 -0.16240302202115089 0 0.12910615674100259 -0.1632151604514876 0 0.1546421097066287 -0.16240302202115089 0 0.12940385266922641 -0.1667074232744796 0 0.13788145181467121 -0.18540310991329009 0 0.1546421097066287 -0.16240302202115089 0 0.12940385266922641 -0.1667074232744796 0 0.1546421097066287 -0.16240302202115089 0 0.12910615674100259 -0.1632151604514876 0 0.15046197940020969 -0.1510331109470813 0 0.1546421097066287 -0.16240302202115089 0 0.12910615674100259 -0.1632151604514876 0 0.12940385266922641 -0.1667074232744796 0 0.12910615674100259 -0.1632151604514876 0 0.14157165105954 -0.14170278638867681 0 0.15046197940020969 -0.1510331109470813 0 0.121251820104277 -0.14271189394047279 0 0.12910615674100259 -0.1632151604514876 0 0.14157165105954 -0.14170278638867681 0 0.121251820104277 -0.14271189394047279 0 0.13117736198413379 -0.12665691843031379 0 0.14157165105954 -0.14170278638867681 0 0.16012322209323671 -0.12189297383967621 0 0.13117736198413379 -0.12665691843031379 0 0.14157165105954 -0.14170278638867681 0 0.16012322209323671 -0.12189297383967621 0 0.14157165105954 -0.14170278638867681 0 0.15831624462749619 -0.14084082632288811 0 0.14157165105954 -0.14170278638867681 0 0.15046197940020969 -0.1510331109470813 0 0.15831624462749619 -0.14084082632288811 0 0.1546421097066287 -0.16240302202115089 0 0.15046197940020969 -0.1510331109470813 0 0.16338383156389269 -0.1513606402288806 0 0.16338383156389269 -0.1513606402288806 0 0.15831624462749619 -0.14084082632288811 0 0.16956252946538131 -0.14252092775371381 0 0.15046197940020969 -0.1510331109470813 0 0.16338383156389269 -0.1513606402288806 0 0.15831624462749619 -0.14084082632288811 0 0.16338383156389269 -0.1513606402288806 0 0.17434575920104151 -0.1524273479342492 0 0.17179063663680949 -0.1594783295314269 0 0.16338383156389269 -0.1513606402288806 0 0.16956252946538131 -0.14252092775371381 0 0.17434575920104151 -0.1524273479342492 0 0.16012322209323671 -0.12189297383967621 0 0.16619297137271069 -0.13449335425266401 0 0.17676988930472851 -0.1327186890943779 0 0.16012322209323671 -0.12189297383967621 0 0.15831624462749619 -0.14084082632288811 0 0.16619297137271069 -0.13449335425266401 0 0.16956252946538131 -0.14252092775371381 0 0.16619297137271069 -0.13449335425266401 0 0.17676988930472851 -0.1327186890943779 0 0.15831624462749619 -0.14084082632288811 0 0.16956252946538131 -0.14252092775371381 0 0.16619297137271069 -0.13449335425266401 0 0.16956252946538131 -0.14252092775371381 0 0.17676988930472851 -0.1327186890943779 0 0.17821651360450361 -0.14525035170995029 0 0.17676988930472851 -0.1327186890943779 0 0.17821651360450361 -0.14525035170995029 0 0.18656949747281029 -0.14165458745521919 0 0.18774275091037951 -0.12951942841800149 0 0.17676988930472851 -0.1327186890943779 0 0.18656949747281029 -0.14165458745521919 0 0.1890690822023397 -0.1171290292490392 0 0.18774275091037951 -0.12951942841800149 0 0.17676988930472851 -0.1327186890943779 0 0.1952845691164336 -0.1554714239728936 0 0.18124139520631979 -0.15085640812074819 0 0.17179063663680949 -0.1594783295314269 0 0.17434575920104151 -0.1524273479342492 0 0.18124139520631979 -0.15085640812074819 0 0.17179063663680949 -0.1594783295314269 0 0.17434575920104151 -0.1524273479342492 0 0.17821651360450361 -0.14525035170995029 0 0.18124139520631979 -0.15085640812074819 0 0.17434575920104151 -0.1524273479342492 0 0.17179063663680949 -0.1594783295314269 0 0.16956252946538131 -0.14252092775371381 0 0.17434575920104151 -0.1524273479342492 0 0.17821651360450361 -0.14525035170995029 0 0.17821651360450361 -0.14525035170995029 0 0.18656949747281029 -0.14165458745521919 0 0.18124139520631979 -0.15085640812074819 0 0.19344005624135061 -0.17488752787842241 0 0.18686416921845081 -0.16137824049569091 0 0.17091837523151349 -0.16188537614543561 0 0.18686416921845081 -0.16137824049569091 0 0.17091837523151349 -0.16188537614543561 0 0.1952845691164336 -0.1554714239728936 0 0.17179063663680949 -0.1594783295314269 0 0.18686416921845081 -0.16137824049569091 0 0.17179063663680949 -0.1594783295314269 0 0.17091837523151349 -0.16188537614543561 0 0.1952845691164336 -0.1554714239728936 0 0.18686416921845081 -0.16137824049569091 0 0.17179063663680949 -0.1594783295314269 0 0.19344005624135061 -0.17488752787842241 0 0.16420126620473141 -0.1804215562868608 0 0.17091837523151349 -0.16188537614543561 0 0.19344005624135061 -0.17488752787842241 0 0.1807425574357093 -0.18972247438817211 0 0.16420126620473141 -0.1804215562868608 0 0.19344005624135061 -0.17488752787842241 0 0.16420126620473141 -0.1804215562868608 0 0.1546421097066287 -0.16240302202115089 0 0.16338383156389269 -0.1513606402288806 0 0.17179063663680949 -0.1594783295314269 0 0.1546421097066287 -0.16240302202115089 0 0.17179063663680949 -0.1594783295314269 0 0.1546421097066287 -0.16240302202115089 0 0.17091837523151349 -0.16188537614543561 0 0.1546421097066287 -0.16240302202115089 0 0.17179063663680949 -0.1594783295314269 0 0.17091837523151349 -0.16188537614543561 0 0.1546421097066287 -0.16240302202115089 0 0.16420126620473141 -0.1804215562868608 0 0.17091837523151349 -0.16188537614543561 0 0.16420126620473141 -0.1804215562868608 0 0.17091837523151349 -0.16188537614543561 0 0.17179063663680949 -0.1594783295314269 0 0.17091837523151349 -0.16188537614543561 0 
</DataArray>
</Points>
<Cells>
<DataArray type="UInt32" Name="connectivity" format="ascii">
0 1 2 3 4 5 6 7 8 9 10 11 12 13 14 15 16 17 18 19 20 21 22 23 24 25 26 27 28 29 30 31 32 33 34 35 36 37 38 39 40 41 42 43 44 45 46 47 48 49 50 51 52 53 54 55 56 57 58 59 60 61 62 63 64 65 66 67 68 69 70 71 72 73 74 75 76 77 78 79 80 81 82 83 84 85 86 87 88 89 90 91 92 93 94 95 96 97 98 99 100 101 102 103 104 105 106 107 108 109 110 111 112 113 114 115 116 117 118 119 120 121 122 123 124 125 126 127 128 129 130 131 132 133 134 135 136 137 138 139 140 141 142 143 144 145 146 147 148 149 150 151 152 153 154 155 156 157 158 159 160 161 162 163 164 165 166 167 168 169 170 171 172 173 174 175 176 177 178 179 180 181 182 183 184 185 186 187 188 189 190 191 192 193 194 195 196 197 198 199 200 201 202 203 204 205 206 207 208 209 210 211 212 213 214 215 216 217 218 219 220 221 222 223 224 225 226 227 228 229 230 231 232 233 234 235 236 237 238 239 240 241 242 243 244 245 246 247 248 249 250 251 252 253 254 255 256 257 258 259 260 261 262 263 264 265 266 267 268 269 270 271 272 273 274 275 276 277 278 279 280 281 282 283 284 285 286 287 288 289 290 291 292 293 294 295 296 297 298 299 300 301 302 303 304 305 306 307 308 309 310 311 312 313 314 315 316 317 318 319 320 321 322 323 324 325 326 327 328 329 330 331 332 333 334 335 336 337 338 339 340 341 342 343 344 345 346 347 348 349 350 351 352 353 354 355 356 357 358 359 360 361 362 363 364 365 366 367 368 369 370 371 372 373 374 375 376 377 378 379 380 381 382 383 384 385 386 387 388 389 390 391 392 393 394 395 396 397 398 399 400 401 402 403 404 405 406 407 408 409 410 411 412 413 414 415 416 417 418 419 420 421 422 423 424 425 426 427 428 429 430 431 432 433 434 435 436 437 438 439 440 441 442 443 444 445 446 447 448 449 450 451 452 453 454 455 456 457 458 459 460 461 462 463 464 465 466 467 468 469 470 471 472 473 474 475 476 477 478 479 480 481 482 483 484 485 486 487 488 489 490 491 492 493 494 495 496 497 498 499 500 501 502 503 504 505 506 507 508 509 510 511 512 513 514 515 516 517 518 519 520 521 522 523 524 525 526 527 528 529 530 531 532 533 534 535 536 537 538 539 540 541 542 543 544 545 546 547 548 549 550 551 552 553 554 555 556 557 558 559 560 561 562 563 564 565 566 567 568 569 570 571 572 573 574 575 576 577 578 579 580 581 582 583 584 585 586 587 588 589 590 591 592 593 594 595 596 597 598 599 600 601 602 603 604 605 606 607 608 609 610 611 612 613 614 615 616 617 618 619 620 621 622 623 624 625 626 627 628 629 630 631 632 633 634 635 636 637 638 639 640 641 642 643 644 645 646 647 648 649 650 651 652 653 654 655 656 657 658 659 660 661 662 663 664 665 666 667 668 669 670 671 672 673 674 675 676 677 678 679 680 681 682 683 684 685 686 687 688 689 690 691 692 693 694 695 696 697 698 699 700 701 702 703 704 705 706 707 708 709 710 711 712 713 714 715 716 717 718 719 720 721 722 723 724 725 726 727 728 729 730 731 732 733 734 735 736 737 738 739 740 741 742 743 744 745 746 747 748 749 750 751 752 753 754 755 756 757 758 759 760 761 762 763 764 765 766 767 768 769 770 771 772 773 774 775 776 777 778 779 780 781 782 783 784 785 786 787 788 789 790 791 792 793 794 795 796 797 798 799 800 801 802 803 804 805 806 807 808 809 810 811 812 813 814 815 816 817 818 819 820 821 822 823 824 825 826 827 828 829 830 831 832 833 834 835 836 837 838 839 840 841 842 843 844 845 846 847 848 849 850 851 852 853 854 855 856 857 858 859 860 861 862 863 864 865 866 867 868 869 870 871 872 873 874 875 876 877 878 879 880 881 882 883 884 885 886 887 888 889 890 891 892 893 894 895 896 897 898 899 900 901 902 903 904 905 906 907 908 909 910 911 912 913 914 915 916 917 918 919 920 921 922 923 924 925 926 927 928 929 930 931 932 933 934 935 936 937 938 939 940 941 942 943 944 945 946 947 948 949 950 951 952 953 954 955 956 957 958 959 960 961 962 963 964 965 966 967 968 969 970 971 972 973 974 975 976 977 978 979 980 981 982 983 984 985 986 987 988 989 990 991 992 993 994 995 996 997 998 999 1000 1001 1002 1003 1004 1005 1006 1007 1008 1009 1010 1011 1012 1013 1014 1015 1016 1017 1018 1019 1020 1021 1022 1023 1024 1025 1026 1027 1028 1029 1030 1031 1032 1033 1034 1035 1036 1037 1038 1039 1040 1041 1042 1043 1044 1045 1046 1047 1048 1049 1050 1051 1052 1053 1054 1055 1056 1057 1058 1059 1060 1061 1062 1063 1064 1065 1066 1067 1068 1069 1070 1071 1072 1073 1074 1075 1076 1077 1078 1079 1080 1081 1082 1083 1084 1085 1086 1087 1088 1089 1090 1091 1092 1093 1094 1095 1096 1097 1098 1099 1100 1101 1102 1103 1104 1105 1106 1107 1108 1109 1110 1111 1112 1113 1114 1115 1116 1117 1118 1119 1120 1121 1122 1123 1124 1125 1126 1127 1128 1129 1130 1131 1132 1133 1134 1135 1136 1137 1138 1139 1140 1141 1142 1143 1144 1145 1146 1147 1148 1149 1150 1151 1152 1153 1154 1155 1156 1157 1158 1159 1160 1161 1162 1163 1164 1165 1166 1167 1168 1169 1170 1171 1172 1173 1174 1175 1176 1177 1178 1179 1180 1181 1182 1183 1184 1185 1186 1187 1188 1189 1190 1191 1192 1193 1194 1195 1196 1197 1198 1199 1200 1201 1202 1203 1204 1205 1206 1207 1208 1209 1210 1211 1212 1213 1214 1215 1216 1217 1218 1219 1220 1221 1222 1223 1224 1225 1226 1227 1228 1229 1230 1231 1232 1233 1234 1235 1236 1237 1238 1239 1240 1241 1242 1243 1244 1245 1246 1247 1248 1249 1250 1251 1252 1253 1254 1255 1256 1257 1258 1259 1260 1261 1262 1263 1264 1265 1266 1267 1268 1269 1270 1271 1272 1273 1274 1275 1276 1277 1278 1279 1280 1281 1282 1283 1284 1285 1286 1287 1288 1289 1290 1291 1292 1293 1294 1295 1296 1297 1298 1299 1300 1301 1302 1303 1304 1305 1306 1307 1308 1309 1310 1311 1312 1313 1314 1315 1316 1317 1318 1319 1320 1321 1322 1323 1324 1325 1326 1327 1328 1329 1330 1331 1332 1333 1334 1335 1336 1337 1338 1339 1340 1341 1342 1343 1344 1345 1346 1347 1348 1349 1350 1351 1352 1353 1354 1355 1356 1357 1358 1359 1360 1361 1362 1363 1364 1365 1366 1367 1368 1369 1370 1371 1372 1373 1374 1375 1376 1377 1378 1379 1380 1381 1382 1383 1384 1385 1386 1387 1388 1389 1390 1391 1392 1393 1394 1395 1396 1397 1398 1399 1400 1401 1402 1403 1404 1405 1406 1407 1408 1409 1410 1411 1412 1413 1414 1415 1416 1417 1418 1419 1420 1421 1422 1423 1424 1425 1426 1427 1428 1429 1430 1431 1432 1433 1434 1435 1436 1437 1438 1439 1440 1441 1442 1443 1444 1445 1446 1447 1448 1449 1450 1451 1452 1453 1454 1455 1456 1457 1458 1459 1460 1461 1462 1463 1464 1465 1466 1467 1468 1469 1470 1471 1472 1473 1474 1475 1476 1477 1478 1479 1480 1481 1482 1483 1484 1485 1486 1487 1488 1489 1490 1491 1492 1493 1494 1495 1496 1497 1498 1499 1500 1501 1502 1503 1504 1505 1506 1507 1508 1509 1510 1511 1512 1513 1514 1515 1516 1517 1518 1519 1520 1521 1522 1523 1524 1525 1526 1527 1528 1529 1530 1531 1532 1533 1534 1535 1536 1537 1538 1539 1540 1541 1542 1543 1544 1545 1546 1547 1548 1549 1550 1551 1552 1553 1554 1555 1556 1557 1558 1559 1560 1561 1562 1563 1564 1565 1566 1567 1568 1569 1570 1571 1572 1573 1574 1575 1576 1577 1578 1579 1580 1581 1582 1583 1584 1585 1586 1587 1588 1589 1590 1591 1592 1593 1594 1595 1596 1597 1598 1599 1600 1601 1602 1603 1604 1605 1606 1607 1608 1609 1610 1611 1612 1613 1614 1615 1616 1617 1618 1619 1620 1621 1622 1623 1624 1625 1626 1627 1628 1629 1630 1631 1632 1633 1634 1635 1636 1637 1638 1639 1640 1641 1642 1643 1644 1645 1646 1647 1648 1649 1650 1651 1652 1653 1654 1655 1656 1657 1658 1659 1660 1661 1662 1663 1664 1665 1666 1667 1668 1669 1670 1671 1672 1673 1674 1675 1676 1677 1678 1679 1680 1681 1682 1683 1684 1685 1686 1687 1688 1689 1690 1691 1692 1693 1694 1695 1696 1697 1698 1699 1700 1701 1702 1703 1704 1705 1706 1707 1708 1709 1710 1711 1712 1713 1714 1715 1716 1717 1718 1719 1720 1721 1722 1723 1724 1725 1726 1727 1728 1729 1730 1731 1732 1733 1734 1735 1736 1737 1738 1739 1740 1741 1742 1743 1744 1745 1746 1747 1748 1749 1750 1751 1752 1753 1754 1755 1756 1757 1758 1759 1760 1761 1762 1763 1764 1765 1766 1767 1768 1769 1770 1771 1772 1773 1774 1775 1776 1777 1778 1779 1780 1781 1782 1783 1784 1785 1786 1787 1788 1789 1790 1791 1792 1793 1794 1795 1796 1797 1798 1799 1800 1801 1802 1803 1804 1805 1806 1807 1808 1809 1810 1811 1812 1813 1814 1815 1816 1817 1818 1819 1820 1821 1822 1823 1824 1825 1826 1827 1828 1829 1830 1831 1832 1833 1834 1835 1836 1837 1838 1839 1840 1841 1842 1843 1844 1845 1846 1847 1848 1849 1850 1851 1852 1853 1854 1855 1856 1857 1858 1859 1860 1861 1862 1863 1864 1865 1866 1867 1868 1869 1870 1871 1872 1873 1874 1875 1876 1877 1878 1879 1880 1881 1882 1883 1884 1885 1886 1887 1888 1889 1890 1891 1892 1893 1894 1895 1896 1897 1898 1899 1900 1901 1902 1903 1904 1905 1906 1907 1908 1909 1910 1911 1912 1913 1914 1915 1916 1917 1918 1919 1920 1921 1922 1923 1924 1925 1926 1927 1928 1929 1930 1931 1932 1933 1934 1935 1936 1937 1938 1939 1940 1941 1942 1943 1944 1945 1946 1947 1948 1949 1950 1951 1952 1953 1954 1955 1956 1957 1958 1959 1960 1961 1962 1963 1964 1965 1966 1967 1968 1969 1970 1971 1972 1973 1974 1975 1976 1977 1978 1979 1980 1981 1982 1983 1984 1985 1986 1987 1988 1989 1990 1991 1992 1993 1994 1995 1996 1997 1998 1999 2000 2001 2002 2003 2004 2005 2006 2007 2008 2009 2010 2011 2012 2013 2014 2015 2016 2017 2018 2019 2020 2021 2022 2023 2024 2025 2026 2027 2028 2029 2030 2031 2032 2033 2034 2035 2036 2037 2038 2039 2040 2041 2042 2043 2044 2045 2046 2047 2048 2049 2050 2051 2052 2053 2054 2055 2056 2057 2058 2059 2060 2061 2062 2063 2064 2065 2066 2067 2068 2069 2070 2071 2072 2073 2074 2075 2076 2077 2078 2079 2080 2081 2082 2083 2084 2085 2086 2087 2088 2089 2090 2091 2092 2093 2094 2095 2096 2097 2098 2099 2100 2101 2102 2103 2104 2105 2106 2107 2108 2109 2110 2111 2112 2113 2114 2115 2116 2117 2118 2119 2120 2121 2122 2123 2124 2125 2126 2127 2128 2129 2130 2131 2132 2133 2134 2135 2136 2137 2138 2139 2140 2141 2142 2143 2144 2145 2146 2147 2148 2149 2150 2151 2152 2153 2154 2155 2156 2157 2158 2159 2160 2161 2162 2163 2164 2165 2166 2167 2168 2169 2170 2171 2172 2173 2174 2175 2176 2177 2178 2179 2180 2181 2182 2183 2184 2185 2186 2187 2188 2189 2190 2191 2192 2193 2194 2195 2196 2197 2198 2199 2200 2201 2202 2203 2204 2205 2206 2207 2208 2209 2210 2211 2212 2213 2214 2215 2216 2217 2218 2219 2220 2221 2222 2223 2224 2225 2226 2227 2228 2229 2230 2231 2232 2233 2234 2235 2236 2237 2238 2239 2240 2241 2242 2243 2244 2245 2246 2247 2248 2249 2250 2251 2252 2253 2254 2255 2256 2257 2258 2259 2260 2261 2262 2263 2264 2265 2266 2267 2268 2269 2270 2271 2272 2273 2274 2275 2276 2277 2278 2279 2280 2281 2282 2283 2284 2285 2286 2287 2288 2289 2290 2291 2292 2293 2294 2295 2296 2297 2298 2299 2300 2301 2302 2303 2304 2305 2306 2307 2308 2309 2310 2311 2312 2313 2314 2315 2316 2317 2318 2319 2320 2321 2322 2323 2324 2325 2326 2327 2328 2329 2330 2331 2332 2333 2334 2335 2336 2337 2338 2339 2340 2341 2342 2343 2344 2345 2346 2347 2348 2349 2350 2351 2352 2353 2354 2355 2356 2357 2358 2359 2360 2361 2362 2363 2364 2365 2366 2367 2368 2369 2370 2371 2372 2373 2374 2375 2376 2377 2378 2379 2380 2381 2382 2383 2384 2385 2386 2387 2388 2389 2390 2391 2392 2393 2394 2395 2396 2397 2398 2399 2400 2401 2402 2403 2404 2405 2406 2407 2408 2409 2410 2411 2412 2413 2414 2415 2416 2417 2418 2419 2420 2421 2422 2423 2424 2425 2426 2427 2428 2429 2430 2431 2432 2433 2434 2435 2436 2437 2438 2439 2440 2441 2442 2443 2444 2445 2446 2447 2448 2449 2450 2451 2452 2453 2454 2455 2456 2457 2458 2459 2460 2461 2462 2463 2464 2465 2466 2467 2468 2469 2470 2471 2472 2473 2474 2475 2476 2477 2478 2479 2480 2481 2482 2483 2484 2485 2486 2487 2488 2489 2490 2491 2492 2493 2494 2495 2496 2497 2498 2499 2500 2501 2502 2503 2504 2505 2506 2507 2508 2509 2510 2511 2512 2513 2514 2515 2516 2517 2518 2519 2520 2521 2522 2523 2524 2525 2526 2527 2528 2529 2530 2531 2532 2533 2534 2535 2536 2537 2538 2539 2540 2541 2542 2543 2544 2545 2546 2547 2548 2549 2550 2551 2552 2553 2554 2555 2556 2557 2558 2559 2560 2561 2562 2563 2564 2565 2566 2567 2568 2569 2570 2571 2572 2573 2574 2575 2576 2577 2578 2579 2580 2581 2582 2583 2584 2585 2586 2587 2588 2589 2590 2591 2592 2593 2594 2595 2596 2597 2598 2599 2600 2601 2602 2603 2604 2605 2606 2607 2608 2609 2610 2611 2612 2613 2614 2615 2616 2617 2618 2619 2620 2621 2622 2623 2624 2625 2626 2627 2628 2629 2630 2631 2632 2633 2634 2635 2636 2637 2638 2639 2640 2641 2642 2643 2644 2645 2646 2647 2648 2649 2650 2651 2652 2653 2654 2655 2656 2657 2658 2659 2660 2661 2662 2663 2664 2665 2666 2667 2668 2669 2670 2671 2672 2673 2674 2675 2676 2677 2678 2679 2680 2681 2682 2683 2684 2685 2686 2687 2688 2689 2690 2691 2692 2693 2694 2695 2696 2697 2698 2699 2700 2701 2702 2703 2704 2705 2706 2707 2708 2709 2710 2711 2712 2713 2714 2715 2716 2717 2718 2719 2720 2721 2722 2723 2724 2725 2726 2727 2728 2729 2730 2731 2732 2733 2734 2735 2736 2737 2738 2739 2740 2741 2742 2743 2744 2745 2746 2747 2748 2749 2750 2751 2752 2753 2754 2755 2756 2757 2758 2759 2760 2761 2762 2763 2764 2765 2766 2767 2768 2769 2770 2771 2772 2773 2774 2775 2776 2777 2778 2779 2780 2781 2782 2783 2784 2785 2786 2787 2788 2789 2790 2791 2792 2793 2794 2795 2796 2797 2798 2799 2800 2801 2802 2803 2804 2805 2806 2807 2808 2809 2810 2811 2812 2813 2814 2815 2816 2817 2818 2819 2820 2821 2822 2823 2824 2825 2826 2827 2828 2829 2830 2831 2832 2833 2834 2835 2836 2837 2838 2839 2840 2841 2842 2843 2844 2845 2846 2847 2848 2849 2850 2851 2852 2853 2854 2855 2856 2857 2858 2859 2860 2861 2862 2863 2864 2865 2866 2867 2868 2869 2870 2871 2872 2873 2874 2875 2876 2877 2878 2879 2880 2881 2882 2883 2884 2885 2886 2887 2888 2889 2890 2891 2892 2893 2894 2895 2896 2897 2898 2899 2900 2901 2902 2903 2904 2905 2906 2907 2908 2909 2910 2911 2912 2913 2914 2915 2916 2917 2918 2919 2920 2921 2922 2923 2924 2925 2926 2927 2928 2929 2930 2931 2932 2933 2934 2935 2936 2937 2938 2939 2940 2941 2942 2943 2944 2945 2946 2947 2948 2949 2950 2951 2952 2953 2954 2955 2956 2957 2958 2959 2960 2961 2962 2963 2964 2965 2966 2967 2968 2969 2970 2971 2972 2973 2974 2975 2976 2977 2978 2979 2980 2981 2982 2983 2984 2985 2986 2987 2988 2989 2990 2991 2992 2993 2994 2995 2996 2997 2998 2999 3000 3001 3002 3003 3004 3005 3006 3007 3008 3009 3010 3011 3012 3013 3014 3015 3016 3017 3018 3019 3020 3021 3022 3023 3024 3025 3026 3027 3028 3029 3030 3031 3032 3033 3034 3035 3036 3037 3038 3039 3040 3041 3042 3043 3044 3045 3046 3047 3048 3049 3050 3051 3052 3053 3054 3055 3056 3057 3058 3059 3060 3061 3062 3063 3064 3065 3066 3067 3068 3069 3070 3071 3072 3073 3074 3075 3076 3077 3078 3079 3080 3081 3082 3083 3084 3085 3086 3087 3088 3089 3090 3091 3092 3093 3094 3095 3096 3097 3098 3099 3100 3101 3102 3103 3104 3105 3106 3107 3108 3109 3110 3111 3112 3113 3114 3115 3116 3117 3118 3119 3120 3121 3122 3123 3124 3125 3126 3127 3128 3129 3130 3131 3132 3133 3134 3135 3136 3137 3138 3139 3140 3141 3142 3143 3144 3145 3146 3147 3148 3149 3150 3151 3152 3153 3154 3155 3156 3157 3158 3159 3160 3161 3162 3163 3164 3165 3166 3167 3168 3169 3170 3171 3172 3173 3174 3175 3176 3177 3178 3179 3180 3181 3182 3183 3184 3185 3186 3187 3188 3189 3190 3191 3192 3193 3194 3195 3196 3197 3198 3199 3200 3201 3202 3203 3204 3205 3206 3207 3208 3209 3210 3211 3212 3213 3214 3215 3216 3217 3218 3219 3220 3221 3222 3223 3224 3225 3226 3227 3228 3229 3230 3231 3232 3233 3234 3235 3236 3237 3238 3239 3240 3241 3242 3243 3244 3245 3246 3247 3248 3249 3250 3251 3252 3253 3254 3255 3256 3257 3258 3259 3260 3261 3262 3263 3264 3265 3266 3267 3268 3269 3270 3271 3272 3273 3274 3275 3276 3277 3278 3279 3280 3281 3282 3283 3284 3285 3286 3287 3288 3289 3290 3291 3292 3293 3294 3295 3296 3297 3298 3299 3300 3301 3302 3303 3304 3305 3306 3307 3308 3309 3310 3311 3312 3313 3314 3315 3316 3317 3318 3319 3320 3321 3322 3323 3324 3325 3326 3327 3328 3329 3330 3331 3332 3333 3334 3335 3336 3337 3338 3339 3340 3341 3342 3343 3344 3345 3346 3347 3348 3349 3350 3351 3352 3353 3354 3355 3356 3357 3358 3359 3360 3361 3362 3363 3364 3365 3366 3367 3368 3369 3370 3371 3372 3373 3374 3375 3376 3377 3378 3379 3380 3381 3382 3383 3384 3385 3386 3387 3388 3389 3390 3391 3392 3393 3394 3395 3396 3397 3398 3399 3400 3401 3402 3403 3404 3405 3406 3407 3408 3409 3410 3411 3412 3413 3414 3415 3416 3417 3418 3419 3420 3421 3422 3423 3424 3425 3426 3427 3428 3429 3430 3431 3432 3433 3434 3435 3436 3437 3438 3439 3440 3441 3442 3443 3444 3445 3446 3447 3448 3449 3450 3451 3452 3453 3454 3455 3456 3457 3458 3459 3460 3461 3462 3463 3464 3465 3466 3467 3468 3469 3470 3471 3472 3473 3474 3475 3476 3477 3478 3479 3480 3481 3482 3483 3484 3485 3486 3487 3488 3489 3490 3491 3492 3493 3494 3495 3496 3497 3498 3499 3500 3501 3502 3503 3504 3505 3506 3507 3508 3509 3510 3511 3512 3513 3514 3515 3516 3517 3518 3519 3520 3521 3522 3523 3524 3525 3526 3527 3528 3529 3530 3531 3532 3533 3534 3535 3536 3537 3538 3539 3540 3541 3542 3543 3544 3545 3546 3547 3548 3549 3550 3551 3552 3553 3554 3555 3556 3557 3558 3559 3560 3561 3562 3563 3564 3565 3566 3567 3568 3569 3570 3571 3572 3573 3574 3575 3576 3577 3578 3579 3580 3581 3582 3583 3584 3585 3586 3587 3588 3589 3590 3591 3592 3593 3594 3595 3596 3597 3598 3599 3600 3601 3602 3603 3604 3605 3606 3607 3608 3609 3610 3611 3612 3613 3614 3615 3616 3617 3618 3619 3620 3621 3622 3623 3624 3625 3626 3627 3628 3629 3630 3631 3632 3633 3634 3635 3636 3637 3638 3639 3640 3641 3642 3643 3644 3645 3646 3647 3648 3649 3650 3651 3652 3653 3654 3655 3656 3657 3658 3659 3660 3661 3662 3663 3664 3665 3666 3667 3668 3669 3670 3671 3672 3673 3674 3675 3676 3677 3678 3679 3680 3681 3682 3683 3684 3685 3686 3687 3688 3689 3690 3691 3692 3693 3694 3695 3696 3697 3698 3699 3700 3701 3702 3703 3704 3705 3706 3707 3708 3709 3710 3711 3712 3713 3714 3715 3716 3717 3718 3719 3720 3721 3722 3723 3724 3725 3726 3727 3728 3729 3730 3731 3732 3733 3734 3735 3736 3737 3738 3739 3740 3741 3742 3743 3744 3745 3746 3747 3748 3749 3750 3751 3752 3753 3754 3755 3756 3757 3758 3759 3760 3761 3762 3763 3764 3765 3766 3767 3768 3769 3770 3771 3772 3773 3774 3775 3776 3777 3778 3779 3780 3781 3782 3783 3784 3785 3786 3787 3788 3789 3790 3791 3792 3793 3794 3795 3796 3797 3798 3799 3800 3801 3802 3803 3804 3805 3806 3807 3808 3809 3810 3811 3812 3813 3814 3815 3816 3817 3818 3819 3820 3821 3822 3823 3824 3825 3826 3827 3828 3829 3830 3831 3832 3833 3834 3835 3836 3837 3838 3839 3840 3841 3842 3843 3844 3845 3846 3847 3848 3849 3850 3851 3852 3853 3854 3855 3856 3857 3858 3859 3860 3861 3862 3863 3864 3865 3866 3867 3868 3869 3870 3871 3872 3873 3874 3875 3876 3877 3878 3879 3880 3881 3882 3883 3884 3885 3886 3887 3888 3889 3890 3891 3892 3893 3894 3895 3896 3897 3898 3899 3900 3901 3902 3903 3904 3905 3906 3907 3908 3909 3910 3911 3912 3913 3914 3915 3916 3917 3918 3919 3920 3921 3922 3923 3924 3925 3926 3927 3928 3929 3930 3931 3932 3933 3934 3935 3936 3937 3938 3939 3940 3941 3942 3943 3944 3945 3946 3947 3948 3949 3950 3951 3952 3953 3954 3955 3956 3957 3958 3959 3960 3961 3962 3963 3964 3965 3966 3967 3968 3969 3970 3971 3972 3973 3974 3975 3976 3977 3978 3979 3980 3981 3982 3983 3984 3985 3986 3987 3988 3989 3990 3991 3992 3993 3994 3995 3996 3997 3998 3999 4000 4001 4002 4003 4004 4005 4006 4007 4008 4009 4010 4011 4012 4013 4014 4015 4016 4017 4018 4019 4020 4021 4022 4023 4024 4025 4026 4027 4028 4029 4030 4031 4032 4033 4034 4035 4036 4037 4038 4039 4040 4041 4042 4043 4044 4045 4046 4047 4048 4049 4050 4051 4052 4053 4054 4055 4056 4057 4058 4059 4060 4061 4062 4063 4064 4065 4066 4067 4068 4069 4070 4071 4072 4073 4074 4075 4076 4077 4078 4079 4080 4081 4082 4083 4084 4085 4086 4087 4088 4089 4090 4091 4092 4093 4094 4095 4096 4097 4098 4099 4100 4101 4102 4103 4104 4105 4106 4107 4108 4109 4110 4111 4112 4113 4114 4115 4116 4117 4118 4119 4120 4121 4122 4123 4124 4125 4126 4127 4128 4129 4130 4131 4132 4133 4134 4135 4136 4137 4138 4139 4140 4141 4142 4143 4144 4145 4146 4147 4148 4149 4150 4151 4152 4153 4154 4155 4156 4157 4158 4159 4160 4161 4162 4163 4164 4165 4166 4167 4168 4169 4170 4171 4172 4173 4174 4175 4176 4177 4178 4179 4180 4181 4182 4183 4184 4185 4186 4187 4188 4189 4190 4191 4192 4193 4194 4195 4196 4197 4198 4199 4200 4201 4202 4203 4204 4205 4206 4207 4208 4209 4210 4211 4212 4213 4214 4215 4216 4217 4218 4219 4220 4221 4222 4223 4224 4225 4226 4227 4228 4229 4230 4231 4232 4233 4234 4235 4236 4237 4238 4239 4240 4241 4242 4243 4244 4245 4246 4247 4248 4249 4250 4251 4252 4253 4254 4255 4256 4257 4258 4259 4260 4261 4262 4263 4264 4265 4266 4267 4268 4269 4270 4271 4272 4273 4274 4275 4276 4277 4278 4279 4280 4281 4282 4283 4284 4285 4286 4287 4288 4289 4290 4291 4292 4293 4294 4295 4296 4297 4298 4299 4300 4301 4302 4303 4304 4305 4306 4307 4308 4309 4310 4311 4312 4313 4314 4315 4316 4317 4318 4319 4320 4321 4322 4323 4324 4325 4326 4327 4328 4329 4330 4331 4332 4333 4334 4335 4336 4337 4338 4339 4340 4341 4342 4343 4344 4345 4346 4347 4348 4349 4350 4351 4352 4353 4354 4355 4356 4357 4358 4359 4360 4361 4362 4363 4364 4365 4366 4367 4368 4369 4370 4371 4372 4373 4374 4375 4376 4377 4378 4379 4380 4381 4382 4383 4384 4385 4386 4387 4388 4389 4390 4391 4392 4393 4394 4395 4396 4397 4398 4399 4400 4401 4402 4403 4404 4405 4406 4407 4408 4409 4410 4411 4412 4413 4414 4415 4416 4417 4418 4419 4420 4421 4422 4423 4424 4425 4426 4427 4428 4429 4430 4431 4432 4433 4434 4435 4436 4437 4438 4439 4440 4441 4442 4443 4444 4445 4446 4447 4448 4449 4450 4451 4452 4453 4454 4455 4456 4457 4458 4459 4460 4461 4462 4463 4464 4465 4466 4467 4468 4469 4470 4471 4472 4473 4474 4475 4476 4477 4478 4479 4480 4481 4482 4483 4484 4485 4486 4487 4488 4489 4490 4491 4492 4493 4494 4495 4496 4497 4498 4499 4500 4501 4502 4503 4504 4505 4506 4507 4508 4509 4510 4511 4512 4513 4514 4515 4516 4517 4518 4519 4520 4521 4522 4523 4524 4525 4526 4527 4528 4529 4530 4531 4532 4533 4534 4535 4536 4537 4538 4539 4540 4541 4542 4543 4544 4545 4546 4547 4548 4549 4550 4551 4552 4553 4554 4555 4556 4557 4558 4559 4560 4561 4562 4563 4564 4565 4566 4567 4568 4569 4570 4571 4572 4573 4574 4575 4576 4577 4578 4579 4580 4581 4582 4583 4584 4585 4586 4587 4588 4589 4590 4591 4592 4593 4594 4595 4596 4597 4598 4599 4600 4601 4602 4603 4604 4605 4606 4607 4608 4609 4610 4611 4612 4613 4614 4615 4616 4617 4618 4619 4620 4621 4622 4623 4624 4625 4626 4627 4628 4629 4630 4631 4632 4633 4634 4635 4636 4637 4638 4639 4640 4641 4642 4643 4644 4645 4646 4647 4648 4649 4650 4651 4652 4653 4654 4655 4656 4657 4658 4659 4660 4661 4662 4663 4664 4665 4666 4667 4668 4669 4670 4671 4672 4673 4674 4675 4676 4677 4678 4679 4680 4681 4682 4683 4684 4685 4686 4687 4688 4689 4690 4691 4692 4693 4694 4695 4696 4697 4698 4699 4700 4701 4702 4703 4704 4705 4706 4707 4708 4709 4710 4711 4712 4713 4714 4715 4716 4717 4718 4719 4720 4721 4722 4723 4724 4725 4726 4727 4728 4729 4730 4731 4732 4733 4734 4735 4736 4737 4738 4739 4740 4741 4742 4743 4744 4745 4746 4747 4748 4749 4750 4751 4752 4753 4754 4755 4756 4757 4758 4759 4760 4761 4762 4763 4764 4765 4766 4767 4768 4769 4770 4771 4772 4773 4774 4775 4776 4777 4778 4779 4780 4781 4782 4783 4784 4785 4786 4787 4788 4789 4790 4791 4792 4793 4794 4795 4796 4797 4798 4799 4800 4801 4802 4803 4804 4805 4806 4807 4808 4809 4810 4811 4812 4813 4814 4815 4816 4817 4818 4819 4820 4821 4822 4823 4824 4825 4826 4827 4828 4829 4830 4831 4832 4833 4834 4835 4836 4837 4838 4839 4840 4841 4842 4843 4844 4845 4846 4847 4848 4849 4850 4851 4852 4853 4854 4855 4856 4857 4858 4859 4860 4861 4862 4863 4864 4865 4866 4867 4868 4869 4870 4871 4872 4873 4874 4875 4876 4877 4878 4879 4880 4881 4882 4883 4884 4885 4886 4887 4888 4889 4890 4891 4892 4893 4894 4895 4896 4897 4898 4899 4900 4901 4902 4903 4904 4905 4906 4907 4908 4909 4910 4911 4912 4913 4914 4915 4916 4917 4918 4919 4920 4921 4922 4923 4924 4925 4926 4927 4928 4929 4930 4931 4932 4933 4934 4935 4936 4937 4938 4939 4940 4941 4942 4943 4944 4945 4946 4947 4948 4949 4950 4951 4952 4953 4954 4955 4956 4957 4958 4959 4960 4961 4962 4963 4964 4965 4966 4967 4968 4969 4970 4971 4972 4973 4974 4975 4976 4977 4978 4979 4980 4981 4982 4983 4984 4985 4986 4987 4988 4989 4990 4991 4992 4993 4994 4995 4996 4997 4998 4999 5000 5001 5002 5003 5004 5005 5006 5007 5008 5009 5010 5011 5012 5013 5014 5015 5016 5017 5018 5019 5020 5021 5022 5023 5024 5025 5026 5027 5028 5029 5030 5031 5032 5033 5034 5035 5036 5037 5038 5039 5040 5041 5042 5043 5044 5045 5046 5047 5048 5049 5050 5051 5052 5053 5054 5055 5056 5057 5058 5059 5060 5061 5062 5063 5064 5065 5066 5067 5068 5069 5070 5071 5072 5073 5074 5075 5076 5077 5078 5079 5080 5081 5082 5083 5084 5085 5086 5087 5088 5089 5090 5091 5092 5093 5094 5095 5096 5097 5098 5099 5100 5101 5102 5103 5104 5105 5106 5107 5108 5109 5110 5111 5112 5113 5114 5115 5116 5117 5118 5119 5120 5121 5122 5123 5124 5125 5126 5127 5128 5129 5130 5131 5132 5133 5134 5135 5136 5137 5138 5139 5140 5141 5142 5143 5144 5145 5146 5147 5148 5149 5150 5151 5152 5153 5154 5155 5156 5157 5158 5159 5160 5161 5162 5163 5164 5165 5166 5167 5168 5169 5170 5171 5172 5173 5174 5175 5176 5177 5178 5179 5180 5181 5182 5183 5184 5185 5186 5187 5188 5189 5190 5191 5192 5193 5194 5195 5196 5197 5198 5199 5200 5201 5202 5203 5204 5205 5206 5207 5208 5209 5210 5211 5212 5213 5214 5215 5216 5217 5218 5219 5220 5221 5222 5223 5224 5225 5226 5227 5228 5229 5230 5231 5232 5233 5234 5235 5236 5237 5238 5239 5240 5241 5242 5243 5244 5245 5246 5247 5248 5249 5250 5251 5252 5253 5254 5255 5256 5257 5258 5259 5260 5261 5262 5263 5264 5265 5266 5267 5268 5269 5270 5271 5272 5273 5274 5275 5276 5277 5278 5279 5280 5281 5282 5283 5284 5285 5286 5287 5288 5289 5290 5291 5292 5293 5294 5295 5296 5297 5298 5299 5300 5301 5302 5303 5304 5305 5306 5307 5308 5309 5310 5311 5312 5313 5314 5315 5316 5317 5318 5319 5320 5321 5322 5323 5324 5325 5326 5327 5328 5329 5330 5331 5332 5333 5334 5335 5336 5337 5338 5339 5340 5341 5342 5343 5344 5345 5346 5347 5348 5349 5350 5351 5352 5353 5354 5355 5356 5357 5358 5359 5360 5361 5362 5363 5364 5365 5366 5367 5368 5369 5370 5371 5372 5373 5374 5375 5376 5377 5378 5379 5380 5381 5382 5383 5384 5385 5386 5387 5388 5389 5390 5391 5392 5393 5394 5395 5396 5397 5398 5399 5400 5401 5402 5403 5404 5405 5406 5407 5408 5409 5410 5411 5412 5413 5414 5415 5416 5417 5418 5419 5420 5421 5422 5423 5424 5425 5426 5427 5428 5429 5430 5431 5432 5433 5434 5435 5436 5437 5438 5439 5440 5441 5442 5443 5444 5445 5446 5447 5448 5449 5450 5451 5452 5453 5454 5455 5456 5457 5458 5459 5460 5461 5462 5463 5464 5465 5466 5467 5468 5469 5470 5471 5472 5473 5474 5475 5476 5477 5478 5479 5480 5481 5482 5483 5484 5485 5486 5487 5488 5489 5490 5491 5492 5493 5494 5495 5496 5497 5498 5499 5500 5501 5502 5503 5504 5505 5506 5507 5508 5509 5510 5511 5512 5513 5514 5515 5516 5517 5518 5519 5520 5521 5522 5523 5524 5525 5526 5527 5528 5529 5530 5531 5532 5533 5534 5535 5536 5537 5538 5539 5540 5541 5542 5543 5544 5545 5546 5547 5548 5549 5550 5551 5552 5553 5554 5555 5556 5557 5558 5559 5560 5561 5562 5563 5564 5565 5566 5567 5568 5569 5570 5571 5572 5573 5574 5575 5576 5577 5578 5579 5580 5581 5582 5583 5584 5585 5586 5587 5588 5589 5590 5591 5592 5593 5594 5595 5596 5597 5598 5599 5600 5601 5602 5603 5604 5605 5606 5607 5608 5609 5610 5611 5612 5613 5614 5615 5616 5617 5618 5619 5620 5621 5622 5623 5624 5625 5626 5627 5628 5629 5630 5631 5632 5633 5634 5635 5636 5637 5638 5639 5640 5641 5642 5643 5644 5645 5646 5647 5648 5649 5650 5651 5652 5653 5654 5655 5656 5657 5658 5659 5660 5661 5662 5663 5664 5665 5666 5667 5668 5669 5670 5671 5672 5673 5674 5675 5676 5677 5678 5679 5680 5681 5682 5683 5684 5685 5686 5687 5688 5689 5690 5691 5692 5693 5694 5695 5696 5697 5698 5699 5700 5701 5702 5703 5704 5705 5706 5707 5708 5709 5710 5711 5712 5713 5714 5715 5716 5717 5718 5719 5720 5721 5722 5723 5724 5725 5726 5727 5728 5729 5730 5731 5732 5733 5734 5735 5736 5737 5738 5739 5740 5741 5742 5743 5744 5745 5746 5747 5748 5749 5750 5751 5752 5753 5754 5755 5756 5757 5758 5759 5760 5761 5762 5763 5764 5765 5766 5767 5768 5769 5770 5771 5772 5773 5774 5775 5776 5777 5778 5779 5780 5781 5782 5783 5784 5785 5786 5787 5788 5789 5790 5791 5792 5793 5794 5795 5796 5797 5798 5799 5800 5801 5802 5803 5804 5805 5806 5807 5808 5809 5810 5811 5812 5813 5814 5815 5816 5817 5818 5819 5820 5821 5822 5823 5824 5825 5826 5827 5828 5829 5830 5831 5832 5833 5834 5835 5836 5837 5838 5839 5840 5841 5842 5843 5844 5845 5846 5847 5848 5849 5850 5851 5852 5853 5854 5855 5856 5857 5858 5859 5860 5861 5862 5863 5864 5865 5866 5867 5868 5869 5870 5871 5872 5873 5874 5875 5876 5877 5878 5879 5880 5881 5882 5883 5884 5885 5886 5887 5888 5889 5890 5891 5892 5893 5894 5895 5896 5897 5898 5899 5900 5901 5902 5903 5904 5905 5906 5907 5908 5909 5910 5911 5912 5913 5914 5915 5916 5917 5918 5919 5920 5921 5922 5923 5924 5925 5926 5927 5928 5929 5930 5931 5932 5933 5934 5935 5936 5937 5938 5939 5940 5941 5942 5943 5944 5945 5946 5947 5948 5949 5950 5951 5952 5953 5954 5955 5956 5957 5958 5959 5960 5961 5962 5963 5964 5965 5966 5967 5968 5969 5970 5971 5972 5973 5974 5975 5976 5977 5978 5979 5980 5981 5982 5983 5984 5985 5986 5987 5988 5989 5990 5991 5992 5993 5994 5995 5996 5997 5998 5999 6000 6001 6002 6003 6004 6005 6006 6007 6008 6009 6010 6011 6012 6013 6014 6015 6016 6017 6018 6019 6020 6021 6022 6023 6024 6025 6026 6027 6028 6029 6030 6031 6032 6033 6034 6035 6036 6037 6038 6039 6040 6041 6042 6043 6044 6045 6046 6047 6048 6049 6050 6051 6052 6053 6054 6055 6056 6057 6058 6059 6060 6061 6062 6063 6064 6065 6066 6067 6068 6069 6070 6071 6072 6073 6074 6075 6076 6077 6078 6079 6080 6081 6082 6083 6084 6085 6086 6087 6088 6089 6090 6091 6092 6093 6094 6095 6096 6097 6098 6099 6100 6101 6102 6103 6104 6105 6106 6107 6108 6109 6110 6111 6112 6113 6114 6115 6116 6117 6118 6119 6120 6121 6122 6123 6124 6125 6126 6127 6128 6129 6130 6131 6132 6133 6134 6135 6136 6137 6138 6139 6140 6141 6142 6143 6144 6145 6146 6147 6148 6149 6150 6151 6152 6153 6154 6155 6156 6157 6158 6159 6160 6161 6162 6163 6164 6165 6166 6167 6168 6169 6170 6171 6172 6173 6174 6175 6176 6177 6178 6179 6180 6181 6182 6183 6184 6185 6186 6187 6188 6189 6190 6191 6192 6193 6194 6195 6196 6197 6198 6199 6200 6201 6202 6203 6204 6205 6206 6207 6208 6209 6210 6211 6212 6213 6214 6215 6216 6217 6218 6219 6220 6221 6222 6223 6224 6225 6226 6227 6228 6229 6230 6231 6232 6233 6234 6235 6236 6237 6238 6239 6240 6241 6242 6243 6244 6245 6246 6247 6248 6249 6250 6251 6252 6253 6254 6255 6256 6257 6258 6259 6260 6261 6262 6263 6264 6265 6266 6267 6268 6269 6270 6271 6272 6273 6274 6275 6276 6277 6278 6279 6280 6281 6282 6283 6284 6285 6286 6287 6288 6289 6290 6291 6292 6293 6294 6295 6296 6297 6298 6299 6300 6301 6302 6303 6304 6305 6306 6307 6308 6309 6310 6311 6312 6313 6314 6315 6316 6317 6318 6319 6320 6321 6322 6323 6324 6325 6326 6327 6328 6329 6330 6331 6332 6333 6334 6335 6336 6337 6338 6339 6340 6341 6342 6343 6344 6345 6346 6347 6348 6349 6350 6351 6352 6353 6354 6355 6356 6357 6358 6359 6360 6361 6362 6363 6364 6365 6366 6367 6368 6369 6370 6371 6372 6373 6374 6375 6376 6377 6378 6379 6380 6381 6382 6383 6384 6385 6386 6387 6388 6389 6390 6391 6392 6393 6394 6395 6396 6397 6398 6399 6400 6401 6402 6403 6404 6405 6406 6407 6408 6409 6410 6411 6412 6413 6414 6415 6416 6417 6418 6419 6420 6421 6422 6423 6424 6425 6426 6427 6428 6429 6430 6431 6432 6433 6434 6435 6436 6437 6438 6439 6440 6441 6442 6443 6444 6445 6446 6447 6448 6449 6450 6451 6452 6453 6454 6455 6456 6457 6458 6459 6460 6461 6462 6463 6464 6465 6466 6467 6468 6469 6470 6471 6472 6473 6474 6475 6476 6477 6478 6479 6480 6481 6482 6483 6484 6485 6486 6487 6488 6489 6490 6491 6492 6493 6494 6495 6496 6497 6498 6499 6500 6501 6502 6503 6504 6505 6506 6507 6508 6509 6510 6511 6512 6513 6514 6515 6516 6517 6518 6519 6520 6521 6522 6523 6524 6525 6526 6527 6528 6529 6530 6531 6532 6533 6534 6535 6536 6537 6538 6539 6540 6541 6542 6543 6544 6545 6546 6547 6548 6549 6550 6551 6552 6553 6554 6555 6556 6557 6558 6559 6560 6561 6562 6563 6564 6565 6566 6567 6568 6569 6570 6571 6572 6573 6574 6575 6576 6577 6578 6579 6580 6581 6582 6583 6584 6585 6586 6587 6588 6589 6590 6591 6592 6593 6594 6595 6596 6597 6598 6599 6600 6601 6602 6603 6604 6605 6606 6607 6608 6609 6610 6611 6612 6613 6614 6615 6616 6617 6618 6619 6620 6621 6622 6623 6624 6625 6626 6627 6628 6629 6630 6631 6632 6633 6634 6635 6636 6637 6638 6639 6640 6641 6642 6643 6644 6645 6646 6647 6648 6649 6650 6651 6652 6653 6654 6655 6656 6657 6658 6659 6660 6661 6662 6663 6664 6665 6666 6667 6668 6669 6670 6671 6672 6673 6674 6675 6676 6677 6678 6679 6680 6681 6682 6683 6684 6685 6686 6687 6688 6689 6690 6691 6692 6693 6694 6695 6696 6697 6698 6699 6700 6701 6702 6703 6704 6705 6706 6707 6708 6709 6710 6711 6712 6713 6714 6715 6716 6717 6718 6719 6720 6721 6722 6723 6724 6725 6726 6727 6728 6729 6730 6731 6732 6733 6734 6735 6736 6737 6738 6739 6740 6741 6742 6743 6744 6745 6746 6747 6748 6749 6750 6751 6752 6753 6754 6755 6756 6757 6758 6759 6760 6761 6762 6763 6764 6765 6766 6767 6768 6769 6770 6771 6772 6773 6774 6775 6776 6777 6778 6779 6780 6781 6782 6783 6784 6785 6786 6787 6788 6789 6790 6791 6792 6793 6794 6795 6796 6797 6798 6799 6800 6801 6802 6803 6804 6805 6806 6807 6808 6809 6810 6811 6812 6813 6814 6815 6816 6817 6818 6819 6820 6821 6822 6823 6824 6825 6826 6827 6828 6829 6830 6831 6832 6833 6834 6835 6836 6837 6838 6839 6840 6841 6842 6843 6844 6845 6846 6847 6848 6849 6850 6851 6852 6853 6854 6855 6856 6857 6858 6859 6860 6861 6862 6863 6864 6865 6866 6867 6868 6869 6870 6871 6872 6873 6874 6875 6876 6877 6878 6879 6880 6881 6882 6883 6884 6885 6886 6887 6888 6889 6890 6891 6892 6893 6894 6895 6896 6897 6898 6899 6900 6901 6902 6903 6904 6905 6906 6907 6908 6909 6910 6911 6912 6913 6914 6915 6916 6917 6918 6919 6920 6921 6922 6923 6924 6925 6926 6927 6928 6929 6930 6931 6932 6933 6934 6935 6936 6937 6938 6939 6940 6941 6942 6943 6944 6945 6946 6947 6948 6949 6950 6951 6952 6953 6954 6955 6956 6957 6958 6959 6960 6961 6962 6963 6964 6965 6966 6967 6968 6969 6970 6971 6972 6973 6974 6975 6976 6977 6978 6979 6980 6981 6982 6983 6984 6985 6986 6987 6988 6989 6990 6991 6992 6993 6994 6995 6996 6997 6998 6999 7000 7001 7002 7003 7004 7005 7006 7007 7008 7009 7010 7011 7012 7013 7014 7015 7016 7017 7018 7019 7020 7021 7022 7023 7024 7025 7026 7027 7028 7029 7030 7031 7032 7033 7034 7035 7036 7037 7038 7039 7040 7041 7042 7043 7044 7045 7046 7047 7048 7049 7050 7051 7052 7053 7054 7055 7056 7057 7058 7059 7060 7061 7062 7063 7064 7065 7066 7067 7068 7069 7070 7071 7072 7073 7074 7075 7076 7077 7078 7079 7080 7081 7082 7083 7084 7085 7086 7087 7088 7089 7090 7091 7092 7093 7094 7095 7096 7097 7098 7099 7100 7101 7102 7103 7104 7105 7106 7107 7108 7109 7110 7111 7112 7113 7114 7115 7116 7117 7118 7119 7120 7121 7122 7123 7124 7125 7126 7127 7128 7129 7130 7131 7132 7133 7134 7135 7136 7137 7138 7139 7140 7141 7142 7143 7144 7145 7146 7147 7148 7149 7150 7151 7152 7153 7154 7155 7156 7157 7158 7159 7160 7161 7162 7163 7164 7165 7166 7167 7168 7169 7170 7171 7172 7173 7174 7175 7176 7177 7178 7179 7180 7181 7182 7183 7184 7185 7186 7187 7188 7189 7190 7191 7192 7193 7194 7195 7196 7197 7198 7199 7200 7201 7202 7203 7204 7205 7206 7207 7208 7209 7210 7211 7212 7213 7214 7215 7216 7217 7218 7219 7220 7221 7222 7223 7224 7225 7226 7227 7228 7229 7230 7231 7232 7233 7234 7235 7236 7237 7238 7239 7240 7241 7242 7243 7244 7245 7246 7247 7248 7249 7250 7251 7252 7253 7254 7255 7256 7257 7258 7259 7260 7261 7262 7263 7264 7265 7266 7267 7268 7269 7270 7271 7272 7273 7274 7275 7276 7277 7278 7279 7280 7281 7282 7283 7284 7285 7286 7287 7288 7289 7290 7291 7292 7293 7294 7295 7296 7297 7298 7299 7300 7301 7302 7303 7304 7305 7306 7307 7308 7309 7310 7311 7312 7313 7314 7315 7316 7317 7318 7319 7320 7321 7322 7323 7324 7325 7326 7327 7328 7329 7330 7331 7332 7333 7334 7335 7336 7337 7338 7339 7340 7341 7342 7343 7344 7345 7346 7347 7348 7349 7350 7351 7352 7353 7354 7355 7356 7357 7358 7359 7360 7361 7362 7363 7364 7365 7366 7367 7368 7369 7370 7371 7372 7373 7374 7375 7376 7377 7378 7379 7380 7381 7382 7383 7384 7385 7386 7387 7388 7389 7390 7391 7392 7393 7394 7395 7396 7397 7398 7399 7400 7401 7402 7403 7404 7405 7406 7407 7408 7409 7410 7411 7412 7413 7414 7415 7416 7417 7418 7419 7420 7421 7422 7423 7424 7425 7426 7427 7428 7429 7430 7431 7432 7433 7434 7435 7436 7437 7438 7439 7440 7441 7442 7443 7444 7445 7446 7447 7448 7449 7450 7451 7452 7453 7454 7455 7456 7457 7458 7459 7460 7461 7462 7463 7464 7465 7466 7467 7468 7469 7470 7471 7472 7473 7474 7475 7476 7477 7478 7479 7480 7481 7482 7483 7484 7485 7486 7487 7488 7489 7490 7491 7492 7493 7494 7495 7496 7497 7498 7499 7500 7501 7502 7503 7504 7505 7506 7507 7508 7509 7510 7511 7512 7513 7514 7515 7516 7517 7518 7519 7520 7521 7522 7523 7524 7525 7526 7527 7528 7529 7530 7531 7532 7533 7534 7535 7536 7537 7538 7539 7540 7541 7542 7543 7544 7545 7546 7547 7548 7549 7550 7551 7552 7553 7554 7555 7556 7557 7558 7559 7560 7561 7562 7563 7564 7565 7566 7567 7568 7569 7570 7571 7572 7573 7574 7575 7576 7577 7578 7579 7580 7581 7582 7583 7584 7585 7586 7587 7588 7589 7590 7591 7592 7593 7594 7595 7596 7597 7598 7599 7600 7601 7602 7603 7604 7605 7606 7607 7608 7609 7610 7611 7612 7613 7614 7615 7616 7617 7618 7619 7620 7621 7622 7623 7624 7625 7626 7627 7628 7629 7630 7631 7632 7633 7634 7635 7636 7637 7638 7639 7640 7641 7642 7643 7644 7645 7646 7647 7648 7649 7650 7651 7652 7653 7654 7655 7656 7657 7658 7659 7660 7661 7662 7663 7664 7665 7666 7667 7668 7669 7670 7671 7672 7673 7674 7675 7676 7677 7678 7679 7680 7681 7682 7683 7684 7685 7686 7687 7688 7689 7690 7691 7692 7693 7694 7695 7696 7697 7698 7699 7700 7701 7702 7703 7704 7705 7706 7707 7708 7709 7710 7711 7712 7713 7714 7715 7716 7717 7718 7719 7720 7721 7722 7723 7724 7725 7726 7727 7728 7729 7730 7731 7732 7733 7734 7735 7736 7737 7738 7739 7740 7741 7742 7743 7744 7745 7746 7747 7748 7749 7750 7751 7752 7753 7754 7755 7756 7757 7758 7759 7760 7761 7762 7763 7764 7765 7766 7767 7768 7769 7770 7771 7772 7773 7774 7775 7776 7777 7778 7779 7780 7781 7782 7783 7784 7785 7786 7787 7788 7789 7790 7791 7792 7793 7794 7795 7796 7797 7798 7799 7800 7801 7802 7803 7804 7805 7806 7807 7808 7809 7810 7811 7812 7813 7814 7815 7816 7817 7818 7819 7820 7821 7822 7823 7824 7825 7826 7827 7828 7829 7830 7831 7832 7833 7834 7835 7836 7837 7838 7839 7840 7841 7842 7843 7844 7845 7846 7847 7848 7849 7850 7851 7852 7853 7854 7855 7856 7857 7858 7859 7860 7861 7862 7863 7864 7865 7866 7867 7868 7869 7870 7871 7872 7873 7874 7875 7876 7877 7878 7879 7880 7881 7882 7883 7884 7885 7886 7887 7888 7889 7890 7891 7892 7893 7894 7895 7896 7897 7898 7899 7900 7901 7902 7903 7904 7905 7906 7907 7908 7909 7910 7911 7912 7913 7914 7915 7916 7917 7918 7919 7920 7921 7922 7923 7924 7925 7926 7927 7928 7929 7930 7931 7932 7933 7934 7935 7936 7937 7938 7939 7940 7941 7942 7943 7944 7945 7946 7947 7948 7949 7950 7951 7952 7953 7954 7955 7956 7957 7958 7959 7960 7961 7962 7963 7964 7965 7966 7967 7968 7969 7970 7971 7972 7973 7974 7975 7976 7977 7978 7979 7980 7981 7982 7983 7984 7985 7986 7987 7988 7989 7990 7991 7992 7993 7994 7995 7996 7997 7998 7999 8000 8001 8002 8003 8004 8005 8006 8007 8008 8009 8010 8011 8012 8013 8014 8015 8016 8017 8018 8019 8020 8021 8022 8023 8024 8025 8026 8027 8028 8029 8030 8031 8032 8033 8034 8035 8036 8037 8038 8039 8040 8041 8042 8043 8044 8045 8046 8047 8048 8049 8050 8051 8052 8053 8054 8055 8056 8057 8058 8059 8060 8061 8062 8063 8064 8065 8066 8067 8068 8069 8070 8071 8072 8073 8074 8075 8076 8077 8078 8079 8080 8081 8082 8083 8084 8085 8086 8087 8088 8089 8090 8091 8092 8093 8094 8095 8096 8097 8098 8099 8100 8101 8102 8103 8104 8105 8106 8107 8108 8109 8110 8111 8112 8113 8114 8115 8116 8117 8118 8119 8120 8121 8122 8123 8124 8125 8126 8127 8128 8129 8130 8131 8132 8133 8134 8135 8136 8137 8138 8139 8140 8141 8142 8143 8144 8145 8146 8147 8148 8149 8150 8151 8152 8153 8154 8155 8156 8157 8158 8159 8160 8161 8162 8163 8164 8165 8166 8167 8168 8169 8170 8171 8172 8173 8174 8175 8176 8177 8178 8179 8180 8181 8182 8183 8184 8185 8186 8187 8188 8189 8190 8191 8192 8193 8194 8195 8196 8197 8198 8199 8200 8201 8202 8203 8204 8205 8206 8207 8208 8209 8210 8211 8212 8213 8214 8215 8216 8217 8218 8219 8220 8221 8222 8223 8224 8225 8226 8227 8228 8229 8230 8231 8232 8233 8234 8235 8236 8237 8238 8239 8240 8241 8242 8243 8244 8245 8246 8247 8248 8249 8250 8251 8252 8253 8254 8255 8256 8257 8258 8259 8260 8261 8262 8263 8264 8265 8266 8267 8268 8269 8270 8271 8272 8273 8274 8275 8276 8277 8278 8279 8280 8281 8282 8283 8284 8285 8286 8287 8288 8289 8290 8291 8292 8293 8294 8295 8296 8297 8298 8299 8300 8301 8302 8303 8304 8305 8306 8307 8308 8309 8310 8311 8312 8313 8314 8315 8316 8317 8318 8319 8320 8321 8322 8323 8324 8325 8326 8327 8328 8329 8330 8331 8332 8333 8334 8335 8336 8337 8338 8339 8340 8341 8342 8343 8344 8345 8346 8347 8348 8349 8350 8351 8352 8353 8354 8355 8356 8357 8358 8359 8360 8361 8362 8363 8364 8365 8366 8367 8368 8369 8370 8371 8372 8373 8374 8375 8376 8377 8378 8379 8380 8381 8382 8383 8384 8385 8386 8387 8388 8389 8390 8391 8392 8393 8394 8395 8396 8397 8398 8399 8400 8401 8402 8403 8404 8405 8406 8407 8408 8409 8410 8411 8412 8413 8414 8415 8416 8417 8418 8419 8420 8421 8422 8423 8424 8425 8426 8427 8428 8429 8430 8431 8432 8433 8434 8435 8436 8437 8438 8439 8440 8441 8442 8443 8444 8445 8446 8447 8448 8449 8450 8451 8452 8453 8454 8455 8456 8457 8458 8459 8460 8461 8462 8463 8464 8465 8466 8467 8468 8469 8470 8471 8472 8473 8474 8475 8476 8477 8478 8479 8480 8481 8482 8483 8484 8485 8486 8487 8488 8489 8490 8491 8492 8493 8494 8495 8496 8497 8498 8499 8500 8501 8502 8503 8504 8505 8506 8507 8508 8509 8510 8511 8512 8513 8514 8515 8516 8517 8518 8519 8520 8521 8522 8523 8524 8525 8526 8527 8528 8529 8530 8531 8532 8533 8534 8535 8536 8537 8538 8539 8540 8541 8542 8543 8544 8545 8546 8547 8548 8549 8550 8551 8552 8553 8554 8555 8556 8557 8558 8559 8560 8561 8562 8563 8564 8565 8566 8567 8568 8569 8570 8571 8572 8573 8574 8575 8576 8577 8578 8579 8580 8581 8582 8583 8584 8585 8586 8587 8588 8589 8590 8591 8592 8593 8594 8595 8596 8597 8598 8599 8600 8601 8602 8603 8604 8605 8606 8607 8608 8609 8610 8611 8612 8613 8614 8615 8616 8617 8618 8619 8620 8621 8622 8623 8624 8625 8626 8627 8628 8629 8630 8631 8632 8633 8634 8635 8636 8637 8638 8639 8640 8641 8642 8643 8644 8645 8646 8647 8648 8649 8650 8651 8652 8653 8654 8655 8656 8657 8658 8659 8660 8661 8662 8663 8664 8665 8666 8667 8668 8669 8670 8671 8672 8673 8674 8675 8676 8677 8678 8679 8680 8681 8682 8683 8684 8685 8686 8687 8688 8689 8690 8691 8692 8693 8694 8695 8696 8697 8698 8699 8700 8701 8702 8703 8704 8705 8706 8707 8708 8709 8710 8711 8712 8713 8714 8715 8716 8717 8718 8719 8720 8721 8722 8723 8724 8725 8726 8727 8728 8729 8730 8731 8732 8733 8734 8735 8736 8737 8738 8739 8740 8741 8742 8743 8744 8745 8746 8747 8748 8749 8750 8751 8752 8753 8754 8755 8756 8757 8758 8759 8760 8761 8762 8763 8764 8765 8766 8767 8768 8769 8770 8771 8772 8773 8774 8775 8776 8777 8778 8779 8780 8781 8782 8783 8784 8785 8786 8787 8788 8789 8790 8791 8792 8793 8794 8795 8796 8797 8798 8799 8800 8801 8802 8803 8804 8805 8806 8807 8808 8809 8810 8811 8812 8813 8814 8815 8816 8817 8818 8819 8820 8821 8822 8823 8824 8825 8826 8827 8828 8829 8830 8831 8832 8833 8834 8835 8836 8837 8838 8839 8840 8841 8842 8843 8844 8845 8846 8847 8848 8849 8850 8851 8852 8853 8854 8855 8856 8857 8858 8859 8860 8861 8862 8863 8864 8865 8866 8867 8868 8869 8870 8871 8872 8873 8874 8875 8876 8877 8878 8879 8880 8881 8882 8883 8884 8885 8886 8887 8888 8889 8890 8891 8892 8893 8894 8895 8896 8897 8898 8899 8900 8901 8902 8903 8904 8905 8906 8907 8908 8909 8910 8911 8912 8913 8914 8915 8916 8917 8918 8919 8920 8921 8922 8923 8924 8925 8926 8927 8928 8929 8930 8931 8932 8933 8934 8935 8936 8937 8938 8939 8940 8941 8942 8943 8944 8945 8946 8947 8948 8949 8950 8951 8952 8953 8954 8955 8956 8957 8958 8959 8960 8961 8962 8963 8964 8965 8966 8967 8968 8969 8970 8971 8972 8973 8974 8975 8976 8977 8978 8979 8980 8981 8982 8983 8984 8985 8986 8987 8988 8989 8990 8991 8992 8993 8994 8995 8996 8997 8998 8999 9000 9001 9002 9003 9004 9005 9006 9007 9008 9009 9010 9011 9012 9013 9014 9015 9016 9017 9018 9019 9020 9021 9022 9023 9024 9025 9026 9027 9028 9029 9030 9031 9032 9033 9034 9035 9036 9037 9038 9039 9040 9041 9042 9043 9044 9045 9046 9047 9048 9049 9050 9051 9052 9053 9054 9055 9056 9057 9058 9059 9060 9061 9062 9063 9064 9065 9066 9067 9068 9069 9070 9071 9072 9073 9074 9075 9076 9077 9078 9079 9080 9081 9082 9083 9084 9085 9086 9087 9088 9089 9090 9091 9092 9093 9094 9095 9096 9097 9098 9099 9100 9101 9102 9103 9104 9105 9106 9107 9108 9109 9110 9111 9112 9113 9114 9115 9116 9117 9118 9119 9120 9121 9122 9123 9124 9125 9126 9127 9128 9129 9130 9131 9132 9133 9134 9135 9136 9137 9138 9139 9140 9141 9142 9143 9144 9145 9146 9147 9148 9149 9150 9151 9152 9153 9154 9155 9156 9157 9158 9159 9160 9161 9162 9163 9164 9165 9166 9167 9168 9169 9170 9171 9172 9173 9174 9175 9176 9177 9178 9179 9180 9181 9182 9183 9184 9185 9186 9187 9188 9189 9190 9191 9192 9193 9194 9195 9196 9197 9198 9199 9200 9201 9202 9203 9204 9205 9206 9207 9208 9209 9210 9211 9212 9213 9214 9215 9216 9217 9218 9219 9220 9221 9222 9223 9224 9225 9226 9227 9228 9229 9230 9231 9232 9233 9234 9235 9236 9237 9238 9239 9240 9241 9242 9243 9244 9245 9246 9247 9248 9249 9250 9251 9252 9253 9254 9255 9256 9257 9258 9259 9260 9261 9262 9263 9264 9265 9266 9267 9268 9269 9270 9271 9272 9273 9274 9275 9276 9277 9278 9279 9280 9281 9282 9283 9284 9285 9286 9287 9288 9289 9290 9291 9292 9293 9294 9295 9296 9297 9298 9299 9300 9301 9302 9303 9304 9305 9306 9307 9308 9309 9310 9311 9312 9313 9314 9315 9316 9317 9318 9319 9320 9321 9322 9323 9324 9325 9326 9327 9328 9329 9330 9331 9332 9333 9334 9335 9336 9337 9338 9339 9340 9341 9342 9343 9344 9345 9346 9347 9348 9349 9350 9351 9352 9353 9354 9355 9356 9357 9358 9359 9360 9361 9362 9363 9364 9365 9366 9367 9368 9369 9370 9371 9372 9373 9374 9375 9376 9377 9378 9379 9380 9381 9382 9383 9384 9385 9386 9387 9388 9389 9390 9391 9392 9393 9394 9395 9396 9397 9398 9399 9400 9401 9402 9403 9404 9405 9406 9407 9408 9409 9410 9411 9412 9413 9414 9415 9416 9417 9418 9419 9420 9421 9422 9423 9424 9425 9426 9427 9428 9429 9430 9431 9432 9433 9434 9435 9436 9437 9438 9439 9440 9441 9442 9443 9444 9445 9446 9447 9448 9449 9450 9451 9452 9453 9454 9455 9456 9457 9458 9459 9460 9461 9462 9463 9464 9465 9466 9467 9468 9469 9470 9471 9472 9473 9474 9475 9476 9477 9478 9479 9480 9481 9482 9483 9484 9485 9486 9487 9488 9489 9490 9491 9492 9493 9494 9495 9496 9497 9498 9499 9500 9501 9502 9503 9504 9505 9506 9507 9508 9509 9510 9511 9512 9513 9514 9515 9516 9517 9518 9519 9520 9521 9522 9523 9524 9525 9526 9527 9528 9529 9530 9531 9532 9533 9534 9535 9536 9537 9538 9539 9540 9541 9542 9543 9544 9545 9546 9547 9548 9549 9550 9551 9552 9553 9554 9555 9556 9557 9558 9559 9560 9561 9562 9563 9564 9565 9566 9567 9568 9569 9570 9571 9572 9573 9574 9575 9576 9577 9578 9579 9580 9581 9582 9583 9584 9585 9586 9587 9588 9589 9590 9591 9592 9593 9594 9595 9596 9597 9598 9599 9600 9601 9602 9603 9604 9605 9606 9607 9608 9609 9610 9611 9612 9613 9614 9615 9616 9617 9618 9619 9620 9621 9622 9623 9624 9625 9626 9627 9628 9629 9630 9631 9632 9633 9634 9635 9636 9637 9638 9639 9640 9641 9642 9643 9644 9645 9646 9647 9648 9649 9650 9651 9652 9653 9654 9655 9656 9657 9658 9659 9660 9661 9662 9663 9664 9665 9666 9667 9668 9669 9670 9671 9672 9673 9674 9675 9676 9677 9678 9679 9680 9681 9682 9683 9684 9685 9686 9687 9688 9689 9690 9691 9692 9693 9694 9695 9696 9697 9698 9699 9700 9701 9702 9703 9704 9705 9706 9707 9708 9709 9710 9711 9712 9713 9714 9715 9716 9717 9718 9719 9720 9721 9722 9723 9724 9725 9726 9727 9728 9729 9730 9731 9732 9733 9734 9735 9736 9737 9738 9739 9740 9741 9742 9743 9744 9745 9746 9747 9748 9749 9750 9751 9752 9753 9754 9755 9756 9757 9758 9759 9760 9761 9762 9763 9764 9765 9766 9767 9768 9769 9770 9771 9772 9773 9774 9775 9776 9777 9778 9779 9780 9781 9782 9783 9784 9785 9786 9787 9788 9789 9790 9791 9792 9793 9794 9795 9796 9797 9798 9799 9800 9801 9802 9803 9804 9805 9806 9807 9808 9809 9810 9811 9812 9813 9814 9815 9816 9817 9818 9819 9820 9821 9822 9823 9824 9825 9826 9827 9828 9829 9830 9831 9832 9833 9834 9835 9836 9837 9838 9839 9840 9841 9842 9843 9844 9845 9846 9847 9848 9849 9850 9851 9852 9853 9854 9855 9856 9857 9858 9859 9860 9861 9862 9863 9864 9865 9866 9867 9868 9869 9870 9871 9872 9873 9874 9875 9876 9877 9878 9879 9880 9881 9882 9883 9884 9885 9886 9887 9888 9889 9890 9891 9892 9893 9894 9895 9896 9897 9898 9899 9900 9901 9902 9903 9904 9905 9906 9907 9908 9909 9910 9911 9912 9913 9914 9915 9916 9917 9918 9919 9920 9921 9922 9923 9924 9925 9926 9927 9928 9929 9930 9931 9932 9933 9934 9935 9936 9937 9938 9939 9940 9941 9942 9943 9944 9945 9946 9947 9948 9949 9950 9951 9952 9953 9954 9955 9956 9957 9958 9959 9960 9961 9962 9963 9964 9965 9966 9967 9968 9969 9970 9971 9972 9973 9974 9975 9976 9977 9978 9979 9980 9981 9982 9983 9984 9985 9986 9987 9988 9989 9990 9991 9992 9993 9994 9995 9996 9997 9998 9999 10000 10001 10002 10003 10004 10005 10006 10007 10008 10009 10010 10011 10012 10013 10014 10015 10016 10017 10018 10019 10020 10021 10022 10023 10024 10025 10026 10027 10028 10029 10030 10031 10032 10033 10034 10035 10036 10037 10038 10039 10040 10041 10042 10043 10044 10045 10046 10047 10048 10049 10050 10051 10052 10053 10054 10055 10056 10057 10058 10059 10060 10061 10062 10063 10064 10065 10066 10067 10068 10069 10070 10071 10072 10073 10074 10075 10076 10077 10078 10079 10080 10081 10082 10083 10084 10085 10086 10087 10088 10089 10090 10091 10092 10093 10094 10095 10096 10097 10098 10099 10100 10101 10102 10103 10104 10105 10106 10107 10108 10109 10110 10111 10112 10113 10114 10115 10116 10117 10118 10119 10120 10121 10122 10123 10124 10125 10126 10127 10128 10129 10130 10131 10132 10133 10134 10135 10136 10137 10138 10139 10140 10141 10142 10143 10144 10145 10146 10147 10148 10149 10150 10151 10152 10153 10154 10155 10156 10157 10158 10159 10160 10161 10162 10163 10164 10165 10166 10167 10168 10169 10170 10171 10172 10173 10174 10175 10176 10177 10178 10179 10180 10181 10182 10183 10184 10185 10186 10187 10188 10189 10190 10191 10192 10193 10194 10195 10196 10197 10198 10199 10200 10201 10202 10203 10204 10205 10206 10207 10208 10209 10210 10211 10212 10213 10214 10215 10216 10217 10218 10219 10220 10221 10222 10223 10224 10225 10226 10227 10228 10229 10230 10231 10232 10233 10234 10235 10236 10237 10238 10239 10240 10241 10242 10243 10244 10245 10246 10247 10248 10249 10250 10251 10252 10253 10254 10255 10256 10257 10258 10259 10260 10261 10262 10263 10264 10265 10266 10267 10268 10269 10270 10271 10272 10273 10274 10275 10276 10277 10278 10279 10280 10281 10282 10283 10284 10285 10286 10287 10288 10289 10290 10291 10292 10293 10294 10295 10296 10297 10298 10299 10300 10301 10302 10303 10304 10305 10306 10307 10308 10309 10310 10311 10312 10313 10314 10315 10316 10317 10318 10319 10320 10321 10322 10323 10324 10325 10326 10327 10328 10329 10330 10331 10332 10333 10334 10335 10336 10337 10338 10339 10340 10341 10342 10343 10344 10345 10346 10347 10348 10349 10350 10351 10352 10353 10354 10355 10356 10357 10358 10359 10360 10361 10362 10363 10364 10365 10366 10367 10368 10369 10370 10371 10372 10373 10374 10375 10376 10377 10378 10379 10380 10381 10382 10383 10384 10385 10386 10387 10388 10389 10390 10391 10392 10393 10394 10395 10396 10397 10398 10399 10400 10401 10402 10403 10404 10405 10406 10407 10408 10409 10410 10411 10412 10413 10414 10415 10416 10417 10418 10419 10420 10421 10422 10423 10424 10425 10426 10427 10428 10429 10430 10431 10432 10433 10434 10435 10436 10437 10438 10439 10440 10441 10442 10443 10444 10445 10446 10447 10448 10449 10450 10451 10452 10453 10454 10455 10456 10457 10458 10459 10460 10461 10462 10463 10464 10465 10466 10467 10468 10469 10470 10471 10472 10473 10474 10475 10476 10477 10478 10479 10480 10481 10482 10483 10484 10485 10486 10487 10488 10489 10490 10491 10492 10493 10494 10495 10496 10497 10498 10499 10500 10501 10502 10503 10504 10505 10506 10507 10508 10509 10510 10511 10512 10513 10514 10515 10516 10517 10518 10519 10520 10521 10522 10523 10524 10525 10526 10527 10528 10529 10530 10531 10532 10533 10534 10535 10536 10537 10538 10539 10540 10541 10542 10543 10544 10545 10546 10547 10548 10549 10550 10551 10552 10553 10554 10555 10556 10557 10558 10559 10560 10561 10562 10563 10564 10565 10566 10567 10568 10569 10570 10571 10572 10573 10574 10575 10576 10577 10578 10579 10580 10581 10582 10583 10584 10585 10586 10587 10588 10589 10590 10591 10592 10593 10594 10595 10596 10597 10598 10599 10600 10601 10602 10603 10604 10605 10606 10607 10608 10609 10610 10611 10612 10613 10614 10615 10616 10617 10618 10619 10620 10621 10622 10623 10624 10625 10626 10627 10628 10629 10630 10631 10632 10633 10634 10635 10636 10637 10638 10639 10640 10641 10642 10643 10644 10645 10646 10647 10648 10649 10650 10651 10652 10653 10654 10655 10656 10657 10658 10659 10660 10661 10662 10663 10664 10665 10666 10667 10668 10669 10670 10671 10672 10673 10674 10675 10676 10677 10678 10679 10680 10681 10682 10683 10684 10685 10686 10687 10688 10689 10690 10691 10692 10693 10694 10695 10696 10697 10698 10699 10700 10701 10702 10703 10704 10705 10706 10707 10708 10709 10710 10711 10712 10713 10714 10715 10716 10717 10718 10719 10720 10721 10722 10723 10724 10725 10726 10727 10728 10729 10730 10731 10732 10733 10734 10735 10736 10737 10738 10739 10740 10741 10742 10743 10744 10745 10746 10747 10748 10749 10750 10751 10752 10753 10754 10755 10756 10757 10758 10759 10760 10761 10762 10763 10764 10765 10766 10767 10768 10769 10770 10771 10772 10773 10774 10775 10776 10777 10778 10779 10780 10781 10782 10783 10784 10785 10786 10787 10788 10789 10790 10791 10792 10793 10794 10795 10796 10797 10798 10799 10800 10801 10802 10803 10804 10805 10806 10807 10808 10809 10810 10811 10812 10813 10814 10815 10816 10817 10818 10819 10820 10821 10822 10823 10824 10825 10826 10827 10828 10829 10830 10831 10832 10833 10834 10835 10836 10837 10838 10839 10840 10841 10842 10843 10844 10845 10846 10847 10848 10849 10850 10851 10852 10853 10854 10855 10856 10857 10858 10859 10860 10861 10862 10863 10864 10865 10866 10867 10868 10869 10870 10871 10872 10873 10874 10875 10876 10877 10878 10879 10880 10881 10882 10883 10884 10885 10886 10887 10888 10889 10890 10891 10892 10893 10894 10895 10896 10897 10898 10899 10900 10901 10902 10903 10904 10905 10906 10907 10908 10909 10910 10911 10912 10913 10914 10915 10916 10917 10918 10919 10920 10921 10922 10923 10924 10925 10926 10927 10928 10929 10930 10931 10932 10933 10934 10935 10936 10937 10938 10939 10940 10941 10942 10943 10944 10945 10946 10947 10948 10949 10950 10951 10952 10953 10954 10955 10956 10957 10958 10959 10960 10961 10962 10963 10964 10965 10966 10967 10968 10969 10970 10971 10972 10973 10974 10975 10976 10977 10978 10979 10980 10981 10982 10983 10984 10985 10986 10987 10988 10989 10990 10991 10992 10993 10994 10995 10996 10997 10998 10999 11000 11001 11002 11003 11004 11005 11006 11007 11008 11009 11010 11011 11012 11013 11014 11015 11016 11017 11018 11019 11020 11021 11022 11023 11024 11025 11026 11027 11028 11029 11030 11031 11032 11033 11034 11035 11036 11037 11038 11039 11040 11041 11042 11043 11044 11045 11046 11047 11048 11049 11050 11051 11052 11053 11054 11055 11056 11057 11058 11059 11060 11061 11062 11063 11064 11065 11066 11067 11068 11069 11070 11071 11072 11073 11074 11075 11076 11077 11078 11079 11080 11081 11082 11083 11084 11085 11086 11087 11088 11089 11090 11091 11092 11093 11094 11095 11096 11097 11098 11099 11100 11101 11102 11103 11104 11105 11106 11107 11108 11109 11110 11111 11112 11113 11114 11115 11116 11117 11118 11119 11120 11121 11122 11123 11124 11125 11126 11127 11128 11129 11130 11131 11132 11133 11134 11135 11136 11137 11138 11139 11140 11141 11142 11143 11144 11145 11146 11147 11148 11149 11150 11151 11152 11153 11154 11155 11156 11157 11158 11159 11160 11161 11162 11163 11164 11165 11166 11167 11168 11169 11170 11171 11172 11173 11174 11175 11176 11177 11178 11179 11180 11181 11182 11183 11184 11185 11186 11187 11188 11189 11190 11191 11192 11193 11194 11195 11196 11197 11198 11199 11200 11201 11202 11203 11204 11205 11206 11207 11208 11209 11210 11211 11212 11213 11214 11215 11216 11217 11218 11219 11220 11221 11222 11223 11224 11225 11226 11227 11228 11229 11230 11231 11232 11233 11234 11235 11236 11237 11238 11239 11240 11241 11242 11243 11244 11245 11246 11247 11248 11249 11250 11251 11252 11253 11254 11255 11256 11257 11258 11259 11260 11261 11262 11263 11264 11265 11266 11267 11268 11269 11270 11271 11272 11273 11274 11275 11276 11277 11278 11279 11280 11281 11282 11283 11284 11285 11286 11287 11288 11289 11290 11291 11292 11293 11294 11295 11296 11297 11298 11299 11300 11301 11302 11303 11304 11305 11306 11307 11308 11309 11310 11311 11312 11313 11314 11315 11316 11317 11318 11319 11320 11321 11322 11323 11324 11325 11326 11327 11328 11329 11330 11331 11332 11333 11334 11335 11336 11337 11338 11339 11340 11341 11342 11343 11344 11345 11346 11347 11348 11349 11350 11351 11352 11353 11354 11355 11356 11357 11358 11359 11360 11361 11362 11363 11364 11365 11366 11367 11368 11369 11370 11371 11372 11373 11374 11375 11376 11377 11378 11379 11380 11381 11382 11383 11384 11385 11386 11387 11388 11389 11390 11391 11392 11393 11394 11395 11396 11397 11398 11399 11400 11401 11402 11403 11404 11405 11406 11407 11408 11409 11410 11411 11412 11413 11414 11415 11416 11417 11418 11419 11420 11421 11422 11423 11424 11425 11426 11427 11428 11429 11430 11431 11432 11433 11434 11435 11436 11437 11438 11439 11440 11441 11442 11443 11444 11445 11446 11447 11448 11449 11450 11451 11452 11453 11454 11455 11456 11457 11458 11459 11460 11461 11462 11463 11464 11465 11466 11467 11468 11469 11470 11471 11472 11473 11474 11475 11476 11477 11478 11479 11480 11481 11482 11483 11484 11485 11486 11487 11488 11489 11490 11491 11492 11493 11494 11495 11496 11497 11498 11499 11500 11501 11502 11503 11504 11505 11506 11507 11508 11509 11510 11511 11512 11513 11514 11515 11516 11517 11518 11519 11520 11521 11522 11523 11524 11525 11526 11527 11528 11529 11530 11531 11532 11533 11534 11535 11536 11537 11538 11539 11540 11541 11542 11543 11544 11545 11546 11547 11548 11549 11550 11551 11552 11553 11554 11555 11556 11557 11558 11559 11560 11561 11562 11563 11564 11565 11566 11567 11568 11569 11570 11571 11572 11573 11574 11575 11576 11577 11578 11579 11580 11581 11582 11583 11584 11585 11586 11587 11588 11589 11590 11591 11592 11593 11594 11595 11596 11597 11598 11599 11600 11601 11602 11603 11604 11605 11606 11607 11608 11609 11610 11611 11612 11613 11614 11615 11616 11617 11618 11619 11620 11621 11622 11623 11624 11625 11626 11627 11628 11629 11630 11631 11632 11633 11634 11635 11636 11637 11638 11639 11640 11641 11642 11643 11644 11645 11646 11647 11648 11649 11650 11651 11652 11653 11654 11655 11656 11657 11658 11659 11660 11661 11662 11663 11664 11665 11666 11667 11668 11669 11670 11671 11672 11673 11674 11675 11676 11677 11678 11679 11680 11681 11682 11683 11684 11685 11686 11687 11688 11689 11690 11691 11692 11693 11694 11695 11696 11697 11698 11699 11700 11701 11702 11703 11704 11705 11706 11707 11708 11709 11710 11711 11712 11713 11714 11715 11716 11717 11718 11719 11720 11721 11722 11723 11724 11725 11726 11727 11728 11729 11730 11731 11732 11733 11734 11735 11736 11737 11738 11739 11740 11741 11742 11743 11744 11745 11746 11747 11748 11749 11750 11751 11752 11753 11754 11755 11756 11757 11758 11759 11760 11761 11762 11763 11764 11765 11766 11767 11768 11769 11770 11771 11772 11773 11774 11775 11776 11777 11778 11779 11780 11781 11782 11783 11784 11785 11786 11787 11788 11789 11790 11791 11792 11793 11794 11795 11796 11797 11798 11799 11800 11801 11802 11803 11804 11805 11806 11807 11808 11809 11810 11811 11812 11813 11814 11815 11816 11817 11818 11819 11820 11821 11822 11823 11824 11825 11826 11827 11828 11829 11830 11831 11832 11833 11834 11835 11836 11837 11838 11839 11840 11841 11842 11843 11844 11845 11846 11847 11848 11849 11850 11851 11852 11853 11854 11855 11856 11857 11858 11859 11860 11861 11862 11863 11864 11865 11866 11867 11868 11869 11870 11871 11872 11873 11874 11875 11876 11877 11878 11879 11880 11881 11882 11883 11884 11885 11886 11887 11888 11889 11890 11891 11892 11893 11894 11895 11896 11897 11898 11899 11900 11901 11902 11903 11904 11905 11906 11907 11908 11909 11910 11911 11912 11913 11914 11915 11916 11917 11918 11919 11920 11921 11922 11923 11924 11925 11926 11927 11928 11929 11930 11931 11932 11933 11934 11935 11936 11937 11938 11939 11940 11941 11942 11943 11944 11945 11946 11947 11948 11949 11950 11951 11952 11953 11954 11955 11956 11957 11958 11959 11960 11961 11962 11963 11964 11965 11966 11967 11968 11969 11970 11971 11972 11973 11974 11975 11976 11977 11978 11979 11980 11981 11982 11983 11984 11985 11986 11987 11988 11989 11990 11991 11992 11993 11994 11995 11996 11997 11998 11999 12000 12001 12002 12003 12004 12005 12006 12007 12008 12009 12010 12011 12012 12013 12014 12015 12016 12017 12018 12019 12020 12021 12022 12023 12024 12025 12026 12027 12028 12029 12030 12031 12032 12033 12034 12035 12036 12037 12038 12039 12040 12041 12042 12043 12044 12045 12046 12047 12048 12049 12050 12051 12052 12053 12054 12055 12056 12057 12058 12059 12060 12061 12062 12063 12064 12065 12066 12067 12068 12069 12070 12071 12072 12073 12074 12075 12076 12077 12078 12079 12080 12081 12082 12083 12084 12085 12086 12087 12088 12089 12090 12091 12092 12093 12094 12095 12096 12097 12098 12099 12100 12101 12102 12103 12104 12105 12106 12107 12108 12109 12110 12111 12112 12113 12114 12115 12116 12117 12118 12119 12120 12121 12122 12123 12124 12125 12126 12127 12128 12129 12130 12131 12132 12133 12134 12135 12136 12137 12138 12139 12140 12141 12142 12143 12144 12145 12146 12147 12148 12149 12150 12151 12152 12153 12154 12155 12156 12157 12158 12159 12160 12161 12162 12163 12164 12165 12166 12167 12168 12169 12170 12171 12172 12173 12174 12175 12176 12177 12178 12179 12180 12181 12182 12183 12184 12185 12186 12187 12188 12189 12190 12191 12192 12193 12194 12195 12196 12197 12198 12199 12200 12201 12202 12203 12204 12205 12206 12207 12208 12209 12210 12211 12212 12213 12214 12215 12216 12217 12218 12219 12220 12221 12222 12223 12224 12225 12226 12227 12228 12229 12230 12231 12232 12233 12234 12235 12236 12237 12238 12239 12240 12241 12242 12243 12244 12245 12246 12247 12248 12249 12250 12251 12252 12253 12254 12255 12256 12257 12258 12259 12260 12261 12262 12263 12264 12265 12266 12267 12268 12269 12270 12271 12272 12273 12274 12275 12276 12277 12278 12279 12280 12281 12282 12283 12284 12285 12286 12287 12288 12289 12290 12291 12292 12293 12294 12295 12296 12297 12298 12299 12300 12301 12302 12303 12304 12305 12306 12307 12308 12309 12310 12311 12312 12313 12314 12315 12316 12317 12318 12319 12320 12321 12322 12323 12324 12325 12326 12327 12328 12329 12330 12331 12332 12333 12334 12335 12336 12337 12338 12339 12340 12341 12342 12343 12344 12345 12346 12347 12348 12349 12350 12351 12352 12353 12354 12355 12356 12357 12358 12359 12360 12361 12362 12363 12364 12365 12366 12367 12368 12369 12370 12371 12372 12373 12374 12375 12376 12377 12378 12379 12380 12381 12382 12383 12384 12385 12386 12387 12388 12389 12390 12391 12392 12393 12394 12395 12396 12397 12398 12399 12400 12401 12402 12403 12404 12405 12406 12407 12408 12409 12410 12411 12412 12413 12414 12415 12416 12417 12418 12419 12420 12421 12422 12423 12424 12425 12426 12427 12428 12429 12430 12431 12432 12433 12434 12435 12436 12437 12438 12439 12440 12441 12442 12443 12444 12445 12446 12447 12448 12449 12450 12451 12452 12453 12454 12455 12456 12457 12458 12459 12460 12461 12462 12463 12464 12465 12466 12467 12468 12469 12470 12471 12472 12473 12474 12475 12476 12477 12478 12479 12480 12481 12482 12483 12484 12485 12486 12487 12488 12489 12490 12491 12492 12493 12494 12495 12496 12497 12498 12499 12500 12501 12502 12503 12504 12505 12506 12507 12508 12509 12510 12511 12512 12513 12514 12515 12516 12517 12518 12519 12520 12521 12522 12523 12524 12525 12526 12527 12528 12529 12530 12531 12532 12533 12534 12535 12536 12537 12538 12539 12540 12541 12542 12543 12544 12545 12546 12547 12548 12549 12550 12551 12552 12553 12554 12555 12556 12557 12558 12559 12560 12561 12562 12563 12564 12565 12566 12567 12568 12569 12570 12571 12572 12573 12574 12575 12576 12577 12578 12579 12580 12581 12582 12583 12584 12585 12586 12587 12588 12589 12590 12591 12592 12593 12594 12595 12596 12597 12598 12599 12600 12601 12602 12603 12604 12605 12606 12607 12608 12609 12610 12611 12612 12613 12614 12615 12616 12617 12618 12619 12620 12621 12622 12623 12624 12625 12626 12627 12628 12629 12630 12631 12632 12633 12634 12635 12636 12637 12638 12639 12640 12641 12642 12643 12644 12645 12646 12647 12648 12649 12650 12651 12652 12653 12654 12655 12656 12657 12658 12659 12660 12661 12662 12663 12664 12665 12666 12667 12668 12669 12670 12671 12672 12673 12674 12675 12676 12677 12678 12679 12680 12681 12682 12683 12684 12685 12686 12687 12688 12689 12690 12691 12692 12693 12694 12695 12696 12697 12698 12699 12700 12701 12702 12703 12704 12705 12706 12707 12708 12709 12710 12711 12712 12713 12714 12715 12716 12717 12718 12719 12720 12721 12722 12723 12724 12725 12726 12727 12728 12729 12730 12731 12732 12733 12734 12735 12736 12737 12738 12739 12740 12741 12742 12743 12744 12745 12746 12747 12748 12749 12750 12751 12752 12753 12754 12755 12756 12757 12758 12759 12760 12761 12762 12763 12764 12765 12766 12767 12768 12769 12770 12771 12772 12773 12774 12775 12776 12777 12778 12779 12780 12781 12782 12783 12784 12785 12786 12787 12788 12789 12790 12791 12792 12793 12794 12795 12796 12797 12798 12799 12800 12801 12802 12803 12804 12805 12806 12807 12808 12809 12810 12811 12812 12813 12814 12815 12816 12817 12818 12819 12820 12821 12822 12823 12824 12825 12826 12827 12828 12829 12830 12831 12832 12833 12834 12835 12836 12837 12838 12839 12840 12841 12842 12843 12844 12845 12846 12847 12848 12849 12850 12851 12852 12853 12854 12855 12856 12857 12858 12859 12860 12861 12862 12863 12864 12865 12866 12867 12868 12869 12870 12871 12872 12873 12874 12875 12876 12877 12878 12879 12880 12881 12882 12883 12884 12885 12886 12887 12888 12889 12890 12891 12892 12893 12894 12895 12896 12897 12898 12899 12900 12901 12902 12903 12904 12905 12906 12907 12908 12909 12910 12911 12912 12913 12914 12915 12916 12917 12918 12919 12920 12921 12922 12923 12924 12925 12926 12927 12928 12929 12930 12931 12932 12933 12934 12935 12936 12937 12938 12939 12940 12941 12942 12943 12944 12945 12946 12947 12948 12949 12950 12951 12952 12953 12954 12955 12956 12957 12958 12959 12960 12961 12962 12963 12964 12965 12966 12967 12968 12969 12970 12971 12972 12973 12974 12975 12976 12977 12978 12979 12980 12981 12982 12983 12984 12985 12986 12987 12988 12989 12990 12991 12992 12993 12994 12995 12996 12997 12998 12999 13000 13001 13002 13003 13004 13005 13006 13007 13008 13009 13010 13011 13012 13013 13014 13015 13016 13017 13018 13019 13020 13021 13022 13023 13024 13025 13026 13027 13028 13029 13030 13031 13032 13033 13034 13035 13036 13037 13038 13039 13040 13041 13042 13043 13044 13045 13046 13047 13048 13049 13050 13051 13052 13053 13054 13055 13056 13057 13058 13059 13060 13061 13062 13063 13064 13065 13066 13067 13068 13069 13070 13071 13072 13073 13074 13075 13076 13077 13078 13079 13080 13081 13082 13083 13084 13085 13086 13087 13088 13089 13090 13091 13092 13093 13094 13095 13096 13097 13098 13099 13100 13101 13102 13103 13104 13105 13106 13107 13108 13109 13110 13111 13112 13113 13114 13115 13116 13117 13118 13119 13120 13121 13122 13123 13124 13125 13126 13127 13128 13129 13130 13131 13132 13133 13134 13135 13136 13137 13138 13139 13140 13141 13142 13143 13144 13145 13146 13147 13148 13149 13150 13151 13152 13153 13154 13155 13156 13157 13158 13159 13160 13161 13162 13163 13164 13165 13166 13167 13168 13169 13170 13171 13172 13173 13174 13175 13176 13177 13178 13179 13180 13181 13182 13183 13184 13185 13186 13187 13188 13189 13190 13191 13192 13193 13194 13195 13196 13197 13198 13199 13200 13201 13202 13203 13204 13205 13206 13207 13208 13209 13210 13211 13212 13213 13214 13215 13216 13217 13218 13219 13220 13221 13222 13223 13224 13225 13226 13227 13228 13229 13230 13231 13232 13233 13234 13235 13236 13237 13238 13239 13240 13241 13242 13243 13244 13245 13246 13247 13248 13249 13250 13251 13252 13253 13254 13255 13256 13257 13258 13259 13260 13261 13262 13263 13264 13265 13266 13267 13268 13269 13270 13271 13272 13273 13274 13275 13276 13277 13278 13279 13280 13281 13282 13283 13284 13285 13286 13287 13288 13289 13290 13291 13292 13293 13294 13295 13296 13297 13298 13299 13300 13301 13302 13303 13304 13305 13306 13307 13308 13309 13310 13311 13312 13313 13314 13315 13316 13317 13318 13319 13320 13321 13322 13323 13324 13325 13326 13327 13328 13329 13330 13331 13332 13333 13334 13335 13336 13337 13338 13339 13340 13341 13342 13343 13344 13345 13346 13347 13348 13349 13350 13351 13352 13353 13354 13355 13356 13357 13358 13359 13360 13361 13362 13363 13364 13365 13366 13367 13368 13369 13370 13371 13372 13373 13374 13375 13376 13377 13378 13379 13380 13381 13382 13383 13384 13385 13386 13387 13388 13389 13390 13391 13392 13393 13394 13395 13396 13397 13398 13399 13400 13401 13402 13403 13404 13405 13406 13407 13408 13409 13410 13411 13412 13413 13414 13415 13416 13417 13418 13419 13420 13421 13422 13423 13424 13425 13426 13427 13428 13429 13430 13431 13432 13433 13434 13435 13436 13437 13438 13439 13440 13441 13442 13443 13444 13445 13446 13447 13448 13449 13450 13451 13452 13453 13454 13455 13456 13457 13458 13459 13460 13461 13462 13463 13464 13465 13466 13467 13468 13469 13470 13471 13472 13473 13474 13475 13476 13477 13478 13479 13480 13481 13482 13483 13484 13485 13486 13487 13488 13489 13490 13491 13492 13493 13494 13495 13496 13497 13498 13499 13500 13501 13502 13503 13504 13505 13506 13507 13508 13509 13510 13511 13512 13513 13514 13515 13516 13517 13518 13519 13520 13521 13522 13523 13524 13525 13526 13527 13528 13529 13530 13531 13532 13533 13534 13535 13536 13537 13538 13539 13540 13541 13542 13543 13544 13545 13546 13547 13548 13549 13550 13551 13552 13553 13554 13555 13556 13557 13558 13559 13560 13561 13562 13563 13564 13565 13566 13567 13568 13569 13570 13571 13572 13573 13574 13575 13576 13577 13578 13579 13580 13581 13582 13583 13584 13585 13586 13587 13588 13589 13590 13591 13592 13593 13594 13595 13596 13597 13598 13599 13600 13601 13602 13603 13604 13605 13606 13607 13608 13609 13610 13611 13612 13613 13614 13615 13616 13617 13618 13619 13620 13621 13622 13623 13624 13625 13626 13627 13628 13629 13630 13631 13632 13633 13634 13635 13636 13637 13638 13639 13640 13641 13642 13643 13644 13645 13646 13647 13648 13649 13650 13651 13652 13653 13654 13655 13656 13657 13658 13659 13660 13661 13662 13663 13664 13665 13666 13667 13668 13669 13670 13671 13672 13673 13674 13675 13676 13677 13678 13679 13680 13681 13682 13683 13684 13685 13686 13687 13688 13689 13690 13691 13692 13693 13694 13695 13696 13697 13698 13699 13700 13701 13702 13703 13704 13705 13706 13707 13708 13709 13710 13711 13712 13713 13714 13715 13716 13717 13718 13719 13720 13721 13722 13723 13724 13725 13726 13727 13728 13729 13730 13731 13732 13733 13734 13735 13736 13737 13738 13739 13740 13741 13742 13743 13744 13745 13746 13747 13748 13749 13750 13751 13752 13753 13754 13755 13756 13757 13758 13759 13760 13761 13762 13763 13764 13765 13766 13767 13768 13769 13770 13771 13772 13773 13774 13775 13776 13777 13778 13779 13780 13781 13782 13783 13784 13785 13786 13787 13788 13789 13790 13791 13792 13793 13794 13795 13796 13797 13798 13799 13800 13801 13802 13803 13804 13805 13806 13807 13808 13809 13810 13811 13812 13813 13814 13815 13816 13817 13818 13819 13820 13821 13822 13823 13824 13825 13826 13827 13828 13829 13830 13831 13832 13833 13834 13835 13836 13837 13838 13839 13840 13841 13842 13843 13844 13845 13846 13847 13848 13849 13850 13851 13852 13853 13854 13855 13856 13857 13858 13859 13860 13861 13862 13863 13864 13865 13866 13867 13868 13869 13870 13871 13872 13873 13874 13875 13876 13877 13878 13879 13880 13881 13882 13883 13884 13885 13886 13887 13888 13889 13890 13891 13892 13893 13894 13895 13896 13897 13898 13899 13900 13901 13902 13903 13904 13905 13906 13907 13908 13909 13910 13911 13912 13913 13914 13915 13916 13917 13918 13919 13920 13921 13922 13923 13924 13925 13926 13927 13928 13929 13930 13931 13932 13933 13934 13935 13936 13937 13938 13939 13940 13941 13942 13943 13944 13945 13946 13947 13948 13949 13950 13951 13952 13953 13954 13955 13956 13957 13958 13959 13960 13961 13962 13963 13964 13965 13966 13967 13968 13969 13970 13971 13972 13973 13974 13975 13976 13977 13978 13979 13980 13981 13982 13983 13984 13985 13986 13987 13988 13989 13990 13991 13992 13993 13994 13995 13996 13997 13998 13999 14000 14001 14002 14003 14004 14005 14006 14007 14008 14009 14010 14011 14012 14013 14014 14015 14016 14017 14018 14019 14020 14021 14022 14023 14024 14025 14026 14027 14028 14029 14030 14031 14032 14033 14034 14035 14036 14037 14038 14039 14040 14041 14042 14043 14044 14045 14046 14047 14048 14049 14050 14051 14052 14053 14054 14055 14056 14057 14058 14059 14060 14061 14062 14063 14064 14065 14066 14067 14068 14069 14070 14071 14072 14073 14074 14075 14076 14077 14078 14079 14080 14081 14082 14083 14084 14085 14086 14087 14088 14089 14090 14091 14092 14093 14094 14095 14096 14097 14098 14099 14100 14101 14102 14103 14104 14105 14106 14107 14108 14109 14110 14111 14112 14113 14114 14115 14116 14117 14118 14119 14120 14121 14122 14123 14124 14125 14126 14127 14128 14129 14130 14131 14132 14133 14134 14135 14136 14137 14138 14139 14140 14141 14142 14143 14144 14145 14146 14147 14148 14149 14150 14151 14152 14153 14154 14155 14156 14157 14158 14159 14160 14161 14162 14163 14164 14165 14166 14167 14168 14169 14170 14171 14172 14173 14174 14175 14176 14177 14178 14179 14180 14181 14182 14183 14184 14185 14186 14187 14188 14189 14190 14191 14192 14193 14194 14195 14196 14197 14198 14199 14200 14201 14202 14203 14204 14205 14206 14207 14208 14209 14210 14211 14212 14213 14214 14215 14216 14217 14218 14219 14220 14221 14222 14223 14224 14225 14226 14227 14228 14229 14230 14231 14232 14233 14234 14235 14236 14237 14238 14239 14240 14241 14242 14243 14244 14245 14246 14247 14248 14249 14250 14251 14252 14253 14254 14255 14256 14257 14258 14259 14260 14261 14262 14263 14264 14265 14266 14267 14268 14269 14270 14271 14272 14273 14274 14275 14276 14277 14278 14279 14280 14281 14282 14283 14284 14285 14286 14287 14288 14289 14290 14291 14292 14293 14294 14295 14296 14297 14298 14299 14300 14301 14302 14303 14304 14305 14306 14307 14308 14309 14310 14311 14312 14313 14314 14315 14316 14317 14318 14319 14320 14321 14322 14323 14324 14325 14326 14327 14328 14329 14330 14331 14332 14333 14334 14335 14336 14337 14338 14339 14340 14341 14342 14343 14344 14345 14346 14347 14348 14349 14350 14351 14352 14353 14354 14355 14356 14357 14358 14359 14360 14361 14362 14363 14364 14365 14366 14367 14368 14369 14370 14371 14372 14373 14374 14375 14376 14377 14378 14379 14380 14381 14382 14383 14384 14385 14386 14387 14388 14389 14390 14391 14392 14393 14394 14395 14396 14397 14398 14399 14400 14401 14402 14403 14404 14405 14406 14407 14408 14409 14410 14411 14412 14413 14414 14415 14416 14417 14418 14419 14420 14421 14422 14423 14424 14425 14426 14427 14428 14429 14430 14431 14432 14433 14434 14435 14436 14437 14438 14439 14440 14441 14442 14443 14444 14445 14446 14447 14448 14449 14450 14451 14452 14453 14454 14455 14456 14457 14458 14459 14460 14461 14462 14463 14464 14465 14466 14467 14468 14469 14470 14471 14472 14473 14474 14475 14476 14477 14478 14479 14480 14481 14482 14483 14484 14485 14486 14487 14488 14489 14490 14491 14492 14493 14494 14495 14496 14497 14498 14499 14500 14501 14502 14503 14504 14505 14506 14507 14508 14509 14510 14511 14512 14513 14514 14515 14516 14517 14518 14519 14520 14521 14522 14523 14524 14525 14526 14527 14528 14529 14530 14531 14532 14533 14534 14535 14536 14537 14538 14539 14540 14541 14542 14543 14544 14545 14546 14547 14548 14549 14550 14551 14552 14553 14554 14555 14556 14557 14558 14559 14560 14561 14562 14563 14564 14565 14566 14567 14568 14569 14570 14571 14572 14573 14574 14575 14576 14577 14578 14579 14580 14581 14582 14583 14584 14585 14586 14587 14588 14589 14590 14591 14592 14593 14594 14595 14596 14597 14598 14599 14600 14601 14602 14603 14604 14605 14606 14607 14608 14609 14610 14611 14612 14613 14614 14615 14616 14617 14618 14619 14620 14621 14622 14623 14624 14625 14626 14627 14628 14629 14630 14631 14632 14633 14634 14635 14636 14637 14638 14639 14640 14641 14642 14643 14644 14645 14646 14647 14648 14649 14650 14651 14652 14653 14654 14655 14656 14657 14658 14659 14660 14661 14662 14663 14664 14665 14666 14667 14668 14669 14670 14671 14672 14673 14674 14675 14676 14677 14678 14679 14680 14681 14682 14683 14684 14685 14686 14687 14688 14689 14690 14691 14692 14693 14694 14695 14696 14697 14698 14699 14700 14701 14702 14703 14704 14705 14706 14707 14708 14709 14710 14711 14712 14713 14714 14715 14716 14717 14718 14719 14720 14721 14722 14723 14724 14725 14726 14727 14728 14729 14730 14731 14732 14733 14734 14735 14736 14737 14738 14739 14740 14741 14742 14743 14744 14745 14746 14747 14748 14749 14750 14751 14752 14753 14754 14755 14756 14757 14758 14759 14760 14761 14762 14763 14764 14765 14766 14767 14768 14769 14770 14771 14772 14773 14774 14775 14776 14777 14778 14779 14780 14781 14782 14783 14784 14785 14786 14787 14788 14789 14790 14791 14792 14793 14794 14795 14796 14797 14798 14799 14800 14801 14802 14803 14804 14805 14806 14807 14808 14809 14810 14811 14812 14813 14814 14815 14816 14817 14818 14819 14820 14821 14822 14823 14824 14825 14826 14827 14828 14829 14830 14831 14832 14833 14834 14835 14836 14837 14838 14839 14840 14841 14842 14843 14844 14845 14846 14847 14848 14849 14850 14851 14852 14853 14854 14855 14856 14857 14858 14859 14860 14861 14862 14863 14864 14865 14866 14867 14868 14869 14870 14871 14872 14873 14874 14875 14876 14877 14878 14879 14880 14881 14882 14883 14884 14885 14886 14887 14888 14889 14890 14891 14892 14893 14894 14895 14896 14897 14898 14899 14900 14901 14902 14903 14904 14905 14906 14907 14908 14909 14910 14911 14912 14913 14914 14915 14916 14917 14918 14919 14920 14921 14922 14923 14924 14925 14926 14927 14928 14929 14930 14931 14932 14933 14934 14935 14936 14937 14938 14939 14940 14941 14942 14943 14944 14945 14946 14947 14948 14949 14950 14951 14952 14953 14954 14955 14956 14957 14958 14959 14960 14961 14962 14963 14964 14965 14966 14967 14968 14969 14970 14971 14972 14973 14974 14975 14976 14977 14978 14979 14980 14981 14982 14983 14984 14985 14986 14987 14988 14989 14990 14991 14992 14993 14994 14995 14996 14997 14998 14999 15000 15001 15002 15003 15004 15005 15006 15007 15008 15009 15010 15011 15012 15013 15014 15015 15016 15017 15018 15019 15020 15021 15022 15023 15024 15025 15026 15027 15028 15029 15030 15031 15032 15033 15034 15035 15036 15037 15038 15039 15040 15041 15042 15043 15044 15045 15046 15047 15048 15049 15050 15051 15052 15053 15054 15055 15056 15057 15058 15059 15060 15061 15062 15063 15064 15065 15066 15067 15068 15069 15070 15071 15072 15073 15074 15075 15076 15077 15078 15079 15080 15081 15082 15083 15084 15085 15086 15087 15088 15089 15090 15091 15092 15093 15094 15095 15096 15097 15098 15099 15100 15101 15102 15103 15104 15105 15106 15107 15108 15109 15110 15111 15112 15113 15114 15115 15116 15117 15118 15119 15120 15121 15122 15123 15124 15125 15126 15127 15128 15129 15130 15131 15132 15133 15134 15135 15136 15137 15138 15139 15140 15141 15142 15143 15144 15145 15146 15147 15148 15149 15150 15151 15152 15153 15154 15155 15156 15157 15158 15159 15160 15161 15162 15163 15164 15165 15166 15167 15168 15169 15170 15171 15172 15173 15174 15175 15176 15177 15178 15179 15180 15181 15182 15183 15184 15185 15186 15187 15188 15189 15190 15191 15192 15193 15194 15195 15196 15197 15198 15199 15200 15201 15202 15203 15204 15205 15206 15207 15208 15209 15210 15211 15212 15213 15214 15215 15216 15217 15218 15219 15220 15221 15222 15223 15224 15225 15226 15227 15228 15229 15230 15231 15232 15233 15234 15235 15236 15237 15238 15239 15240 15241 15242 15243 15244 15245 15246 15247 15248 15249 15250 15251 15252 15253 15254 15255 15256 15257 15258 15259 15260 15261 15262 15263 15264 15265 15266 15267 15268 15269 15270 15271 15272 15273 15274 15275 15276 15277 15278 15279 15280 15281 15282 15283 15284 15285 15286 15287 15288 15289 15290 15291 15292 15293 15294 15295 15296 15297 15298 15299 15300 15301 15302 15303 15304 15305 15306 15307 15308 15309 15310 15311 15312 15313 15314 15315 15316 15317 15318 15319 15320 15321 15322 15323 15324 15325 15326 15327 15328 15329 15330 15331 15332 15333 15334 15335 15336 15337 15338 15339 15340 15341 15342 15343 15344 15345 15346 15347 15348 15349 15350 15351 15352 15353 15354 15355 15356 15357 15358 15359 15360 15361 15362 15363 15364 15365 15366 15367 15368 15369 15370 15371 15372 15373 15374 15375 15376 15377 15378 15379 15380 15381 15382 15383 15384 15385 15386 15387 15388 15389 15390 15391 15392 15393 15394 15395 15396 15397 15398 15399 15400 15401 15402 15403 15404 15405 15406 15407 15408 15409 15410 15411 15412 15413 15414 15415 15416 15417 15418 15419 15420 15421 15422 15423 15424 15425 15426 15427 15428 15429 15430 15431 15432 15433 15434 15435 15436 15437 15438 15439 15440 15441 15442 15443 15444 15445 15446 15447 15448 15449 15450 15451 15452 15453 15454 15455 15456 15457 15458 15459 15460 15461 15462 15463 15464 15465 15466 15467 15468 15469 15470 15471 15472 15473 15474 15475 15476 15477 15478 15479 15480 15481 15482 15483 15484 15485 15486 15487 15488 15489 15490 15491 15492 15493 15494 15495 15496 15497 15498 15499 15500 15501 15502 15503 15504 15505 15506 15507 15508 15509 15510 15511 15512 15513 15514 15515 15516 15517 15518 15519 15520 15521 15522 15523 15524 15525 15526 15527 15528 15529 15530 15531 15532 15533 15534 15535 15536 15537 15538 15539 15540 15541 15542 15543 15544 15545 15546 15547 15548 15549 15550 15551 15552 15553 15554 15555 15556 15557 15558 15559 15560 15561 15562 15563 15564 15565 15566 15567 15568 15569 15570 15571 15572 15573 15574 15575 15576 15577 15578 15579 15580 15581 15582 15583 15584 15585 15586 15587 15588 15589 15590 15591 15592 15593 15594 15595 15596 15597 15598 15599 15600 15601 15602 15603 15604 15605 15606 15607 15608 15609 15610 15611 15612 15613 15614 15615 15616 15617 15618 15619 15620 15621 15622 15623 15624 15625 15626 15627 15628 15629 15630 15631 15632 15633 15634 15635 15636 15637 15638 15639 15640 15641 15642 15643 15644 15645 15646 15647 15648 15649 15650 15651 15652 15653 15654 15655 15656 15657 15658 15659 15660 15661 15662 15663 15664 15665 15666 15667 15668 15669 15670 15671 15672 15673 15674 15675 15676 15677 15678 15679 15680 15681 15682 15683 15684 15685 15686 15687 15688 15689 15690 15691 15692 15693 15694 15695 15696 15697 15698 15699 15700 15701 15702 15703 15704 15705 15706 15707 15708 15709 15710 15711 15712 15713 15714 15715 15716 15717 15718 15719 15720 15721 15722 15723 15724 15725 15726 15727 15728 15729 15730 15731 15732 15733 15734 15735 15736 15737 15738 15739 15740 15741 15742 15743 15744 15745 15746 15747 15748 15749 15750 15751 15752 15753 15754 15755 15756 15757 15758 15759 15760 15761 15762 15763 15764 15765 15766 15767 15768 15769 15770 15771 15772 15773 15774 15775 15776 15777 15778 15779 15780 15781 15782 15783 15784 15785 15786 15787 15788 15789 15790 15791 15792 15793 15794 15795 15796 15797 15798 15799 15800 15801 15802 15803 15804 15805 15806 15807 15808 15809 15810 15811 15812 15813 15814 15815 15816 15817 15818 15819 15820 15821 15822 15823 15824 15825 15826 15827 15828 15829 15830 15831 15832 15833 15834 15835 15836 15837 15838 15839 15840 15841 15842 15843 15844 15845 15846 15847 15848 15849 15850 15851 15852 15853 15854 15855 15856 15857 15858 15859 15860 15861 15862 15863 15864 15865 15866 15867 15868 15869 15870 15871 15872 15873 15874 15875 15876 15877 15878 15879 15880 15881 15882 15883 15884 15885 15886 15887 15888 15889 15890 15891 15892 15893 15894 15895 15896 15897 15898 15899 15900 15901 15902 15903 15904 15905 15906 15907 15908 15909 15910 15911 15912 15913 15914 15915 15916 15917 15918 15919 15920 15921 15922 15923 15924 15925 15926 15927 15928 15929 15930 15931 15932 15933 15934 15935 15936 15937 15938 15939 15940 15941 15942 15943 15944 15945 15946 15947 15948 15949 15950 15951 15952 15953 15954 15955 15956 15957 15958 15959 15960 15961 15962 15963 15964 15965 15966 15967 15968 15969 15970 15971 15972 15973 15974 15975 15976 15977 15978 15979 15980 15981 15982 15983 15984 15985 15986 15987 15988 15989 15990 15991 15992 15993 15994 15995 15996 15997 15998 15999 16000 16001 16002 16003 16004 16005 16006 16007 16008 16009 16010 16011 16012 16013 16014 16015 16016 16017 16018 16019 16020 16021 16022 16023 16024 16025 16026 16027 16028 16029 16030 16031 16032 16033 16034 16035 16036 16037 16038 16039 16040 16041 16042 16043 16044 16045 16046 16047 16048 16049 16050 16051 16052 16053 16054 16055 16056 16057 16058 16059 16060 16061 16062 16063 16064 16065 16066 16067 16068 16069 16070 16071 16072 16073 16074 16075 16076 16077 16078 16079 16080 16081 16082 16083 16084 16085 16086 16087 16088 16089 16090 16091 16092 16093 16094 16095 16096 16097 16098 16099 16100 16101 16102 16103 16104 16105 16106 16107 16108 16109 16110 16111 16112 16113 16114 16115 16116 16117 16118 16119 16120 16121 16122 16123 16124 16125 16126 16127 16128 16129 16130 16131 16132 16133 16134 16135 16136 16137 16138 16139 16140 16141 16142 16143 16144 16145 16146 16147 16148 16149 16150 16151 16152 16153 16154 16155 16156 16157 16158 16159 16160 16161 16162 16163 16164 16165 16166 16167 16168 16169 16170 16171 16172 16173 16174 16175 16176 16177 16178 16179 16180 16181 16182 16183 16184 16185 16186 16187 16188 16189 16190 16191 16192 16193 16194 16195 16196 16197 16198 16199 16200 16201 16202 16203 16204 16205 16206 16207 16208 16209 16210 16211 16212 16213 16214 16215 16216 16217 16218 16219 16220 16221 16222 16223 16224 16225 16226 16227 16228 16229 16230 16231 16232 16233 16234 16235 16236 16237 16238 16239 16240 16241 16242 16243 16244 16245 16246 16247 16248 16249 16250 16251 16252 16253 16254 16255 16256 16257 16258 16259 16260 16261 16262 16263 16264 16265 16266 16267 16268 16269 16270 16271 16272 16273 16274 16275 16276 16277 16278 16279 16280 16281 16282 16283 16284 16285 16286 16287 16288 16289 16290 16291 16292 16293 16294 16295 16296 16297 16298 16299 16300 16301 16302 16303 16304 16305 16306 16307 16308 16309 16310 16311 16312 16313 16314 16315 16316 16317 16318 16319 16320 16321 16322 16323 16324 16325 16326 16327 16328 16329 16330 16331 16332 16333 16334 16335 16336 16337 16338 16339 16340 16341 16342 16343 16344 16345 16346 16347 16348 16349 16350 16351 16352 16353 16354 16355 16356 16357 16358 16359 16360 16361 16362 16363 16364 16365 16366 16367 16368 16369 16370 16371 16372 16373 16374 16375 16376 16377 16378 16379 16380 16381 16382 16383 16384 16385 16386 16387 16388 16389 16390 16391 16392 16393 16394 16395 16396 16397 16398 16399 16400 16401 16402 16403 16404 16405 16406 16407 16408 16409 16410 16411 16412 16413 16414 16415 16416 16417 16418 16419 16420 16421 16422 16423 16424 16425 16426 16427 16428 16429 16430 16431 16432 16433 16434 16435 16436 16437 16438 16439 16440 16441 16442 16443 16444 16445 16446 16447 16448 16449 16450 16451 16452 16453 16454 16455 16456 16457 16458 16459 16460 16461 16462 16463 16464 16465 16466 16467 16468 16469 16470 16471 16472 16473 16474 16475 16476 16477 16478 16479 16480 16481 16482 16483 16484 16485 16486 16487 16488 16489 16490 16491 16492 16493 16494 16495 16496 16497 16498 16499 16500 16501 16502 16503 16504 16505 16506 16507 16508 16509 16510 16511 16512 16513 16514 16515 16516 16517 16518 16519 16520 16521 16522 16523 16524 16525 16526 16527 16528 16529 16530 16531 16532 16533 16534 16535 16536 16537 16538 16539 16540 16541 16542 16543 16544 16545 16546 16547 16548 16549 16550 16551 16552 16553 16554 16555 16556 16557 16558 16559 16560 16561 16562 16563 16564 16565 16566 16567 16568 16569 16570 16571 16572 16573 16574 16575 16576 16577 16578 16579 16580 16581 16582 16583 16584 16585 16586 16587 16588 16589 16590 16591 16592 16593 16594 16595 16596 16597 16598 16599 16600 16601 16602 16603 16604 16605 16606 16607 16608 16609 16610 16611 16612 16613 16614 16615 16616 16617 16618 16619 16620 16621 16622 16623 16624 16625 16626 16627 16628 16629 16630 16631 16632 16633 16634 16635 16636 16637 16638 16639 16640 16641 16642 16643 16644 16645 16646 16647 16648 16649 16650 16651 16652 16653 16654 16655 16656 16657 16658 16659 16660 16661 16662 16663 16664 16665 16666 16667 16668 16669 16670 16671 16672 16673 16674 16675 16676 16677 16678 16679 16680 16681 16682 16683 16684 16685 16686 16687 16688 16689 16690 16691 16692 16693 16694 16695 16696 16697 16698 16699 16700 16701 16702 16703 16704 16705 16706 16707 16708 16709 16710 16711 16712 16713 16714 16715 16716 16717 16718 16719 16720 16721 16722 16723 16724 16725 16726 16727 16728 16729 16730 16731 16732 16733 16734 16735 16736 16737 16738 16739 16740 16741 16742 16743 16744 16745 16746 16747 16748 16749 16750 16751 16752 16753 16754 16755 16756 16757 16758 16759 16760 16761 16762 16763 16764 16765 16766 16767 16768 16769 16770 16771 16772 16773 16774 16775 16776 16777 16778 16779 16780 16781 16782 16783 16784 16785 16786 16787 16788 16789 16790 16791 16792 16793 16794 16795 16796 16797 16798 16799 16800 16801 16802 16803 16804 16805 16806 16807 16808 16809 16810 16811 16812 16813 16814 16815 16816 16817 16818 16819 16820 16821 16822 16823 16824 16825 16826 16827 16828 16829 16830 16831 16832 16833 16834 16835 16836 16837 16838 16839 16840 16841 16842 16843 16844 16845 16846 16847 16848 16849 16850 16851 16852 16853 16854 16855 16856 16857 16858 16859 16860 16861 16862 16863 16864 16865 16866 16867 16868 16869 16870 16871 16872 16873 16874 16875 16876 16877 16878 16879 16880 16881 16882 16883 16884 16885 16886 16887 16888 16889 16890 16891 16892 16893 16894 16895 16896 16897 16898 16899 16900 16901 16902 16903 16904 16905 16906 16907 16908 16909 16910 16911 16912 16913 16914 16915 16916 16917 16918 16919 16920 16921 16922 16923 16924 16925 16926 16927 16928 16929 16930 16931 16932 16933 16934 16935 16936 16937 16938 16939 16940 16941 16942 16943 16944 16945 16946 16947 16948 16949 16950 16951 16952 16953 16954 16955 16956 16957 16958 16959 16960 16961 16962 16963 16964 16965 16966 16967 16968 16969 16970 16971 16972 16973 16974 16975 16976 16977 16978 16979 16980 16981 16982 16983 16984 16985 16986 16987 16988 16989 16990 16991 16992 16993 16994 16995 16996 16997 16998 16999 17000 17001 17002 17003 17004 17005 17006 17007 17008 17009 17010 17011 17012 17013 17014 17015 17016 17017 17018 17019 17020 17021 17022 17023 17024 17025 17026 17027 17028 17029 17030 17031 17032 17033 17034 17035 17036 17037 17038 17039 17040 17041 17042 17043 17044 17045 17046 17047 17048 17049 17050 17051 17052 17053 17054 17055 17056 17057 17058 17059 17060 17061 17062 17063 17064 17065 17066 17067 17068 17069 17070 17071 17072 17073 17074 17075 17076 17077 17078 17079 17080 17081 17082 17083 17084 17085 17086 17087 17088 17089 17090 17091 17092 17093 17094 17095 17096 17097 17098 17099 17100 17101 17102 17103 17104 17105 17106 17107 17108 17109 17110 17111 17112 17113 17114 17115 17116 17117 17118 17119 17120 17121 17122 17123 17124 17125 17126 17127 17128 17129 17130 17131 17132 17133 17134 17135 17136 17137 17138 17139 17140 17141 17142 17143 17144 17145 17146 17147 17148 17149 17150 17151 17152 17153 17154 17155 17156 17157 17158 17159 17160 17161 17162 17163 17164 17165 17166 17167 17168 17169 17170 17171 17172 17173 17174 17175 17176 17177 17178 17179 17180 17181 17182 17183 17184 17185 17186 17187 17188 17189 17190 17191 17192 17193 17194 17195 17196 17197 17198 17199 17200 17201 17202 17203 17204 17205 17206 17207 17208 17209 17210 17211 17212 17213 17214 17215 17216 17217 17218 17219 17220 17221 17222 17223 17224 17225 17226 17227 17228 17229 17230 17231 17232 17233 17234 17235 17236 17237 17238 17239 17240 17241 17242 17243 17244 17245 17246 17247 17248 17249 17250 17251 17252 17253 17254 17255 17256 17257 17258 17259 17260 17261 17262 17263 17264 17265 17266 17267 17268 17269 17270 17271 17272 17273 17274 17275 17276 17277 17278 17279 17280 17281 17282 17283 17284 17285 17286 17287 17288 17289 17290 17291 17292 17293 17294 17295 17296 17297 17298 17299 17300 17301 17302 17303 17304 17305 17306 17307 17308 17309 17310 17311 17312 17313 17314 17315 17316 17317 17318 17319 17320 17321 17322 17323 17324 17325 17326 17327 17328 17329 17330 17331 17332 17333 17334 17335 17336 17337 17338 17339 17340 17341 17342 17343 17344 17345 17346 17347 17348 17349 17350 17351 17352 17353 17354 17355 17356 17357 17358 17359 17360 17361 17362 17363 17364 17365 17366 17367 17368 17369 17370 17371 17372 17373 17374 17375 17376 17377 17378 17379 17380 17381 17382 17383 17384 17385 17386 17387 17388 17389 17390 17391 17392 17393 17394 17395 17396 17397 17398 17399 17400 17401 17402 17403 17404 17405 17406 17407 17408 17409 17410 17411 17412 17413 17414 17415 17416 17417 17418 17419 17420 17421 17422 17423 17424 17425 17426 17427 17428 17429 17430 17431 17432 17433 17434 17435 17436 17437 17438 17439 17440 17441 17442 17443 17444 17445 17446 17447 17448 17449 17450 17451 17452 17453 17454 17455 17456 17457 17458 17459 17460 17461 17462 17463 17464 17465 17466 17467 17468 17469 17470 17471 17472 17473 17474 17475 17476 17477 17478 17479 17480 17481 17482 17483 17484 17485 17486 17487 17488 17489 17490 17491 17492 17493 17494 17495 17496 17497 17498 17499 17500 17501 17502 17503 17504 17505 17506 17507 17508 17509 17510 17511 17512 17513 17514 17515 17516 17517 17518 17519 17520 17521 17522 17523 17524 17525 17526 17527 17528 17529 17530 17531 17532 17533 17534 17535 17536 17537 17538 17539 17540 17541 17542 17543 17544 17545 17546 17547 17548 17549 17550 17551 17552 17553 17554 17555 17556 17557 17558 17559 17560 17561 17562 17563 17564 17565 17566 17567 17568 17569 17570 17571 17572 17573 17574 17575 17576 17577 17578 17579 17580 17581 17582 17583 17584 17585 17586 17587 17588 17589 17590 17591 17592 17593 17594 17595 17596 17597 17598 17599 17600 17601 17602 17603 17604 17605 17606 17607 17608 17609 17610 17611 17612 17613 17614 17615 17616 17617 17618 17619 17620 17621 17622 17623 17624 17625 17626 17627 17628 17629 17630 17631 17632 17633 17634 17635 17636 17637 17638 17639 17640 17641 17642 17643 17644 17645 17646 17647 17648 17649 17650 17651 17652 17653 17654 17655 17656 17657 17658 17659 17660 17661 17662 17663 17664 17665 17666 17667 17668 17669 17670 17671 17672 17673 17674 17675 17676 17677 17678 17679 17680 17681 17682 17683 17684 17685 17686 17687 17688 17689 17690 17691 17692 17693 17694 17695 17696 17697 17698 17699 17700 17701 17702 17703 17704 17705 17706 17707 17708 17709 17710 17711 17712 17713 17714 17715 17716 17717 17718 17719 17720 17721 17722 17723 17724 17725 17726 17727 17728 17729 17730 17731 17732 17733 17734 17735 17736 17737 17738 17739 17740 17741 17742 17743 17744 17745 17746 17747 17748 17749 17750 17751 17752 17753 17754 17755 17756 17757 17758 17759 17760 17761 17762 17763 17764 17765 17766 17767 17768 17769 17770 17771 17772 17773 17774 17775 17776 17777 17778 17779 17780 17781 17782 17783 17784 17785 17786 17787 17788 17789 17790 17791 17792 17793 17794 17795 17796 17797 17798 17799 17800 17801 17802 17803 17804 17805 17806 17807 17808 17809 17810 17811 17812 17813 17814 17815 17816 17817 17818 17819 17820 17821 17822 17823 17824 17825 17826 17827 17828 17829 17830 17831 17832 17833 17834 17835 17836 17837 17838 17839 17840 17841 17842 17843 17844 17845 17846 17847 17848 17849 17850 17851 17852 17853 17854 17855 17856 17857 17858 17859 17860 17861 17862 17863 17864 17865 17866 17867 17868 17869 17870 17871 17872 17873 17874 17875 17876 17877 17878 17879 17880 17881 17882 17883 17884 17885 17886 17887 17888 17889 17890 17891 17892 17893 17894 17895 17896 17897 17898 17899 17900 17901 17902 17903 17904 17905 17906 17907 17908 17909 17910 17911 17912 17913 17914 17915 17916 17917 17918 17919 17920 17921 17922 17923 17924 17925 17926 17927 17928 17929 17930 17931 17932 17933 17934 17935 17936 17937 17938 17939 17940 17941 17942 17943 17944 17945 17946 17947 17948 17949 17950 17951 17952 17953 17954 17955 17956 17957 17958 17959 17960 17961 17962 17963 17964 17965 17966 17967 17968 17969 17970 17971 17972 17973 17974 17975 17976 17977 17978 17979 17980 17981 17982 17983 17984 17985 17986 17987 17988 17989 17990 17991 17992 17993 17994 17995 17996 17997 17998 17999 18000 18001 18002 18003 18004 18005 18006 18007 18008 18009 18010 18011 18012 18013 18014 18015 18016 18017 18018 18019 18020 18021 18022 18023 18024 18025 18026 18027 18028 18029 18030 18031 18032 18033 18034 18035 18036 18037 18038 18039 18040 18041 18042 18043 18044 18045 18046 18047 18048 18049 18050 18051 18052 18053 18054 18055 18056 18057 18058 18059 18060 18061 18062 18063 18064 18065 18066 18067 18068 18069 18070 18071 18072 18073 18074 18075 18076 18077 18078 18079 18080 18081 18082 18083 18084 18085 18086 18087 18088 18089 18090 18091 18092 18093 18094 18095 18096 18097 18098 18099 18100 18101 18102 18103 18104 18105 18106 18107 18108 18109 18110 18111 18112 18113 18114 18115 18116 18117 18118 18119 18120 18121 18122 18123 18124 18125 18126 18127 18128 18129 18130 18131 18132 18133 18134 18135 18136 18137 18138 18139 18140 18141 18142 18143 18144 18145 18146 18147 18148 18149 18150 18151 18152 18153 18154 18155 18156 18157 18158 18159 18160 18161 18162 18163 18164 18165 18166 18167 18168 18169 18170 18171 18172 18173 18174 18175 18176 18177 18178 18179 18180 18181 18182 18183 18184 18185 18186 18187 18188 18189 18190 18191 18192 18193 18194 18195 18196 18197 18198 18199 18200 18201 18202 18203 18204 18205 18206 18207 18208 18209 18210 18211 18212 18213 18214 18215 18216 18217 18218 18219 18220 18221 18222 18223 18224 18225 18226 18227 18228 18229 18230 18231 18232 18233 18234 18235 18236 18237 18238 18239 18240 18241 18242 18243 18244 18245 18246 18247 18248 18249 18250 18251 18252 18253 18254 18255 18256 18257 18258 18259 18260 18261 18262 18263 18264 18265 18266 18267 18268 18269 18270 18271 18272 18273 18274 18275 18276 18277 18278 18279 18280 18281 18282 18283 18284 18285 18286 18287 18288 18289 18290 18291 18292 18293 18294 18295 18296 18297 18298 18299 18300 18301 18302 18303 18304 18305 18306 18307 18308 18309 18310 18311 18312 18313 18314 18315 18316 18317 18318 18319 18320 18321 18322 18323 18324 18325 18326 18327 18328 18329 18330 18331 18332 18333 18334 18335 18336 18337 18338 18339 18340 18341 18342 18343 18344 18345 18346 18347 18348 18349 18350 18351 18352 18353 18354 18355 18356 18357 18358 18359 18360 18361 18362 18363 18364 18365 18366 18367 18368 18369 18370 18371 18372 18373 18374 18375 18376 18377 18378 18379 18380 18381 18382 18383 18384 18385 18386 18387 18388 18389 18390 18391 18392 18393 18394 18395 18396 18397 18398 18399 18400 18401 18402 18403 18404 18405 18406 18407 18408 18409 18410 18411 18412 18413 18414 18415 18416 18417 18418 18419 18420 18421 18422 18423 18424 18425 18426 18427 18428 18429 18430 18431 18432 18433 18434 18435 18436 18437 18438 18439 18440 18441 18442 18443 18444 18445 18446 18447 18448 18449 18450 18451 18452 18453 18454 18455 18456 18457 18458 18459 18460 18461 18462 18463 18464 18465 18466 18467 18468 18469 18470 18471 18472 18473 18474 18475 18476 18477 18478 18479 18480 18481 18482 18483 18484 18485 18486 18487 18488 18489 18490 18491 18492 18493 18494 18495 18496 18497 18498 18499 18500 18501 18502 18503 18504 18505 18506 18507 18508 18509 18510 18511 18512 18513 18514 18515 18516 18517 18518 18519 18520 18521 18522 18523 18524 18525 18526 18527 18528 18529 18530 18531 18532 18533 18534 18535 18536 18537 18538 18539 18540 18541 18542 18543 18544 18545 18546 18547 18548 18549 18550 18551 18552 18553 18554 18555 18556 18557 18558 18559 18560 18561 18562 18563 18564 18565 18566 18567 18568 18569 18570 18571 18572 18573 18574 18575 18576 18577 18578 18579 18580 18581 18582 18583 18584 18585 18586 18587 18588 18589 18590 18591 18592 18593 18594 18595 18596 18597 18598 18599 18600 18601 18602 18603 18604 18605 18606 18607 18608 18609 18610 18611 18612 18613 18614 18615 18616 18617 18618 18619 18620 18621 18622 18623 18624 18625 18626 18627 18628 18629 18630 18631 18632 18633 18634 18635 18636 18637 18638 18639 18640 18641 18642 18643 18644 18645 18646 18647 18648 18649 18650 18651 18652 18653 18654 18655 18656 18657 18658 18659 18660 18661 18662 18663 18664 18665 18666 18667 18668 18669 18670 18671 18672 18673 18674 18675 18676 18677 18678 18679 18680 18681 18682 18683 18684 18685 18686 18687 18688 18689 18690 18691 18692 18693 18694 18695 18696 18697 18698 18699 18700 18701 18702 18703 18704 18705 18706 18707 18708 18709 18710 18711 18712 18713 18714 18715 18716 18717 18718 18719 18720 18721 18722 18723 18724 18725 18726 18727 18728 18729 18730 18731 18732 18733 18734 18735 18736 18737 18738 18739 18740 18741 18742 18743 18744 18745 18746 18747 18748 18749 18750 18751 18752 18753 18754 18755 18756 18757 18758 18759 18760 18761 18762 18763 18764 18765 18766 18767 18768 18769 18770 18771 18772 18773 18774 18775 18776 18777 18778 18779 18780 18781 18782 18783 18784 18785 18786 18787 18788 18789 18790 18791 18792 18793 18794 18795 18796 18797 18798 18799 18800 18801 18802 18803 18804 18805 18806 18807 18808 18809 18810 18811 18812 18813 18814 18815 18816 18817 18818 18819 18820 18821 18822 18823 18824 18825 18826 18827 18828 18829 18830 18831 18832 18833 18834 18835 18836 18837 18838 18839 18840 18841 18842 18843 18844 18845 18846 18847 18848 18849 18850 18851 18852 18853 18854 18855 18856 18857 18858 18859 18860 18861 18862 18863 18864 18865 18866 18867 18868 18869 18870 18871 18872 18873 18874 18875 18876 18877 18878 18879 18880 18881 18882 18883 18884 18885 18886 18887 18888 18889 18890 18891 18892 18893 18894 18895 18896 18897 18898 18899 18900 18901 18902 18903 18904 18905 18906 18907 18908 18909 18910 18911 18912 18913 18914 18915 18916 18917 18918 18919 18920 18921 18922 18923 18924 18925 18926 18927 18928 18929 18930 18931 18932 18933 18934 18935 18936 18937 18938 18939 18940 18941 18942 18943 18944 18945 18946 18947 18948 18949 18950 18951 18952 18953 18954 18955 18956 18957 18958 18959 18960 18961 18962 18963 18964 18965 18966 18967 18968 18969 18970 18971 18972 18973 18974 18975 18976 18977 18978 18979 18980 18981 18982 18983 18984 18985 18986 18987 18988 18989 18990 18991 18992 18993 18994 18995 18996 18997 18998 18999 19000 19001 19002 19003 19004 19005 19006 19007 19008 19009 19010 19011 19012 19013 19014 19015 19016 19017 19018 19019 19020 19021 19022 19023 19024 19025 19026 19027 19028 19029 19030 19031 19032 19033 19034 19035 19036 19037 19038 19039 19040 19041 19042 19043 19044 19045 19046 19047 19048 19049 19050 19051 19052 19053 19054 19055 19056 19057 19058 19059 19060 19061 19062 19063 19064 19065 19066 19067 19068 19069 19070 19071 19072 19073 19074 19075 19076 19077 19078 19079 19080 19081 19082 19083 19084 19085 19086 19087 19088 19089 19090 19091 19092 19093 19094 19095 19096 19097 19098 19099 19100 19101 19102 19103 19104 19105 19106 19107 19108 19109 19110 19111 19112 19113 19114 19115 19116 19117 19118 19119 19120 19121 19122 19123 19124 19125 19126 19127 19128 19129 19130 19131 19132 19133 19134 19135 19136 19137 19138 19139 19140 19141 19142 19143 19144 19145 19146 19147 19148 19149 19150 19151 19152 19153 19154 19155 19156 19157 19158 19159 19160 19161 19162 19163 19164 19165 19166 19167 19168 19169 19170 19171 19172 19173 19174 19175 19176 19177 19178 19179 19180 19181 19182 19183 19184 19185 19186 19187 19188 19189 19190 19191 19192 19193 19194 19195 19196 19197 19198 19199 19200 19201 19202 19203 19204 19205 19206 19207 19208 19209 19210 19211 19212 19213 19214 19215 19216 19217 19218 19219 19220 19221 19222 19223 19224 19225 19226 19227 19228 19229 19230 19231 19232 19233 19234 19235 19236 19237 19238 19239 19240 19241 19242 19243 19244 19245 19246 19247 19248 19249 19250 19251 19252 19253 19254 19255 19256 19257 19258 19259 19260 19261 19262 19263 19264 19265 19266 19267 19268 19269 19270 19271 19272 19273 19274 19275 19276 19277 19278 19279 19280 19281 19282 19283 19284 19285 19286 19287 19288 19289 19290 19291 19292 19293 19294 19295 19296 19297 19298 19299 19300 19301 19302 19303 19304 19305 19306 19307 19308 19309 19310 19311 19312 19313 19314 19315 19316 19317 19318 19319 19320 19321 19322 19323 19324 19325 19326 19327 19328 19329 19330 19331 19332 19333 19334 19335 19336 19337 19338 19339 19340 19341 19342 19343 19344 19345 19346 19347 19348 19349 19350 19351 19352 19353 19354 19355 19356 19357 19358 19359 19360 19361 19362 19363 19364 19365 19366 19367 19368 19369 19370 19371 19372 19373 19374 19375 19376 19377 19378 19379 19380 19381 19382 19383 19384 19385 19386 19387 19388 19389 19390 19391 19392 19393 19394 19395 19396 19397 19398 19399 19400 19401 19402 19403 19404 19405 19406 19407 19408 19409 19410 19411 19412 19413 19414 19415 19416 19417 19418 19419 19420 19421 19422 19423 19424 19425 19426 19427 19428 19429 19430 19431 19432 19433 19434 19435 19436 19437 19438 19439 19440 19441 19442 19443 19444 19445 19446 19447 19448 19449 19450 19451 19452 19453 19454 19455 19456 19457 19458 19459 19460 19461 19462 19463 19464 19465 19466 19467 19468 19469 19470 19471 19472 19473 19474 19475 19476 19477 19478 19479 19480 19481 19482 19483 19484 19485 19486 19487 19488 19489 19490 19491 19492 19493 19494 19495 19496 19497 19498 19499 19500 19501 19502 19503 19504 19505 19506 19507 19508 19509 19510 19511 19512 19513 19514 19515 19516 19517 19518 19519 19520 19521 19522 19523 19524 19525 19526 19527 19528 19529 19530 19531 19532 19533 19534 19535 19536 19537 19538 19539 19540 19541 19542 19543 19544 19545 19546 19547 19548 19549 19550 19551 19552 19553 19554 19555 19556 19557 19558 19559 19560 19561 19562 19563 19564 19565 19566 19567 19568 19569 19570 19571 19572 19573 19574 19575 19576 19577 19578 19579 19580 19581 19582 19583 19584 19585 19586 19587 19588 19589 19590 19591 19592 19593 19594 19595 19596 19597 19598 19599 19600 19601 19602 19603 19604 19605 19606 19607 19608 19609 19610 19611 19612 19613 19614 19615 19616 19617 19618 19619 19620 19621 19622 19623 19624 19625 19626 19627 19628 19629 19630 19631 19632 19633 19634 19635 19636 19637 19638 19639 19640 19641 19642 19643 19644 19645 19646 19647 19648 19649 19650 19651 19652 19653 19654 19655 19656 19657 19658 19659 19660 19661 19662 19663 19664 19665 19666 19667 19668 19669 19670 19671 19672 19673 19674 19675 19676 19677 19678 19679 19680 19681 19682 19683 19684 19685 19686 19687 19688 19689 19690 19691 19692 19693 19694 19695 19696 19697 19698 19699 19700 19701 19702 19703 19704 19705 19706 19707 19708 19709 19710 19711 19712 19713 19714 19715 19716 19717 19718 19719 19720 19721 19722 19723 19724 19725 19726 19727 19728 19729 19730 19731 19732 19733 19734 19735 19736 19737 19738 19739 19740 19741 19742 19743 19744 19745 19746 19747 19748 19749 19750 19751 19752 19753 19754 19755 19756 19757 19758 19759 19760 19761 19762 19763 19764 19765 19766 19767 19768 19769 19770 19771 19772 19773 19774 19775 19776 19777 19778 19779 19780 19781 19782 19783 19784 19785 19786 19787 19788 19789 19790 19791 19792 19793 19794 19795 19796 19797 19798 19799 19800 19801 19802 19803 19804 19805 19806 19807 19808 19809 19810 19811 19812 19813 19814 19815 19816 19817 19818 19819 19820 19821 19822 19823 19824 19825 19826 19827 19828 19829 19830 19831 19832 19833 19834 19835 19836 19837 19838 19839 19840 19841 19842 19843 19844 19845 19846 19847 19848 19849 19850 19851 19852 19853 19854 19855 19856 19857 19858 19859 19860 19861 19862 19863 19864 19865 19866 19867 19868 19869 19870 19871 19872 19873 19874 19875 19876 19877 19878 19879 19880 19881 19882 19883 19884 19885 19886 19887 19888 19889 19890 19891 19892 19893 19894 19895 19896 19897 19898 19899 19900 19901 19902 19903 19904 19905 19906 19907 19908 19909 19910 19911 19912 19913 19914 19915 19916 19917 19918 19919 19920 19921 19922 19923 19924 19925 19926 19927 19928 19929 19930 19931 19932 19933 19934 19935 19936 19937 19938 19939 19940 19941 19942 19943 19944 19945 19946 19947 19948 19949 19950 19951 19952 19953 19954 19955 19956 19957 19958 19959 19960 19961 19962 19963 19964 19965 19966 19967 19968 19969 19970 19971 19972 19973 19974 19975 19976 19977 19978 19979 19980 19981 19982 19983 19984 19985 19986 19987 19988 19989 19990 19991 19992 19993 19994 19995 19996 19997 19998 19999 20000 20001 20002 20003 20004 20005 20006 20007 20008 20009 20010 20011 20012 20013 20014 20015 20016 20017 20018 20019 20020 20021 20022 20023 20024 20025 20026 20027 20028 20029 20030 20031 20032 20033 20034 20035 20036 20037 20038 20039 20040 20041 20042 20043 20044 20045 20046 20047 20048 20049 20050 20051 20052 20053 20054 20055 20056 20057 20058 20059 20060 20061 20062 20063 20064 20065 20066 20067 20068 20069 20070 20071 20072 20073 20074 20075 20076 20077 20078 20079 20080 20081 20082 20083 20084 20085 20086 20087 20088 20089 20090 20091 20092 20093 20094 20095 20096 20097 20098 20099 20100 20101 20102 20103 20104 20105 20106 20107 20108 20109 20110 20111 20112 20113 20114 20115 20116 20117 20118 20119 20120 20121 20122 20123 20124 20125 20126 20127 20128 20129 20130 20131 20132 20133 20134 20135 20136 20137 20138 20139 20140 20141 20142 20143 20144 20145 20146 20147 20148 20149 20150 20151 20152 20153 20154 20155 20156 20157 20158 20159 20160 20161 20162 20163 20164 20165 20166 20167 20168 20169 20170 20171 20172 20173 20174 20175 20176 20177 20178 20179 20180 20181 20182 20183 20184 20185 20186 20187 20188 20189 20190 20191 20192 20193 20194 20195 20196 20197 20198 20199 20200 20201 20202 20203 20204 20205 20206 20207 20208 20209 20210 20211 20212 20213 20214 20215 20216 20217 20218 20219 20220 20221 20222 20223 20224 20225 20226 20227 20228 20229 20230 20231 20232 20233 20234 20235 20236 20237 20238 20239 20240 20241 20242 20243 20244 20245 20246 20247 20248 20249 20250 20251 20252 20253 20254 20255 20256 20257 20258 20259 20260 20261 20262 20263 20264 20265 20266 20267 20268 20269 20270 20271 20272 20273 20274 20275 20276 20277 20278 20279 20280 20281 20282 20283 20284 20285 20286 20287 20288 20289 20290 20291 20292 20293 20294 20295 20296 20297 20298 20299 20300 20301 20302 20303 20304 20305 20306 20307 20308 20309 20310 20311 20312 20313 20314 20315 20316 20317 20318 20319 20320 20321 20322 20323 20324 20325 20326 20327 20328 20329 20330 20331 20332 20333 20334 20335 20336 20337 20338 20339 20340 20341 20342 20343 20344 20345 20346 20347 20348 20349 20350 20351 20352 20353 20354 20355 20356 20357 20358 20359 20360 20361 20362 20363 20364 20365 20366 20367 20368 20369 20370 20371 20372 20373 20374 20375 20376 20377 20378 20379 20380 20381 20382 20383 20384 20385 20386 20387 20388 20389 20390 20391 20392 20393 20394 20395 20396 20397 20398 20399 20400 20401 20402 20403 20404 20405 20406 20407 20408 20409 20410 20411 20412 20413 20414 20415 20416 20417 20418 20419 20420 20421 20422 20423 20424 20425 20426 20427 20428 20429 20430 20431 20432 20433 20434 20435 20436 20437 20438 20439 20440 20441 20442 20443 20444 20445 20446 20447 20448 20449 20450 20451 20452 20453 20454 20455 20456 20457 20458 20459 20460 20461 20462 20463 20464 20465 20466 20467 20468 20469 20470 20471 20472 20473 20474 20475 20476 20477 20478 20479 20480 20481 20482 20483 20484 20485 20486 20487 20488 20489 20490 20491 20492 20493 20494 20495 20496 20497 20498 20499 20500 20501 20502 20503 20504 20505 20506 20507 20508 20509 20510 20511 20512 20513 20514 20515 20516 20517 20518 20519 20520 20521 20522 20523 20524 20525 20526 20527 20528 20529 20530 20531 20532 20533 20534 20535 20536 20537 20538 20539 20540 20541 20542 20543 20544 20545 20546 20547 20548 20549 20550 20551 20552 20553 20554 20555 20556 20557 20558 20559 20560 20561 20562 20563 20564 20565 20566 20567 20568 20569 20570 20571 20572 20573 20574 20575 20576 20577 20578 20579 20580 20581 20582 20583 20584 20585 20586 20587 20588 20589 20590 20591 20592 20593 20594 20595 20596 20597 20598 20599 20600 20601 20602 20603 20604 20605 20606 20607 20608 20609 20610 20611 20612 20613 20614 20615 20616 20617 20618 20619 20620 20621 20622 20623 20624 20625 20626 20627 20628 20629 20630 20631 20632 20633 20634 20635 20636 20637 20638 20639 20640 20641 20642 20643 20644 20645 20646 20647 20648 20649 20650 20651 20652 20653 20654 20655 20656 20657 20658 20659 20660 20661 20662 20663 20664 20665 20666 20667 20668 20669 20670 20671 20672 20673 20674 20675 20676 20677 20678 20679 20680 20681 20682 20683 20684 20685 20686 20687 20688 20689 20690 20691 20692 20693 20694 20695 20696 20697 20698 20699 20700 20701 20702 20703 20704 20705 20706 20707 20708 20709 20710 20711 20712 20713 20714 20715 20716 20717 20718 20719 20720 20721 20722 20723 20724 20725 20726 20727 20728 20729 20730 20731 20732 20733 20734 20735 20736 20737 20738 20739 20740 20741 20742 20743 20744 20745 20746 20747 20748 20749 20750 20751 20752 20753 20754 20755 20756 20757 20758 20759 20760 20761 20762 20763 20764 20765 20766 20767 20768 20769 20770 20771 20772 20773 20774 20775 20776 20777 20778 20779 20780 20781 20782 20783 20784 20785 20786 20787 20788 20789 20790 20791 20792 20793 20794 20795 20796 20797 20798 20799 20800 20801 20802 20803 20804 20805 20806 20807 20808 20809 20810 20811 20812 20813 20814 20815 20816 20817 20818 20819 20820 20821 20822 20823 20824 20825 20826 20827 20828 20829 20830 20831 20832 20833 20834 20835 20836 20837 20838 20839 20840 20841 20842 20843 20844 20845 20846 20847 20848 20849 20850 20851 20852 20853 20854 20855 20856 20857 20858 20859 20860 20861 20862 20863 20864 20865 20866 20867 20868 20869 20870 20871 20872 20873 20874 20875 20876 20877 20878 20879 20880 20881 20882 20883 20884 20885 20886 20887 20888 20889 20890 20891 20892 20893 20894 20895 20896 20897 20898 20899 20900 20901 20902 20903 20904 20905 20906 20907 20908 20909 20910 20911 20912 20913 20914 20915 20916 20917 20918 20919 20920 20921 20922 20923 20924 20925 20926 20927 20928 20929 20930 20931 20932 20933 20934 20935 20936 20937 20938 20939 20940 20941 20942 20943 20944 20945 20946 20947 20948 20949 20950 20951 20952 20953 20954 20955 20956 20957 20958 20959 20960 20961 20962 20963 20964 20965 20966 20967 20968 20969 20970 20971 20972 20973 20974 20975 20976 20977 20978 20979 20980 20981 20982 20983 20984 20985 20986 20987 20988 20989 20990 20991 20992 20993 20994 20995 20996 20997 20998 20999 21000 21001 21002 21003 21004 21005 21006 21007 21008 21009 21010 21011 21012 21013 21014 21015 21016 21017 21018 21019 21020 21021 21022 21023 21024 21025 21026 21027 21028 21029 21030 21031 21032 21033 21034 21035 21036 21037 21038 21039 21040 21041 21042 21043 21044 21045 21046 21047 21048 21049 21050 21051 21052 21053 21054 21055 21056 21057 21058 21059 21060 21061 21062 21063 21064 21065 21066 21067 21068 21069 21070 21071 21072 21073 21074 21075 21076 21077 21078 21079 21080 21081 21082 21083 21084 21085 21086 21087 21088 21089 21090 21091 21092 21093 21094 21095 21096 21097 21098 21099 21100 21101 21102 21103 21104 21105 21106 21107 21108 21109 21110 21111 21112 21113 21114 21115 21116 21117 21118 21119 21120 21121 21122 21123 21124 21125 21126 21127 21128 21129 21130 21131 21132 21133 21134 21135 21136 21137 21138 21139 21140 21141 21142 21143 21144 21145 21146 21147 21148 21149 21150 21151 21152 21153 21154 21155 21156 21157 21158 21159 21160 21161 21162 21163 21164 21165 21166 21167 21168 21169 21170 21171 21172 21173 21174 21175 21176 21177 21178 21179 21180 21181 21182 21183 21184 21185 21186 21187 21188 21189 21190 21191 21192 21193 21194 21195 21196 21197 21198 21199 21200 21201 21202 21203 21204 21205 21206 21207 21208 21209 21210 21211 21212 21213 21214 21215 21216 21217 21218 21219 21220 21221 21222 21223 21224 21225 21226 21227 21228 21229 21230 21231 21232 21233 21234 21235 21236 21237 21238 21239 21240 21241 21242 21243 21244 21245 21246 21247 21248 21249 21250 21251 21252 21253 21254 21255 21256 21257 21258 21259 21260 21261 21262 21263 21264 21265 21266 21267 21268 21269 21270 21271 21272 21273 21274 21275 21276 21277 21278 21279 21280 21281 21282 21283 21284 21285 21286 21287 21288 21289 21290 21291 21292 21293 21294 21295 21296 21297 21298 21299 21300 21301 21302 21303 21304 21305 21306 21307 21308 21309 21310 21311 21312 21313 21314 21315 21316 21317 21318 21319 21320 21321 21322 21323 21324 21325 21326 21327 21328 21329 21330 21331 21332 21333 21334 21335 21336 21337 21338 21339 21340 21341 21342 21343 21344 21345 21346 21347 21348 21349 21350 21351 21352 21353 21354 21355 21356 21357 21358 21359 21360 21361 21362 21363 21364 21365 21366 21367 21368 21369 21370 21371 21372 21373 21374 21375 21376 21377 21378 21379 21380 21381 21382 21383 21384 21385 21386 21387 21388 21389 21390 21391 21392 21393 21394 21395 21396 21397 21398 21399 21400 21401 21402 21403 21404 21405 21406 21407 21408 21409 21410 21411 21412 21413 21414 21415 21416 21417 21418 21419 21420 21421 21422 21423 21424 21425 21426 21427 21428 21429 21430 21431 21432 21433 21434 21435 21436 21437 21438 21439 21440 21441 21442 21443 21444 21445 21446 21447 21448 21449 21450 21451 21452 21453 21454 21455 21456 21457 21458 21459 21460 21461 21462 21463 21464 21465 21466 21467 21468 21469 21470 21471 21472 21473 21474 21475 21476 21477 21478 21479 21480 21481 21482 21483 21484 21485 21486 21487 21488 21489 21490 21491 21492 21493 21494 21495 21496 21497 21498 21499 21500 21501 21502 21503 21504 21505 21506 21507 21508 21509 21510 21511 21512 21513 21514 21515 21516 21517 21518 21519 21520 21521 21522 21523 21524 21525 21526 21527 21528 21529 21530 21531 21532 21533 21534 21535 21536 21537 21538 21539 21540 21541 21542 21543 21544 21545 21546 21547 21548 21549 21550 21551 21552 21553 21554 21555 21556 21557 21558 21559 21560 21561 21562 21563 21564 21565 21566 21567 21568 21569 21570 21571 21572 21573 21574 21575 21576 21577 21578 21579 21580 21581 21582 21583 21584 21585 21586 21587 21588 21589 21590 21591 21592 21593 21594 21595 21596 21597 21598 21599 21600 21601 21602 21603 21604 21605 21606 21607 21608 21609 21610 21611 21612 21613 21614 21615 21616 21617 21618 21619 21620 21621 21622 21623 21624 21625 21626 21627 21628 21629 21630 21631 21632 21633 21634 21635 21636 21637 21638 21639 21640 21641 21642 21643 21644 21645 21646 21647 21648 21649 21650 21651 21652 21653 21654 21655 21656 21657 21658 21659 21660 21661 21662 21663 21664 21665 21666 21667 21668 21669 21670 21671 21672 21673 21674 21675 21676 21677 21678 21679 21680 21681 21682 21683 21684 21685 21686 21687 21688 21689 21690 21691 21692 21693 21694 21695 21696 21697 21698 21699 21700 21701 21702 21703 21704 21705 21706 21707 21708 21709 21710 21711 21712 21713 21714 21715 21716 21717 21718 21719 21720 21721 21722 21723 21724 21725 21726 21727 21728 21729 21730 21731 21732 21733 21734 21735 21736 21737 21738 21739 21740 21741 21742 21743 21744 21745 21746 21747 21748 21749 21750 21751 21752 21753 21754 21755 21756 21757 21758 21759 21760 21761 21762 21763 21764 21765 21766 21767 21768 21769 21770 21771 21772 21773 21774 21775 21776 21777 21778 21779 21780 21781 21782 21783 21784 21785 21786 21787 21788 21789 21790 21791 21792 21793 21794 21795 21796 21797 21798 21799 21800 21801 21802 21803 21804 21805 21806 21807 21808 21809 21810 21811 21812 21813 21814 21815 21816 21817 21818 21819 21820 21821 21822 21823 21824 21825 21826 21827 21828 21829 21830 21831 21832 21833 21834 21835 21836 21837 21838 21839 21840 21841 21842 21843 21844 21845 21846 21847 21848 21849 21850 21851 21852 21853 21854 21855 21856 21857 21858 21859 21860 21861 21862 21863 21864 21865 21866 21867 21868 21869 21870 21871 21872 21873 21874 21875 21876 21877 21878 21879 21880 21881 21882 21883 21884 21885 21886 21887 21888 21889 21890 21891 21892 21893 21894 21895 21896 21897 21898 21899 21900 21901 21902 21903 21904 21905 21906 21907 21908 21909 21910 21911 21912 21913 21914 21915 21916 21917 21918 21919 21920 21921 21922 21923 21924 21925 21926 21927 21928 21929 21930 21931 21932 21933 21934 21935 21936 21937 21938 21939 21940 21941 21942 21943 21944 21945 21946 21947 21948 21949 21950 21951 21952 21953 21954 21955 21956 21957 21958 21959 21960 21961 21962 21963 21964 21965 21966 21967 21968 21969 21970 21971 21972 21973 21974 21975 21976 21977 21978 21979 21980 21981 21982 21983 21984 21985 21986 21987 21988 21989 21990 21991 21992 21993 21994 21995 21996 21997 21998 21999 22000 22001 22002 22003 22004 22005 22006 22007 22008 22009 22010 22011 22012 22013 22014 22015 22016 22017 22018 22019 22020 22021 22022 22023 22024 22025 22026 22027 22028 22029 22030 22031 22032 22033 22034 22035 22036 22037 22038 22039 22040 22041 22042 22043 22044 22045 22046 22047 22048 22049 22050 22051 22052 22053 22054 22055 22056 22057 22058 22059 22060 22061 22062 22063 22064 22065 22066 22067 22068 22069 22070 22071 22072 22073 22074 22075 22076 22077 22078 22079 22080 22081 22082 22083 22084 22085 22086 22087 22088 22089 22090 22091 22092 22093 22094 22095 22096 22097 22098 22099 22100 22101 22102 22103 22104 22105 22106 22107 22108 22109 22110 22111 22112 22113 22114 22115 22116 22117 22118 22119 22120 22121 22122 22123 22124 22125 22126 22127 22128 22129 22130 22131 22132 22133 22134 22135 22136 22137 22138 22139 22140 22141 22142 22143 22144 22145 22146 22147 22148 22149 22150 22151 22152 22153 22154 22155 22156 22157 22158 22159 22160 22161 22162 22163 22164 22165 22166 22167 22168 22169 22170 22171 22172 22173 22174 22175 22176 22177 22178 22179 22180 22181 22182 22183 22184 22185 22186 22187 22188 22189 22190 22191 22192 22193 22194 22195 22196 22197 22198 22199 22200 22201 22202 22203 22204 22205 22206 22207 22208 22209 22210 22211 22212 22213 22214 22215 22216 22217 22218 22219 22220 22221 22222 22223 22224 22225 22226 22227 22228 22229 22230 22231 22232 22233 22234 22235 22236 22237 22238 22239 22240 22241 22242 22243 22244 22245 22246 22247 22248 22249 22250 22251 22252 22253 22254 22255 22256 22257 22258 22259 22260 22261 22262 22263 22264 22265 22266 22267 22268 22269 22270 22271 22272 22273 22274 22275 22276 22277 22278 22279 22280 22281 22282 22283 22284 22285 22286 22287 22288 22289 22290 22291 22292 22293 22294 22295 22296 22297 22298 22299 22300 22301 22302 22303 22304 22305 22306 22307 22308 22309 22310 22311 22312 22313 22314 22315 22316 22317 22318 22319 22320 22321 22322 22323 22324 22325 22326 22327 22328 22329 22330 22331 22332 22333 22334 22335 22336 22337 22338 22339 22340 22341 22342 22343 22344 22345 22346 22347 22348 22349 22350 22351 22352 22353 22354 22355 22356 22357 22358 22359 22360 22361 22362 22363 22364 22365 22366 22367 22368 22369 22370 22371 22372 22373 22374 22375 22376 22377 22378 22379 22380 22381 22382 22383 22384 22385 22386 22387 22388 22389 22390 22391 22392 22393 22394 22395 22396 22397 22398 22399 22400 22401 22402 22403 22404 22405 22406 22407 22408 22409 22410 22411 22412 22413 22414 22415 22416 22417 22418 22419 22420 22421 22422 22423 22424 22425 22426 22427 22428 22429 22430 22431 22432 22433 22434 22435 22436 22437 22438 22439 22440 22441 22442 22443 22444 22445 22446 22447 22448 22449 22450 22451 22452 22453 22454 22455 22456 22457 22458 22459 22460 22461 22462 22463 22464 22465 22466 22467 22468 22469 22470 22471 22472 22473 22474 22475 22476 22477 22478 22479 22480 22481 22482 22483 22484 22485 22486 22487 22488 22489 22490 22491 22492 22493 22494 22495 22496 22497 22498 22499 22500 22501 22502 22503 22504 22505 22506 22507 22508 22509 22510 22511 22512 22513 22514 22515 22516 22517 22518 22519 22520 22521 22522 22523 22524 22525 22526 22527 22528 22529 22530 22531 22532 22533 22534 22535 22536 22537 22538 22539 22540 22541 22542 22543 22544 22545 22546 22547 22548 22549 22550 22551 22552 22553 22554 22555 22556 22557 22558 22559 22560 22561 22562 22563 22564 22565 22566 22567 22568 22569 22570 22571 22572 22573 22574 22575 22576 22577 22578 22579 22580 22581 22582 22583 22584 22585 22586 22587 22588 22589 22590 22591 22592 22593 22594 22595 22596 22597 22598 22599 22600 22601 22602 22603 22604 22605 22606 22607 22608 22609 22610 22611 22612 22613 22614 22615 22616 22617 22618 22619 22620 22621 22622 22623 22624 22625 22626 22627 22628 22629 22630 22631 22632 22633 22634 22635 22636 22637 22638 22639 22640 22641 22642 22643 22644 22645 22646 22647 22648 22649 22650 22651 22652 22653 22654 22655 22656 22657 22658 22659 22660 22661 22662 22663 22664 22665 22666 22667 22668 22669 22670 22671 22672 22673 22674 22675 22676 22677 22678 22679 22680 22681 22682 22683 22684 22685 22686 22687 22688 22689 22690 22691 22692 22693 22694 22695 22696 22697 22698 22699 22700 22701 22702 22703 22704 22705 22706 22707 22708 22709 22710 22711 22712 22713 22714 22715 22716 22717 22718 22719 22720 22721 22722 22723 22724 22725 22726 22727 22728 22729 22730 22731 22732 22733 22734 22735 22736 22737 22738 22739 22740 22741 22742 22743 22744 22745 22746 22747 22748 22749 22750 22751 22752 22753 22754 22755 22756 22757 22758 22759 22760 22761 22762 22763 22764 22765 22766 22767 22768 22769 22770 22771 22772 22773 22774 22775 22776 22777 22778 22779 22780 22781 22782 22783 22784 22785 22786 22787 22788 22789 22790 22791 22792 22793 22794 22795 22796 22797 22798 22799 22800 22801 22802 22803 22804 22805 22806 22807 22808 22809 22810 22811 22812 22813 22814 22815 22816 22817 22818 22819 22820 22821 22822 22823 22824 22825 22826 22827 22828 22829 22830 22831 22832 22833 22834 22835 22836 22837 22838 22839 22840 22841 22842 22843 22844 22845 22846 22847 22848 22849 22850 22851 22852 22853 22854 22855 22856 22857 22858 22859 22860 22861 22862 22863 22864 22865 22866 22867 22868 22869 22870 22871 22872 22873 22874 22875 22876 22877 22878 22879 22880 22881 22882 22883 22884 22885 22886 22887 22888 22889 22890 22891 22892 22893 22894 22895 22896 22897 22898 22899 22900 22901 22902 22903 22904 22905 22906 22907 22908 22909 22910 22911 22912 22913 22914 22915 22916 22917 22918 22919 22920 22921 22922 22923 22924 22925 22926 22927 22928 22929 22930 22931 22932 22933 22934 22935 22936 22937 22938 22939 22940 22941 22942 22943 22944 22945 22946 22947 22948 22949 22950 22951 22952 22953 22954 22955 22956 22957 22958 22959 22960 22961 22962 22963 22964 22965 22966 22967 22968 22969 22970 22971 22972 22973 22974 22975 22976 22977 22978 22979 22980 22981 22982 22983 22984 22985 22986 22987 22988 22989 22990 22991 22992 22993 22994 22995 22996 22997 22998 22999 23000 23001 23002 23003 23004 23005 23006 23007 23008 23009 23010 23011 23012 23013 23014 23015 23016 23017 23018 23019 23020 23021 23022 23023 23024 23025 23026 23027 23028 23029 23030 23031 23032 23033 23034 23035 23036 23037 23038 23039 23040 23041 23042 23043 23044 23045 23046 23047 23048 23049 23050 23051 23052 23053 23054 23055 23056 23057 23058 23059 23060 23061 23062 23063 23064 23065 23066 23067 23068 23069 23070 23071 23072 23073 23074 23075 23076 23077 23078 23079 23080 23081 23082 23083 23084 23085 23086 23087 23088 23089 23090 23091 23092 23093 23094 23095 23096 23097 23098 23099 23100 23101 23102 23103 23104 23105 23106 23107 23108 23109 23110 23111 23112 23113 23114 23115 23116 23117 23118 23119 23120 23121 23122 23123 23124 23125 23126 23127 23128 23129 23130 23131 23132 23133 23134 23135 23136 23137 23138 23139 23140 23141 23142 23143 23144 23145 23146 23147 23148 23149 23150 23151 23152 23153 23154 23155 23156 23157 23158 23159 23160 23161 23162 23163 23164 23165 23166 23167 23168 23169 23170 23171 23172 23173 23174 23175 23176 23177 23178 23179 23180 23181 23182 23183 23184 23185 23186 23187 23188 23189 23190 23191 23192 23193 23194 23195 23196 23197 23198 23199 23200 23201 23202 23203 23204 23205 23206 23207 23208 23209 23210 23211 23212 23213 23214 23215 23216 23217 23218 23219 23220 23221 23222 23223 23224 23225 23226 23227 23228 23229 23230 23231 23232 23233 23234 23235 23236 23237 23238 23239 23240 23241 23242 23243 23244 23245 23246 23247 23248 23249 23250 23251 23252 23253 23254 23255 23256 23257 23258 23259 23260 23261 23262 23263 23264 23265 23266 23267 23268 23269 23270 23271 23272 23273 23274 23275 23276 23277 23278 23279 23280 23281 23282 23283 23284 23285 23286 23287 23288 23289 23290 23291 23292 23293 23294 23295 23296 23297 23298 23299 23300 23301 23302 23303 23304 23305 23306 23307 23308 23309 23310 23311 23312 23313 23314 23315 23316 23317 23318 23319 23320 23321 23322 23323 23324 23325 23326 23327 23328 23329 23330 23331 23332 23333 23334 23335 23336 23337 23338 23339 23340 23341 23342 23343 23344 23345 23346 23347 23348 23349 23350 23351 23352 23353 23354 23355 23356 23357 23358 23359 23360 23361 23362 23363 23364 23365 23366 23367 23368 23369 23370 23371 23372 23373 23374 23375 23376 23377 23378 23379 23380 23381 23382 23383 23384 23385 23386 23387 23388 23389 23390 23391 23392 23393 23394 23395 23396 23397 23398 23399 23400 23401 23402 23403 23404 23405 23406 23407 23408 23409 23410 23411 23412 23413 23414 23415 23416 23417 23418 23419 23420 23421 23422 23423 23424 23425 23426 23427 23428 23429 23430 23431 23432 23433 23434 23435 23436 23437 23438 23439 23440 23441 23442 23443 23444 23445 23446 23447 23448 23449 23450 23451 23452 23453 23454 23455 23456 23457 23458 23459 23460 23461 23462 23463 23464 23465 23466 23467 23468 23469 23470 23471 23472 23473 23474 23475 23476 23477 23478 23479 23480 23481 23482 23483 23484 23485 23486 23487 23488 23489 23490 23491 23492 23493 23494 23495 23496 23497 23498 23499 23500 23501 23502 23503 23504 23505 23506 23507 23508 23509 23510 23511 23512 23513 23514 23515 23516 23517 23518 23519 23520 23521 23522 23523 23524 23525 23526 23527 23528 23529 23530 23531 23532 23533 23534 23535 23536 23537 23538 23539 23540 23541 23542 23543 23544 23545 23546 23547 23548 23549 23550 23551 23552 23553 23554 23555 23556 23557 23558 23559 23560 23561 23562 23563 23564 23565 23566 23567 23568 23569 23570 23571 23572 23573 23574 23575 23576 23577 23578 23579 23580 23581 23582 23583 23584 23585 23586 23587 23588 23589 23590 23591 23592 23593 23594 23595 23596 23597 23598 23599 23600 23601 23602 23603 23604 23605 23606 23607 23608 23609 23610 23611 23612 23613 23614 23615 23616 23617 23618 23619 23620 23621 23622 23623 23624 23625 23626 23627 23628 23629 23630 23631 23632 23633 23634 23635 23636 23637 23638 23639 23640 23641 23642 23643 23644 23645 23646 23647 23648 23649 23650 23651 23652 23653 23654 23655 23656 23657 23658 23659 23660 23661 23662 23663 23664 23665 23666 23667 23668 23669 23670 23671 23672 23673 23674 23675 23676 23677 23678 23679 23680 23681 23682 23683 23684 23685 23686 23687 23688 23689 23690 23691 23692 23693 23694 23695 23696 23697 23698 23699 23700 23701 23702 23703 23704 23705 23706 23707 23708 23709 23710 23711 23712 23713 23714 23715 23716 23717 23718 23719 23720 23721 23722 23723 23724 23725 23726 23727 23728 23729 23730 23731 23732 23733 23734 23735 23736 23737 23738 23739 23740 23741 23742 23743 23744 23745 23746 23747 23748 23749 23750 23751 23752 23753 23754 23755 23756 23757 23758 23759 23760 23761 23762 23763 23764 23765 23766 23767 23768 23769 23770 23771 23772 23773 23774 23775 23776 23777 23778 23779 23780 23781 23782 23783 23784 23785 23786 23787 23788 23789 23790 23791 23792 23793 23794 23795 23796 23797 23798 23799 23800 23801 23802 23803 23804 23805 23806 23807 23808 23809 23810 23811 23812 23813 23814 23815 23816 23817 23818 23819 23820 23821 23822 23823 23824 23825 23826 23827 23828 23829 23830 23831 23832 23833 23834 23835 23836 23837 23838 23839 23840 23841 23842 23843 23844 23845 23846 23847 23848 23849 23850 23851 23852 23853 23854 23855 23856 23857 23858 23859 23860 23861 23862 23863 23864 23865 23866 23867 23868 23869 23870 23871 23872 23873 23874 23875 23876 23877 23878 23879 23880 23881 23882 23883 23884 23885 23886 23887 23888 23889 23890 23891 23892 23893 23894 23895 23896 23897 23898 23899 23900 23901 23902 23903 23904 23905 23906 23907 23908 23909 23910 23911 23912 23913 23914 23915 23916 23917 23918 23919 23920 23921 23922 23923 23924 23925 23926 23927 23928 23929 23930 23931 23932 23933 23934 23935 23936 23937 23938 23939 23940 23941 23942 23943 23944 23945 23946 23947 23948 23949 23950 23951 23952 23953 23954 23955 23956 23957 23958 23959 23960 23961 23962 23963 23964 23965 23966 23967 23968 23969 23970 23971 23972 23973 23974 23975 23976 23977 23978 23979 23980 23981 23982 23983 23984 23985 23986 23987 23988 23989 23990 23991 23992 23993 23994 23995 23996 23997 23998 23999 24000 24001 24002 24003 24004 24005 24006 24007 24008 24009 24010 24011 24012 24013 24014 24015 24016 24017 24018 24019 24020 24021 24022 24023 24024 24025 24026 24027 24028 24029 24030 24031 24032 24033 24034 24035 24036 24037 24038 24039 24040 24041 24042 24043 24044 24045 24046 24047 24048 24049 24050 24051 24052 24053 24054 24055 24056 24057 24058 24059 24060 24061 24062 24063 24064 24065 24066 24067 24068 24069 24070 24071 24072 24073 24074 24075 24076 24077 24078 24079 24080 24081 24082 24083 24084 24085 24086 24087 24088 24089 24090 24091 24092 24093 24094 24095 24096 24097 24098 24099 24100 24101 24102 24103 24104 24105 24106 24107 24108 24109 24110 24111 24112 24113 24114 24115 24116 24117 24118 24119 24120 24121 24122 24123 24124 24125 24126 24127 24128 24129 24130 24131 24132 24133 24134 24135 24136 24137 24138 24139 24140 24141 24142 24143 24144 24145 24146 24147 24148 24149 24150 24151 24152 24153 24154 24155 24156 24157 24158 24159 24160 24161 24162 24163 24164 24165 24166 24167 24168 24169 24170 24171 24172 24173 24174 24175 24176 24177 24178 24179 24180 24181 24182 24183 24184 24185 24186 24187 24188 24189 24190 24191 24192 24193 24194 24195 24196 24197 24198 24199 24200 24201 24202 24203 24204 24205 24206 24207 24208 24209 24210 24211 24212 24213 24214 24215 24216 24217 24218 24219 24220 24221 24222 24223 24224 24225 24226 24227 24228 24229 24230 24231 24232 24233 24234 24235 24236 24237 24238 24239 24240 24241 24242 24243 24244 24245 24246 24247 24248 24249 24250 24251 24252 24253 24254 24255 24256 24257 24258 24259 24260 24261 24262 24263 24264 24265 24266 24267 24268 24269 24270 24271 24272 24273 24274 24275 24276 24277 24278 24279 24280 24281 24282 24283 24284 24285 24286 24287 24288 24289 24290 24291 24292 24293 24294 24295 24296 24297 24298 24299 24300 24301 24302 24303 24304 24305 24306 24307 24308 24309 24310 24311 24312 24313 24314 24315 24316 24317 24318 24319 24320 24321 24322 24323 24324 24325 24326 24327 24328 24329 24330 24331 24332 24333 24334 24335 24336 24337 24338 24339 24340 24341 24342 24343 24344 24345 24346 24347 24348 24349 24350 24351 24352 24353 24354 24355 24356 24357 24358 24359 24360 24361 24362 24363 24364 24365 24366 24367 24368 24369 24370 24371 24372 24373 24374 24375 24376 24377 24378 24379 24380 24381 24382 24383 24384 24385 24386 24387 24388 24389 24390 24391 24392 24393 24394 24395 24396 24397 24398 24399 24400 24401 24402 24403 24404 24405 24406 24407 24408 24409 24410 24411 24412 24413 24414 24415 24416 24417 24418 24419 24420 24421 24422 24423 24424 24425 24426 24427 24428 24429 24430 24431 24432 24433 24434 24435 24436 24437 24438 24439 24440 24441 24442 24443 24444 24445 24446 24447 24448 24449 24450 24451 24452 24453 24454 24455 24456 24457 24458 24459 24460 24461 24462 24463 24464 24465 24466 24467 24468 24469 24470 24471 24472 24473 24474 24475 24476 24477 24478 24479 24480 24481 24482 24483 24484 24485 24486 24487 24488 24489 24490 24491 24492 24493 24494 24495 24496 24497 24498 24499 24500 24501 24502 24503 24504 24505 24506 24507 24508 24509 24510 24511 24512 24513 24514 24515 24516 24517 24518 24519 24520 24521 24522 24523 24524 24525 24526 24527 24528 24529 24530 24531 24532 24533 24534 24535 24536 24537 24538 24539 24540 24541 24542 24543 24544 24545 24546 24547 24548 24549 24550 24551 24552 24553 24554 24555 24556 24557 24558 24559 24560 24561 24562 24563 24564 24565 24566 24567 24568 24569 24570 24571 24572 24573 24574 24575 24576 24577 24578 24579 24580 24581 24582 24583 24584 24585 24586 24587 24588 24589 24590 24591 24592 24593 24594 24595 24596 24597 24598 24599 24600 24601 24602 24603 24604 24605 24606 24607 24608 24609 24610 24611 24612 24613 24614 24615 24616 24617 24618 24619 24620 24621 24622 24623 24624 24625 24626 24627 24628 24629 24630 24631 24632 24633 24634 24635 24636 24637 24638 24639 24640 24641 24642 24643 24644 24645 24646 24647 24648 24649 24650 24651 24652 24653 24654 24655 24656 24657 24658 24659 24660 24661 24662 24663 24664 24665 24666 24667 24668 24669 24670 24671 24672 24673 24674 24675 24676 24677 24678 24679 24680 24681 24682 24683 24684 24685 24686 24687 24688 24689 24690 24691 24692 24693 24694 24695 24696 24697 24698 24699 24700 24701 24702 24703 24704 24705 24706 24707 24708 24709 24710 24711 24712 24713 24714 24715 24716 24717 24718 24719 24720 24721 24722 24723 24724 24725 24726 24727 24728 24729 24730 24731 24732 24733 24734 24735 24736 24737 24738 24739 24740 24741 24742 24743 24744 24745 24746 24747 24748 24749 24750 24751 24752 24753 24754 24755 24756 24757 24758 24759 24760 24761 24762 24763 24764 24765 24766 24767 24768 24769 24770 24771 24772 24773 24774 24775 24776 24777 24778 24779 24780 24781 24782 24783 24784 24785 24786 24787 24788 24789 24790 24791 24792 24793 24794 24795 24796 24797 24798 24799 24800 24801 24802 24803 24804 24805 24806 24807 24808 24809 24810 24811 24812 24813 24814 24815 24816 24817 24818 24819 24820 24821 24822 24823 24824 24825 24826 24827 24828 24829 24830 24831 24832 24833 24834 24835 24836 24837 24838 24839 24840 24841 24842 24843 24844 24845 24846 24847 24848 24849 24850 24851 24852 24853 24854 24855 24856 24857 24858 24859 24860 24861 24862 24863 24864 24865 24866 24867 24868 24869 24870 24871 24872 24873 24874 24875 24876 24877 24878 24879 24880 24881 24882 24883 24884 24885 24886 24887 24888 24889 24890 24891 24892 24893 24894 24895 24896 24897 24898 24899 24900 24901 24902 24903 24904 24905 24906 24907 24908 24909 24910 24911 24912 24913 24914 24915 24916 24917 24918 24919 24920 24921 24922 24923 24924 24925 24926 24927 24928 24929 24930 24931 24932 24933 24934 24935 24936 24937 24938 24939 24940 24941 24942 24943 24944 24945 24946 24947 24948 24949 24950 24951 24952 24953 24954 24955 24956 24957 24958 24959 24960 24961 24962 24963 24964 24965 24966 24967 24968 24969 24970 24971 24972 24973 24974 24975 24976 24977 24978 24979 24980 24981 24982 24983 24984 24985 24986 24987 24988 24989 24990 24991 24992 24993 24994 24995 24996 24997 24998 24999 25000 25001 25002 25003 25004 25005 25006 25007 25008 25009 25010 25011 25012 25013 25014 25015 25016 25017 25018 25019 25020 25021 25022 25023 25024 25025 25026 25027 25028 25029 25030 25031 25032 25033 25034 25035 25036 25037 25038 25039 25040 25041 25042 25043 25044 25045 25046 25047 25048 25049 25050 25051 25052 25053 25054 25055 25056 25057 25058 25059 25060 25061 25062 25063 25064 25065 25066 25067 25068 25069 25070 25071 25072 25073 25074 25075 25076 25077 25078 25079 25080 25081 25082 25083 25084 25085 25086 25087 25088 25089 25090 25091 25092 25093 25094 25095 25096 25097 25098 25099 25100 25101 25102 25103 25104 25105 25106 25107 25108 25109 25110 25111 25112 25113 25114 25115 25116 25117 25118 25119 25120 25121 25122 25123 25124 25125 25126 25127 25128 25129 25130 25131 25132 25133 25134 25135 25136 25137 25138 25139 25140 25141 25142 25143 25144 25145 25146 25147 25148 25149 25150 25151 25152 25153 25154 25155 25156 25157 25158 25159 25160 25161 25162 25163 25164 25165 25166 25167 25168 25169 25170 25171 25172 25173 25174 25175 25176 25177 25178 25179 25180 25181 25182 25183 25184 25185 25186 25187 25188 25189 25190 25191 25192 25193 25194 25195 25196 25197 25198 25199 25200 25201 25202 25203 25204 25205 25206 25207 25208 25209 25210 25211 25212 25213 25214 25215 25216 25217 25218 25219 25220 25221 25222 25223 25224 25225 25226 25227 25228 25229 25230 25231 25232 25233 25234 25235 25236 25237 25238 25239 25240 25241 25242 25243 25244 25245 25246 25247 25248 25249 25250 25251 25252 25253 25254 25255 25256 25257 25258 25259 25260 25261 25262 25263 25264 25265 25266 25267 25268 25269 25270 25271 25272 25273 25274 25275 25276 25277 25278 25279 25280 25281 25282 25283 25284 25285 25286 25287 25288 25289 25290 25291 25292 25293 25294 25295 25296 25297 25298 25299 25300 25301 25302 25303 25304 25305 25306 25307 25308 25309 25310 25311 25312 25313 25314 25315 25316 25317 25318 25319 25320 25321 25322 25323 25324 25325 25326 25327 25328 25329 25330 25331 25332 25333 25334 25335 25336 25337 25338 25339 25340 25341 25342 25343 25344 25345 25346 25347 25348 25349 25350 25351 25352 25353 25354 25355 25356 25357 25358 25359 25360 25361 25362 25363 25364 25365 25366 25367 25368 25369 25370 25371 25372 25373 25374 25375 25376 25377 25378 25379 25380 25381 25382 25383 25384 25385 25386 25387 25388 25389 25390 25391 25392 25393 25394 25395 25396 25397 25398 25399 25400 25401 25402 25403 25404 25405 25406 25407 25408 25409 25410 25411 25412 25413 25414 25415 25416 25417 25418 25419 25420 25421 25422 25423 25424 25425 25426 25427 25428 25429 25430 25431 25432 25433 25434 25435 25436 25437 25438 25439 25440 25441 25442 25443 25444 25445 25446 25447 25448 25449 25450 25451 25452 25453 25454 25455 25456 25457 25458 25459 25460 25461 25462 25463 25464 25465 25466 25467 25468 25469 25470 25471 25472 25473 25474 25475 25476 25477 25478 25479 25480 25481 25482 25483 25484 25485 25486 25487 25488 25489 25490 25491 25492 25493 25494 25495 25496 25497 25498 25499 25500 25501 25502 25503 25504 25505 25506 25507 25508 25509 25510 25511 25512 25513 25514 25515 25516 25517 25518 25519 25520 25521 25522 25523 25524 25525 25526 25527 25528 25529 25530 25531 25532 25533 25534 25535 25536 25537 25538 25539 25540 25541 25542 25543 25544 25545 25546 25547 25548 25549 25550 25551 25552 25553 25554 25555 25556 25557 25558 25559 25560 25561 25562 25563 25564 25565 25566 25567 25568 25569 25570 25571 25572 25573 25574 25575 25576 25577 25578 25579 25580 25581 25582 25583 25584 25585 25586 25587 25588 25589 25590 25591 25592 25593 25594 25595 25596 25597 25598 25599 25600 25601 25602 25603 25604 25605 25606 25607 25608 25609 25610 25611 25612 25613 25614 25615 25616 25617 25618 25619 25620 25621 25622 25623 25624 25625 25626 25627 25628 25629 25630 25631 25632 25633 25634 25635 25636 25637 25638 25639 25640 25641 25642 25643 25644 25645 25646 25647 25648 25649 25650 25651 25652 25653 25654 25655 25656 25657 25658 25659 25660 25661 25662 25663 25664 25665 25666 25667 25668 25669 25670 25671 25672 25673 25674 25675 25676 25677 25678 25679 25680 25681 25682 25683 25684 25685 25686 25687 25688 25689 25690 25691 25692 25693 25694 25695 25696 25697 25698 25699 25700 25701 25702 25703 25704 25705 25706 25707 25708 25709 25710 25711 25712 25713 25714 25715 25716 25717 25718 25719 25720 25721 25722 25723 25724 25725 25726 25727 25728 25729 25730 25731 25732 25733 25734 25735 25736 25737 25738 25739 25740 25741 25742 25743 25744 25745 25746 25747 25748 25749 25750 25751 25752 25753 25754 25755 25756 25757 25758 25759 25760 25761 25762 25763 25764 25765 25766 25767 25768 25769 25770 25771 25772 25773 25774 25775 25776 25777 25778 25779 25780 25781 25782 25783 25784 25785 25786 25787 25788 25789 25790 25791 25792 25793 25794 25795 25796 25797 25798 25799 25800 25801 25802 25803 25804 25805 25806 25807 25808 25809 25810 25811 25812 25813 25814 25815 25816 25817 25818 25819 25820 25821 25822 25823 25824 25825 25826 25827 25828 25829 25830 25831 25832 25833 25834 25835 25836 25837 25838 25839 25840 25841 25842 25843 25844 25845 25846 25847 25848 25849 25850 25851 25852 25853 25854 25855 25856 25857 25858 25859 25860 25861 25862 25863 25864 25865 25866 25867 25868 25869 25870 25871 25872 25873 25874 25875 25876 25877 25878 25879 25880 25881 25882 25883 25884 25885 25886 25887 25888 25889 25890 25891 25892 25893 25894 25895 25896 25897 25898 25899 25900 25901 25902 25903 25904 25905 25906 25907 25908 25909 25910 25911 25912 25913 25914 25915 25916 25917 25918 25919 25920 25921 25922 25923 25924 25925 25926 25927 25928 25929 25930 25931 25932 25933 25934 25935 25936 25937 25938 25939 25940 25941 25942 25943 25944 25945 25946 25947 25948 25949 25950 25951 25952 25953 25954 25955 25956 25957 25958 25959 25960 25961 25962 25963 25964 25965 25966 25967 25968 25969 25970 25971 25972 25973 25974 25975 25976 25977 25978 25979 25980 25981 25982 25983 25984 25985 25986 25987 25988 25989 25990 25991 25992 25993 25994 25995 25996 25997 25998 25999 26000 26001 26002 26003 26004 26005 26006 26007 26008 26009 26010 26011 26012 26013 26014 26015 26016 26017 26018 26019 26020 26021 26022 26023 26024 26025 26026 26027 26028 26029 26030 26031 26032 26033 26034 26035 26036 26037 26038 26039 26040 26041 26042 26043 26044 26045 26046 26047 26048 26049 26050 26051 26052 26053 26054 26055 26056 26057 26058 26059 26060 26061 26062 26063 26064 26065 26066 26067 26068 26069 26070 26071 26072 26073 26074 26075 26076 26077 26078 26079 26080 26081 26082 26083 26084 26085 26086 26087 26088 26089 26090 26091 26092 26093 26094 26095 26096 26097 26098 26099 26100 26101 26102 26103 26104 26105 26106 26107 26108 26109 26110 26111 26112 26113 26114 26115 26116 26117 26118 26119 26120 26121 26122 26123 26124 26125 26126 26127 26128 26129 26130 26131 26132 26133 26134 26135 26136 26137 26138 26139 26140 26141 26142 26143 26144 26145 26146 26147 26148 26149 26150 26151 26152 26153 26154 26155 26156 26157 26158 26159 26160 26161 26162 26163 26164 26165 26166 26167 26168 26169 26170 26171 26172 26173 26174 26175 26176 26177 26178 26179 26180 26181 26182 26183 26184 26185 26186 26187 26188 26189 26190 26191 26192 26193 26194 26195 26196 26197 26198 26199 26200 26201 26202 26203 26204 26205 26206 26207 26208 26209 26210 26211 26212 26213 26214 26215 26216 26217 26218 26219 26220 26221 26222 26223 26224 26225 26226 26227 26228 26229 26230 26231 26232 26233 26234 26235 26236 26237 26238 26239 26240 26241 26242 26243 26244 26245 26246 26247 26248 26249 26250 26251 26252 26253 26254 26255 26256 26257 26258 26259 26260 26261 26262 26263 26264 26265 26266 26267 26268 26269 26270 26271 26272 26273 26274 26275 26276 26277 26278 26279 26280 26281 26282 26283 26284 26285 26286 26287 26288 26289 26290 26291 26292 26293 26294 26295 26296 26297 26298 26299 26300 26301 26302 26303 26304 26305 26306 26307 26308 26309 26310 26311 26312 26313 26314 26315 26316 26317 26318 26319 26320 26321 26322 26323 26324 26325 26326 26327 26328 26329 26330 26331 26332 26333 26334 26335 26336 26337 26338 26339 26340 26341 26342 26343 26344 26345 26346 26347 26348 26349 26350 26351 26352 26353 26354 26355 26356 26357 26358 26359 26360 26361 26362 26363 26364 26365 26366 26367 26368 26369 26370 26371 26372 26373 26374 26375 26376 26377 26378 26379 26380 26381 26382 26383 26384 26385 26386 26387 26388 26389 26390 26391 26392 26393 26394 26395 26396 26397 26398 26399 26400 26401 26402 26403 26404 26405 26406 26407 26408 26409 26410 26411 26412 26413 26414 26415 26416 26417 26418 26419 26420 26421 26422 26423 26424 26425 26426 26427 26428 26429 26430 26431 26432 26433 26434 26435 26436 26437 26438 26439 26440 26441 26442 26443 26444 26445 26446 26447 26448 26449 26450 26451 26452 26453 26454 26455 26456 26457 26458 26459 26460 26461 26462 26463 26464 26465 26466 26467 26468 26469 26470 26471 26472 26473 26474 26475 26476 26477 26478 26479 26480 26481 26482 26483 26484 26485 26486 26487 26488 26489 26490 26491 26492 26493 26494 26495 26496 26497 26498 26499 26500 26501 26502 26503 26504 26505 26506 26507 26508 26509 26510 26511 26512 26513 26514 26515 26516 26517 26518 26519 26520 26521 26522 26523 26524 26525 26526 26527 26528 26529 26530 26531 26532 26533 26534 26535 26536 26537 26538 26539 26540 26541 26542 26543 26544 26545 26546 26547 26548 26549 26550 26551 26552 26553 26554 26555 26556 26557 26558 26559 26560 26561 26562 26563 26564 26565 26566 26567 26568 26569 26570 26571 26572 26573 26574 26575 26576 26577 26578 26579 26580 26581 26582 26583 26584 26585 26586 26587 26588 26589 26590 26591 26592 26593 26594 26595 26596 26597 26598 26599 26600 26601 26602 26603 26604 26605 26606 26607 26608 26609 26610 26611 26612 26613 26614 26615 26616 26617 26618 26619 26620 26621 26622 26623 26624 26625 26626 26627 26628 26629 26630 26631 26632 26633 26634 26635 26636 26637 26638 26639 26640 26641 26642 26643 26644 26645 26646 26647 26648 26649 26650 26651 26652 26653 26654 26655 26656 26657 26658 26659 26660 26661 26662 26663 26664 26665 26666 26667 26668 26669 26670 26671 26672 26673 26674 26675 26676 26677 26678 26679 26680 26681 26682 26683 26684 26685 26686 26687 26688 26689 26690 26691 26692 26693 26694 26695 26696 26697 26698 26699 26700 26701 26702 26703 26704 26705 26706 26707 26708 26709 26710 26711 26712 26713 26714 26715 26716 26717 26718 26719 26720 26721 26722 26723 26724 26725 26726 26727 26728 26729 26730 26731 26732 26733 26734 26735 26736 26737 26738 26739 26740 26741 26742 26743 26744 26745 26746 26747 26748 26749 26750 26751 26752 26753 26754 26755 26756 26757 26758 26759 26760 26761 26762 26763 26764 26765 26766 26767 26768 26769 26770 26771 26772 26773 26774 26775 26776 26777 26778 26779 26780 26781 26782 26783 26784 26785 26786 26787 26788 26789 26790 26791 26792 26793 26794 26795 26796 26797 26798 26799 26800 26801 26802 26803 26804 26805 26806 26807 26808 26809 26810 26811 26812 26813 26814 26815 26816 26817 26818 26819 26820 26821 26822 26823 26824 26825 26826 26827 26828 26829 26830 26831 26832 26833 26834 26835 26836 26837 26838 26839 26840 26841 26842 26843 26844 26845 26846 26847 26848 26849 26850 26851 26852 26853 26854 26855 26856 26857 26858 26859 26860 26861 26862 26863 26864 26865 26866 26867 26868 26869 26870 26871 26872 26873 26874 26875 26876 26877 26878 26879 26880 26881 26882 26883 26884 26885 26886 26887 26888 26889 26890 26891 26892 26893 26894 26895 26896 26897 26898 26899 26900 26901 26902 26903 26904 26905 26906 26907 26908 26909 26910 26911 26912 26913 26914 26915 26916 26917 26918 26919 26920 26921 26922 26923 26924 26925 26926 26927 26928 26929 26930 26931 26932 26933 26934 26935 26936 26937 26938 26939 26940 26941 26942 26943 26944 26945 26946 26947 26948 26949 26950 26951 26952 26953 26954 26955 26956 26957 26958 26959 26960 26961 26962 26963 26964 26965 26966 26967 26968 26969 26970 26971 26972 26973 26974 26975 26976 26977 26978 26979 26980 26981 26982 26983 26984 26985 26986 26987 26988 26989 26990 26991 26992 26993 26994 26995 26996 26997 26998 26999 27000 27001 27002 27003 27004 27005 27006 27007 27008 27009 27010 27011 27012 27013 27014 27015 27016 27017 27018 27019 27020 27021 27022 27023 27024 27025 27026 27027 27028 27029 27030 27031 27032 27033 27034 27035 27036 27037 27038 27039 27040 27041 27042 27043 27044 27045 27046 27047 27048 27049 27050 27051 27052 27053 27054 27055 27056 27057 27058 27059 27060 27061 27062 27063 27064 27065 27066 27067 27068 27069 27070 27071 27072 27073 27074 27075 27076 27077 27078 27079 27080 27081 27082 27083 27084 27085 27086 27087 27088 27089 27090 27091 27092 27093 27094 27095 27096 27097 27098 27099 27100 27101 27102 27103 27104 27105 27106 27107 27108 27109 27110 27111 27112 27113 27114 27115 27116 27117 27118 27119 27120 27121 27122 27123 27124 27125 27126 27127 27128 27129 27130 27131 27132 27133 27134 27135 27136 27137 27138 27139 27140 27141 27142 27143 27144 27145 27146 27147 27148 27149 27150 27151 27152 27153 27154 27155 27156 27157 27158 27159 27160 27161 27162 27163 27164 27165 27166 27167 27168 27169 27170 27171 27172 27173 27174 27175 27176 27177 27178 27179 27180 27181 27182 27183 27184 27185 27186 27187 27188 27189 27190 27191 27192 27193 27194 27195 27196 27197 27198 27199 27200 27201 27202 27203 27204 27205 27206 27207 27208 27209 27210 27211 27212 27213 27214 27215 27216 27217 27218 27219 27220 27221 27222 27223 27224 27225 27226 27227 27228 27229 27230 27231 27232 27233 27234 27235 27236 27237 27238 27239 27240 27241 27242 27243 27244 27245 27246 27247 27248 27249 27250 27251 27252 27253 27254 27255 27256 27257 27258 27259 27260 27261 27262 27263 27264 27265 27266 27267 27268 27269 27270 27271 27272 27273 27274 27275 27276 27277 27278 27279 27280 27281 27282 27283 27284 27285 27286 27287 27288 27289 27290 27291 27292 27293 27294 27295 27296 27297 27298 27299 27300 27301 27302 27303 27304 27305 27306 27307 27308 27309 27310 27311 27312 27313 27314 27315 27316 27317 27318 27319 27320 27321 27322 27323 27324 27325 27326 27327 27328 27329 27330 27331 27332 27333 27334 27335 27336 27337 27338 27339 27340 27341 27342 27343 27344 27345 27346 27347 27348 27349 27350 27351 27352 27353 27354 27355 27356 27357 27358 27359 27360 27361 27362 27363 27364 27365 27366 27367 27368 27369 27370 27371 27372 27373 27374 27375 27376 27377 27378 27379 27380 27381 27382 27383 27384 27385 27386 27387 27388 27389 27390 27391 27392 27393 27394 27395 27396 27397 27398 27399 27400 27401 27402 27403 27404 27405 27406 27407 27408 27409 27410 27411 27412 27413 27414 27415 27416 27417 27418 27419 27420 27421 27422 27423 27424 27425 27426 27427 27428 27429 27430 27431 27432 27433 27434 27435 27436 27437 27438 27439 27440 27441 27442 27443 27444 27445 27446 27447 27448 27449 27450 27451 27452 27453 27454 27455 27456 27457 27458 27459 27460 27461 27462 27463 27464 27465 27466 27467 27468 27469 27470 27471 27472 27473 27474 27475 27476 27477 27478 27479 27480 27481 27482 27483 27484 27485 27486 27487 27488 27489 27490 27491 27492 27493 27494 27495 27496 27497 27498 27499 27500 27501 27502 27503 27504 27505 27506 27507 27508 27509 27510 27511 27512 27513 27514 27515 27516 27517 27518 27519 27520 27521 27522 27523 27524 27525 27526 27527 27528 27529 27530 27531 27532 27533 27534 27535 27536 27537 27538 27539 27540 27541 27542 27543 27544 27545 27546 27547 27548 27549 27550 27551 27552 27553 27554 27555 27556 27557 27558 27559 27560 27561 27562 27563 27564 27565 27566 27567 27568 27569 27570 27571 27572 27573 27574 27575 27576 27577 27578 27579 27580 27581 27582 27583 27584 27585 27586 27587 27588 27589 27590 27591 27592 27593 27594 27595 27596 27597 27598 27599 27600 27601 27602 27603 27604 27605 27606 27607 27608 27609 27610 27611 27612 27613 27614 27615 27616 27617 27618 27619 27620 27621 27622 27623 27624 27625 27626 27627 27628 27629 27630 27631 27632 27633 27634 27635 27636 27637 27638 27639 27640 27641 27642 27643 27644 27645 27646 27647 27648 27649 27650 27651 27652 27653 27654 27655 27656 27657 27658 27659 27660 27661 27662 27663 27664 27665 27666 27667 27668 27669 27670 27671 27672 27673 27674 27675 27676 27677 27678 27679 27680 27681 27682 27683 27684 27685 27686 27687 27688 27689 27690 27691 27692 27693 27694 27695 27696 27697 27698 27699 27700 27701 27702 27703 27704 27705 27706 27707 27708 27709 27710 27711 27712 27713 27714 27715 27716 27717 27718 27719 27720 27721 27722 27723 27724 27725 27726 27727 27728 27729 27730 27731 27732 27733 27734 27735 27736 27737 27738 27739 27740 27741 27742 27743 27744 27745 27746 27747 27748 27749 27750 27751 27752 27753 27754 27755 27756 27757 27758 27759 27760 27761 27762 27763 27764 27765 27766 27767 27768 27769 27770 27771 27772 27773 27774 27775 27776 27777 27778 27779 27780 27781 27782 27783 27784 27785 27786 27787 27788 27789 27790 27791 27792 27793 27794 27795 27796 27797 27798 27799 27800 27801 27802 27803 27804 27805 27806 27807 27808 27809 27810 27811 27812 27813 27814 27815 27816 27817 27818 27819 27820 27821 27822 27823 27824 27825 27826 27827 27828 27829 27830 27831 27832 27833 27834 27835 27836 27837 27838 27839 27840 27841 27842 27843 27844 27845 27846 27847 27848 27849 27850 27851 27852 27853 27854 27855 27856 27857 27858 27859 27860 27861 27862 27863 27864 27865 27866 27867 27868 27869 27870 27871 27872 27873 27874 27875 27876 27877 27878 27879 27880 27881 27882 27883 27884 27885 27886 27887 27888 27889 27890 27891 27892 27893 27894 27895 27896 27897 27898 27899 27900 27901 27902 27903 27904 27905 27906 27907 27908 27909 27910 27911 27912 27913 27914 27915 27916 27917 27918 27919 27920 27921 27922 27923 27924 27925 27926 27927 27928 27929 27930 27931 27932 27933 27934 27935 27936 27937 27938 27939 27940 27941 27942 27943 27944 27945 27946 27947 27948 27949 27950 27951 27952 27953 27954 27955 27956 27957 27958 27959 27960 27961 27962 27963 27964 27965 27966 27967 27968 27969 27970 27971 27972 27973 27974 27975 27976 27977 27978 27979 27980 27981 27982 27983 27984 27985 27986 27987 27988 27989 27990 27991 27992 27993 27994 27995 27996 27997 27998 27999 28000 28001 28002 28003 28004 28005 28006 28007 28008 28009 28010 28011 28012 28013 28014 28015 28016 28017 28018 28019 28020 28021 28022 28023 28024 28025 28026 28027 28028 28029 28030 28031 28032 28033 28034 28035 28036 28037 28038 28039 28040 28041 28042 28043 28044 28045 28046 28047 28048 28049 28050 28051 28052 28053 28054 28055 28056 28057 28058 28059 28060 28061 28062 28063 28064 28065 28066 28067 28068 28069 28070 28071 28072 28073 28074 28075 28076 28077 28078 28079 28080 28081 28082 28083 28084 28085 28086 28087 28088 28089 28090 28091 28092 28093 28094 28095 28096 28097 28098 28099 28100 28101 28102 28103 28104 28105 28106 28107 28108 28109 28110 28111 28112 28113 28114 28115 28116 28117 28118 28119 28120 28121 28122 28123 28124 28125 28126 28127 28128 28129 28130 28131 28132 28133 28134 28135 28136 28137 28138 28139 28140 28141 28142 28143 28144 28145 28146 28147 28148 28149 28150 28151 28152 28153 28154 28155 28156 28157 28158 28159 28160 28161 28162 28163 28164 28165 28166 28167 28168 28169 28170 28171 28172 28173 28174 28175 28176 28177 28178 28179 28180 28181 28182 28183 28184 28185 28186 28187 28188 28189 28190 28191 28192 28193 28194 28195 28196 28197 28198 28199 28200 28201 28202 28203 28204 28205 28206 28207 28208 28209 28210 28211 28212 28213 28214 28215 28216 28217 28218 28219 28220 28221 28222 28223 28224 28225 28226 28227 28228 28229 28230 28231 28232 28233 28234 28235 28236 28237 28238 28239 28240 28241 28242 28243 28244 28245 28246 28247 28248 28249 28250 28251 28252 28253 28254 28255 28256 28257 28258 28259 28260 28261 28262 28263 28264 28265 28266 28267 28268 28269 28270 28271 28272 28273 28274 28275 28276 28277 28278 28279 28280 28281 28282 28283 28284 28285 28286 28287 28288 28289 28290 28291 28292 28293 28294 28295 28296 28297 28298 28299 28300 28301 28302 28303 28304 28305 28306 28307 28308 28309 28310 28311 28312 28313 28314 28315 28316 28317 28318 28319 28320 28321 28322 28323 28324 28325 28326 28327 28328 28329 28330 28331 28332 28333 28334 28335 28336 28337 28338 28339 28340 28341 28342 28343 28344 28345 28346 28347 28348 28349 28350 28351 28352 28353 28354 28355 28356 28357 28358 28359 28360 28361 28362 28363 28364 28365 28366 28367 28368 28369 28370 28371 28372 28373 28374 28375 28376 28377 28378 28379 28380 28381 28382 28383 28384 28385 28386 28387 28388 28389 28390 28391 28392 28393 28394 28395 28396 28397 28398 28399 28400 28401 28402 28403 28404 28405 28406 28407 28408 28409 28410 28411 28412 28413 28414 28415 28416 28417 28418 28419 28420 28421 28422 28423 28424 28425 28426 28427 28428 28429 28430 28431 28432 28433 28434 28435 28436 28437 28438 28439 28440 28441 28442 28443 28444 28445 28446 28447 28448 28449 28450 28451 28452 28453 28454 28455 28456 28457 28458 28459 28460 28461 28462 28463 28464 28465 28466 28467 28468 28469 28470 28471 28472 28473 28474 28475 28476 28477 28478 28479 28480 28481 28482 28483 28484 28485 28486 28487 28488 28489 28490 28491 28492 28493 28494 28495 28496 28497 28498 28499 28500 28501 28502 28503 28504 28505 28506 28507 28508 28509 28510 28511 28512 28513 28514 28515 28516 28517 28518 28519 28520 28521 28522 28523 28524 28525 28526 28527 28528 28529 28530 28531 28532 28533 28534 28535 28536 28537 28538 28539 28540 28541 28542 28543 28544 28545 28546 28547 28548 28549 28550 28551 28552 28553 28554 28555 28556 28557 28558 28559 28560 28561 28562 28563 28564 28565 28566 28567 28568 28569 28570 28571 28572 28573 28574 28575 28576 28577 28578 28579 28580 28581 28582 28583 28584 28585 28586 28587 28588 28589 28590 28591 28592 28593 28594 28595 28596 28597 28598 28599 28600 28601 28602 28603 28604 28605 28606 28607 28608 28609 28610 28611 28612 28613 28614 28615 28616 28617 28618 28619 28620 28621 28622 28623 28624 28625 28626 28627 28628 28629 28630 28631 28632 28633 28634 28635 28636 28637 28638 28639 28640 28641 28642 28643 28644 28645 28646 28647 28648 28649 28650 28651 28652 28653 28654 28655 28656 28657 28658 28659 28660 28661 28662 28663 28664 28665 28666 28667 28668 28669 28670 28671 28672 28673 28674 28675 28676 28677 28678 28679 28680 28681 28682 28683 28684 28685 28686 28687 28688 28689 28690 28691 28692 28693 28694 28695 28696 28697 28698 28699 28700 28701 28702 28703 28704 28705 28706 28707 28708 28709 28710 28711 28712 28713 28714 28715 28716 28717 28718 28719 28720 28721 28722 28723 28724 28725 28726 28727 28728 28729 28730 28731 28732 28733 28734 28735 28736 28737 28738 28739 28740 28741 28742 28743 28744 28745 28746 28747 28748 28749 28750 28751 28752 28753 28754 28755 28756 28757 28758 28759 28760 28761 28762 28763 28764 28765 28766 28767 28768 28769 28770 28771 28772 28773 28774 28775 28776 28777 28778 28779 28780 28781 28782 28783 28784 28785 28786 28787 28788 28789 28790 28791 28792 28793 28794 28795 28796 28797 28798 28799 28800 28801 28802 28803 28804 28805 28806 28807 28808 28809 28810 28811 28812 28813 28814 28815 28816 28817 28818 28819 28820 28821 28822 28823 28824 28825 28826 28827 28828 28829 28830 28831 28832 28833 28834 28835 28836 28837 28838 28839 28840 28841 28842 28843 28844 28845 28846 28847 28848 28849 28850 28851 28852 28853 28854 28855 28856 28857 28858 28859 28860 28861 28862 28863 28864 28865 28866 28867 28868 28869 28870 28871 28872 28873 28874 28875 28876 28877 28878 28879 28880 28881 28882 28883 28884 28885 28886 28887 28888 28889 28890 28891 28892 28893 28894 28895 28896 28897 28898 28899 28900 28901 28902 28903 28904 28905 28906 28907 28908 28909 28910 28911 28912 28913 28914 28915 28916 28917 28918 28919 28920 28921 28922 28923 28924 28925 28926 28927 28928 28929 28930 28931 28932 28933 28934 28935 28936 28937 28938 28939 28940 28941 28942 28943 28944 28945 28946 28947 28948 28949 28950 28951 28952 28953 28954 28955 28956 28957 28958 28959 28960 28961 28962 28963 28964 28965 28966 28967 28968 28969 28970 28971 28972 28973 28974 28975 28976 28977 28978 28979 28980 28981 28982 28983 28984 28985 28986 28987 28988 28989 28990 28991 28992 28993 28994 28995 28996 28997 28998 28999 29000 29001 29002 29003 29004 29005 29006 29007 29008 29009 29010 29011 29012 29013 29014 29015 29016 29017 29018 29019 29020 29021 29022 29023 29024 29025 29026 29027 29028 29029 29030 29031 29032 29033 29034 29035 29036 29037 29038 29039 29040 29041 29042 29043 29044 29045 29046 29047 29048 29049 29050 29051 29052 29053 29054 29055 29056 29057 29058 29059 29060 29061 29062 29063 29064 29065 29066 29067 29068 29069 29070 29071 29072 29073 29074 29075 29076 29077 29078 29079 29080 29081 29082 29083 29084 29085 29086 29087 29088 29089 29090 29091 29092 29093 29094 29095 29096 29097 29098 29099 29100 29101 29102 29103 29104 29105 29106 29107 29108 29109 29110 29111 29112 29113 29114 29115 29116 29117 29118 29119 29120 29121 29122 29123 29124 29125 29126 29127 29128 29129 29130 29131 29132 29133 29134 29135 29136 29137 29138 29139 29140 29141 29142 29143 29144 29145 29146 29147 29148 29149 29150 29151 29152 29153 29154 29155 29156 29157 29158 29159 29160 29161 29162 29163 29164 29165 29166 29167 29168 29169 29170 29171 29172 29173 29174 29175 29176 29177 29178 29179 29180 29181 29182 29183 29184 29185 29186 29187 29188 29189 29190 29191 29192 29193 29194 29195 29196 29197 29198 29199 29200 29201 29202 29203 29204 29205 29206 29207 29208 29209 29210 29211 29212 29213 29214 29215 29216 29217 29218 29219 29220 29221 29222 29223 29224 29225 29226 29227 29228 29229 29230 29231 29232 29233 29234 29235 29236 29237 29238 29239 29240 29241 29242 29243 29244 29245 29246 29247 29248 29249 29250 29251 29252 29253 29254 29255 29256 29257 29258 29259 29260 29261 29262 29263 29264 29265 29266 29267 29268 29269 29270 29271 29272 29273 29274 29275 29276 29277 29278 29279 29280 29281 29282 29283 29284 29285 29286 29287 29288 29289 29290 29291 29292 29293 29294 29295 29296 29297 29298 29299 29300 29301 29302 29303 29304 29305 29306 29307 29308 29309 29310 29311 29312 29313 29314 29315 29316 29317 29318 29319 29320 29321 29322 29323 29324 29325 29326 29327 29328 29329 29330 29331 29332 29333 29334 29335 29336 29337 29338 29339 29340 29341 29342 29343 29344 29345 29346 29347 29348 29349 29350 29351 29352 29353 29354 29355 29356 29357 29358 29359 29360 29361 29362 29363 29364 29365 29366 29367 29368 29369 29370 29371 29372 29373 29374 29375 29376 29377 29378 29379 29380 29381 29382 29383 29384 29385 29386 29387 29388 29389 29390 29391 29392 29393 29394 29395 29396 29397 29398 29399 29400 29401 29402 29403 29404 29405 29406 29407 29408 29409 29410 29411 29412 29413 29414 29415 29416 29417 29418 29419 29420 29421 29422 29423 29424 29425 29426 29427 29428 29429 29430 29431 29432 29433 29434 29435 29436 29437 29438 29439 29440 29441 29442 29443 29444 29445 29446 29447 29448 29449 29450 29451 29452 29453 29454 29455 29456 29457 29458 29459 29460 29461 29462 29463 29464 29465 29466 29467 29468 29469 29470 29471 29472 29473 29474 29475 29476 29477 29478 29479 29480 29481 29482 29483 29484 29485 29486 29487 29488 29489 29490 29491 29492 29493 29494 29495 29496 29497 29498 29499 29500 29501 29502 29503 29504 29505 29506 29507 29508 29509 29510 29511 29512 29513 29514 29515 29516 29517 29518 29519 29520 29521 29522 29523 29524 29525 29526 29527 29528 29529 29530 29531 29532 29533 29534 29535 29536 29537 29538 29539 29540 29541 29542 29543 29544 29545 29546 29547 29548 29549 29550 29551 29552 29553 29554 29555 29556 29557 29558 29559 29560 29561 29562 29563 29564 29565 29566 29567 29568 29569 29570 29571 29572 29573 29574 29575 29576 29577 29578 29579 29580 29581 29582 29583 29584 29585 29586 29587 29588 29589 29590 29591 29592 29593 29594 29595 29596 29597 29598 29599 29600 29601 29602 29603 29604 29605 29606 29607 29608 29609 29610 29611 29612 29613 29614 29615 29616 29617 29618 29619 29620 29621 29622 29623 29624 29625 29626 29627 29628 29629 29630 29631 29632 29633 29634 29635 29636 29637 29638 29639 29640 29641 29642 29643 29644 29645 29646 29647 29648 29649 29650 29651 29652 29653 29654 29655 29656 29657 29658 29659 29660 29661 29662 29663 29664 29665 29666 29667 29668 29669 29670 29671 29672 29673 29674 29675 29676 29677 29678 29679 29680 29681 29682 29683 29684 29685 29686 29687 29688 29689 29690 29691 29692 29693 29694 29695 29696 29697 29698 29699 29700 29701 29702 29703 29704 29705 29706 29707 29708 29709 29710 29711 29712 29713 29714 29715 29716 29717 29718 29719 29720 29721 29722 29723 29724 29725 29726 29727 29728 29729 29730 29731 29732 29733 29734 29735 29736 29737 29738 29739 29740 29741 29742 29743 29744 29745 29746 29747 29748 29749 29750 29751 29752 29753 29754 29755 29756 29757 29758 29759 29760 29761 29762 29763 29764 29765 29766 29767 29768 29769 29770 29771 29772 29773 29774 29775 29776 29777 29778 29779 29780 29781 29782 29783 29784 29785 29786 29787 29788 29789 29790 29791 29792 29793 29794 29795 29796 29797 29798 29799 29800 29801 29802 29803 29804 29805 29806 29807 29808 29809 29810 29811 29812 29813 29814 29815 29816 29817 29818 29819 29820 29821 29822 29823 29824 29825 29826 29827 29828 29829 29830 29831 29832 29833 29834 29835 29836 29837 29838 29839 29840 29841 29842 29843 29844 29845 29846 29847 29848 29849 29850 29851 29852 29853 29854 29855 29856 29857 29858 29859 29860 29861 29862 29863 29864 29865 29866 29867 29868 29869 29870 29871 29872 29873 29874 29875 29876 29877 29878 29879 29880 29881 29882 29883 29884 29885 29886 29887 29888 29889 29890 29891 29892 29893 29894 29895 29896 29897 29898 29899 29900 29901 29902 29903 29904 29905 29906 29907 29908 29909 29910 29911 29912 29913 29914 29915 29916 29917 29918 29919 29920 29921 29922 29923 29924 29925 29926 29927 29928 29929 29930 29931 29932 29933 29934 29935 29936 29937 29938 29939 29940 29941 29942 29943 29944 29945 29946 29947 29948 29949 29950 29951 29952 29953 29954 29955 29956 29957 29958 29959 29960 29961 29962 29963 29964 29965 29966 29967 29968 29969 29970 29971 29972 29973 29974 29975 29976 29977 29978 29979 29980 29981 29982 29983 29984 29985 29986 29987 29988 29989 29990 29991 29992 29993 29994 29995 29996 29997 29998 29999 30000 30001 30002 30003 30004 30005 30006 30007 30008 30009 30010 30011 30012 30013 30014 30015 30016 30017 30018 30019 30020 30021 30022 30023 30024 30025 30026 30027 30028 30029 30030 30031 30032 30033 30034 30035 30036 30037 30038 30039 30040 30041 30042 30043 30044 30045 30046 30047 30048 30049 30050 30051 30052 30053 30054 30055 30056 30057 30058 30059 30060 30061 30062 30063 30064 30065 30066 30067 30068 30069 30070 30071 30072 30073 30074 30075 30076 30077 30078 30079 30080 30081 30082 30083 30084 30085 30086 30087 30088 30089 30090 30091 30092 30093 30094 30095 30096 30097 30098 30099 30100 30101 30102 30103 30104 30105 30106 30107 30108 30109 30110 30111 30112 30113 30114 30115 30116 30117 30118 30119 30120 30121 30122 30123 30124 30125 30126 30127 30128 30129 30130 30131 30132 30133 30134 30135 30136 30137 30138 30139 30140 30141 30142 30143 30144 30145 30146 30147 30148 30149 30150 30151 30152 30153 30154 30155 30156 30157 30158 30159 30160 30161 30162 30163 30164 30165 30166 30167 30168 30169 30170 30171 30172 30173 30174 30175 30176 30177 30178 30179 30180 30181 30182 30183 30184 30185 30186 30187 30188 30189 30190 30191 30192 30193 30194 30195 30196 30197 30198 30199 30200 30201 30202 30203 30204 30205 30206 30207 30208 30209 30210 30211 30212 30213 30214 30215 30216 30217 30218 30219 30220 30221 30222 30223 30224 30225 30226 30227 30228 30229 30230 30231 30232 30233 30234 30235 30236 30237 30238 30239 30240 30241 30242 30243 30244 30245 30246 30247 30248 30249 30250 30251 30252 30253 30254 30255 30256 30257 30258 30259 30260 30261 30262 30263 30264 30265 30266 30267 30268 30269 30270 30271 30272 30273 30274 30275 30276 30277 30278 30279 30280 30281 30282 30283 30284 30285 30286 30287 30288 30289 30290 30291 30292 30293 30294 30295 30296 30297 30298 30299 30300 30301 30302 30303 30304 30305 30306 30307 30308 30309 30310 30311 30312 30313 30314 30315 30316 30317 30318 30319 30320 30321 30322 30323 30324 30325 30326 30327 30328 30329 30330 30331 30332 30333 30334 30335 30336 30337 30338 30339 30340 30341 30342 30343 30344 30345 30346 30347 30348 30349 30350 30351 30352 30353 30354 30355 30356 30357 30358 30359 30360 30361 30362 30363 30364 30365 30366 30367 30368 30369 30370 30371 30372 30373 30374 30375 30376 30377 30378 30379 30380 30381 30382 30383 30384 30385 30386 30387 30388 30389 30390 30391 30392 30393 30394 30395 30396 30397 30398 30399 30400 30401 30402 30403 30404 30405 30406 30407 30408 30409 30410 30411 30412 30413 30414 30415 30416 30417 30418 30419 30420 30421 30422 30423 30424 30425 30426 30427 30428 30429 30430 30431 30432 30433 30434 30435 30436 30437 30438 30439 30440 30441 30442 30443 30444 30445 30446 30447 30448 30449 30450 30451 30452 30453 30454 30455 30456 30457 30458 30459 30460 30461 30462 30463 30464 30465 30466 30467 30468 30469 30470 30471 30472 30473 30474 30475 30476 30477 30478 30479 30480 30481 30482 30483 30484 30485 30486 30487 30488 30489 30490 30491 30492 30493 30494 30495 30496 30497 30498 30499 30500 30501 30502 30503 30504 30505 30506 30507 30508 30509 30510 30511 30512 30513 30514 30515 30516 30517 30518 30519 30520 30521 30522 30523 30524 30525 30526 30527 30528 30529 30530 30531 30532 30533 30534 30535 30536 30537 30538 30539 30540 30541 30542 30543 30544 30545 30546 30547 30548 30549 30550 30551 30552 30553 30554 30555 30556 30557 30558 30559 30560 30561 30562 30563 30564 30565 30566 30567 30568 30569 30570 30571 30572 30573 30574 30575 30576 30577 30578 30579 30580 30581 30582 30583 30584 30585 30586 30587 30588 30589 30590 30591 30592 30593 30594 30595 30596 30597 30598 30599 30600 30601 30602 30603 30604 30605 30606 30607 30608 30609 30610 30611 30612 30613 30614 30615 30616 30617 30618 30619 30620 30621 30622 30623 30624 30625 30626 30627 30628 30629 30630 30631 30632 30633 30634 30635 30636 30637 30638 30639 30640 30641 30642 30643 30644 30645 30646 30647 30648 30649 30650 30651 30652 30653 30654 30655 30656 30657 30658 30659 30660 30661 30662 30663 30664 30665 30666 30667 30668 30669 30670 30671 30672 30673 30674 30675 30676 30677 30678 30679 30680 30681 30682 30683 30684 30685 30686 30687 30688 30689 30690 30691 30692 30693 30694 30695 30696 30697 30698 30699 30700 30701 30702 30703 30704 30705 30706 30707 30708 30709 30710 30711 30712 30713 30714 30715 30716 30717 30718 30719 30720 30721 30722 30723 30724 30725 30726 30727 30728 30729 30730 30731 30732 30733 30734 30735 30736 30737 30738 30739 30740 30741 30742 30743 30744 30745 30746 30747 30748 30749 30750 30751 30752 30753 30754 30755 30756 30757 30758 30759 30760 30761 30762 30763 30764 30765 30766 30767 30768 30769 30770 30771 30772 30773 30774 30775 30776 30777 30778 30779 30780 30781 30782 30783 30784 30785 30786 30787 30788 30789 30790 30791 30792 30793 30794 30795 30796 30797 30798 30799 30800 30801 30802 30803 30804 30805 30806 30807 30808 30809 30810 30811 30812 30813 30814 30815 30816 30817 30818 30819 30820 30821 30822 30823 30824 30825 30826 30827 30828 30829 30830 30831 30832 30833 30834 30835 30836 30837 30838 30839 30840 30841 30842 30843 30844 30845 30846 30847 30848 30849 30850 30851 30852 30853 30854 30855 30856 30857 30858 30859 30860 30861 30862 30863 30864 30865 30866 30867 30868 30869 30870 30871 30872 30873 30874 30875 30876 30877 30878 30879 30880 30881 30882 30883 30884 30885 30886 30887 30888 30889 30890 30891 30892 30893 30894 30895 30896 30897 30898 30899 30900 30901 30902 30903 30904 30905 30906 30907 30908 30909 30910 30911 30912 30913 30914 30915 30916 30917 30918 30919 30920 30921 30922 30923 30924 30925 30926 30927 30928 30929 30930 30931 30932 30933 30934 30935 30936 30937 30938 30939 30940 30941 30942 30943 30944 30945 30946 30947 30948 30949 30950 30951 30952 30953 30954 30955 30956 30957 30958 30959 30960 30961 30962 30963 30964 30965 30966 30967 30968 30969 30970 30971 30972 30973 30974 30975 30976 30977 30978 30979 30980 30981 30982 30983 30984 30985 30986 30987 30988 30989 30990 30991 30992 30993 30994 30995 30996 30997 30998 30999 31000 31001 31002 31003 31004 31005 31006 31007 31008 31009 31010 31011 31012 31013 31014 31015 31016 31017 31018 31019 31020 31021 31022 31023 31024 31025 31026 31027 31028 31029 31030 31031 31032 31033 31034 31035 31036 31037 31038 31039 31040 31041 31042 31043 31044 31045 31046 31047 31048 31049 31050 31051 31052 31053 31054 31055 31056 31057 31058 31059 31060 31061 31062 31063 31064 31065 31066 31067 31068 31069 31070 31071 31072 31073 31074 31075 31076 31077 31078 31079 31080 31081 31082 31083 31084 31085 31086 31087 31088 31089 31090 31091 31092 31093 31094 31095 31096 31097 31098 31099 31100 31101 31102 31103 31104 31105 31106 31107 31108 31109 31110 31111 31112 31113 31114 31115 31116 31117 31118 31119 31120 31121 31122 31123 31124 31125 31126 31127 31128 31129 31130 31131 31132 31133 31134 31135 31136 31137 31138 31139 31140 31141 31142 31143 31144 31145 31146 31147 31148 31149 31150 31151 31152 31153 31154 31155 31156 31157 31158 31159 31160 31161 31162 31163 31164 31165 31166 31167 31168 31169 31170 31171 31172 31173 31174 31175 31176 31177 31178 31179 31180 31181 31182 31183 31184 31185 31186 31187 31188 31189 31190 31191 31192 31193 31194 31195 31196 31197 31198 31199 31200 31201 31202 31203 31204 31205 31206 31207 31208 31209 31210 31211 31212 31213 31214 31215 31216 31217 31218 31219 31220 31221 31222 31223 31224 31225 31226 31227 31228 31229 31230 31231 31232 31233 31234 31235 31236 31237 31238 31239 31240 31241 31242 31243 31244 31245 31246 31247 31248 31249 31250 31251 31252 31253 31254 31255 31256 31257 31258 31259 31260 31261 31262 31263 31264 31265 31266 31267 31268 31269 31270 31271 31272 31273 31274 31275 31276 31277 31278 31279 31280 31281 31282 31283 31284 31285 31286 31287 31288 31289 31290 31291 31292 31293 31294 31295 31296 31297 31298 31299 31300 31301 31302 31303 31304 31305 31306 31307 31308 31309 31310 31311 31312 31313 31314 31315 31316 31317 31318 31319 31320 31321 31322 31323 31324 31325 31326 31327 31328 31329 31330 31331 31332 31333 31334 31335 31336 31337 31338 31339 31340 31341 31342 31343 31344 31345 31346 31347 31348 31349 31350 31351 31352 31353 31354 31355 31356 31357 31358 31359 31360 31361 31362 31363 31364 31365 31366 31367 31368 31369 31370 31371 31372 31373 31374 31375 31376 31377 31378 31379 31380 31381 31382 31383 31384 31385 31386 31387 31388 31389 31390 31391 31392 31393 31394 31395 31396 31397 31398 31399 31400 31401 31402 31403 31404 31405 31406 31407 31408 31409 31410 31411 31412 31413 31414 31415 31416 31417 31418 31419 31420 31421 31422 31423 31424 31425 31426 31427 31428 31429 31430 31431 31432 31433 31434 31435 31436 31437 31438 31439 31440 31441 31442 31443 31444 31445 31446 31447 31448 31449 31450 31451 31452 31453 31454 31455 31456 31457 31458 31459 
</DataArray>
<DataArray type="UInt32" Name="offsets" format="ascii">
3 6 9 12 15 18 20 23 26 29 32 35 37 40 43 45 48 51 54 56 59 62 65 68 71 74 77 80 83 86 89 92 95 98 101 104 107 110 113 116 119 122 125 128 131 134 137 140 143 146 148 151 153 156 159 162 164 167 170 173 176 179 182 185 187 190 193 195 198 201 204 207 210 213 216 218 221 224 227 230 232 235 238 241 244 247 249 252 255 258 260 263 266 269 272 275 278 281 284 287 290 293 296 299 302 305 308 311 313 316 319 322 325 327 330 333 336 339 342 345 347 350 353 356 358 361 363 366 368 371 374 376 379 382 385 388 391 394 397 399 402 405 408 411 414 417 420 423 426 429 432 435 437 440 443 446 449 452 455 458 460 463 466 469 472 475 478 481 484 486 489 492 495 498 501 504 506 509 512 515 518 521 523 526 528 531 534 537 540 543 545 548 550 553 555 557 560 563 565 568 571 574 577 580 583 586 589 592 595 598 601 604 607 610 613 616 619 622 625 628 631 634 637 640 643 646 649 652 655 658 661 664 667 670 673 676 678 681 683 686 689 692 695 698 701 704 707 710 712 715 717 720 723 726 729 732 734 737 740 743 746 748 751 754 757 760 763 766 769 772 775 778 781 783 786 789 791 794 797 800 803 806 809 812 815 818 821 824 827 830 833 836 839 842 845 848 851 854 857 860 863 866 869 872 875 878 881 884 887 890 893 896 899 902 905 908 911 914 917 919 922 925 928 930 933 936 939 941 944 947 950 953 955 958 961 964 967 969 972 975 978 981 984 987 990 993 996 999 1002 1004 1007 1010 1013 1016 1019 1022 1025 1028 1031 1034 1037 1040 1043 1046 1049 1052 1055 1058 1061 1064 1067 1070 1073 1076 1078 1080 1083 1086 1089 1092 1095 1098 1101 1104 1107 1110 1112 1115 1118 1121 1124 1127 1130 1133 1136 1139 1142 1145 1148 1151 1154 1157 1160 1163 1166 1169 1172 1175 1178 1181 1183 1186 1189 1192 1194 1197 1200 1203 1206 1209 1212 1215 1217 1220 1223 1226 1229 1232 1235 1238 1241 1244 1246 1249 1252 1255 1257 1260 1263 1266 1269 1272 1275 1278 1280 1283 1286 1289 1292 1295 1298 1301 1304 1307 1310 1313 1316 1319 1322 1325 1328 1331 1334 1336 1339 1342 1345 1348 1351 1354 1357 1360 1363 1366 1369 1372 1375 1378 1381 1384 1387 1390 1393 1396 1398 1401 1404 1407 1409 1412 1415 1417 1420 1422 1425 1428 1431 1433 1436 1439 1442 1445 1447 1450 1453 1456 1458 1461 1464 1467 1470 1473 1475 1478 1481 1484 1487 1490 1493 1496 1499 1501 1504 1507 1510 1513 1516 1519 1522 1525 1528 1531 1534 1537 1540 1543 1546 1549 1552 1555 1558 1561 1564 1567 1570 1573 1575 1578 1580 1583 1586 1589 1592 1595 1598 1601 1604 1606 1609 1612 1615 1618 1621 1623 1626 1629 1632 1635 1638 1641 1643 1646 1648 1651 1654 1657 1660 1663 1666 1669 1672 1675 1678 1681 1684 1687 1690 1693 1696 1699 1702 1705 1708 1711 1714 1716 1718 1721 1724 1727 1729 1732 1735 1738 1741 1743 1746 1749 1752 1755 1758 1761 1764 1767 1769 1772 1775 1778 1780 1783 1786 1789 1792 1795 1798 1801 1804 1806 1808 1811 1813 1816 1819 1821 1824 1826 1829 1832 1835 1838 1841 1844 1846 1849 1852 1855 1858 1861 1863 1866 1869 1871 1874 1877 1879 1882 1885 1888 1890 1893 1896 1899 1902 1905 1908 1911 1914 1917 1920 1923 1926 1929 1932 1934 1937 1940 1943 1946 1949 1951 1954 1957 1960 1962 1965 1968 1970 1972 1975 1978 1981 1984 1987 1990 1993 1995 1998 2001 2004 2007 2009 2012 2015 2018 2021 2023 2026 2029 2032 2035 2038 2041 2044 2047 2050 2052 2055 2058 2061 2064 2067 2070 2072 2075 2078 2080 2083 2086 2089 2092 2095 2097 2100 2103 2105 2108 2111 2114 2117 2120 2123 2126 2129 2131 2133 2136 2139 2142 2145 2148 2151 2153 2156 2159 2162 2165 2168 2171 2173 2176 2179 2182 2185 2188 2191 2193 2196 2199 2202 2205 2208 2211 2214 2217 2220 2223 2225 2228 2231 2234 2237 2240 2242 2245 2248 2250 2253 2256 2259 2262 2265 2268 2270 2273 2275 2278 2281 2284 2286 2289 2292 2294 2297 2300 2303 2306 2309 2312 2315 2318 2321 2324 2327 2330 2333 2335 2338 2341 2344 2346 2349 2352 2355 2358 2361 2364 2367 2370 2373 2376 2378 2381 2384 2387 2390 2393 2396 2399 2402 2405 2408 2411 2414 2417 2420 2423 2426 2429 2432 2434 2437 2440 2442 2445 2448 2451 2454 2457 2460 2463 2466 2469 2472 2475 2478 2481 2484 2487 2490 2493 2495 2498 2501 2504 2507 2510 2513 2516 2519 2522 2525 2528 2531 2534 2536 2539 2542 2545 2548 2551 2554 2557 2560 2563 2566 2569 2572 2575 2578 2581 2584 2586 2589 2592 2595 2597 2600 2603 2606 2609 2612 2615 2618 2620 2623 2626 2628 2631 2633 2636 2638 2641 2643 2646 2649 2652 2655 2657 2660 2663 2666 2669 2672 2675 2677 2680 2683 2685 2688 2691 2694 2697 2700 2702 2704 2707 2710 2713 2716 2719 2722 2725 2728 2731 2734 2737 2740 2743 2746 2749 2752 2755 2758 2761 2764 2767 2770 2773 2776 2778 2781 2784 2787 2790 2793 2796 2799 2802 2805 2808 2811 2814 2817 2820 2823 2826 2829 2832 2835 2838 2841 2844 2847 2850 2853 2856 2859 2862 2865 2867 2870 2873 2876 2879 2882 2885 2888 2891 2894 2897 2900 2902 2905 2908 2911 2914 2917 2920 2922 2925 2928 2930 2933 2935 2938 2941 2944 2946 2949 2952 2955 2957 2960 2963 2965 2968 2970 2973 2976 2978 2981 2984 2986 2989 2991 2994 2997 3000 3003 3006 3008 3011 3013 3016 3019 3022 3025 3027 3029 3032 3035 3037 3040 3043 3045 3048 3050 3053 3056 3058 3061 3064 3067 3069 3072 3075 3077 3079 3082 3085 3088 3090 3092 3095 3098 3101 3104 3107 3110 3113 3116 3118 3121 3123 3126 3128 3131 3133 3136 3138 3141 3143 3146 3149 3152 3154 3157 3160 3162 3165 3168 3170 3173 3175 3177 3180 3182 3184 3187 3190 3192 3195 3197 3200 3203 3206 3209 3212 3215 3218 3220 3223 3226 3229 3232 3234 3237 3240 3243 3246 3249 3252 3255 3258 3261 3263 3266 3268 3271 3274 3277 3280 3283 3286 3289 3292 3295 3298 3301 3304 3307 3309 3312 3314 3317 3320 3322 3325 3328 3331 3333 3336 3339 3342 3345 3348 3351 3354 3356 3359 3362 3365 3368 3371 3373 3375 3378 3381 3384 3387 3390 3393 3396 3398 3401 3404 3407 3409 3412 3415 3418 3421 3424 3427 3430 3433 3436 3438 3441 3444 3447 3450 3453 3456 3459 3462 3465 3468 3471 3473 3476 3479 3482 3485 3488 3491 3493 3496 3499 3502 3505 3507 3510 3513 3516 3519 3522 3525 3528 3531 3534 3537 3540 3543 3546 3549 3552 3555 3558 3561 3564 3566 3569 3572 3575 3578 3580 3583 3586 3589 3592 3595 3598 3601 3604 3607 3610 3613 3616 3619 3622 3625 3627 3630 3633 3635 3638 3640 3643 3646 3649 3652 3655 3658 3660 3663 3666 3669 3672 3675 3677 3680 3683 3686 3689 3692 3694 3696 3699 3702 3705 3708 3711 3714 3717 3720 3723 3726 3729 3732 3735 3738 3741 3744 3747 3750 3753 3756 3759 3761 3764 3767 3770 3773 3776 3779 3782 3785 3788 3791 3794 3796 3799 3801 3804 3807 3810 3813 3815 3818 3821 3823 3826 3829 3831 3834 3837 3839 3842 3845 3848 3851 3854 3857 3859 3862 3865 3868 3871 3874 3877 3880 3882 3885 3888 3890 3893 3896 3898 3901 3904 3907 3910 3913 3915 3918 3921 3924 3927 3930 3933 3936 3939 3942 3945 3948 3951 3953 3956 3959 3962 3965 3968 3971 3974 3977 3980 3983 3986 3989 3992 3995 3997 3999 4002 4005 4007 4010 4012 4015 4017 4019 4022 4025 4028 4031 4033 4035 4037 4040 4043 4045 4048 4051 4053 4056 4059 4062 4065 4067 4070 4073 4076 4079 4082 4085 4088 4090 4093 4096 4098 4100 4103 4106 4108 4111 4113 4116 4119 4122 4125 4128 4131 4134 4137 4140 4143 4146 4149 4152 4155 4158 4161 4164 4167 4170 4173 4176 4178 4180 4183 4186 4189 4192 4195 4198 4201 4204 4207 4210 4212 4215 4218 4221 4224 4226 4229 4232 4235 4238 4241 4244 4246 4249 4252 4255 4257 4260 4263 4266 4269 4272 4275 4277 4280 4283 4286 4289 4292 4295 4297 4300 4303 4305 4308 4311 4314 4317 4320 4323 4326 4329 4332 4335 4338 4341 4344 4347 4350 4353 4356 4359 4362 4365 4368 4371 4374 4377 4379 4382 4385 4388 4391 4394 4397 4400 4403 4406 4409 4412 4415 4418 4420 4423 4425 4428 4431 4434 4437 4440 4443 4446 4449 4452 4455 4458 4461 4464 4467 4470 4473 4476 4478 4481 4484 4487 4489 4492 4495 4498 4500 4503 4506 4509 4512 4514 4517 4520 4523 4526 4529 4532 4535 4538 4541 4544 4547 4550 4553 4556 4559 4562 4565 4568 4571 4574 4577 4580 4583 4586 4589 4592 4595 4598 4601 4604 4607 4610 4613 4616 4619 4622 4625 4627 4630 4633 4636 4639 4642 4645 4648 4650 4653 4656 4658 4661 4663 4666 4669 4672 4675 4678 4680 4683 4686 4689 4691 4694 4697 4700 4703 4706 4709 4712 4715 4718 4721 4724 4727 4730 4733 4736 4739 4742 4745 4748 4751 4753 4756 4759 4762 4765 4768 4771 4774 4777 4780 4783 4786 4789 4792 4795 4798 4801 4804 4807 4810 4813 4816 4819 4822 4825 4828 4831 4834 4836 4838 4841 4844 4847 4850 4853 4856 4858 4861 4864 4867 4870 4873 4876 4879 4881 4883 4886 4889 4891 4893 4896 4899 4902 4905 4907 4909 4912 4915 4918 4921 4924 4926 4929 4932 4935 4937 4940 4943 4946 4949 4952 4955 4958 4961 4964 4966 4969 4972 4975 4977 4980 4983 4985 4988 4990 4993 4995 4998 5000 5002 5005 5008 5010 5012 5015 5018 5021 5024 5027 5030 5032 5035 5037 5040 5043 5046 5049 5051 5054 5057 5060 5063 5066 5069 5072 5074 5077 5079 5082 5085 5088 5091 5094 5097 5100 5103 5106 5109 5112 5115 5118 5120 5123 5125 5128 5131 5134 5137 5140 5143 5146 5149 5152 5155 5158 5161 5164 5166 5169 5172 5175 5178 5181 5184 5187 5190 5193 5196 5198 5201 5204 5207 5210 5213 5216 5219 5222 5225 5228 5231 5234 5237 5240 5242 5245 5247 5250 5253 5256 5258 5261 5264 5267 5270 5273 5276 5279 5282 5285 5288 5291 5294 5297 5300 5303 5305 5307 5310 5313 5316 5319 5322 5325 5328 5331 5334 5337 5340 5343 5346 5349 5351 5354 5357 5360 5363 5366 5368 5371 5374 5377 5380 5383 5386 5388 5391 5394 5397 5400 5403 5406 5409 5412 5415 5418 5421 5424 5426 5429 5432 5435 5438 5441 5444 5446 5449 5452 5455 5457 5460 5463 5466 5469 5472 5474 5477 5480 5483 5485 5488 5491 5494 5497 5500 5503 5506 5509 5512 5514 5517 5520 5523 5526 5529 5532 5535 5538 5541 5544 5546 5549 5552 5555 5557 5560 5563 5566 5569 5572 5575 5578 5581 5584 5587 5590 5593 5596 5599 5602 5605 5608 5611 5614 5617 5620 5623 5626 5628 5631 5634 5637 5640 5643 5646 5649 5652 5655 5658 5661 5664 5667 5670 5673 5676 5679 5682 5685 5688 5691 5694 5697 5700 5702 5705 5708 5711 5714 5717 5720 5723 5725 5728 5731 5734 5736 5739 5742 5745 5748 5751 5754 5757 5760 5762 5765 5767 5770 5773 5775 5778 5780 5783 5786 5789 5792 5795 5798 5800 5803 5806 5809 5811 5813 5816 5818 5821 5824 5827 5830 5833 5835 5838 5841 5844 5847 5850 5853 5856 5859 5862 5865 5868 5871 5874 5877 5880 5882 5885 5888 5890 5893 5896 5899 5901 5904 5906 5909 5911 5914 5916 5919 5922 5924 5926 5929 5932 5935 5937 5940 5942 5945 5948 5951 5954 5957 5960 5963 5966 5969 5971 5974 5977 5980 5982 5985 5988 5991 5994 5997 6000 6003 6006 6009 6012 6015 6017 6020 6023 6026 6028 6031 6034 6037 6040 6043 6046 6049 6052 6055 6057 6060 6063 6065 6068 6071 6074 6076 6079 6082 6084 6087 6090 6093 6096 6099 6102 6105 6108 6111 6114 6117 6120 6123 6126 6129 6132 6135 6138 6141 6144 6147 6150 6152 6155 6158 6160 6163 6166 6169 6172 6175 6178 6181 6183 6186 6189 6192 6195 6198 6201 6204 6207 6210 6213 6216 6219 6221 6224 6227 6230 6232 6235 6238 6240 6242 6245 6247 6250 6253 6256 6259 6262 6264 6267 6270 6273 6276 6279 6281 6284 6287 6290 6292 6294 6297 6300 6303 6305 6308 6311 6314 6316 6319 6322 6325 6327 6329 6332 6335 6337 6340 6343 6346 6349 6352 6355 6357 6359 6362 6365 6368 6371 6374 6377 6380 6383 6386 6389 6392 6394 6397 6400 6403 6406 6409 6412 6415 6418 6421 6424 6427 6430 6433 6436 6439 6442 6444 6447 6450 6453 6455 6458 6461 6464 6467 6470 6473 6476 6479 6482 6485 6487 6489 6492 6495 6498 6501 6503 6506 6509 6512 6515 6518 6521 6523 6526 6528 6531 6534 6537 6540 6543 6546 6548 6550 6553 6556 6559 6562 6565 6568 6571 6574 6576 6578 6581 6584 6587 6590 6593 6596 6598 6601 6604 6607 6610 6612 6615 6617 6620 6623 6626 6629 6632 6634 6637 6639 6641 6644 6647 6649 6651 6654 6657 6659 6662 6664 6666 6669 6672 6675 6677 6679 6682 6685 6688 6691 6694 6697 6700 6703 6706 6709 6711 6714 6717 6720 6722 6724 6727 6729 6731 6734 6737 6740 6743 6746 6748 6751 6753 6756 6758 6761 6764 6767 6769 6772 6774 6776 6779 6782 6784 6787 6790 6792 6795 6798 6801 6804 6806 6809 6812 6815 6818 6821 6824 6827 6830 6833 6836 6839 6842 6844 6847 6850 6853 6856 6859 6861 6864 6866 6869 6871 6874 6876 6879 6881 6884 6886 6889 6892 6895 6898 6901 6903 6905 6908 6910 6912 6914 6917 6920 6923 6926 6928 6931 6934 6937 6940 6943 6945 6948 6951 6954 6957 6960 6963 6965 6968 6971 6974 6977 6979 6982 6985 6987 6990 6992 6994 6997 7000 7003 7006 7009 7012 7014 7016 7018 7020 7023 7026 7028 7031 7033 7036 7038 7040 7043 7046 7049 7052 7055 7058 7061 7064 7067 7070 7073 7076 7078 7081 7084 7086 7089 7092 7095 7098 7101 7104 7107 7110 7113 7116 7119 7121 7124 7127 7130 7133 7135 7138 7141 7143 7146 7149 7152 7154 7157 7159 7162 7165 7168 7171 7174 7177 7180 7183 7186 7188 7191 7194 7197 7200 7203 7205 7208 7211 7214 7217 7220 7223 7226 7229 7232 7235 7238 7241 7244 7247 7250 7252 7255 7258 7261 7264 7266 7269 7272 7275 7278 7280 7283 7286 7289 7292 7295 7298 7301 7304 7307 7310 7313 7316 7319 7322 7325 7328 7331 7334 7336 7339 7342 7345 7348 7350 7353 7356 7359 7362 7365 7368 7371 7374 7377 7380 7383 7385 7388 7391 7394 7396 7398 7401 7404 7407 7409 7411 7413 7416 7418 7421 7424 7426 7429 7432 7434 7437 7440 7442 7445 7447 7450 7453 7456 7459 7462 7465 7468 7471 7474 7477 7480 7483 7486 7489 7492 7495 7498 7501 7504 7507 7509 7511 7514 7517 7520 7522 7525 7527 7530 7533 7536 7539 7542 7545 7548 7551 7554 7557 7559 7562 7565 7568 7571 7574 7577 7580 7583 7586 7588 7591 7594 7597 7600 7603 7606 7608 7611 7614 7617 7620 7623 7626 7629 7632 7635 7638 7641 7644 7646 7649 7651 7654 7657 7660 7663 7666 7669 7672 7675 7678 7681 7684 7687 7690 7693 7696 7699 7702 7705 7707 7710 7712 7715 7717 7720 7723 7725 7728 7730 7733 7736 7738 7741 7744 7746 7749 7752 7755 7758 7761 7764 7766 7769 7772 7774 7776 7779 7782 7784 7787 7790 7792 7795 7797 7799 7802 7805 7808 7811 7814 7817 7819 7822 7825 7828 7831 7834 7837 7840 7843 7846 7849 7851 7854 7857 7859 7862 7865 7868 7870 7873 7876 7879 7882 7885 7888 7891 7893 7896 7899 7902 7904 7907 7910 7912 7915 7918 7921 7924 7927 7930 7933 7936 7939 7942 7945 7948 7951 7954 7957 7960 7963 7966 7969 7972 7975 7978 7981 7984 7987 7990 7993 7996 7999 8002 8005 8008 8011 8014 8017 8020 8023 8026 8029 8032 8035 8038 8041 8044 8047 8050 8052 8055 8058 8061 8064 8067 8070 8073 8076 8079 8082 8085 8088 8091 8094 8097 8100 8103 8106 8109 8112 8114 8117 8119 8122 8125 8128 8131 8134 8137 8140 8142 8145 8148 8151 8154 8157 8160 8163 8165 8168 8171 8174 8177 8180 8183 8185 8188 8190 8193 8196 8199 8201 8204 8207 8210 8213 8216 8219 8222 8225 8228 8231 8234 8237 8239 8242 8245 8248 8251 8253 8256 8259 8262 8264 8266 8269 8272 8275 8277 8279 8282 8285 8288 8291 8294 8297 8300 8303 8306 8309 8312 8315 8318 8321 8324 8327 8330 8333 8336 8339 8341 8344 8347 8350 8353 8355 8358 8361 8364 8366 8369 8372 8375 8378 8381 8384 8387 8390 8393 8396 8398 8400 8403 8406 8409 8412 8414 8417 8420 8423 8426 8429 8432 8434 8437 8440 8442 8445 8448 8450 8453 8456 8459 8462 8465 8468 8471 8474 8477 8480 8483 8486 8489 8492 8495 8498 8501 8504 8507 8510 8513 8516 8519 8522 8525 8528 8531 8534 8537 8540 8543 8546 8549 8552 8555 8558 8561 8564 8567 8570 8573 8576 8579 8582 8585 8588 8591 8594 8596 8599 8602 8605 8608 8611 8613 8616 8619 8621 8624 8627 8629 8632 8635 8638 8641 8644 8647 8650 8653 8656 8659 8662 8665 8668 8671 8674 8677 8680 8683 8686 8688 8691 8694 8697 8700 8703 8705 8708 8711 8714 8717 8720 8723 8726 8729 8732 8735 8738 8741 8743 8746 8749 8752 8755 8758 8760 8763 8766 8769 8771 8774 8777 8780 8783 8786 8789 8791 8794 8797 8800 8803 8805 8808 8811 8814 8817 8819 8822 8825 8828 8830 8833 8836 8839 8841 8844 8847 8849 8852 8855 8858 8861 8864 8867 8870 8873 8876 8879 8882 8885 8888 8891 8894 8897 8900 8903 8906 8909 8912 8915 8918 8920 8923 8926 8929 8931 8934 8937 8940 8943 8946 8949 8952 8955 8958 8961 8964 8967 8970 8973 8976 8979 8982 8984 8986 8989 8992 8994 8997 9000 9002 9005 9007 9010 9012 9015 9018 9021 9024 9026 9029 9032 9035 9038 9040 9043 9045 9048 9051 9054 9057 9060 9063 9066 9069 9072 9075 9078 9081 9084 9087 9089 9092 9095 9098 9101 9104 9107 9110 9113 9116 9119 9121 9124 9127 9130 9133 9136 9139 9142 9145 9148 9151 9153 9156 9159 9162 9165 9168 9170 9173 9176 9179 9182 9185 9187 9190 9193 9196 9199 9201 9204 9207 9210 9213 9216 9219 9222 9225 9228 9231 9234 9237 9239 9242 9245 9248 9251 9254 9256 9259 9262 9265 9268 9271 9274 9276 9279 9282 9285 9288 9291 9294 9296 9299 9302 9305 9308 9311 9314 9317 9320 9323 9326 9329 9332 9335 9338 9341 9344 9347 9350 9353 9356 9359 9362 9365 9368 9371 9373 9376 9379 9382 9385 9388 9391 9393 9396 9399 9402 9405 9407 9410 9413 9415 9418 9421 9424 9427 9430 9433 9436 9439 9442 9444 9447 9450 9452 9455 9458 9461 9463 9466 9469 9472 9475 9477 9480 9483 9486 9489 9492 9495 9498 9501 9504 9506 9509 9512 9515 9518 9521 9524 9527 9530 9533 9536 9539 9542 9545 9548 9551 9554 9557 9560 9563 9566 9569 9572 9575 9578 9580 9583 9586 9589 9592 9595 9598 9601 9604 9607 9610 9612 9615 9618 9621 9624 9627 9630 9633 9635 9638 9641 9644 9647 9649 9652 9655 9658 9661 9664 9667 9670 9673 9676 9679 9682 9685 9688 9691 9694 9697 9700 9703 9706 9709 9712 9715 9718 9721 9724 9727 9730 9733 9736 9739 9742 9745 9748 9751 9754 9757 9760 9763 9766 9769 9772 9775 9778 9781 9784 9787 9790 9792 9795 9798 9801 9804 9807 9810 9813 9816 9819 9822 9825 9828 9831 9834 9836 9839 9842 9845 9848 9851 9854 9857 9860 9862 9865 9868 9871 9874 9876 9878 9881 9884 9886 9888 9891 9894 9897 9900 9903 9906 9909 9912 9915 9918 9921 9924 9927 9930 9933 9936 9938 9941 9944 9947 9950 9953 9956 9959 9962 9965 9968 9971 9973 9976 9979 9982 9985 9988 9991 9994 9997 10000 10002 10004 10007 10010 10012 10015 10018 10021 10024 10027 10030 10032 10035 10038 10041 10044 10046 10049 10052 10055 10058 10061 10064 10067 10070 10073 10076 10079 10082 10084 10087 10090 10093 10096 10098 10101 10104 10107 10110 10113 10116 10119 10122 10125 10127 10129 10132 10135 10138 10141 10143 10146 10149 10152 10155 10158 10161 10163 10166 10169 10172 10175 10178 10181 10184 10187 10190 10193 10196 10199 10202 10205 10208 10210 10213 10216 10219 10222 10225 10228 10231 10234 10237 10240 10243 10246 10249 10252 10255 10258 10261 10264 10267 10270 10273 10276 10279 10282 10285 10288 10291 10293 10296 10299 10302 10304 10307 10310 10313 10316 10319 10322 10325 10328 10331 10333 10336 10339 10342 10345 10348 10351 10354 10357 10360 10362 10365 10368 10371 10374 10377 10380 10383 10386 10389 10392 10395 10398 10401 10404 10407 10409 10412 10415 10418 10421 10424 10427 10430 10432 10435 10438 10441 10444 10447 10450 10453 10456 10459 10462 10465 10468 10471 10474 10477 10480 10483 10486 10489 10492 10495 10498 10501 10504 10507 10510 10513 10516 10519 10522 10524 10527 10530 10533 10536 10538 10541 10544 10547 10550 10553 10555 10558 10560 10563 10566 10569 10572 10575 10578 10580 10583 10586 10589 10591 10594 10597 10600 10603 10606 10609 10612 10615 10618 10621 10624 10627 10630 10633 10636 10639 10642 10645 10648 10651 10654 10657 10660 10663 10666 10669 10672 10675 10678 10680 10683 10686 10689 10692 10695 10697 10700 10703 10706 10709 10712 10715 10718 10720 10723 10726 10729 10732 10735 10738 10741 10743 10746 10748 10751 10754 10757 10760 10763 10765 10767 10770 10773 10775 10778 10781 10783 10786 10788 10790 10792 10795 10797 10800 10802 10804 10806 10809 10812 10814 10816 10819 10822 10824 10827 10830 10833 10836 10839 10841 10844 10847 10849 10852 10854 10857 10860 10863 10866 10869 10871 10874 10877 10879 10882 10884 10887 10889 10891 10894 10897 10900 10903 10906 10908 10911 10914 10916 10919 10922 10925 10928 10931 10934 10936 10939 10942 10945 10948 10951 10954 10957 10960 10963 10966 10969 10972 10975 10978 10981 10983 10986 10989 10992 10995 10998 11000 11003 11005 11007 11010 11013 11016 11019 11022 11025 11028 11031 11034 11037 11040 11043 11046 11049 11052 11055 11058 11061 11064 11067 11070 11072 11075 11078 11081 11083 11086 11089 11091 11094 11097 11100 11103 11106 11109 11112 11115 11118 11121 11123 11126 11128 11131 11134 11137 11140 11143 11145 11148 11151 11154 11157 11159 11162 11165 11168 11171 11174 11177 11180 11183 11186 11189 11192 11195 11198 11201 11204 11207 11210 11213 11216 11219 11222 11225 11228 11231 11234 11237 11240 11243 11246 11249 11252 11255 11257 11260 11262 11265 11267 11270 11272 11275 11278 11281 11283 11285 11288 11290 11292 11295 11298 11301 11303 11306 11309 11312 11315 11318 11321 11324 11327 11330 11333 11336 11339 11342 11345 11348 11351 11354 11357 11360 11363 11366 11369 11372 11375 11378 11381 11384 11387 11390 11393 11396 11399 11402 11405 11408 11411 11414 11417 11420 11423 11426 11429 11432 11435 11438 11441 11444 11447 11450 11453 11456 11459 11462 11465 11468 11471 11474 11477 11480 11483 11486 11489 11492 11494 11497 11500 11503 11506 11509 11512 11514 11516 11519 11522 11525 11528 11531 11534 11536 11539 11542 11545 11548 11550 11553 11556 11559 11562 11565 11567 11570 11572 11575 11578 11581 11584 11586 11589 11592 11595 11598 11601 11604 11607 11610 11613 11616 11619 11622 11625 11628 11631 11634 11637 11640 11643 11646 11649 11652 11655 11658 11661 11663 11666 11669 11672 11675 11678 11681 11684 11687 11690 11692 11694 11697 11700 11703 11705 11707 11710 11713 11716 11719 11722 11724 11727 11729 11732 11735 11737 11740 11743 11746 11749 11752 11755 11758 11761 11764 11767 11770 11773 11775 11778 11781 11784 11787 11789 11792 11795 11798 11801 11804 11807 11810 11812 11815 11818 11821 11824 11827 11830 11833 11836 11839 11842 11845 11848 11851 11854 11857 11860 11863 11866 11868 11871 11874 11877 11879 11882 11885 11888 11891 11894 11897 11900 11903 11906 11909 11912 11915 11918 11921 11923 11925 11928 11931 11934 11937 11940 11943 11946 11949 11952 11955 11958 11960 11963 11966 11969 11972 11975 11978 11981 11983 11986 11989 11992 11995 11998 12001 12004 12007 12010 12013 12016 12019 12022 12025 12028 12031 12034 12037 12040 12042 12044 12047 12050 12053 12056 12059 12062 12064 12067 12070 12073 12076 12079 12082 12085 12088 12091 12094 12097 12100 12103 12106 12109 12112 12115 12118 12121 12124 12127 12130 12133 12136 12139 12142 12145 12148 12150 12152 12155 12158 12161 12164 12167 12169 12172 12175 12177 12180 12183 12186 12189 12191 12194 12197 12200 12202 12204 12207 12209 12211 12214 12217 12220 12223 12225 12228 12231 12234 12237 12240 12243 12246 12248 12251 12253 12256 12258 12261 12264 12266 12268 12271 12274 12277 12279 12282 12284 12287 12290 12293 12296 12299 12302 12305 12308 12311 12313 12316 12319 12322 12325 12328 12330 12333 12336 12339 12342 12345 12348 12351 12354 12357 12360 12363 12366 12368 12371 12374 12377 12380 12383 12386 12389 12392 12395 12397 12400 12403 12406 12409 12412 12415 12418 12421 12423 12425 12427 12430 12433 12436 12438 12441 12444 12446 12449 12452 12455 12458 12461 12464 12466 12469 12472 12475 12477 12479 12482 12484 12487 12490 12493 12496 12498 12500 12503 12506 12508 12511 12514 12516 12519 12522 12525 12528 12531 12534 12537 12539 12542 12544 12547 12549 12551 12554 12557 12560 12563 12566 12569 12572 12575 12577 12580 12583 12586 12589 12592 12594 12597 12600 12603 12606 12609 12612 12615 12618 12621 12624 12627 12630 12633 12636 12639 12642 12645 12648 12651 12654 12657 12660 12663 12666 12669 12672 12675 12678 12681 12684 12687 12690 12693 12696 12699 12702 12705 12708 12711 12714 12717 12720 12723 12726 12729 12732 12735 12738 12741 12744 12747 12750 12753 12756 12759 12762 12765 12768 12771 12774 12777 12780 12783 12786 12788 12791 12794 12797 12800 12803 12806 12809 12812 12815 12818 12821 12824 12827 12830 12833 12836 12839 12842 12845 12848 12851 12854 12857 12860 12863 12866 12869 12872 12875 12878 12880 12883 12886 12889 12891 12893 12895 12898 12901 12904 12907 12910 12913 12916 12918 12920 12923 12926 12929 12931 12934 12936 12939 12942 12945 12948 12951 12954 12956 12959 12962 12964 12967 12970 12973 12976 12979 12982 12985 12988 12991 12994 12997 13000 13002 13005 13008 13011 13014 13017 13020 13023 13025 13028 13030 13032 13035 13038 13041 13044 13046 13049 13051 13053 13056 13059 13062 13065 13067 13070 13073 13075 13077 13080 13083 13086 13089 13091 13094 13097 13099 13102 13105 13108 13111 13114 13117 13120 13123 13126 13129 13131 13134 13136 13139 13142 13145 13148 13150 13153 13156 13159 13162 13165 13167 13170 13173 13176 13179 13182 13185 13188 13191 13194 13197 13200 13203 13206 13209 13212 13214 13217 13220 13223 13225 13227 13230 13233 13236 13239 13242 13245 13248 13251 13254 13257 13260 13263 13266 13268 13271 13273 13276 13279 13282 13284 13287 13290 13293 13295 13298 13301 13304 13307 13309 13312 13315 13318 13321 13324 13326 13329 13332 13335 13338 13341 13344 13346 13349 13352 13355 13358 13361 13364 13367 13370 13373 13376 13378 13380 13383 13385 13388 13391 13394 13397 13399 13402 13405 13407 13410 13413 13415 13418 13421 13424 13426 13428 13431 13433 13435 13438 13441 13444 13447 13450 13452 13455 13458 13460 13463 13466 13469 13471 13474 13476 13479 13482 13485 13488 13491 13494 13497 13499 13502 13505 13508 13511 13514 13517 13520 13523 13526 13529 13532 13535 13537 13540 13543 13546 13549 13552 13554 13557 13560 13562 13565 13567 13570 13573 13575 13578 13580 13583 13586 13588 13590 13593 13596 13599 13601 13603 13606 13609 13611 13614 13617 13620 13623 13626 13628 13630 13632 13634 13636 13638 13641 13644 13647 13649 13652 13654 13656 13658 13661 13664 13667 13669 13672 13675 13677 13680 13683 13686 13688 13691 13694 13696 13699 13702 13705 13708 13710 13712 13715 13718 13721 13724 13727 13729 13732 13735 13738 13741 13744 13747 13749 13751 13754 13757 13759 13762 13764 13767 13770 13773 13776 13779 13782 13785 13788 13791 13794 13797 13800 13803 13806 13809 13812 13815 13818 13821 13823 13826 13829 13832 13835 13837 13840 13842 13845 13848 13851 13853 13856 13859 13862 13864 13867 13870 13873 13876 13879 13882 13885 13888 13891 13894 13897 13900 13903 13906 13908 13910 13913 13916 13919 13922 13925 13928 13931 13934 13937 13940 13943 13946 13949 13952 13955 13957 13960 13963 13966 13969 13971 13974 13976 13979 13982 13985 13988 13991 13994 13997 14000 14003 14006 14009 14012 14015 14018 14021 14024 14027 14030 14033 14036 14039 14042 14045 14048 14051 14054 14057 14060 14063 14066 14069 14072 14075 14078 14080 14082 14085 14088 14090 14093 14095 14098 14100 14102 14105 14108 14111 14114 14117 14120 14122 14124 14127 14130 14132 14135 14138 14141 14143 14146 14149 14152 14155 14158 14161 14164 14166 14169 14172 14175 14178 14181 14184 14186 14189 14192 14195 14198 14201 14204 14207 14210 14213 14216 14219 14221 14224 14227 14230 14233 14236 14239 14242 14245 14248 14250 14253 14256 14259 14262 14264 14267 14270 14273 14276 14279 14281 14284 14287 14290 14293 14296 14299 14302 14305 14308 14311 14314 14317 14320 14323 14326 14329 14332 14335 14338 14341 14344 14347 14350 14353 14356 14358 14361 14364 14367 14370 14373 14376 14379 14382 14385 14388 14391 14394 14397 14400 14402 14405 14408 14411 14414 14417 14420 14422 14425 14427 14430 14433 14436 14439 14441 14444 14446 14449 14452 14455 14458 14461 14464 14467 14469 14472 14475 14478 14481 14484 14487 14490 14493 14495 14498 14501 14504 14507 14510 14513 14516 14518 14521 14524 14527 14530 14533 14536 14539 14542 14545 14548 14551 14554 14557 14560 14562 14565 14568 14571 14574 14576 14578 14581 14584 14587 14590 14593 14596 14599 14601 14604 14606 14609 14611 14614 14617 14619 14621 14624 14626 14629 14632 14635 14638 14641 14644 14647 14650 14652 14655 14657 14660 14663 14666 14669 14671 14674 14677 14679 14682 14685 14688 14691 14694 14696 14699 14702 14705 14708 14711 14714 14717 14720 14723 14726 14729 14732 14735 14737 14740 14743 14745 14748 14751 14754 14756 14759 14762 14765 14768 14771 14773 14776 14779 14781 14784 14786 14789 14792 14795 14798 14801 14804 14807 14809 14812 14815 14817 14820 14823 14826 14828 14831 14834 14837 14840 14843 14846 14849 14852 14855 14858 14860 14863 14866 14869 14871 14874 14877 14880 14883 14885 14888 14891 14894 14897 14900 14903 14906 14909 14912 14915 14918 14921 14924 14927 14930 14933 14936 14939 14942 14945 14947 14950 14953 14956 14958 14961 14964 14967 14970 14973 14976 14979 14982 14985 14987 14990 14993 14996 14999 15002 15004 15007 15010 15013 15016 15019 15022 15025 15028 15031 15034 15037 15040 15043 15046 15049 15052 15055 15058 15061 15064 15067 15069 15072 15075 15078 15081 15084 15086 15088 15091 15094 15097 15100 15102 15105 15108 15111 15114 15117 15120 15123 15126 15128 15131 15134 15137 15140 15143 15146 15149 15151 15153 15156 15159 15162 15165 15168 15170 15173 15176 15179 15182 15185 15188 15191 15194 15197 15200 15202 15205 15207 15210 15212 15215 15217 15220 15223 15226 15229 15231 15234 15237 15240 15243 15246 15249 15252 15255 15258 15261 15264 15267 15270 15273 15276 15279 15282 15285 15288 15291 15293 15296 15299 15301 15304 15307 15310 15313 15316 15319 15322 15325 15328 15330 15333 15336 15338 15341 15344 15347 15350 15352 15355 15358 15361 15364 15367 15370 15373 15376 15379 15382 15385 15388 15391 15394 15397 15400 15403 15406 15409 15412 15415 15418 15420 15423 15426 15429 15432 15435 15438 15441 15444 15447 15450 15453 15456 15459 15462 15465 15468 15471 15474 15477 15480 15483 15486 15489 15492 15495 15497 15500 15503 15506 15509 15512 15515 15518 15521 15524 15527 15530 15533 15536 15539 15542 15544 15547 15550 15553 15556 15559 15562 15565 15568 15571 15574 15577 15580 15582 15585 15588 15591 15594 15596 15598 15601 15604 15607 15609 15612 15614 15617 15620 15623 15625 15628 15631 15634 15637 15639 15641 15644 15647 15649 15652 15655 15658 15661 15664 15667 15670 15673 15675 15678 15681 15684 15687 15690 15693 15696 15699 15702 15705 15708 15711 15714 15716 15719 15721 15724 15727 15730 15733 15736 15739 15742 15744 15747 15750 15753 15756 15759 15761 15763 15766 15769 15772 15775 15778 15781 15784 15786 15789 15792 15795 15798 15801 15803 15806 15809 15812 15815 15818 15820 15823 15826 15829 15832 15835 15837 15840 15843 15846 15849 15852 15855 15858 15861 15864 15867 15870 15873 15876 15879 15882 15885 15888 15891 15894 15897 15900 15903 15906 15909 15912 15914 15917 15920 15923 15926 15929 15932 15935 15938 15941 15944 15947 15950 15952 15955 15957 15959 15962 15965 15968 15971 15974 15976 15979 15982 15985 15988 15991 15994 15996 15999 16001 16004 16007 16010 16013 16016 16019 16022 16025 16028 16031 16034 16037 16040 16043 16046 16048 16051 16053 16056 16059 16062 16065 16068 16070 16073 16076 16079 16082 16085 16088 16091 16094 16097 16100 16103 16106 16109 16112 16115 16118 16121 16124 16127 16130 16133 16135 16138 16141 16144 16147 16150 16153 16156 16159 16162 16164 16167 16170 16173 16176 16179 16181 16184 16187 16190 16193 16195 16198 16201 16204 16207 16210 16212 16215 16218 16221 16224 16227 16229 16232 16235 16238 16241 16244 16247 16250 16253 16256 16259 16262 16264 16267 16270 16273 16275 16278 16281 16284 16287 16290 16292 16295 16298 16301 16303 16305 16308 16311 16314 16317 16320 16323 16326 16328 16331 16334 16337 16340 16343 16346 16349 16351 16354 16357 16360 16363 16366 16368 16371 16374 16377 16380 16383 16386 16389 16392 16395 16398 16401 16404 16407 16409 16412 16415 16418 16421 16424 16427 16430 16433 16436 16439 16442 16444 16447 16450 16453 16456 16459 16462 16465 16468 16471 16474 16477 16480 16483 16486 16489 16492 16495 16498 16501 16504 16507 16510 16513 16516 16518 16521 16523 16526 16528 16531 16534 16537 16540 16542 16545 16547 16550 16553 16555 16558 16561 16564 16567 16570 16573 16576 16579 16582 16585 16588 16591 16594 16597 16600 16603 16606 16609 16611 16614 16617 16620 16623 16626 16629 16632 16635 16638 16641 16644 16647 16650 16653 16655 16658 16661 16664 16667 16670 16673 16676 16678 16680 16683 16686 16689 16692 16695 16697 16700 16703 16706 16709 16712 16715 16718 16721 16724 16727 16730 16733 16736 16739 16742 16744 16747 16750 16753 16756 16759 16762 16765 16768 16771 16774 16776 16779 16782 16785 16788 16790 16793 16796 16799 16802 16805 16808 16811 16814 16817 16820 16823 16826 16829 16832 16835 16838 16841 16844 16847 16849 16852 16855 16858 16860 16863 16866 16869 16871 16874 16877 16880 16883 16886 16889 16892 16895 16898 16901 16904 16907 16910 16913 16916 16918 16921 16924 16927 16930 16933 16936 16939 16941 16944 16947 16950 16953 16956 16959 16962 16965 16968 16971 16974 16977 16980 16983 16986 16989 16992 16995 16998 17001 17004 17007 17010 17013 17016 17019 17022 17025 17028 17031 17033 17036 17038 17041 17044 17047 17050 17053 17056 17059 17062 17064 17067 17070 17073 17076 17079 17082 17085 17088 17091 17094 17097 17099 17102 17105 17108 17111 17114 17117 17120 17122 17125 17128 17131 17134 17137 17140 17143 17145 17148 17151 17154 17157 17160 17162 17165 17168 17171 17173 17176 17179 17182 17185 17188 17191 17194 17197 17200 17203 17206 17209 17212 17215 17218 17221 17224 17226 17229 17232 17234 17237 17240 17243 17245 17248 17251 17254 17257 17260 17263 17265 17268 17271 17273 17276 17279 17282 17285 17288 17291 17293 17296 17299 17302 17304 17307 17310 17313 17316 17319 17322 17325 17328 17331 17333 17336 17339 17341 17344 17347 17350 17353 17356 17359 17362 17365 17368 17370 17372 17375 17378 17381 17384 17387 17390 17393 17395 17397 17400 17403 17406 17409 17412 17415 17418 17421 17424 17427 17430 17433 17436 17439 17442 17445 17448 17451 17453 17456 17459 17462 17465 17468 17471 17474 17477 17480 17483 17486 17489 17492 17495 17498 17501 17504 17506 17509 17512 17514 17517 17520 17523 17526 17529 17532 17535 17538 17541 17544 17547 17550 17552 17555 17558 17561 17564 17567 17569 17572 17575 17578 17581 17584 17587 17590 17593 17596 17599 17602 17605 17608 17611 17614 17617 17620 17623 17626 17629 17632 17635 17638 17641 17644 17647 17650 17652 17655 17658 17661 17664 17667 17669 17672 17675 17678 17681 17684 17687 17690 17693 17695 17698 17701 17704 17707 17710 17713 17716 17718 17721 17724 17727 17730 17733 17736 17739 17742 17745 17747 17750 17753 17756 17759 17762 17765 17767 17770 17773 17776 17779 17782 17785 17788 17791 17794 17796 17799 17802 17805 17807 17810 17812 17815 17818 17821 17824 17827 17829 17832 17835 17837 17840 17842 17845 17848 17851 17854 17857 17860 17862 17864 17867 17870 17872 17875 17877 17880 17883 17886 17889 17892 17895 17898 17901 17904 17907 17910 17913 17916 17918 17921 17923 17926 17929 17932 17934 17937 17940 17943 17946 17948 17951 17954 17957 17960 17963 17966 17969 17972 17975 17978 17981 17983 17986 17989 17992 17995 17998 18001 18003 18006 18009 18012 18014 18017 18020 18022 18025 18028 18031 18034 18037 18040 18043 18046 18049 18052 18055 18058 18061 18064 18067 18070 18073 18076 18079 18082 18085 18088 18091 18094 18097 18100 18103 18105 18108 18111 18114 18117 18120 18122 18125 18128 18131 18134 18137 18140 18143 18146 18149 18152 18155 18158 18161 18164 18166 18169 18172 18175 18178 18181 18184 18186 18189 18192 18195 18197 18200 18203 18206 18209 18212 18215 18218 18221 18224 18227 18230 18233 18236 18239 18242 18245 18248 18251 18254 18257 18260 18263 18266 18269 18272 18274 18277 18280 18283 18286 18289 18292 18295 18298 18300 18302 18305 18308 18311 18314 18317 18320 18323 18326 18329 18331 18334 18337 18339 18342 18344 18347 18349 18352 18355 18358 18361 18364 18367 18369 18372 18375 18378 18381 18383 18386 18389 18391 18394 18397 18400 18403 18406 18408 18411 18414 18417 18420 18423 18426 18429 18432 18435 18438 18441 18444 18447 18450 18452 18454 18457 18460 18463 18466 18469 18472 18475 18478 18481 18484 18487 18490 18492 18495 18498 18500 18503 18506 18508 18510 18513 18516 18519 18521 18524 18527 18530 18533 18535 18537 18540 18543 18545 18548 18551 18554 18556 18559 18562 18565 18568 18571 18574 18577 18580 18582 18585 18588 18591 18594 18597 18599 18602 18605 18608 18610 18613 18616 18619 18621 18624 18627 18630 18633 18635 18638 18641 18643 18645 18648 18651 18654 18657 18660 18663 18665 18668 18671 18674 18677 18680 18683 18686 18689 18692 18695 18698 18701 18704 18707 18710 18713 18716 18718 18721 18724 18727 18730 18733 18736 18739 18741 18744 18747 18750 18752 18755 18758 18760 18763 18766 18769 18772 18775 18777 18779 18782 18785 18788 18791 18794 18796 18799 18802 18805 18808 18810 18813 18815 18818 18821 18824 18827 18830 18833 18836 18838 18841 18844 18846 18849 18852 18855 18857 18860 18863 18865 18867 18870 18873 18876 18879 18882 18885 18888 18890 18893 18896 18898 18901 18904 18907 18909 18912 18915 18918 18921 18924 18927 18930 18933 18936 18939 18942 18945 18948 18951 18954 18957 18960 18963 18966 18969 18972 18975 18978 18981 18984 18987 18990 18993 18996 18999 19002 19005 19008 19011 19014 19017 19020 19023 19026 19029 19032 19035 19038 19041 19044 19047 19050 19053 19056 19059 19062 19065 19068 19071 19074 19077 19080 19083 19086 19089 19092 19095 19098 19101 19104 19107 19110 19113 19116 19119 19122 19125 19128 19131 19134 19137 19140 19143 19146 19149 19152 19155 19157 19160 19162 19165 19168 19171 19173 19176 19179 19182 19185 19188 19191 19194 19197 19200 19203 19206 19209 19212 19215 19217 19220 19223 19226 19229 19232 19234 19236 19238 19241 19244 19247 19250 19253 19255 19257 19260 19263 19266 19269 19271 19274 19277 19280 19283 19286 19289 19292 19295 19297 19300 19302 19305 19308 19311 19314 19317 19320 19323 19326 19329 19332 19335 19338 19341 19344 19347 19350 19353 19356 19359 19362 19365 19368 19371 19374 19377 19380 19383 19386 19389 19392 19395 19398 19401 19404 19407 19410 19413 19416 19418 19421 19424 19427 19430 19433 19436 19439 19441 19444 19447 19450 19453 19456 19459 19462 19465 19467 19470 19473 19476 19478 19481 19484 19487 19490 19493 19496 19499 19502 19505 19508 19511 19514 19517 19520 19523 19526 19529 19532 19535 19538 19541 19544 19547 19550 19553 19555 19558 19561 19563 19566 19569 19572 19575 19578 19581 19584 19587 19590 19593 19596 19599 19601 19604 19607 19610 19613 19616 19618 19621 19624 19627 19630 19632 19635 19637 19640 19643 19646 19648 19651 19654 19657 19659 19662 19664 19667 19670 19672 19674 19676 19679 19682 19685 19687 19690 19693 19695 19697 19700 19703 19706 19709 19712 19715 19718 19721 19724 19727 19730 19733 19736 19739 19742 19745 19747 19750 19753 19755 19758 19761 19764 19767 19770 19773 19776 19779 19782 19784 19787 19790 19792 19795 19798 19800 19803 19806 19809 19812 19815 19818 19821 19824 19827 19830 19833 19836 19839 19842 19845 19847 19850 19853 19856 19858 19861 19864 19867 19869 19872 19874 19877 19880 19883 19886 19889 19892 19895 19898 19900 19903 19906 19909 19912 19915 19918 19921 19924 19927 19930 19933 19936 19939 19941 19944 19947 19950 19953 19956 19959 19962 19965 19967 19970 19973 19976 19979 19982 19984 19987 19990 19993 19996 19999 20002 20005 20007 20010 20012 20015 20018 20021 20024 20027 20030 20033 20036 20039 20042 20045 20048 20051 20053 20056 20059 20062 20065 20068 20071 20074 20076 20079 20082 20085 20088 20091 20094 20097 20100 20103 20106 20109 20112 20115 20118 20121 20124 20127 20130 20133 20136 20139 20142 20145 20148 20151 20154 20157 20160 20163 20165 20168 20171 20174 20176 20179 20181 20183 20186 20189 20191 20193 20196 20199 20202 20205 20208 20210 20213 20216 20219 20222 20225 20228 20231 20234 20237 20240 20242 20245 20247 20250 20253 20256 20259 20261 20264 20267 20270 20273 20276 20279 20282 20285 20288 20291 20293 20296 20299 20302 20305 20308 20311 20314 20317 20320 20323 20326 20329 20331 20334 20337 20340 20343 20345 20348 20351 20354 20357 20360 20363 20365 20368 20371 20374 20376 20379 20381 20384 20387 20390 20393 20395 20398 20401 20404 20407 20410 20413 20416 20419 20422 20425 20428 20431 20434 20437 20440 20443 20446 20449 20452 20455 20458 20461 20464 20467 20470 20473 20476 20479 20482 20485 20488 20491 20494 20497 20500 20503 20506 20509 20511 20514 20517 20520 20523 20525 20528 20531 20534 20537 20540 20543 20546 20549 20552 20555 20557 20560 20563 20566 20569 20572 20575 20578 20581 20584 20587 20590 20593 20595 20598 20601 20604 20606 20609 20612 20615 20618 20621 20624 20627 20629 20632 20635 20638 20641 20644 20646 20649 20652 20655 20658 20661 20664 20667 20670 20673 20676 20679 20682 20685 20688 20691 20694 20697 20700 20703 20706 20709 20712 20715 20718 20721 20724 20727 20730 20733 20736 20739 20742 20745 20748 20751 20754 20757 20759 20762 20765 20768 20771 20774 20777 20780 20783 20786 20789 20792 20795 20798 20801 20804 20807 20809 20812 20815 20817 20820 20823 20826 20829 20832 20835 20838 20841 20844 20847 20850 20853 20856 20859 20862 20865 20868 20871 20874 20877 20880 20883 20886 20889 20892 20895 20898 20901 20904 20907 20910 20913 20916 20919 20922 20925 20928 20931 20934 20937 20940 20943 20945 20948 20951 20954 20956 20959 20962 20965 20968 20970 20973 20976 20979 20981 20984 20987 20990 20993 20996 20999 21002 21005 21008 21011 21014 21017 21020 21023 21025 21028 21031 21034 21037 21039 21041 21044 21047 21050 21053 21056 21059 21062 21065 21068 21070 21073 21075 21078 21081 21084 21087 21090 21093 21096 21099 21102 21105 21108 21111 21114 21117 21119 21122 21125 21128 21131 21134 21137 21140 21143 21146 21149 21152 21155 21158 21161 21163 21166 21169 21172 21175 21177 21180 21183 21186 21189 21191 21194 21196 21199 21202 21205 21207 21210 21213 21215 21218 21221 21224 21227 21229 21232 21235 21238 21241 21244 21246 21249 21252 21254 21257 21260 21263 21266 21268 21271 21274 21277 21280 21283 21286 21289 21291 21294 21297 21300 21303 21305 21308 21311 21313 21316 21319 21321 21324 21326 21329 21332 21335 21338 21340 21343 21346 21349 21351 21354 21357 21360 21363 21366 21369 21372 21374 21377 21380 21383 21386 21389 21392 21395 21398 21401 21404 21407 21410 21413 21416 21419 21422 21425 21427 21430 21433 21436 21438 21441 21444 21447 21450 21453 21456 21459 21462 21465 21468 21471 21474 21477 21480 21483 21486 21489 21492 21495 21498 21501 21504 21507 21510 21513 21516 21519 21522 21525 21528 21531 21534 21537 21540 21543 21546 21549 21551 21554 21557 21560 21562 21565 21568 21570 21572 21575 21578 21581 21584 21587 21590 21593 21596 21599 21602 21604 21607 21610 21613 21616 21619 21622 21625 21628 21631 21634 21637 21640 21643 21646 21649 21651 21654 21657 21660 21663 21666 21669 21672 21675 21678 21681 21684 21687 21690 21692 21695 21698 21701 21704 21707 21709 21712 21715 21718 21721 21723 21726 21729 21732 21735 21738 21740 21743 21746 21749 21752 21755 21758 21761 21764 21767 21770 21772 21775 21777 21780 21783 21786 21789 21791 21794 21796 21799 21802 21805 21808 21811 21814 21816 21818 21821 21824 21826 21829 21832 21835 21838 21841 21844 21847 21850 21852 21855 21858 21861 21864 21867 21870 21873 21876 21879 21882 21885 21888 21891 21894 21897 21900 21902 21905 21907 21910 21913 21916 21919 21922 21925 21928 21931 21934 21937 21940 21943 21946 21949 21952 21955 21958 21961 21964 21967 21970 21972 21975 21978 21981 21984 21987 21990 21993 21996 21999 22002 22005 22008 22011 22014 22017 22020 22023 22026 22029 22032 22035 22038 22041 22044 22047 22050 22053 22056 22059 22062 22065 22068 22071 22074 22076 22079 22082 22085 22088 22091 22094 22097 22100 22103 22106 22108 22111 22114 22117 22119 22122 22124 22127 22130 22133 22136 22139 22142 22145 22148 22151 22154 22156 22159 22162 22164 22167 22170 22173 22176 22179 22182 22185 22188 22191 22194 22197 22200 22203 22206 22209 22212 22215 22218 22221 22224 22227 22230 22233 22236 22239 22242 22245 22248 22251 22254 22257 22260 22263 22266 22269 22272 22275 22278 22281 22284 22287 22290 22293 22296 22299 22302 22305 22308 22311 22314 22317 22320 22323 22326 22329 22332 22335 22338 22341 22344 22346 22349 22352 22355 22358 22361 22364 22366 22368 22371 22374 22377 22380 22383 22386 22389 22392 22395 22397 22400 22403 22406 22409 22412 22415 22418 22421 22424 22427 22430 22433 22436 22439 22442 22445 22448 22451 22454 22457 22460 22463 22466 22469 22472 22475 22478 22481 22484 22487 22490 22493 22496 22499 22502 22505 22508 22511 22514 22517 22520 22523 22526 22529 22532 22535 22538 22541 22544 22547 22550 22553 22556 22559 22562 22565 22568 22571 22573 22576 22578 22581 22584 22587 22590 22593 22596 22599 22602 22604 22607 22610 22613 22616 22619 22622 22625 22628 22631 22633 22636 22639 22642 22645 22648 22651 22654 22656 22659 22662 22665 22668 22671 22674 22677 22680 22683 22686 22689 22692 22694 22697 22700 22702 22705 22708 22711 22714 22717 22720 22723 22726 22729 22732 22735 22738 22741 22744 22747 22750 22753 22756 22759 22762 22765 22768 22771 22774 22777 22780 22783 22786 22789 22792 22795 22798 22801 22804 22807 22810 22813 22816 22819 22822 22825 22828 22831 22834 22837 22840 22843 22845 22848 22851 22854 22857 22859 22862 22865 22867 22870 22873 22876 22879 22882 22884 22887 22890 22893 22896 22898 22901 22904 22907 22910 22912 22915 22918 22920 22923 22926 22929 22931 22934 22937 22940 22943 22946 22949 22952 22955 22958 22961 22964 22967 22970 22973 22976 22979 22982 22985 22988 22991 22994 22997 23000 23003 23006 23009 23012 23014 23016 23019 23021 23024 23027 23030 23032 23035 23038 23041 23044 23047 23050 23053 23056 23059 23061 23064 23066 23069 23072 23074 23077 23080 23082 23085 23088 23091 23094 23097 23100 23103 23106 23109 23112 23115 23118 23121 23124 23127 23130 23133 23136 23139 23142 23145 23148 23151 23154 23157 23159 23162 23165 23168 23171 23174 23176 23179 23182 23185 23188 23191 23194 23197 23199 23201 23204 23207 23210 23212 23215 23218 23221 23224 23226 23229 23232 23235 23237 23240 23243 23246 23249 23252 23255 23258 23261 23264 23266 23269 23272 23275 23278 23281 23284 23287 23290 23293 23295 23298 23301 23304 23306 23309 23312 23315 23318 23320 23323 23326 23328 23331 23334 23337 23340 23343 23346 23349 23351 23354 23357 23360 23363 23366 23369 23371 23374 23377 23380 23383 23386 23389 23391 23394 23397 23400 23403 23406 23409 23412 23415 23417 23420 23423 23426 23428 23431 23434 23437 23440 23443 23446 23449 23452 23455 23458 23461 23464 23467 23470 23473 23476 23479 23482 23485 23488 23491 23494 23497 23500 23503 23506 23509 23512 23515 23518 23521 23524 23527 23530 23533 23536 23539 23542 23545 23548 23551 23554 23557 23560 23563 23566 23569 23572 23575 23578 23581 23584 23587 23589 23592 23595 23597 23600 23602 23605 23608 23610 23613 23616 23619 23622 23625 23628 23631 23634 23637 23639 23642 23645 23648 23651 23654 23657 23659 23662 23665 23668 23671 23674 23677 23679 23682 23684 23687 23690 23692 23695 23698 23700 23703 23706 23708 23711 23714 23717 23720 23723 23726 23729 23732 23735 23738 23741 23744 23747 23749 23752 23754 23757 23760 23762 23765 23768 23771 23774 23777 23779 23782 23785 23788 23791 23794 23797 23800 23803 23806 23809 23812 23815 23818 23821 23824 23826 23829 23832 23834 23837 23840 23843 23846 23848 23851 23854 23857 23860 23863 23866 23869 23872 23875 23877 23880 23883 23886 23889 23892 23895 23898 23901 23904 23907 23909 23912 23915 23918 23921 23924 23926 23928 23931 23934 23937 23940 23943 23946 23949 23951 23953 23956 23959 23962 23965 23968 23971 23974 23977 23979 23982 23985 23987 23990 23992 23995 23998 24000 24003 24006 24009 24012 24015 24018 24020 24023 24026 24029 24032 24035 24038 24041 24044 24047 24050 24052 24055 24058 24061 24064 24067 24070 24072 24074 24077 24080 24083 24086 24088 24091 24094 24097 24100 24103 24106 24109 24112 24115 24118 24121 24124 24127 24130 24133 24136 24139 24142 24144 24147 24150 24153 24156 24158 24161 24164 24167 24170 24173 24176 24179 24182 24185 24188 24191 24194 24197 24199 24202 24205 24208 24211 24214 24217 24220 24223 24225 24228 24231 24234 24236 24239 24242 24245 24248 24251 24253 24256 24258 24261 24264 24267 24270 24273 24276 24279 24282 24285 24288 24291 24294 24297 24300 24302 24305 24308 24311 24314 24317 24320 24323 24326 24329 24332 24334 24337 24340 24343 24346 24349 24352 24355 24357 24359 24362 24365 24368 24371 24374 24377 24379 24382 24385 24388 24391 24394 24397 24400 24403 24406 24409 24411 24414 24417 24420 24423 24425 24427 24430 24432 24435 24438 24441 24444 24447 24450 24453 24455 24458 24460 24463 24466 24469 24472 24475 24478 24481 24484 24487 24489 24492 24495 24498 24501 24504 24507 24510 24513 24516 24519 24522 24525 24528 24531 24534 24537 24540 24543 24546 24549 24552 24555 24558 24561 24563 24566 24569 24572 24575 24578 24581 24584 24587 24590 24593 24596 24599 24602 24605 24608 24611 24614 24617 24620 24623 24626 24629 24632 24635 24638 24641 24644 24647 24650 24653 24656 24659 24662 24665 24668 24671 24674 24677 24680 24683 24686 24689 24692 24695 24698 24701 24704 24706 24709 24712 24715 24718 24720 24723 24726 24729 24732 24735 24738 24741 24743 24746 24749 24751 24754 24757 24760 24763 24766 24769 24772 24775 24778 24781 24784 24787 24790 24793 24796 24798 24800 24803 24806 24809 24812 24815 24818 24821 24824 24826 24829 24832 24835 24838 24841 24844 24847 24850 24853 24856 24858 24861 24863 24866 24869 24872 24875 24878 24881 24884 24887 24890 24893 24896 24899 24902 24905 24908 24911 24914 24917 24920 24923 24926 24929 24932 24935 24938 24941 24944 24947 24950 24953 24956 24959 24962 24965 24968 24971 24974 24977 24980 24983 24986 24989 24992 24995 24998 25001 25004 25007 25010 25013 25016 25019 25022 25025 25028 25031 25034 25037 25040 25043 25046 25048 25051 25054 25056 25059 25062 25065 25068 25071 25074 25077 25080 25083 25085 25088 25091 25094 25097 25100 25103 25106 25109 25112 25115 25118 25121 25123 25126 25129 25132 25134 25137 25140 25143 25146 25149 25152 25155 25158 25161 25164 25167 25170 25173 25176 25179 25182 25185 25188 25191 25194 25197 25199 25202 25205 25208 25210 25213 25216 25219 25222 25225 25228 25230 25232 25235 25238 25241 25244 25247 25250 25253 25256 25259 25262 25265 25268 25271 25274 25277 25280 25283 25286 25289 25292 25295 25298 25301 25304 25307 25310 25313 25316 25319 25322 25325 25328 25331 25334 25337 25339 25342 25345 25348 25351 25354 25357 25360 25363 25366 25369 25372 25375 25378 25381 25384 25387 25390 25393 25396 25399 25402 25405 25408 25411 25413 25416 25419 25422 25425 25428 25431 25434 25437 25440 25443 25446 25449 25452 25454 25456 25459 25462 25465 25467 25469 25472 25475 25478 25481 25484 25487 25490 25493 25496 25499 25502 25505 25508 25510 25513 25516 25519 25522 25524 25527 25530 25533 25536 25539 25541 25544 25547 25550 25553 25556 25559 25562 25565 25567 25570 25573 25576 25578 25581 25584 25586 25589 25592 25594 25597 25600 25603 25605 25608 25611 25613 25616 25619 25622 25625 25628 25631 25633 25636 25639 25642 25645 25647 25650 25653 25656 25659 25662 25665 25668 25671 25674 25677 25680 25682 25685 25688 25691 25694 25697 25700 25703 25706 25709 25712 25715 25718 25721 25724 25727 25730 25733 25736 25739 25742 25745 25748 25751 25754 25756 25759 25761 25763 25766 25769 25772 25774 25777 25780 25783 25786 25788 25791 25794 25797 25800 25803 25806 25809 25812 25814 25817 25820 25823 25825 25828 25831 25834 25837 25840 25843 25846 25849 25852 25855 25858 25861 25864 25867 25870 25873 25876 25879 25882 25885 25887 25890 25893 25896 25899 25902 25905 25908 25911 25914 25917 25920 25923 25925 25928 25931 25934 25937 25940 25943 25945 25948 25950 25952 25955 25958 25961 25964 25967 25970 25973 25976 25979 25982 25984 25987 25990 25993 25996 25998 26001 26004 26007 26009 26012 26015 26017 26020 26023 26026 26029 26032 26035 26038 26041 26044 26047 26049 26052 26054 26057 26060 26063 26065 26068 26070 26073 26076 26079 26082 26084 26086 26088 26091 26094 26097 26100 26103 26106 26108 26111 26114 26117 26120 26123 26126 26129 26131 26134 26137 26140 26143 26146 26149 26152 26155 26158 26161 26164 26167 26170 26173 26175 26178 26180 26183 26186 26189 26192 26195 26198 26200 26203 26206 26209 26212 26214 26217 26220 26222 26225 26228 26231 26233 26236 26238 26241 26244 26246 26249 26252 26255 26258 26261 26263 26266 26268 26271 26274 26277 26280 26283 26286 26289 26292 26295 26298 26300 26303 26305 26308 26311 26314 26317 26320 26322 26324 26327 26329 26332 26335 26338 26340 26342 26344 26346 26349 26352 26355 26357 26360 26362 26365 26367 26369 26372 26375 26378 26380 26383 26386 26389 26391 26393 26396 26398 26401 26404 26406 26409 26412 26415 26418 26421 26424 26427 26430 26433 26436 26439 26442 26445 26448 26451 26454 26457 26460 26463 26466 26469 26471 26474 26477 26480 26483 26485 26488 26490 26493 26495 26498 26501 26504 26507 26510 26512 26514 26517 26519 26522 26525 26527 26530 26533 26536 26539 26542 26544 26547 26550 26552 26555 26558 26561 26563 26565 26568 26571 26574 26576 26579 26581 26583 26586 26589 26591 26594 26596 26599 26602 26604 26607 26609 26612 26615 26618 26621 26624 26627 26629 26632 26635 26638 26640 26643 26646 26649 26652 26655 26658 26661 26664 26667 26670 26673 26676 26679 26682 26685 26688 26691 26694 26697 26700 26703 26706 26709 26712 26715 26718 26721 26724 26726 26729 26732 26735 26737 26740 26742 26745 26748 26750 26753 26756 26759 26762 26765 26768 26771 26774 26777 26780 26782 26785 26788 26791 26794 26797 26800 26803 26806 26809 26812 26815 26818 26821 26824 26826 26828 26831 26834 26837 26840 26843 26845 26847 26850 26853 26855 26857 26860 26863 26866 26869 26872 26875 26878 26881 26884 26887 26890 26893 26896 26899 26902 26905 26908 26911 26914 26916 26919 26922 26925 26928 26931 26934 26937 26940 26942 26945 26948 26951 26954 26957 26960 26963 26966 26969 26972 26975 26977 26979 26982 26985 26988 26991 26994 26997 27000 27003 27006 27009 27012 27015 27018 27021 27024 27027 27030 27033 27036 27039 27042 27045 27048 27051 27054 27057 27060 27063 27066 27069 27072 27075 27078 27080 27083 27086 27088 27091 27094 27097 27100 27103 27106 27109 27112 27115 27118 27121 27124 27127 27130 27133 27136 27139 27142 27145 27148 27151 27154 27157 27160 27163 27166 27169 27172 27175 27178 27181 27184 27187 27190 27193 27195 27198 27201 27204 27207 27210 27213 27216 27219 27222 27225 27227 27230 27233 27236 27239 27242 27245 27248 27250 27253 27256 27259 27262 27265 27268 27271 27274 27277 27280 27283 27286 27289 27292 27295 27298 27301 27304 27307 27310 27313 27316 27319 27322 27325 27328 27331 27334 27337 27340 27343 27346 27349 27352 27355 27358 27361 27364 27367 27369 27372 27375 27378 27381 27383 27386 27389 27392 27395 27398 27401 27404 27407 27410 27413 27416 27419 27422 27424 27427 27430 27433 27436 27439 27442 27444 27447 27450 27452 27454 27457 27460 27462 27464 27467 27470 27473 27476 27478 27480 27483 27486 27489 27492 27494 27496 27499 27502 27505 27508 27511 27514 27517 27519 27522 27525 27528 27531 27534 27537 27540 27543 27546 27548 27551 27554 27557 27559 27562 27564 27567 27569 27572 27575 27577 27580 27583 27585 27588 27591 27594 27597 27599 27602 27605 27608 27611 27614 27617 27620 27623 27625 27628 27631 27634 27637 27640 27643 27645 27648 27651 27654 27657 27660 27663 27666 27669 27672 27675 27678 27680 27683 27686 27689 27692 27695 27698 27701 27704 27707 27710 27713 27716 27719 27722 27724 27727 27730 27733 27736 27739 27742 27744 27747 27750 27752 27755 27758 27761 27764 27767 27770 27773 27776 27779 27782 27785 27788 27791 27794 27797 27800 27803 27806 27808 27811 27814 27817 27820 27823 27826 27829 27831 27834 27837 27840 27843 27846 27849 27852 27855 27858 27861 27863 27866 27869 27872 27874 27877 27880 27882 27885 27887 27890 27893 27896 27899 27901 27903 27906 27909 27912 27915 27918 27920 27922 27925 27927 27929 27932 27934 27936 27939 27942 27945 27947 27950 27953 27956 27959 27962 27965 27967 27970 27973 27975 27977 27980 27983 27986 27989 27992 27995 27998 28001 28004 28007 28009 28011 28014 28017 28020 28022 28025 28028 28031 28033 28036 28039 28042 28045 28048 28051 28054 28057 28060 28063 28066 28069 28072 28075 28078 28081 28084 28087 28089 28092 28095 28097 28100 28103 28105 28107 28110 28113 28116 28118 28121 28124 28127 28130 28132 28135 28138 28141 28144 28147 28150 28153 28156 28159 28161 28164 28167 28169 28172 28175 28178 28181 28184 28187 28190 28193 28196 28198 28200 28203 28206 28209 28212 28215 28218 28220 28223 28226 28228 28231 28234 28237 28240 28243 28246 28249 28252 28255 28258 28261 28263 28266 28269 28272 28275 28278 28281 28283 28286 28289 28292 28295 28298 28301 28304 28307 28309 28312 28314 28317 28320 28323 28326 28328 28330 28333 28336 28338 28341 28344 28347 28350 28353 28356 28359 28362 28365 28368 28371 28374 28377 28380 28383 28386 28389 28392 28395 28398 28400 28403 28405 28408 28411 28414 28417 28420 28423 28426 28428 28431 28434 28437 28440 28443 28446 28449 28452 28455 28458 28461 28464 28467 28470 28473 28476 28479 28482 28485 28488 28490 28492 28495 28498 28501 28504 28507 28510 28513 28515 28518 28521 28523 28526 28528 28531 28534 28536 28538 28541 28544 28547 28550 28552 28555 28558 28560 28563 28566 28569 28572 28574 28577 28579 28582 28585 28588 28591 28594 28597 28600 28603 28606 28609 28612 28615 28618 28621 28624 28627 28630 28632 28635 28638 28641 28643 28646 28649 28652 28654 28657 28659 28661 28664 28667 28670 28673 28675 28678 28681 28684 28686 28689 28691 28693 28695 28698 28701 28704 28707 28710 28712 28715 28718 28721 28724 28727 28730 28733 28736 28739 28742 28745 28748 28750 28753 28756 28759 28762 28764 28767 28770 28773 28776 28779 28782 28785 28788 28791 28794 28797 28800 28803 28806 28809 28812 28815 28817 28820 28823 28826 28829 28832 28835 28838 28841 28843 28846 28848 28851 28854 28857 28860 28863 28865 28868 28871 28874 28877 28879 28882 28884 28887 28889 28892 28894 28897 28900 28902 28905 28908 28911 28914 28917 28920 28923 28926 28929 28932 28935 28938 28941 28944 28947 28950 28953 28956 28958 28961 28964 28967 28970 28973 28976 28979 28981 28984 28987 28990 28993 28996 28998 29000 29003 29006 29009 29012 29015 29018 29021 29024 29027 29030 29033 29036 29039 29042 29045 29048 29050 29053 29056 29059 29062 29065 29068 29071 29074 29076 29079 29082 29084 29087 29090 29093 29096 29099 29102 29105 29108 29110 29113 29116 29119 29121 29124 29127 29130 29133 29135 29138 29141 29144 29147 29150 29153 29156 29159 29162 29165 29168 29171 29174 29177 29180 29183 29186 29189 29192 29195 29197 29200 29203 29206 29209 29212 29215 29218 29220 29223 29226 29229 29232 29235 29237 29240 29243 29246 29249 29252 29255 29258 29261 29264 29267 29270 29273 29276 29279 29282 29285 29288 29291 29294 29297 29300 29303 29306 29309 29312 29315 29317 29320 29323 29325 29327 29330 29333 29335 29338 29341 29344 29347 29349 29352 29355 29358 29361 29364 29367 29370 29373 29375 29377 29380 29383 29386 29389 29392 29394 29397 29400 29403 29405 29408 29411 29413 29416 29418 29421 29424 29427 29430 29433 29435 29438 29440 29443 29446 29449 29452 29455 29458 29461 29464 29467 29470 29473 29476 29479 29482 29485 29488 29491 29494 29497 29500 29503 29506 29508 29511 29514 29517 29520 29523 29525 29528 29531 29534 29537 29539 29542 29545 29548 29551 29554 29557 29560 29563 29566 29568 29571 29574 29577 29580 29582 29584 29587 29590 29593 29596 29599 29602 29605 29607 29609 29612 29615 29618 29621 29624 29626 29628 29630 29633 29635 29638 29641 29643 29646 29649 29652 29654 29657 29660 29662 29665 29668 29671 29673 29676 29679 29682 29685 29687 29690 29693 29695 29698 29701 29704 29707 29710 29713 29715 29718 29721 29724 29726 29729 29732 29735 29738 29741 29744 29747 29750 29753 29756 29759 29761 29764 29767 29770 29773 29776 29779 29782 29785 29788 29791 29794 29797 29800 29803 29806 29809 29812 29815 29818 29821 29824 29827 29830 29833 29836 29839 29841 29843 29846 29849 29852 29854 29857 29859 29862 29865 29868 29871 29874 29877 29880 29882 29885 29888 29891 29894 29897 29900 29903 29906 29909 29912 29915 29918 29921 29924 29927 29930 29933 29936 29938 29940 29943 29945 29948 29951 29954 29957 29960 29962 29965 29968 29970 29973 29976 29979 29982 29985 29988 29991 29994 29997 29999 30002 30005 30008 30011 30014 30017 30020 30022 30025 30028 30030 30033 30035 30038 30041 30044 30046 30049 30052 30054 30057 30060 30063 30066 30069 30072 30075 30077 30080 30083 30086 30089 30091 30094 30097 30100 30103 30105 30108 30111 30113 30116 30119 30122 30125 30128 30131 30134 30137 30140 30142 30145 30148 30151 30153 30156 30159 30162 30165 30168 30171 30174 30176 30178 30181 30183 30186 30189 30192 30195 30198 30201 30204 30207 30210 30213 30216 30218 30221 30224 30227 30230 30233 30236 30238 30241 30244 30247 30250 30253 30256 30258 30261 30264 30267 30270 30273 30276 30279 30282 30285 30288 30291 30294 30297 30300 30303 30306 30309 30312 30315 30318 30321 30324 30327 30330 30333 30336 30339 30342 30344 30347 30350 30353 30356 30358 30361 30364 30367 30370 30373 30375 30378 30381 30384 30387 30390 30393 30396 30398 30401 30404 30407 30410 30413 30416 30419 30422 30425 30428 30431 30434 30437 30440 30443 30445 30448 30451 30453 30456 30459 30462 30464 30467 30470 30472 30475 30477 30480 30483 30486 30489 30492 30494 30497 30500 30503 30506 30508 30511 30514 30516 30518 30521 30524 30526 30528 30530 30533 30536 30539 30542 30544 30547 30549 30551 30554 30556 30559 30562 30565 30568 30571 30574 30577 30580 30583 30586 30588 30591 30594 30597 30600 30603 30606 30609 30612 30614 30616 30619 30621 30624 30627 30630 30633 30635 30638 30641 30643 30646 30649 30652 30655 30657 30660 30662 30665 30668 30670 30673 30676 30679 30682 30685 30688 30690 30693 30696 30699 30701 30703 30706 30709 30712 30715 30718 30721 30724 30727 30730 30733 30736 30739 30742 30745 30748 30751 30754 30756 30759 30761 30764 30767 30770 30773 30776 30779 30782 30785 30788 30791 30794 30797 30800 30803 30806 30808 30811 30814 30816 30819 30822 30825 30828 30831 30834 30837 30840 30842 30844 30847 30850 30853 30856 30859 30862 30865 30868 30871 30874 30877 30880 30883 30886 30889 30892 30895 30898 30900 30903 30905 30908 30911 30914 30917 30919 30922 30924 30927 30930 30933 30936 30939 30942 30945 30948 30951 30953 30956 30959 30962 30965 30968 30971 30974 30977 30980 30983 30986 30989 30992 30994 30997 30999 31002 31004 31007 31009 31012 31015 31018 31021 31024 31026 31029 31032 31035 31038 31041 31044 31046 31049 31052 31055 31058 31061 31064 31067 31070 31072 31074 31077 31080 31083 31085 31088 31091 31094 31097 31100 31102 31105 31108 31111 31113 31116 31119 31122 31125 31127 31130 31133 31136 31139 31142 31145 31148 31151 31154 31157 31160 31163 31166 31169 31172 31175 31178 31181 31184 31187 31190 31193 31196 31199 31202 31205 31208 31210 31213 31216 31219 31221 31224 31227 31230 31232 31235 31238 31241 31244 31247 31250 31252 31255 31258 31261 31264 31267 31270 31273 31276 31278 31281 31284 31287 31290 31293 31296 31298 31301 31304 31306 31309 31312 31315 31318 31321 31324 31327 31330 31332 31335 31337 31339 31342 31345 31348 31351 31354 31357 31360 31363 31366 31369 31372 31375 31378 31381 31384 31387 31390 31393 31396 31399 31402 31405 31408 31411 31414 31416 31419 31422 31425 31427 31429 31432 31435 31438 31441 31443 31446 31448 31450 31453 31456 31458 31460 
</DataArray>
<DataArray type="UInt32" Name="types" format="ascii">
5 5 5 5 5 5 3 5 5 5 5 5 3 5 5 3 5 5 5 3 5 5 5 5 5 5 5 5 5 5 5 5 5 5 5 5 5 5 5 5 5 5 5 5 5 5 5 5 5 5 3 5 3 5 5 5 3 5 5 5 5 5 5 5 3 5 5 3 5 5 5 5 5 5 5 3 5 5 5 5 3 5 5 5 5 5 3 5 5 5 3 5 5 5 5 5 5 5 5 5 5 5 5 5 5 5 5 5 3 5 5 5 5 3 5 5 5 5 5 5 3 5 5 5 3 5 3 5 3 5 5 3 5 5 5 5 5 5 5 3 5 5 5 5 5 5 5 5 5 5 5 5 3 5 5 5 5 5 5 5 3 5 5 5 5 5 5 5 5 3 5 5 5 5 5 5 3 5 5 5 5 5 3 5 3 5 5 5 5 5 3 5 3 5 3 3 5 5 3 5 5 5 5 5 5 5 5 5 5 5 5 5 5 5 5 5 5 5 5 5 5 5 5 5 5 5 5 5 5 5 5 5 5 5 5 5 3 5 3 5 5 5 5 5 5 5 5 5 3 5 3 5 5 5 5 5 3 5 5 5 5 3 5 5 5 5 5 5 5 5 5 5 5 3 5 5 3 5 5 5 5 5 5 5 5 5 5 5 5 5 5 5 5 5 5 5 5 5 5 5 5 5 5 5 5 5 5 5 5 5 5 5 5 5 5 5 5 5 5 3 5 5 5 3 5 5 5 3 5 5 5 5 3 5 5 5 5 3 5 5 5 5 5 5 5 5 5 5 5 3 5 5 5 5 5 5 5 5 5 5 5 5 5 5 5 5 5 5 5 5 5 5 5 5 3 3 5 5 5 5 5 5 5 5 5 5 3 5 5 5 5 5 5 5 5 5 5 5 5 5 5 5 5 5 5 5 5 5 5 5 3 5 5 5 3 5 5 5 5 5 5 5 3 5 5 5 5 5 5 5 5 5 3 5 5 5 3 5 5 5 5 5 5 5 3 5 5 5 5 5 5 5 5 5 5 5 5 5 5 5 5 5 5 3 5 5 5 5 5 5 5 5 5 5 5 5 5 5 5 5 5 5 5 5 3 5 5 5 3 5 5 3 5 3 5 5 5 3 5 5 5 5 3 5 5 5 3 5 5 5 5 5 3 5 5 5 5 5 5 5 5 3 5 5 5 5 5 5 5 5 5 5 5 5 5 5 5 5 5 5 5 5 5 5 5 5 3 5 3 5 5 5 5 5 5 5 5 3 5 5 5 5 5 3 5 5 5 5 5 5 3 5 3 5 5 5 5 5 5 5 5 5 5 5 5 5 5 5 5 5 5 5 5 5 5 3 3 5 5 5 3 5 5 5 5 3 5 5 5 5 5 5 5 5 3 5 5 5 3 5 5 5 5 5 5 5 5 3 3 5 3 5 5 3 5 3 5 5 5 5 5 5 3 5 5 5 5 5 3 5 5 3 5 5 3 5 5 5 3 5 5 5 5 5 5 5 5 5 5 5 5 5 5 3 5 5 5 5 5 3 5 5 5 3 5 5 3 3 5 5 5 5 5 5 5 3 5 5 5 5 3 5 5 5 5 3 5 5 5 5 5 5 5 5 5 3 5 5 5 5 5 5 3 5 5 3 5 5 5 5 5 3 5 5 3 5 5 5 5 5 5 5 5 3 3 5 5 5 5 5 5 3 5 5 5 5 5 5 3 5 5 5 5 5 5 3 5 5 5 5 5 5 5 5 5 5 3 5 5 5 5 5 3 5 5 3 5 5 5 5 5 5 3 5 3 5 5 5 3 5 5 3 5 5 5 5 5 5 5 5 5 5 5 5 5 3 5 5 5 3 5 5 5 5 5 5 5 5 5 5 3 5 5 5 5 5 5 5 5 5 5 5 5 5 5 5 5 5 5 3 5 5 3 5 5 5 5 5 5 5 5 5 5 5 5 5 5 5 5 5 3 5 5 5 5 5 5 5 5 5 5 5 5 5 3 5 5 5 5 5 5 5 5 5 5 5 5 5 5 5 5 3 5 5 5 3 5 5 5 5 5 5 5 3 5 5 3 5 3 5 3 5 3 5 5 5 5 3 5 5 5 5 5 5 3 5 5 3 5 5 5 5 5 3 3 5 5 5 5 5 5 5 5 5 5 5 5 5 5 5 5 5 5 5 5 5 5 5 5 3 5 5 5 5 5 5 5 5 5 5 5 5 5 5 5 5 5 5 5 5 5 5 5 5 5 5 5 5 5 3 5 5 5 5 5 5 5 5 5 5 5 3 5 5 5 5 5 5 3 5 5 3 5 3 5 5 5 3 5 5 5 3 5 5 3 5 3 5 5 3 5 5 3 5 3 5 5 5 5 5 3 5 3 5 5 5 5 3 3 5 5 3 5 5 3 5 3 5 5 3 5 5 5 3 5 5 3 3 5 5 5 3 3 5 5 5 5 5 5 5 5 3 5 3 5 3 5 3 5 3 5 3 5 5 5 3 5 5 3 5 5 3 5 3 3 5 3 3 5 5 3 5 3 5 5 5 5 5 5 5 3 5 5 5 5 3 5 5 5 5 5 5 5 5 5 3 5 3 5 5 5 5 5 5 5 5 5 5 5 5 5 3 5 3 5 5 3 5 5 5 3 5 5 5 5 5 5 5 3 5 5 5 5 5 3 3 5 5 5 5 5 5 5 3 5 5 5 3 5 5 5 5 5 5 5 5 5 3 5 5 5 5 5 5 5 5 5 5 5 3 5 5 5 5 5 5 3 5 5 5 5 3 5 5 5 5 5 5 5 5 5 5 5 5 5 5 5 5 5 5 5 3 5 5 5 5 3 5 5 5 5 5 5 5 5 5 5 5 5 5 5 5 3 5 5 3 5 3 5 5 5 5 5 5 3 5 5 5 5 5 3 5 5 5 5 5 3 3 5 5 5 5 5 5 5 5 5 5 5 5 5 5 5 5 5 5 5 5 5 3 5 5 5 5 5 5 5 5 5 5 5 3 5 3 5 5 5 5 3 5 5 3 5 5 3 5 5 3 5 5 5 5 5 5 3 5 5 5 5 5 5 5 3 5 5 3 5 5 3 5 5 5 5 5 3 5 5 5 5 5 5 5 5 5 5 5 5 3 5 5 5 5 5 5 5 5 5 5 5 5 5 5 3 3 5 5 3 5 3 5 3 3 5 5 5 5 3 3 3 5 5 3 5 5 3 5 5 5 5 3 5 5 5 5 5 5 5 3 5 5 3 3 5 5 3 5 3 5 5 5 5 5 5 5 5 5 5 5 5 5 5 5 5 5 5 5 5 5 3 3 5 5 5 5 5 5 5 5 5 5 3 5 5 5 5 3 5 5 5 5 5 5 3 5 5 5 3 5 5 5 5 5 5 3 5 5 5 5 5 5 3 5 5 3 5 5 5 5 5 5 5 5 5 5 5 5 5 5 5 5 5 5 5 5 5 5 5 5 3 5 5 5 5 5 5 5 5 5 5 5 5 5 3 5 3 5 5 5 5 5 5 5 5 5 5 5 5 5 5 5 5 5 3 5 5 5 3 5 5 5 3 5 5 5 5 3 5 5 5 5 5 5 5 5 5 5 5 5 5 5 5 5 5 5 5 5 5 5 5 5 5 5 5 5 5 5 5 5 5 5 5 5 5 3 5 5 5 5 5 5 5 3 5 5 3 5 3 5 5 5 5 5 3 5 5 5 3 5 5 5 5 5 5 5 5 5 5 5 5 5 5 5 5 5 5 5 5 3 5 5 5 5 5 5 5 5 5 5 5 5 5 5 5 5 5 5 5 5 5 5 5 5 5 5 5 3 3 5 5 5 5 5 5 3 5 5 5 5 5 5 5 3 3 5 5 3 3 5 5 5 5 3 3 5 5 5 5 5 3 5 5 5 3 5 5 5 5 5 5 5 5 5 3 5 5 5 3 5 5 3 5 3 5 3 5 3 3 5 5 3 3 5 5 5 5 5 5 3 5 3 5 5 5 5 3 5 5 5 5 5 5 5 3 5 3 5 5 5 5 5 5 5 5 5 5 5 5 5 3 5 3 5 5 5 5 5 5 5 5 5 5 5 5 5 3 5 5 5 5 5 5 5 5 5 5 3 5 5 5 5 5 5 5 5 5 5 5 5 5 5 3 5 3 5 5 5 3 5 5 5 5 5 5 5 5 5 5 5 5 5 5 5 3 3 5 5 5 5 5 5 5 5 5 5 5 5 5 5 3 5 5 5 5 5 3 5 5 5 5 5 5 3 5 5 5 5 5 5 5 5 5 5 5 5 3 5 5 5 5 5 5 3 5 5 5 3 5 5 5 5 5 3 5 5 5 3 5 5 5 5 5 5 5 5 5 3 5 5 5 5 5 5 5 5 5 5 3 5 5 5 3 5 5 5 5 5 5 5 5 5 5 5 5 5 5 5 5 5 5 5 5 5 5 5 3 5 5 5 5 5 5 5 5 5 5 5 5 5 5 5 5 5 5 5 5 5 5 5 5 3 5 5 5 5 5 5 5 3 5 5 5 3 5 5 5 5 5 5 5 5 3 5 3 5 5 3 5 3 5 5 5 5 5 5 3 5 5 5 3 3 5 3 5 5 5 5 5 3 5 5 5 5 5 5 5 5 5 5 5 5 5 5 5 3 5 5 3 5 5 5 3 5 3 5 3 5 3 5 5 3 3 5 5 5 3 5 3 5 5 5 5 5 5 5 5 5 3 5 5 5 3 5 5 5 5 5 5 5 5 5 5 5 3 5 5 5 3 5 5 5 5 5 5 5 5 5 3 5 5 3 5 5 5 3 5 5 3 5 5 5 5 5 5 5 5 5 5 5 5 5 5 5 5 5 5 5 5 5 5 3 5 5 3 5 5 5 5 5 5 5 3 5 5 5 5 5 5 5 5 5 5 5 5 3 5 5 5 3 5 5 3 3 5 3 5 5 5 5 5 3 5 5 5 5 5 3 5 5 5 3 3 5 5 5 3 5 5 5 3 5 5 5 3 3 5 5 3 5 5 5 5 5 5 3 3 5 5 5 5 5 5 5 5 5 5 5 3 5 5 5 5 5 5 5 5 5 5 5 5 5 5 5 5 3 5 5 5 3 5 5 5 5 5 5 5 5 5 5 3 3 5 5 5 5 3 5 5 5 5 5 5 3 5 3 5 5 5 5 5 5 3 3 5 5 5 5 5 5 5 5 3 3 5 5 5 5 5 5 3 5 5 5 5 3 5 3 5 5 5 5 5 3 5 3 3 5 5 3 3 5 5 3 5 3 3 5 5 5 3 3 5 5 5 5 5 5 5 5 5 5 3 5 5 5 3 3 5 3 3 5 5 5 5 5 3 5 3 5 3 5 5 5 3 5 3 3 5 5 3 5 5 3 5 5 5 5 3 5 5 5 5 5 5 5 5 5 5 5 5 3 5 5 5 5 5 3 5 3 5 3 5 3 5 3 5 3 5 5 5 5 5 3 3 5 3 3 3 5 5 5 5 3 5 5 5 5 5 3 5 5 5 5 5 5 3 5 5 5 5 3 5 5 3 5 3 3 5 5 5 5 5 5 3 3 3 3 5 5 3 5 3 5 3 3 5 5 5 5 5 5 5 5 5 5 5 5 3 5 5 3 5 5 5 5 5 5 5 5 5 5 5 3 5 5 5 5 3 5 5 3 5 5 5 3 5 3 5 5 5 5 5 5 5 5 5 3 5 5 5 5 5 3 5 5 5 5 5 5 5 5 5 5 5 5 5 5 5 3 5 5 5 5 3 5 5 5 5 3 5 5 5 5 5 5 5 5 5 5 5 5 5 5 5 5 5 5 3 5 5 5 5 3 5 5 5 5 5 5 5 5 5 5 5 3 5 5 5 3 3 5 5 5 3 3 3 5 3 5 5 3 5 5 3 5 5 3 5 3 5 5 5 5 5 5 5 5 5 5 5 5 5 5 5 5 5 5 5 5 3 3 5 5 5 3 5 3 5 5 5 5 5 5 5 5 5 5 3 5 5 5 5 5 5 5 5 5 3 5 5 5 5 5 5 3 5 5 5 5 5 5 5 5 5 5 5 5 3 5 3 5 5 5 5 5 5 5 5 5 5 5 5 5 5 5 5 5 5 3 5 3 5 3 5 5 3 5 3 5 5 3 5 5 3 5 5 5 5 5 5 3 5 5 3 3 5 5 3 5 5 3 5 3 3 5 5 5 5 5 5 3 5 5 5 5 5 5 5 5 5 5 3 5 5 3 5 5 5 3 5 5 5 5 5 5 5 3 5 5 5 3 5 5 3 5 5 5 5 5 5 5 5 5 5 5 5 5 5 5 5 5 5 5 5 5 5 5 5 5 5 5 5 5 5 5 5 5 5 5 5 5 5 5 5 5 5 5 5 5 5 3 5 5 5 5 5 5 5 5 5 5 5 5 5 5 5 5 5 5 5 5 3 5 3 5 5 5 5 5 5 5 3 5 5 5 5 5 5 5 3 5 5 5 5 5 5 3 5 3 5 5 5 3 5 5 5 5 5 5 5 5 5 5 5 5 3 5 5 5 5 3 5 5 5 3 3 5 5 5 3 3 5 5 5 5 5 5 5 5 5 5 5 5 5 5 5 5 5 5 5 5 3 5 5 5 5 3 5 5 5 3 5 5 5 5 5 5 5 5 5 5 3 3 5 5 5 5 3 5 5 5 5 5 5 3 5 5 3 5 5 3 5 5 5 5 5 5 5 5 5 5 5 5 5 5 5 5 5 5 5 5 5 5 5 5 5 5 5 5 5 5 5 5 5 5 5 5 5 5 5 5 5 5 5 5 5 5 5 5 3 5 5 5 5 5 3 5 5 3 5 5 3 5 5 5 5 5 5 5 5 5 5 5 5 5 5 5 5 5 5 5 3 5 5 5 5 5 3 5 5 5 5 5 5 5 5 5 5 5 5 3 5 5 5 5 5 3 5 5 5 3 5 5 5 5 5 5 3 5 5 5 5 3 5 5 5 5 3 5 5 5 3 5 5 5 3 5 5 3 5 5 5 5 5 5 5 5 5 5 5 5 5 5 5 5 5 5 5 5 5 5 5 3 5 5 5 3 5 5 5 5 5 5 5 5 5 5 5 5 5 5 5 5 5 3 3 5 5 3 5 5 3 5 3 5 3 5 5 5 5 3 5 5 5 5 3 5 3 5 5 5 5 5 5 5 5 5 5 5 5 5 5 3 5 5 5 5 5 5 5 5 5 5 3 5 5 5 5 5 5 5 5 5 5 3 5 5 5 5 5 3 5 5 5 5 5 3 5 5 5 5 3 5 5 5 5 5 5 5 5 5 5 5 5 3 5 5 5 5 5 3 5 5 5 5 5 5 3 5 5 5 5 5 5 3 5 5 5 5 5 5 5 5 5 5 5 5 5 5 5 5 5 5 5 5 5 5 5 5 5 3 5 5 5 5 5 5 3 5 5 5 5 3 5 5 3 5 5 5 5 5 5 5 5 5 3 5 5 3 5 5 5 3 5 5 5 5 3 5 5 5 5 5 5 5 5 5 3 5 5 5 5 5 5 5 5 5 5 5 5 5 5 5 5 5 5 5 5 5 5 5 5 3 5 5 5 5 5 5 5 5 5 5 3 5 5 5 5 5 5 5 3 5 5 5 5 3 5 5 5 5 5 5 5 5 5 5 5 5 5 5 5 5 5 5 5 5 5 5 5 5 5 5 5 5 5 5 5 5 5 5 5 5 5 5 5 5 5 5 5 5 5 5 5 3 5 5 5 5 5 5 5 5 5 5 5 5 5 5 3 5 5 5 5 5 5 5 5 3 5 5 5 5 3 3 5 5 3 3 5 5 5 5 5 5 5 5 5 5 5 5 5 5 5 5 3 5 5 5 5 5 5 5 5 5 5 5 3 5 5 5 5 5 5 5 5 5 3 3 5 5 3 5 5 5 5 5 5 3 5 5 5 5 3 5 5 5 5 5 5 5 5 5 5 5 5 3 5 5 5 5 3 5 5 5 5 5 5 5 5 5 3 3 5 5 5 5 3 5 5 5 5 5 5 3 5 5 5 5 5 5 5 5 5 5 5 5 5 5 5 3 5 5 5 5 5 5 5 5 5 5 5 5 5 5 5 5 5 5 5 5 5 5 5 5 5 5 5 3 5 5 5 3 5 5 5 5 5 5 5 5 5 3 5 5 5 5 5 5 5 5 5 3 5 5 5 5 5 5 5 5 5 5 5 5 5 5 5 3 5 5 5 5 5 5 5 3 5 5 5 5 5 5 5 5 5 5 5 5 5 5 5 5 5 5 5 5 5 5 5 5 5 5 5 5 5 5 3 5 5 5 5 3 5 5 5 5 5 3 5 3 5 5 5 5 5 5 3 5 5 5 3 5 5 5 5 5 5 5 5 5 5 5 5 5 5 5 5 5 5 5 5 5 5 5 5 5 5 5 5 5 3 5 5 5 5 5 3 5 5 5 5 5 5 5 3 5 5 5 5 5 5 5 3 5 3 5 5 5 5 5 3 3 5 5 3 5 5 3 5 3 3 3 5 3 5 3 3 3 5 5 3 3 5 5 3 5 5 5 5 5 3 5 5 3 5 3 5 5 5 5 5 3 5 5 3 5 3 5 3 3 5 5 5 5 5 3 5 5 3 5 5 5 5 5 5 3 5 5 5 5 5 5 5 5 5 5 5 5 5 5 5 3 5 5 5 5 5 3 5 3 3 5 5 5 5 5 5 5 5 5 5 5 5 5 5 5 5 5 5 5 5 5 3 5 5 5 3 5 5 3 5 5 5 5 5 5 5 5 5 5 3 5 3 5 5 5 5 5 3 5 5 5 5 3 5 5 5 5 5 5 5 5 5 5 5 5 5 5 5 5 5 5 5 5 5 5 5 5 5 5 5 5 5 5 5 5 3 5 3 5 3 5 3 5 5 5 3 3 5 3 3 5 5 5 3 5 5 5 5 5 5 5 5 5 5 5 5 5 5 5 5 5 5 5 5 5 5 5 5 5 5 5 5 5 5 5 5 5 5 5 5 5 5 5 5 5 5 5 5 5 5 5 5 5 5 5 5 5 5 5 5 5 5 5 5 5 5 5 3 5 5 5 5 5 5 3 3 5 5 5 5 5 5 3 5 5 5 5 3 5 5 5 5 5 3 5 3 5 5 5 5 3 5 5 5 5 5 5 5 5 5 5 5 5 5 5 5 5 5 5 5 5 5 5 5 5 5 3 5 5 5 5 5 5 5 5 5 3 3 5 5 5 3 3 5 5 5 5 5 3 5 3 5 5 3 5 5 5 5 5 5 5 5 5 5 5 5 3 5 5 5 5 3 5 5 5 5 5 5 5 3 5 5 5 5 5 5 5 5 5 5 5 5 5 5 5 5 5 5 3 5 5 5 3 5 5 5 5 5 5 5 5 5 5 5 5 5 5 3 3 5 5 5 5 5 5 5 5 5 5 5 3 5 5 5 5 5 5 5 3 5 5 5 5 5 5 5 5 5 5 5 5 5 5 5 5 5 5 5 3 3 5 5 5 5 5 5 3 5 5 5 5 5 5 5 5 5 5 5 5 5 5 5 5 5 5 5 5 5 5 5 5 5 5 5 5 3 3 5 5 5 5 5 3 5 5 3 5 5 5 5 3 5 5 5 3 3 5 3 3 5 5 5 5 3 5 5 5 5 5 5 5 3 5 3 5 3 5 5 3 3 5 5 5 3 5 3 5 5 5 5 5 5 5 5 5 3 5 5 5 5 5 3 5 5 5 5 5 5 5 5 5 5 5 5 3 5 5 5 5 5 5 5 5 5 3 5 5 5 5 5 5 5 5 3 3 3 5 5 5 3 5 5 3 5 5 5 5 5 5 3 5 5 5 3 3 5 3 5 5 5 5 3 3 5 5 3 5 5 3 5 5 5 5 5 5 5 3 5 3 5 3 3 5 5 5 5 5 5 5 5 3 5 5 5 5 5 3 5 5 5 5 5 5 5 5 5 5 5 5 5 5 5 5 5 5 5 5 5 5 5 5 5 5 5 5 5 5 5 5 5 5 5 5 5 5 5 5 5 5 5 5 5 5 5 5 5 5 5 5 5 5 5 5 5 5 5 5 5 5 5 5 3 5 5 5 5 5 5 5 5 5 5 5 5 5 5 5 5 5 5 5 5 5 5 5 5 5 5 5 5 5 5 3 5 5 5 3 3 3 5 5 5 5 5 5 5 3 3 5 5 5 3 5 3 5 5 5 5 5 5 3 5 5 3 5 5 5 5 5 5 5 5 5 5 5 5 3 5 5 5 5 5 5 5 3 5 3 3 5 5 5 5 3 5 3 3 5 5 5 5 3 5 5 3 3 5 5 5 5 3 5 5 3 5 5 5 5 5 5 5 5 5 5 3 5 3 5 5 5 5 3 5 5 5 5 5 3 5 5 5 5 5 5 5 5 5 5 5 5 5 5 5 3 5 5 5 3 3 5 5 5 5 5 5 5 5 5 5 5 5 5 3 5 3 5 5 5 3 5 5 5 3 5 5 5 5 3 5 5 5 5 5 3 5 5 5 5 5 5 3 5 5 5 5 5 5 5 5 5 5 3 3 5 3 5 5 5 5 3 5 5 3 5 5 3 5 5 5 3 3 5 3 3 5 5 5 5 5 3 5 5 3 5 5 5 3 5 3 5 5 5 5 5 5 5 3 5 5 5 5 5 5 5 5 5 5 5 5 3 5 5 5 5 5 3 5 5 3 5 3 5 5 3 5 3 5 5 3 3 5 5 5 3 3 5 5 3 5 5 5 5 5 3 3 3 3 3 3 5 5 5 3 5 3 3 3 5 5 5 3 5 5 3 5 5 5 3 5 5 3 5 5 5 5 3 3 5 5 5 5 5 3 5 5 5 5 5 5 3 3 5 5 3 5 3 5 5 5 5 5 5 5 5 5 5 5 5 5 5 5 5 5 5 5 3 5 5 5 5 3 5 3 5 5 5 3 5 5 5 3 5 5 5 5 5 5 5 5 5 5 5 5 5 5 3 3 5 5 5 5 5 5 5 5 5 5 5 5 5 5 5 3 5 5 5 5 3 5 3 5 5 5 5 5 5 5 5 5 5 5 5 5 5 5 5 5 5 5 5 5 5 5 5 5 5 5 5 5 5 5 5 5 5 3 3 5 5 3 5 3 5 3 3 5 5 5 5 5 5 3 3 5 5 3 5 5 5 3 5 5 5 5 5 5 5 3 5 5 5 5 5 5 3 5 5 5 5 5 5 5 5 5 5 5 3 5 5 5 5 5 5 5 5 5 3 5 5 5 5 3 5 5 5 5 5 3 5 5 5 5 5 5 5 5 5 5 5 5 5 5 5 5 5 5 5 5 5 5 5 5 5 3 5 5 5 5 5 5 5 5 5 5 5 5 5 5 3 5 5 5 5 5 5 3 5 3 5 5 5 5 3 5 3 5 5 5 5 5 5 5 3 5 5 5 5 5 5 5 5 3 5 5 5 5 5 5 5 3 5 5 5 5 5 5 5 5 5 5 5 5 5 5 3 5 5 5 5 3 3 5 5 5 5 5 5 5 3 5 3 5 3 5 5 3 3 5 3 5 5 5 5 5 5 5 5 3 5 3 5 5 5 5 3 5 5 3 5 5 5 5 5 3 5 5 5 5 5 5 5 5 5 5 5 5 5 3 5 5 3 5 5 5 3 5 5 5 5 5 3 5 5 3 5 3 5 5 5 5 5 5 5 3 5 5 3 5 5 5 3 5 5 5 5 5 5 5 5 5 5 3 5 5 5 3 5 5 5 5 3 5 5 5 5 5 5 5 5 5 5 5 5 5 5 5 5 5 5 5 5 3 5 5 5 3 5 5 5 5 5 5 5 5 5 3 5 5 5 5 5 3 5 5 5 5 5 5 5 5 5 5 5 5 5 5 5 5 5 5 5 5 5 3 5 5 5 5 5 3 3 5 5 5 5 3 5 5 5 5 5 5 5 5 3 5 5 5 5 5 5 5 3 3 5 5 5 5 5 3 5 5 5 5 5 5 5 5 5 5 3 5 3 5 3 5 3 5 5 5 5 3 5 5 5 5 5 5 5 5 5 5 5 5 5 5 5 5 5 5 5 5 3 5 5 3 5 5 5 5 5 5 5 5 5 3 5 5 3 5 5 5 5 3 5 5 5 5 5 5 5 5 5 5 5 5 5 5 5 5 5 5 5 5 5 5 3 5 5 5 5 5 5 5 5 5 5 5 5 5 5 5 5 5 5 5 5 5 5 5 5 5 3 5 5 5 5 5 5 5 5 5 5 5 5 5 5 5 3 5 5 5 5 5 5 5 5 5 5 5 5 3 5 5 5 5 3 3 5 5 5 3 5 3 5 5 5 3 5 5 5 5 3 3 5 5 3 5 5 5 5 5 5 5 5 3 5 5 5 5 5 5 5 5 5 5 5 5 5 3 5 3 5 5 5 5 5 5 5 3 5 5 5 5 5 3 3 5 5 5 5 5 5 5 3 5 5 5 5 5 3 5 5 5 5 5 3 5 5 5 5 5 3 5 5 5 5 5 5 5 5 5 5 5 5 5 5 5 5 5 5 5 5 5 5 5 5 5 3 5 5 5 5 5 5 5 5 5 5 5 5 3 5 3 3 5 5 5 5 5 3 5 5 5 5 5 5 3 5 3 5 5 5 5 5 5 5 5 5 5 5 5 5 5 5 3 5 3 5 5 5 5 5 3 5 5 5 5 5 5 5 5 5 5 5 5 5 5 5 5 5 5 5 5 5 3 5 5 5 5 5 5 5 5 5 3 5 5 5 5 5 3 5 5 5 5 3 5 5 5 5 5 3 5 5 5 5 5 3 5 5 5 5 5 5 5 5 5 5 5 3 5 5 5 3 5 5 5 5 5 3 5 5 5 3 3 5 5 5 5 5 5 5 3 5 5 5 5 5 5 5 3 5 5 5 5 5 3 5 5 5 5 5 5 5 5 5 5 5 5 5 3 5 5 5 5 5 5 5 5 5 5 5 3 5 5 5 5 5 5 5 5 5 5 5 5 5 5 5 5 5 5 5 5 5 5 5 5 3 5 3 5 3 5 5 5 5 3 5 3 5 5 3 5 5 5 5 5 5 5 5 5 5 5 5 5 5 5 5 5 5 3 5 5 5 5 5 5 5 5 5 5 5 5 5 5 3 5 5 5 5 5 5 5 3 3 5 5 5 5 5 3 5 5 5 5 5 5 5 5 5 5 5 5 5 5 5 3 5 5 5 5 5 5 5 5 5 5 3 5 5 5 5 3 5 5 5 5 5 5 5 5 5 5 5 5 5 5 5 5 5 5 5 3 5 5 5 3 5 5 5 3 5 5 5 5 5 5 5 5 5 5 5 5 5 5 5 3 5 5 5 5 5 5 5 3 5 5 5 5 5 5 5 5 5 5 5 5 5 5 5 5 5 5 5 5 5 5 5 5 5 5 5 5 5 5 3 5 3 5 5 5 5 5 5 5 5 3 5 5 5 5 5 5 5 5 5 5 5 3 5 5 5 5 5 5 5 3 5 5 5 5 5 5 5 3 5 5 5 5 5 3 5 5 5 3 5 5 5 5 5 5 5 5 5 5 5 5 5 5 5 5 5 3 5 5 3 5 5 5 3 5 5 5 5 5 5 3 5 5 3 5 5 5 5 5 5 3 5 5 5 3 5 5 5 5 5 5 5 5 5 3 5 5 3 5 5 5 5 5 5 5 5 5 3 3 5 5 5 5 5 5 5 3 3 5 5 5 5 5 5 5 5 5 5 5 5 5 5 5 5 5 5 3 5 5 5 5 5 5 5 5 5 5 5 5 5 5 5 5 5 3 5 5 3 5 5 5 5 5 5 5 5 5 5 5 5 3 5 5 5 5 5 3 5 5 5 5 5 5 5 5 5 5 5 5 5 5 5 5 5 5 5 5 5 5 5 5 5 5 5 3 5 5 5 5 5 3 5 5 5 5 5 5 5 5 3 5 5 5 5 5 5 5 3 5 5 5 5 5 5 5 5 5 3 5 5 5 5 5 5 3 5 5 5 5 5 5 5 5 5 3 5 5 5 3 5 3 5 5 5 5 5 3 5 5 3 5 3 5 5 5 5 5 5 3 3 5 5 3 5 3 5 5 5 5 5 5 5 5 5 5 5 5 5 3 5 3 5 5 5 3 5 5 5 5 3 5 5 5 5 5 5 5 5 5 5 5 3 5 5 5 5 5 5 3 5 5 5 3 5 5 3 5 5 5 5 5 5 5 5 5 5 5 5 5 5 5 5 5 5 5 5 5 5 5 5 5 5 5 3 5 5 5 5 5 3 5 5 5 5 5 5 5 5 5 5 5 5 5 5 3 5 5 5 5 5 5 3 5 5 5 3 5 5 5 5 5 5 5 5 5 5 5 5 5 5 5 5 5 5 5 5 5 5 5 5 5 3 5 5 5 5 5 5 5 5 3 3 5 5 5 5 5 5 5 5 5 3 5 5 3 5 3 5 3 5 5 5 5 5 5 3 5 5 5 5 3 5 5 3 5 5 5 5 5 3 5 5 5 5 5 5 5 5 5 5 5 5 5 5 3 3 5 5 5 5 5 5 5 5 5 5 5 5 3 5 5 3 5 5 3 3 5 5 5 3 5 5 5 5 3 3 5 5 3 5 5 5 3 5 5 5 5 5 5 5 5 3 5 5 5 5 5 3 5 5 5 3 5 5 5 3 5 5 5 5 3 5 5 3 3 5 5 5 5 5 5 3 5 5 5 5 5 5 5 5 5 5 5 5 5 5 5 5 5 3 5 5 5 5 5 5 5 3 5 5 5 3 5 5 3 5 5 5 5 5 3 3 5 5 5 5 5 3 5 5 5 5 3 5 3 5 5 5 5 5 5 5 3 5 5 3 5 5 5 3 5 5 3 3 5 5 5 5 5 5 5 3 5 5 3 5 5 5 3 5 5 5 5 5 5 5 5 5 5 5 5 5 5 5 5 5 5 5 5 5 5 5 5 5 5 5 5 5 5 5 5 5 5 5 5 5 5 5 5 5 5 5 5 5 5 5 5 5 5 5 5 5 5 5 5 5 5 5 5 5 5 5 5 5 5 5 5 5 5 5 5 5 5 5 5 5 5 5 5 5 5 3 5 3 5 5 5 3 5 5 5 5 5 5 5 5 5 5 5 5 5 5 3 5 5 5 5 5 3 3 3 5 5 5 5 5 3 3 5 5 5 5 3 5 5 5 5 5 5 5 5 3 5 3 5 5 5 5 5 5 5 5 5 5 5 5 5 5 5 5 5 5 5 5 5 5 5 5 5 5 5 5 5 5 5 5 5 5 5 5 5 5 3 5 5 5 5 5 5 5 3 5 5 5 5 5 5 5 5 3 5 5 5 3 5 5 5 5 5 5 5 5 5 5 5 5 5 5 5 5 5 5 5 5 5 5 5 5 5 3 5 5 3 5 5 5 5 5 5 5 5 5 5 5 5 3 5 5 5 5 5 3 5 5 5 5 3 5 3 5 5 5 3 5 5 5 3 5 3 5 5 3 3 3 5 5 5 3 5 5 3 3 5 5 5 5 5 5 5 5 5 5 5 5 5 5 5 5 3 5 5 3 5 5 5 5 5 5 5 5 5 3 5 5 3 5 5 3 5 5 5 5 5 5 5 5 5 5 5 5 5 5 5 3 5 5 5 3 5 5 5 3 5 3 5 5 5 5 5 5 5 5 3 5 5 5 5 5 5 5 5 5 5 5 5 5 3 5 5 5 5 5 5 5 5 3 5 5 5 5 5 3 5 5 5 5 5 5 5 3 5 3 5 5 5 5 5 5 5 5 5 5 5 5 5 3 5 5 5 5 5 5 5 3 5 5 5 5 5 5 5 5 5 5 5 5 5 5 5 5 5 5 5 5 5 5 5 5 5 5 5 5 5 3 5 5 5 3 5 3 3 5 5 3 3 5 5 5 5 5 3 5 5 5 5 5 5 5 5 5 5 3 5 3 5 5 5 5 3 5 5 5 5 5 5 5 5 5 5 3 5 5 5 5 5 5 5 5 5 5 5 5 3 5 5 5 5 3 5 5 5 5 5 5 3 5 5 5 3 5 3 5 5 5 5 3 5 5 5 5 5 5 5 5 5 5 5 5 5 5 5 5 5 5 5 5 5 5 5 5 5 5 5 5 5 5 5 5 5 5 5 5 5 5 3 5 5 5 5 3 5 5 5 5 5 5 5 5 5 5 3 5 5 5 5 5 5 5 5 5 5 5 5 3 5 5 5 3 5 5 5 5 5 5 5 3 5 5 5 5 5 3 5 5 5 5 5 5 5 5 5 5 5 5 5 5 5 5 5 5 5 5 5 5 5 5 5 5 5 5 5 5 5 5 5 5 5 5 5 3 5 5 5 5 5 5 5 5 5 5 5 5 5 5 5 5 3 5 5 3 5 5 5 5 5 5 5 5 5 5 5 5 5 5 5 5 5 5 5 5 5 5 5 5 5 5 5 5 5 5 5 5 5 5 5 5 5 5 5 5 5 5 3 5 5 5 3 5 5 5 5 3 5 5 5 3 5 5 5 5 5 5 5 5 5 5 5 5 5 5 3 5 5 5 5 3 3 5 5 5 5 5 5 5 5 5 3 5 3 5 5 5 5 5 5 5 5 5 5 5 5 5 5 3 5 5 5 5 5 5 5 5 5 5 5 5 5 5 3 5 5 5 5 3 5 5 5 5 3 5 3 5 5 5 3 5 5 3 5 5 5 5 3 5 5 5 5 5 3 5 5 3 5 5 5 5 3 5 5 5 5 5 5 5 3 5 5 5 5 3 5 5 3 5 5 3 5 3 5 5 5 5 3 5 5 5 3 5 5 5 5 5 5 5 3 5 5 5 5 5 5 5 5 5 5 5 5 5 5 5 5 5 3 5 5 5 3 5 5 5 5 5 5 5 5 5 5 5 5 5 5 5 5 5 5 5 5 5 5 5 5 5 5 5 5 5 5 5 5 5 5 5 5 5 3 5 5 5 3 5 5 3 3 5 5 5 5 5 5 5 5 5 5 3 5 5 5 5 5 5 5 5 5 5 5 5 5 5 5 3 5 5 5 5 5 5 5 5 5 5 5 5 5 3 5 5 5 5 5 3 5 5 5 5 3 5 5 5 5 5 3 5 5 5 5 5 5 5 5 5 5 3 5 3 5 5 5 5 3 5 3 5 5 5 5 5 5 3 3 5 5 3 5 5 5 5 5 5 5 5 3 5 5 5 5 5 5 5 5 5 5 5 5 5 5 5 5 3 5 3 5 5 5 5 5 5 5 5 5 5 5 5 5 5 5 5 5 5 5 5 5 3 5 5 5 5 5 5 5 5 5 5 5 5 5 5 5 5 5 5 5 5 5 5 5 5 5 5 5 5 5 5 5 5 5 5 3 5 5 5 5 5 5 5 5 5 5 3 5 5 5 3 5 3 5 5 5 5 5 5 5 5 5 5 3 5 5 3 5 5 5 5 5 5 5 5 5 5 5 5 5 5 5 5 5 5 5 5 5 5 5 5 5 5 5 5 5 5 5 5 5 5 5 5 5 5 5 5 5 5 5 5 5 5 5 5 5 5 5 5 5 5 5 5 5 5 5 5 3 5 5 5 5 5 5 3 3 5 5 5 5 5 5 5 5 5 3 5 5 5 5 5 5 5 5 5 5 5 5 5 5 5 5 5 5 5 5 5 5 5 5 5 5 5 5 5 5 5 5 5 5 5 5 5 5 5 5 5 5 5 5 5 5 5 5 5 5 5 5 5 5 5 5 5 5 3 5 3 5 5 5 5 5 5 5 5 3 5 5 5 5 5 5 5 5 5 3 5 5 5 5 5 5 5 3 5 5 5 5 5 5 5 5 5 5 5 5 3 5 5 3 5 5 5 5 5 5 5 5 5 5 5 5 5 5 5 5 5 5 5 5 5 5 5 5 5 5 5 5 5 5 5 5 5 5 5 5 5 5 5 5 5 5 5 5 5 5 5 3 5 5 5 5 3 5 5 3 5 5 5 5 5 3 5 5 5 5 3 5 5 5 5 3 5 5 3 5 5 5 3 5 5 5 5 5 5 5 5 5 5 5 5 5 5 5 5 5 5 5 5 5 5 5 5 5 5 5 3 3 5 3 5 5 5 3 5 5 5 5 5 5 5 5 5 3 5 3 5 5 3 5 5 3 5 5 5 5 5 5 5 5 5 5 5 5 5 5 5 5 5 5 5 5 5 5 5 5 5 3 5 5 5 5 5 3 5 5 5 5 5 5 5 3 3 5 5 5 3 5 5 5 5 3 5 5 5 3 5 5 5 5 5 5 5 5 5 3 5 5 5 5 5 5 5 5 5 3 5 5 5 3 5 5 5 5 3 5 5 3 5 5 5 5 5 5 5 3 5 5 5 5 5 5 3 5 5 5 5 5 5 3 5 5 5 5 5 5 5 5 3 5 5 5 3 5 5 5 5 5 5 5 5 5 5 5 5 5 5 5 5 5 5 5 5 5 5 5 5 5 5 5 5 5 5 5 5 5 5 5 5 5 5 5 5 5 5 5 5 5 5 5 5 5 5 5 5 5 3 5 5 3 5 3 5 5 3 5 5 5 5 5 5 5 5 5 3 5 5 5 5 5 5 3 5 5 5 5 5 5 3 5 3 5 5 3 5 5 3 5 5 3 5 5 5 5 5 5 5 5 5 5 5 5 5 3 5 3 5 5 3 5 5 5 5 5 3 5 5 5 5 5 5 5 5 5 5 5 5 5 5 5 3 5 5 3 5 5 5 5 3 5 5 5 5 5 5 5 5 5 3 5 5 5 5 5 5 5 5 5 5 3 5 5 5 5 5 3 3 5 5 5 5 5 5 5 3 3 5 5 5 5 5 5 5 5 3 5 5 3 5 3 5 5 3 5 5 5 5 5 5 3 5 5 5 5 5 5 5 5 5 5 3 5 5 5 5 5 5 3 3 5 5 5 5 3 5 5 5 5 5 5 5 5 5 5 5 5 5 5 5 5 5 5 3 5 5 5 5 3 5 5 5 5 5 5 5 5 5 5 5 5 5 3 5 5 5 5 5 5 5 5 3 5 5 5 3 5 5 5 5 5 3 5 3 5 5 5 5 5 5 5 5 5 5 5 5 5 5 3 5 5 5 5 5 5 5 5 5 5 3 5 5 5 5 5 5 5 3 3 5 5 5 5 5 5 3 5 5 5 5 5 5 5 5 5 5 3 5 5 5 5 3 3 5 3 5 5 5 5 5 5 5 3 5 3 5 5 5 5 5 5 5 5 5 3 5 5 5 5 5 5 5 5 5 5 5 5 5 5 5 5 5 5 5 5 5 5 5 5 3 5 5 5 5 5 5 5 5 5 5 5 5 5 5 5 5 5 5 5 5 5 5 5 5 5 5 5 5 5 5 5 5 5 5 5 5 5 5 5 5 5 5 5 5 5 5 5 3 5 5 5 5 3 5 5 5 5 5 5 5 3 5 5 3 5 5 5 5 5 5 5 5 5 5 5 5 5 5 5 3 3 5 5 5 5 5 5 5 5 3 5 5 5 5 5 5 5 5 5 5 3 5 3 5 5 5 5 5 5 5 5 5 5 5 5 5 5 5 5 5 5 5 5 5 5 5 5 5 5 5 5 5 5 5 5 5 5 5 5 5 5 5 5 5 5 5 5 5 5 5 5 5 5 5 5 5 5 5 5 5 5 5 5 5 3 5 5 3 5 5 5 5 5 5 5 5 5 3 5 5 5 5 5 5 5 5 5 5 5 5 3 5 5 5 3 5 5 5 5 5 5 5 5 5 5 5 5 5 5 5 5 5 5 5 5 5 3 5 5 5 3 5 5 5 5 5 5 3 3 5 5 5 5 5 5 5 5 5 5 5 5 5 5 5 5 5 5 5 5 5 5 5 5 5 5 5 5 5 5 5 5 5 5 5 3 5 5 5 5 5 5 5 5 5 5 5 5 5 5 5 5 5 5 5 5 5 5 5 5 3 5 5 5 5 5 5 5 5 5 5 5 5 5 3 3 5 5 5 3 3 5 5 5 5 5 5 5 5 5 5 5 5 5 3 5 5 5 5 3 5 5 5 5 5 3 5 5 5 5 5 5 5 5 3 5 5 5 3 5 5 3 5 5 3 5 5 5 3 5 5 3 5 5 5 5 5 5 3 5 5 5 5 3 5 5 5 5 5 5 5 5 5 5 5 3 5 5 5 5 5 5 5 5 5 5 5 5 5 5 5 5 5 5 5 5 5 5 5 5 3 5 3 3 5 5 5 3 5 5 5 5 3 5 5 5 5 5 5 5 5 3 5 5 5 3 5 5 5 5 5 5 5 5 5 5 5 5 5 5 5 5 5 5 5 5 3 5 5 5 5 5 5 5 5 5 5 5 5 3 5 5 5 5 5 5 3 5 3 3 5 5 5 5 5 5 5 5 5 5 3 5 5 5 5 3 5 5 5 3 5 5 3 5 5 5 5 5 5 5 5 5 5 3 5 3 5 5 5 3 5 3 5 5 5 5 3 3 3 5 5 5 5 5 5 3 5 5 5 5 5 5 5 3 5 5 5 5 5 5 5 5 5 5 5 5 5 5 3 5 3 5 5 5 5 5 5 3 5 5 5 5 3 5 5 3 5 5 5 3 5 3 5 5 3 5 5 5 5 5 3 5 3 5 5 5 5 5 5 5 5 5 5 3 5 3 5 5 5 5 5 3 3 5 3 5 5 5 3 3 3 3 5 5 5 3 5 3 5 3 3 5 5 5 3 5 5 5 3 3 5 3 5 5 3 5 5 5 5 5 5 5 5 5 5 5 5 5 5 5 5 5 5 5 5 5 3 5 5 5 5 3 5 3 5 3 5 5 5 5 5 3 3 5 3 5 5 3 5 5 5 5 5 3 5 5 3 5 5 5 3 3 5 5 5 3 5 3 3 5 5 3 5 3 5 5 3 5 3 5 5 5 5 5 5 3 5 5 5 3 5 5 5 5 5 5 5 5 5 5 5 5 5 5 5 5 5 5 5 5 5 5 5 5 5 5 5 5 3 5 5 5 3 5 3 5 5 3 5 5 5 5 5 5 5 5 5 5 3 5 5 5 5 5 5 5 5 5 5 5 5 5 5 3 3 5 5 5 5 5 3 3 5 5 3 3 5 5 5 5 5 5 5 5 5 5 5 5 5 5 5 5 5 5 5 3 5 5 5 5 5 5 5 5 3 5 5 5 5 5 5 5 5 5 5 5 3 3 5 5 5 5 5 5 5 5 5 5 5 5 5 5 5 5 5 5 5 5 5 5 5 5 5 5 5 5 5 5 5 5 5 3 5 5 3 5 5 5 5 5 5 5 5 5 5 5 5 5 5 5 5 5 5 5 5 5 5 5 5 5 5 5 5 5 5 5 5 5 5 5 3 5 5 5 5 5 5 5 5 5 5 3 5 5 5 5 5 5 5 3 5 5 5 5 5 5 5 5 5 5 5 5 5 5 5 5 5 5 5 5 5 5 5 5 5 5 5 5 5 5 5 5 5 5 5 5 5 5 5 3 5 5 5 5 3 5 5 5 5 5 5 5 5 5 5 5 5 5 3 5 5 5 5 5 5 3 5 5 3 3 5 5 3 3 5 5 5 5 3 3 5 5 5 5 3 3 5 5 5 5 5 5 5 3 5 5 5 5 5 5 5 5 5 3 5 5 5 3 5 3 5 3 5 5 3 5 5 3 5 5 5 5 3 5 5 5 5 5 5 5 5 3 5 5 5 5 5 5 3 5 5 5 5 5 5 5 5 5 5 5 3 5 5 5 5 5 5 5 5 5 5 5 5 5 5 3 5 5 5 5 5 5 3 5 5 3 5 5 5 5 5 5 5 5 5 5 5 5 5 5 5 5 5 5 3 5 5 5 5 5 5 5 3 5 5 5 5 5 5 5 5 5 5 3 5 5 5 3 5 5 3 5 3 5 5 5 5 3 3 5 5 5 5 5 3 3 5 3 3 5 3 3 5 5 5 3 5 5 5 5 5 5 3 5 5 3 3 5 5 5 5 5 5 5 5 5 5 3 3 5 5 5 3 5 5 5 3 5 5 5 5 5 5 5 5 5 5 5 5 5 5 5 5 5 5 3 5 5 3 5 5 3 3 5 5 5 3 5 5 5 5 3 5 5 5 5 5 5 5 5 5 3 5 5 3 5 5 5 5 5 5 5 5 5 3 3 5 5 5 5 5 5 3 5 5 3 5 5 5 5 5 5 5 5 5 5 5 3 5 5 5 5 5 5 3 5 5 5 5 5 5 5 5 3 5 3 5 5 5 5 3 3 5 5 3 5 5 5 5 5 5 5 5 5 5 5 5 5 5 5 5 5 5 5 5 3 5 3 5 5 5 5 5 5 5 3 5 5 5 5 5 5 5 5 5 5 5 5 5 5 5 5 5 5 5 5 3 3 5 5 5 5 5 5 5 3 5 5 3 5 3 5 5 3 3 5 5 5 5 3 5 5 3 5 5 5 5 3 5 3 5 5 5 5 5 5 5 5 5 5 5 5 5 5 5 5 5 3 5 5 5 3 5 5 5 3 5 3 3 5 5 5 5 3 5 5 5 3 5 3 3 3 5 5 5 5 5 3 5 5 5 5 5 5 5 5 5 5 5 5 3 5 5 5 5 3 5 5 5 5 5 5 5 5 5 5 5 5 5 5 5 5 5 3 5 5 5 5 5 5 5 5 3 5 3 5 5 5 5 5 3 5 5 5 5 3 5 3 5 3 5 3 5 5 3 5 5 5 5 5 5 5 5 5 5 5 5 5 5 5 5 5 5 3 5 5 5 5 5 5 5 3 5 5 5 5 5 3 3 5 5 5 5 5 5 5 5 5 5 5 5 5 5 5 5 3 5 5 5 5 5 5 5 5 3 5 5 3 5 5 5 5 5 5 5 5 3 5 5 5 3 5 5 5 5 3 5 5 5 5 5 5 5 5 5 5 5 5 5 5 5 5 5 5 5 5 3 5 5 5 5 5 5 5 3 5 5 5 5 5 3 5 5 5 5 5 5 5 5 5 5 5 5 5 5 5 5 5 5 5 5 5 5 5 5 5 5 3 5 5 3 3 5 5 3 5 5 5 5 3 5 5 5 5 5 5 5 5 3 3 5 5 5 5 5 3 5 5 5 3 5 5 3 5 3 5 5 5 5 5 3 5 3 5 5 5 5 5 5 5 5 5 5 5 5 5 5 5 5 5 5 5 5 5 5 3 5 5 5 5 5 3 5 5 5 5 3 5 5 5 5 5 5 5 5 5 3 5 5 5 5 3 3 5 5 5 5 5 5 5 3 3 5 5 5 5 5 3 3 3 5 3 5 5 3 5 5 5 3 5 5 3 5 5 5 3 5 5 5 5 3 5 5 3 5 5 5 5 5 5 3 5 5 5 3 5 5 5 5 5 5 5 5 5 5 5 3 5 5 5 5 5 5 5 5 5 5 5 5 5 5 5 5 5 5 5 5 5 5 5 5 5 5 3 3 5 5 5 3 5 3 5 5 5 5 5 5 5 3 5 5 5 5 5 5 5 5 5 5 5 5 5 5 5 5 5 5 3 3 5 3 5 5 5 5 5 3 5 5 3 5 5 5 5 5 5 5 5 5 3 5 5 5 5 5 5 5 3 5 5 3 5 3 5 5 5 3 5 5 3 5 5 5 5 5 5 5 3 5 5 5 5 3 5 5 5 5 3 5 5 3 5 5 5 5 5 5 5 5 5 3 5 5 5 3 5 5 5 5 5 5 5 3 3 5 3 5 5 5 5 5 5 5 5 5 5 5 3 5 5 5 5 5 5 3 5 5 5 5 5 5 3 5 5 5 5 5 5 5 5 5 5 5 5 5 5 5 5 5 5 5 5 5 5 5 5 5 5 5 5 3 5 5 5 5 3 5 5 5 5 5 3 5 5 5 5 5 5 5 3 5 5 5 5 5 5 5 5 5 5 5 5 5 5 5 3 5 5 3 5 5 5 3 5 5 3 5 3 5 5 5 5 5 3 5 5 5 5 3 5 5 3 3 5 5 3 3 3 5 5 5 5 3 5 3 3 5 3 5 5 5 5 5 5 5 5 5 5 3 5 5 5 5 5 5 5 5 3 3 5 3 5 5 5 5 3 5 5 3 5 5 5 5 3 5 3 5 5 3 5 5 5 5 5 5 3 5 5 5 3 3 5 5 5 5 5 5 5 5 5 5 5 5 5 5 5 5 5 3 5 3 5 5 5 5 5 5 5 5 5 5 5 5 5 5 5 3 5 5 3 5 5 5 5 5 5 5 5 3 3 5 5 5 5 5 5 5 5 5 5 5 5 5 5 5 5 5 5 3 5 3 5 5 5 5 3 5 3 5 5 5 5 5 5 5 5 5 3 5 5 5 5 5 5 5 5 5 5 5 5 5 3 5 3 5 3 5 3 5 5 5 5 5 3 5 5 5 5 5 5 3 5 5 5 5 5 5 5 5 3 3 5 5 5 3 5 5 5 5 5 3 5 5 5 3 5 5 5 5 3 5 5 5 5 5 5 5 5 5 5 5 5 5 5 5 5 5 5 5 5 5 5 5 5 5 5 5 3 5 5 5 3 5 5 5 3 5 5 5 5 5 5 3 5 5 5 5 5 5 5 5 3 5 5 5 5 5 5 3 5 5 3 5 5 5 5 5 5 5 5 3 5 3 3 5 5 5 5 5 5 5 5 5 5 5 5 5 5 5 5 5 5 5 5 5 5 5 5 5 3 5 5 5 3 3 5 5 5 5 3 5 3 3 5 5 3 3 
</DataArray>
</Cells>
<PointData Scalars="" Vectors="displacement," Tensors="">
<DataArray type="Float64" Name="displacement" NumberOfComponents="3" format="ascii">
-7.0905154699880093e-07 -0.054997688056150761 0 -0.00022655458653946938 -0.054402073321520548 0 -0.00016637459002204175 -0.052627902123823241 0 -7.0905154699880093e-07 -0.054997688056150761 0 -0.00022655458653946938 -0.054402073321520548 0 -6.5851856722047732e-07 -0.054996585725973393 0 -7.0905154699880093e-07 -0.054997688056150761 0 -0.00016637459002204175 -0.052627902123823241 0 -8.4809628060932167e-05 -0.05008355945968352 0 -7.0905154699880093e-07 -0.054997688056150761 0 -8.4809628060932167e-05 -0.05008355945968352 0 3.1624537567390952e-07 -0.045929484749671227 0 -0.00022655458653946938 -0.054402073321520548 0 -6.5851856722047732e-07 -0.054996585725973393 0 -0.00074184115743139846 -0.053494410185567748 0 -0.00022655458653946938 -0.054402073321520548 0 -0.0010770838824320922 -0.052652114555332481 0 -0.00074184115743139846 -0.053494410185567748 0 -0.0002913553947260197 -0.053958631458111792 0 -0.00070021044778055812 -0.052140619062432614 0 -0.00022655458653946938 -0.054402073321520548 0 -0.0010770838824320922 -0.052652114555332481 0 -0.0013541596292612737 -0.051640957613979327 0 -0.0013802361589366318 -0.051081126297124399 0 -0.001444758057769439 -0.049482178342756526 0 -0.0013030559945600808 -0.049382706479237669 0 -0.0010770838824320922 -0.052652114555332481 0 -0.0013802361589366318 -0.051081126297124399 0 -0.0013541596292612737 -0.051640957613979327 0 -0.0013802361589366318 -0.051081126297124399 0 -0.0013541596292612737 -0.051640957613979327 0 -0.001444758057769439 -0.049482178342756526 0 -0.0013541596292612737 -0.051640957613979327 0 -0.001444758057769439 -0.049482178342756526 0 -0.0015768307811182491 -0.04883000668166023 0 -0.00070021044778055812 -0.052140619062432614 0 -0.0008214283270765139 -0.049458553320540374 0 -8.4809628060932167e-05 -0.05008355945968352 0 3.1624537567390952e-07 -0.045929484749671227 0 0.00011105807651159595 -0.047229121188424456 0 3.1624537567390952e-07 -0.045929484749671227 0 0.00011105807651159595 -0.047229121188424456 0 -0.00015493223509008007 -0.043909642241933645 0 -0.00058605945791648825 -0.046643005667379903 0 -0.0001532447279943739 -0.044416060756655294 0 -0.0012073932146870647 -0.0461357856844479 0 -0.00067535749824749829 -0.045664756156067694 0 -0.0011691358203237674 -0.047725304630669776 0 -0.0012073932146870647 -0.0461357856844479 0 -0.00015493223509008007 -0.043909642241933645 0 -0.00067535749824749829 -0.045664756156067694 0 -0.0015768307811182491 -0.04883000668166023 0 -0.0012073932146870647 -0.0461357856844479 0 -0.0011691358203237674 -0.047725304630669776 0 -0.0008214283270765139 -0.049458553320540374 0 -0.00058605945791648825 -0.046643005667379903 0 3.1624537567390952e-07 -0.045929484749671227 0 -0.00015493223509008007 -0.043909642241933645 0 -2.2840970851141756e-06 -0.039291570523477877 0 -0.00015493223509008007 -0.043909642241933645 0 -0.00067535749824749829 -0.045664756156067694 0 -0.00037947786628421198 -0.044561274719286094 0 -0.00015493223509008007 -0.043909642241933645 0 -0.00037947786628421198 -0.044561274719286094 0 -0.00010609894241978872 -0.042395874448299398 0 -0.00037947786628421198 -0.044561274719286094 0 -0.00027897614435164566 -0.044827533208358181 0 -0.00010609894241978872 -0.042395874448299398 0 -0.00037947786628421198 -0.044561274719286094 0 -0.00027897614435164566 -0.044827533208358181 0 -0.00066468819717999952 -0.046219038806914858 0 -0.00067535749824749829 -0.045664756156067694 0 -0.00037947786628421198 -0.044561274719286094 0 -0.00066468819717999952 -0.046219038806914858 0 -0.00027897614435164566 -0.044827533208358181 0 -0.00066468819717999952 -0.046219038806914858 0 -0.00063007604138978399 -0.046827300201843072 0 -0.00066468819717999952 -0.046219038806914858 0 -0.00063007604138978399 -0.046827300201843072 0 -0.00096536664917644453 -0.047727531321424287 0 -0.00063007604138978399 -0.046827300201843072 0 -0.00096536664917644453 -0.047727531321424287 0 -0.00091740608585771347 -0.048374834780409028 0 -0.00027897614435164566 -0.044827533208358181 0 -0.00063007604138978399 -0.046827300201843072 0 -0.00032679394772947598 -0.046221831809138546 0 -0.00063007604138978399 -0.046827300201843072 0 -0.00032679394772947598 -0.046221831809138546 0 -0.00051451438380631712 -0.047449659931932765 0 -0.001444758057769439 -0.049482178342756526 0 -0.0015768307811182491 -0.04883000668166023 0 -0.0011691358203237674 -0.047725304630669776 0 -0.00067535749824749829 -0.045664756156067694 0 -0.00066468819717999952 -0.046219038806914858 0 -0.0011691358203237674 -0.047725304630669776 0 -0.00066468819717999952 -0.046219038806914858 0 -0.0011691358203237674 -0.047725304630669776 0 -0.00096536664917644453 -0.047727531321424287 0 -0.0011691358203237674 -0.047725304630669776 0 -0.00096536664917644453 -0.047727531321424287 0 -0.0013030559945600808 -0.049382706479237669 0 -0.00096536664917644453 -0.047727531321424287 0 -0.0013030559945600808 -0.049382706479237669 0 -0.00091740608585771347 -0.048374834780409028 0 -0.001444758057769439 -0.049482178342756526 0 -0.0011691358203237674 -0.047725304630669776 0 -0.0013030559945600808 -0.049382706479237669 0 -0.0013030559945600808 -0.049382706479237669 0 -0.0012092921712532894 -0.049948423784636445 0 -0.0014101672647466885 -0.051118318122887481 0 -0.00091740608585771347 -0.048374834780409028 0 -0.0012092921712532894 -0.049948423784636445 0 -0.00073014037733936765 -0.04871841150119522 0 -0.0013030559945600808 -0.049382706479237669 0 -0.00091740608585771347 -0.048374834780409028 0 -0.0012092921712532894 -0.049948423784636445 0 -0.00099110369228135996 -0.049870317431131732 0 -0.0012092921712532894 -0.049948423784636445 0 -0.00073014037733936765 -0.04871841150119522 0 -0.00099110369228135996 -0.049870317431131732 0 -0.0012092921712532894 -0.049948423784636445 0 -0.0014095400591977347 -0.051667806361880154 0 -0.0012092921712532894 -0.049948423784636445 0 -0.0014095400591977347 -0.051667806361880154 0 -0.0014101672647466885 -0.051118318122887481 0 -0.00016323397976664004 -0.046760991123500836 0 -0.00026215962486802921 -0.047688808106577711 0 5.4648824862660661e-05 -0.046953944645384299 0 -0.00032679394772947598 -0.046221831809138546 0 -0.00016323397976664004 -0.046760991123500836 0 -0.00051451438380631712 -0.047449659931932765 0 -0.00016323397976664004 -0.046760991123500836 0 -0.00051451438380631712 -0.047449659931932765 0 -0.00026215962486802921 -0.047688808106577711 0 -0.00051451438380631712 -0.047449659931932765 0 -0.00073014037733936765 -0.04871841150119522 0 -0.00026215962486802921 -0.047688808106577711 0 -0.00091740608585771347 -0.048374834780409028 0 -0.00051451438380631712 -0.047449659931932765 0 -0.00073014037733936765 -0.04871841150119522 0 -0.00063007604138978399 -0.046827300201843072 0 -0.00091740608585771347 -0.048374834780409028 0 -0.00051451438380631712 -0.047449659931932765 0 -0.00099110369228135996 -0.049870317431131732 0 -0.00073014037733936765 -0.04871841150119522 0 -0.00019778376030701441 -0.04840321373897162 0 -0.0015053252331141695 -0.051572096769378822 0 -0.0019550628962097731 -0.046583366856769226 0 -0.00073014037733936765 -0.04871841150119522 0 -0.00026215962486802921 -0.047688808106577711 0 -0.00019778376030701441 -0.04840321373897162 0 -0.0011254022084177541 -0.047856490110766974 0 -0.0019550628962097731 -0.046583366856769226 0 -0.00026215962486802921 -0.047688808106577711 0 -0.00039620932712480767 -0.047826516969514538 0 5.4648824862660661e-05 -0.046953944645384299 0 -0.0028459041541483618 -0.052384386669822404 0 -0.0024166488882872853 -0.051918327328107028 0 -0.0029526076024015604 -0.051728182990937378 0 -0.0065675228473149206 -0.038255694605488007 0 -0.0065763208827300836 -0.039197661685830255 0 -0.005506858189760537 -0.038762482642514105 0 -0.0019550628962097731 -0.046583366856769226 0 -0.0049756184163003269 -0.045196657810786481 0 -0.001907574380439392 -0.052166675327357734 0 -0.0028459041541483618 -0.052384386669822404 0 -0.0024166488882872853 -0.051918327328107028 0 -0.001907574380439392 -0.052166675327357734 0 -0.0024166488882872853 -0.051918327328107028 0 -0.0020347954681768504 -0.051804721511771824 0 -0.0024166488882872853 -0.051918327328107028 0 -0.002392709437615298 -0.051457374391368438 0 -0.0029526076024015604 -0.051728182990937378 0 -0.0024166488882872853 -0.051918327328107028 0 -0.002392709437615298 -0.051457374391368438 0 -0.0020347954681768504 -0.051804721511771824 0 -0.002392709437615298 -0.051457374391368438 0 -0.0018276612117119654 -0.051558419556609392 0 -0.0020640274938392897 -0.051167597247365547 0 -0.002392709437615298 -0.051457374391368438 0 -0.0029526076024015604 -0.051728182990937378 0 -0.0032876259039743695 -0.050869064338685731 0 -0.0065763208827300836 -0.039197661685830255 0 -0.005984230822904375 -0.039937790306185612 0 -0.0065839561739997462 -0.040165393008480141 0 -0.0049756184163003269 -0.045196657810786481 0 -0.0049695971346078267 -0.045491642277058576 0 -0.0016581757467776987 -0.051763221164390805 0 -0.0014912840458132591 -0.051739050539873585 0 -0.0014095400591977347 -0.051667806361880154 0 -0.001907574380439392 -0.052166675327357734 0 -0.0016581757467776987 -0.051763221164390805 0 -0.0014095400591977347 -0.051667806361880154 0 -0.0015053252331141695 -0.051572096769378822 0 -0.0015138977718329133 -0.051441301005923479 0 -0.001907574380439392 -0.052166675327357734 0 -0.0016581757467776987 -0.051763221164390805 0 -0.0020347954681768504 -0.051804721511771824 0 -0.0016581757467776987 -0.051763221164390805 0 -0.0020347954681768504 -0.051804721511771824 0 -0.0018276612117119654 -0.051558419556609392 0 -0.0016581757467776987 -0.051763221164390805 0 -0.0018276612117119654 -0.051558419556609392 0 -0.0015913515844555477 -0.051626950543052996 0 -0.002392709437615298 -0.051457374391368438 0 -0.0020347954681768504 -0.051804721511771824 0 -0.0018276612117119654 -0.051558419556609392 0 -0.0018276612117119654 -0.051558419556609392 0 -0.0015913515844555477 -0.051626950543052996 0 -0.0015122838698733007 -0.051370566438197499 0 -0.0015913515844555477 -0.051626950543052996 0 -0.0014912840458132591 -0.051739050539873585 0 -0.0013848739022820006 -0.051856122579256925 0 -0.0016581757467776987 -0.051763221164390805 0 -0.0015913515844555477 -0.051626950543052996 0 -0.0014912840458132591 -0.051739050539873585 0 -0.0015700192441876566 -0.05173233325607822 0 -0.0013795639320503014 -0.052265266520239335 0 -0.0015913515844555477 -0.051626950543052996 0 -0.0014485648713762503 -0.052629207802073759 0 -0.0015184432334323121 -0.05187181924865962 0 -0.0014912840458132591 -0.051739050539873585 0 -0.0013848739022820006 -0.051856122579256925 0 -0.0014095400591977347 -0.051667806361880154 0 -0.0013848739022820006 -0.051856122579256925 0 -0.0014095400591977347 -0.051667806361880154 0 -0.0013178377423279897 -0.052213569645652595 0 -0.0013848739022820006 -0.051856122579256925 0 -0.00089978303907968743 -0.052791593951376538 0 -0.0013178377423279897 -0.052213569645652595 0 -0.0013795639320503014 -0.052265266520239335 0 -0.00079074628107827832 -0.053359983494804281 0 -0.0014485648713762503 -0.052629207802073759 0 -0.00087267533815944028 -0.053053282635779464 0 -0.00059994058053308556 -0.053854479462756448 0 -0.0014485648713762503 -0.052629207802073759 0 -0.00087267533815944028 -0.053053282635779464 0 -0.0010098999414000663 -0.052609731755852165 0 -0.0014485648713762503 -0.052629207802073759 0 -0.0010098999414000663 -0.052609731755852165 0 -0.0013091406857205887 -0.052175333174560634 0 -0.00087267533815944028 -0.053053282635779464 0 -0.0010098999414000663 -0.052609731755852165 0 -0.00033729910228574232 -0.053044378273614357 0 -0.00087267533815944028 -0.053053282635779464 0 -0.00033729910228574232 -0.053044378273614357 0 -0.00059994058053308556 -0.053854479462756448 0 -0.00033829224374735099 -0.054050230525650139 0 -1.5176163787058651e-07 -0.05499956336227603 0 -0.00015939471367366832 -0.055096594023852162 0 -7.7813596716650777e-05 -0.05505246666814409 0 2.8916694877056948e-08 -0.055000126142016929 0 -0.00033729910228574232 -0.053044378273614357 0 5.4609153556526961e-07 -0.054996886181310649 0 -0.00059994058053308556 -0.053854479462756448 0 -7.7813596716650777e-05 -0.05505246666814409 0 2.8916694877056948e-08 -0.055000126142016929 0 -1.0864421010874972e-07 -0.055000093989099712 0 -2.4103964820499414e-07 -0.054999345389059248 0 -0.00079074628107827832 -0.053359983494804281 0 -2.4055174629767088e-07 -0.055002100715392493 0 5.4609153556526961e-07 -0.054996886181310649 0 -0.00059994058053308556 -0.053854479462756448 0 -0.00089978303907968743 -0.052791593951376538 0 -0.00074184115743139846 -0.053494410185567748 0 -0.0013178377423279897 -0.052213569645652595 0 -6.5851856722047732e-07 -0.054996585725973393 0 -1.2599816619480809e-06 -0.054993159243714215 0 -0.00074184115743139846 -0.053494410185567748 0 -1.2599816619480809e-06 -0.054993159243714215 0 -0.00089978303907968743 -0.052791593951376538 0 -0.00074184115743139846 -0.053494410185567748 0 -0.0010770838824320922 -0.052652114555332481 0 -0.00074184115743139846 -0.053494410185567748 0 -0.0012088785431699921 -0.052256765411189614 0 -0.0013802361589366318 -0.051081126297124399 0 -0.0012088785431699921 -0.052256765411189614 0 -0.0014101672647466885 -0.051118318122887481 0 -0.0010770838824320922 -0.052652114555332481 0 -0.0013802361589366318 -0.051081126297124399 0 -0.0012088785431699921 -0.052256765411189614 0 -0.0013802361589366318 -0.051081126297124399 0 -0.0013030559945600808 -0.049382706479237669 0 -0.0014101672647466885 -0.051118318122887481 0 -0.0014095400591977347 -0.051667806361880154 0 -0.0014101672647466885 -0.051118318122887481 0 -0.0013178377423279897 -0.052213569645652595 0 -0.0012088785431699921 -0.052256765411189614 0 -0.0014101672647466885 -0.051118318122887481 0 -0.0013178377423279897 -0.052213569645652595 0 -0.00074184115743139846 -0.053494410185567748 0 -0.0012088785431699921 -0.052256765411189614 0 -0.0013178377423279897 -0.052213569645652595 0 -0.00058658347781136264 -0.029674286187803225 0 -0.0013494237261935495 -0.02900803182368256 0 -0.00049053791337461225 -0.028594546358499215 0 -0.00058658347781136264 -0.029674286187803225 0 -0.0013494237261935495 -0.02900803182368256 0 -0.0022227363756929042 -0.030099844687608842 0 -0.0013494237261935495 -0.02900803182368256 0 -0.0021995737005771942 -0.028973151664332109 0 -0.0022227363756929042 -0.030099844687608842 0 -0.0021995737005771942 -0.028973151664332109 0 -0.0028420150077552858 -0.029334907051959885 0 -0.0022227363756929042 -0.030099844687608842 0 -0.0013494237261935495 -0.02900803182368256 0 -0.0021995737005771942 -0.028973151664332109 0 -0.001334213146237599 -0.028090122839325521 0 -0.0011863965836452894 -0.027417743809918464 0 -0.0013436595797475409 -0.026518220828275946 0 -0.0032644085208806592 -0.027440055211028807 0 -0.0011549078736420033 -0.027895930017003776 0 -0.0033035920520333175 -0.02846215812614758 0 -0.0021995737005771942 -0.028973151664332109 0 -0.001334213146237599 -0.028090122839325521 0 -0.0033135205595145475 -0.028533860201678484 0 -0.0013494237261935495 -0.02900803182368256 0 -0.001334213146237599 -0.028090122839325521 0 -0.00049053791337461225 -0.028594546358499215 0 -9.3658440581055664e-05 -0.02790746030029204 0 -0.00013071932694796936 -0.028130627115803816 0 -0.00021401679924979179 -0.026315503968491638 0 -0.00062474763611308206 -0.026611110893903337 0 -0.0013436595797475409 -0.026518220828275946 0 -0.00021401679924979179 -0.026315503968491638 0 -0.0010683749033219821 -0.026443725616068409 0 -0.00025167477816617285 -0.026709416213464444 0 -0.0011863965836452894 -0.027417743809918464 0 -0.00062474763611308206 -0.026611110893903337 0 -0.0013436595797475409 -0.026518220828275946 0 -9.3658440581055664e-05 -0.02790746030029204 0 -0.00011950167597118311 -0.028794481166600834 0 -0.00013071932694796936 -0.028130627115803816 0 -9.3658440581055664e-05 -0.02790746030029204 0 -1.2054524158362019e-06 -0.028383755319854924 0 -0.00021401679924979179 -0.026315503968491638 0 -9.3658440581055664e-05 -0.02790746030029204 0 -1.2054524158362019e-06 -0.028383755319854924 0 -0.00011950167597118311 -0.028794481166600834 0 2.3578693597249605e-06 -0.030885042921548103 0 -0.00011950167597118311 -0.028794481166600834 0 0.00083543432625051589 -0.028584634858014792 0 -1.2054524158362019e-06 -0.028383755319854924 0 2.3578693597249605e-06 -0.030885042921548103 0 -0.00011950167597118311 -0.028794481166600834 0 -0.0010683749033219821 -0.026443725616068409 0 0.0013680909963305833 -0.03438874318789497 0 -0.00013071932694796936 -0.028130627115803816 0 0.00083543432625051589 -0.028584634858014792 0 0.0010517438862655587 -0.027810062983959334 0 -0.00011950167597118311 -0.028794481166600834 0 -0.00013071932694796936 -0.028130627115803816 0 0.00083543432625051589 -0.028584634858014792 0 0.0014257796079934792 -0.035020325345107198 0 0.00033054813100014553 -0.036847326046515361 0 0.0016974456815436927 -0.037548989030247525 0 0.0010276996125573375 -0.031645011196252834 0 0.0013680909963305833 -0.03438874318789497 0 7.48142445371605e-06 -0.030899694381741501 0 0.0014257796079934792 -0.035020325345107198 0 0.00033054813100014553 -0.036847326046515361 0 4.9498857112714755e-07 -0.030890215174520244 0 0.0010276996125573375 -0.031645011196252834 0 0.0049812887647869425 -0.04322027644364463 0 0.0046556955046817517 -0.044516854821070061 0 0.0034405243102449815 -0.043967078000652415 0 0.0013680909963305833 -0.03438874318789497 0 0.0021999080685854624 -0.042521868534589558 0 0.00033054813100014553 -0.036847326046515361 0 0.0016974456815436927 -0.037548989030247525 0 0.0006975902779976569 -0.039568201359846879 0 -0.0032644085208806592 -0.027440055211028807 0 -0.0033135205595145475 -0.028533860201678484 0 -0.0037080763642761629 -0.029090471388015897 0 0.0013680909963305833 -0.03438874318789497 0 0.00045986192605377256 -0.037076836839587124 0 -0.0011863965836452894 -0.027417743809918464 0 -0.0032644085208806592 -0.027440055211028807 0 -0.0033135205595145475 -0.028533860201678484 0 -0.0033135205595145475 -0.028533860201678484 0 -0.0037080763642761629 -0.029090471388015897 0 -0.0028420150077552858 -0.029334907051959885 0 -0.0037080763642761629 -0.029090471388015897 0 -0.0028420150077552858 -0.029334907051959885 0 -0.0040863293650285912 -0.030577827274120579 0 -0.0021995737005771942 -0.028973151664332109 0 -0.0033135205595145475 -0.028533860201678484 0 -0.0028420150077552858 -0.029334907051959885 0 0.0046556955046817517 -0.044516854821070061 0 0.0039297816528606 -0.044854142191550858 0 0.0042984801542073764 -0.045709532974656894 0 0.0046556955046817517 -0.044516854821070061 0 0.0039297816528606 -0.044854142191550858 0 0.0034405243102449815 -0.043967078000652415 0 7.48142445371605e-06 -0.030899694381741501 0 0.00033054813100014553 -0.036847326046515361 0 -2.2840970851141756e-06 -0.039291570523477877 0 0.0011894296571946864 -0.043442244622629994 0 0.0021999080685854624 -0.042521868534589558 0 0.0033093257534340626 -0.045183582747620493 0 0.0019878218843322835 -0.044692982724912948 0 0.0034405243102449815 -0.043967078000652415 0 0.0039297816528606 -0.044854142191550858 0 0.0033093257534340626 -0.045183582747620493 0 0.0034405243102449815 -0.043967078000652415 0 0.00068305608787399966 -0.042164214437132211 0 0.00031383371327329981 -0.040473141518167097 0 0.0006975902779976569 -0.039568201359846879 0 0.00033054813100014553 -0.036847326046515361 0 0.00031383371327329981 -0.040473141518167097 0 0.0006975902779976569 -0.039568201359846879 0 0.00033054813100014553 -0.036847326046515361 0 0.00031383371327329981 -0.040473141518167097 0 -2.2840970851141756e-06 -0.039291570523477877 0 0.00031383371327329981 -0.040473141518167097 0 -2.2840970851141756e-06 -0.039291570523477877 0 -0.00010609894241978872 -0.042395874448299398 0 -0.00015493223509008007 -0.043909642241933645 0 -2.2840970851141756e-06 -0.039291570523477877 0 -0.00010609894241978872 -0.042395874448299398 0 -0.00027897614435164566 -0.044827533208358181 0 -0.00010609894241978872 -0.042395874448299398 0 0.00023789562086740985 -0.042988601260758555 0 0.00068305608787399966 -0.042164214437132211 0 0.00031383371327329981 -0.040473141518167097 0 0.00023789562086740985 -0.042988601260758555 0 0.00031383371327329981 -0.040473141518167097 0 -0.00010609894241978872 -0.042395874448299398 0 0.00023789562086740985 -0.042988601260758555 0 0.00068305608787399966 -0.042164214437132211 0 0.00023789562086740985 -0.042988601260758555 0 0.00039216859280051742 -0.045352272770861762 0 0.0019878218843322835 -0.044692982724912948 0 0.00039216859280051742 -0.045352272770861762 0 0.001628592222439849 -0.045856339524325884 0 0.0011894296571946864 -0.043442244622629994 0 0.0002511848883533542 -0.045127282772936851 0 -0.00027897614435164566 -0.044827533208358181 0 -0.00032679394772947598 -0.046221831809138546 0 0.00039216859280051742 -0.045352272770861762 0 -0.00027897614435164566 -0.044827533208358181 0 0.00023789562086740985 -0.042988601260758555 0 0.00039216859280051742 -0.045352272770861762 0 0.00039216859280051742 -0.045352272770861762 0 5.4648824862660661e-05 -0.046953944645384299 0 0.00084884028600500094 -0.046988102869602082 0 -0.00016323397976664004 -0.046760991123500836 0 0.00039216859280051742 -0.045352272770861762 0 5.4648824862660661e-05 -0.046953944645384299 0 -0.00032679394772947598 -0.046221831809138546 0 -0.00016323397976664004 -0.046760991123500836 0 0.00039216859280051742 -0.045352272770861762 0 0.00039216859280051742 -0.045352272770861762 0 0.001628592222439849 -0.045856339524325884 0 0.00084884028600500094 -0.046988102869602082 0 -0.0053360361345071881 -0.037899220442518422 0 -0.005506858189760537 -0.038762482642514105 0 -0.0041667460464182241 -0.038408487905774814 0 -0.0019550628962097731 -0.046583366856769226 0 -0.0026424678906563021 -0.041923887773982746 0 -0.0065675228473149206 -0.038255694605488007 0 -0.0053360361345071881 -0.037899220442518422 0 -0.005506858189760537 -0.038762482642514105 0 -0.00039620932712480767 -0.047826516969514538 0 5.4648824862660661e-05 -0.046953944645384299 0 0.00084884028600500094 -0.046988102869602082 0 -0.0065763208827300836 -0.039197661685830255 0 -0.005506858189760537 -0.038762482642514105 0 -0.0057764223046367349 -0.039329668605050216 0 -0.0065763208827300836 -0.039197661685830255 0 -0.0057764223046367349 -0.039329668605050216 0 -0.005984230822904375 -0.039937790306185612 0 -0.0057764223046367349 -0.039329668605050216 0 -0.0052879289373601659 -0.039704809482676122 0 -0.005984230822904375 -0.039937790306185612 0 -0.0052879289373601659 -0.039704809482676122 0 -0.0051212747701352042 -0.039061827472263083 0 -0.0045659784429407518 -0.038912943634512739 0 -0.0057764223046367349 -0.039329668605050216 0 -0.0052879289373601659 -0.039704809482676122 0 -0.0051212747701352042 -0.039061827472263083 0 -0.005506858189760537 -0.038762482642514105 0 -0.0051212747701352042 -0.039061827472263083 0 -0.0043884132363310553 -0.03821272264501329 0 -0.0054330738635018369 -0.03872260890554053 0 -0.0042848875405569432 -0.038311262865812705 0 -0.005506858189760537 -0.038762482642514105 0 -0.0057764223046367349 -0.039329668605050216 0 -0.0051212747701352042 -0.039061827472263083 0 -0.0051212747701352042 -0.039061827472263083 0 -0.0043884132363310553 -0.03821272264501329 0 -0.0045659784429407518 -0.038912943634512739 0 -0.0043884132363310553 -0.03821272264501329 0 -0.0045659784429407518 -0.038912943634512739 0 -0.0039541986574402645 -0.038720455516659376 0 -0.0052879289373601659 -0.039704809482676122 0 -0.0045659784429407518 -0.038912943634512739 0 -0.0046066275528916512 -0.039991746833200573 0 -0.0045659784429407518 -0.038912943634512739 0 -0.0038041803087658583 -0.03989764193340762 0 -0.0046066275528916512 -0.039991746833200573 0 -0.0039541986574402645 -0.038720455516659376 0 -0.0033747730862265981 -0.038644532855660121 0 -0.0037342342804650916 -0.0394777622101294 0 -0.0045321664664504796 -0.038942446924142754 0 -0.0037926473487891257 -0.03966910024764312 0 -0.0045659784429407518 -0.038912943634512739 0 -0.0039541986574402645 -0.038720455516659376 0 -0.0037342342804650916 -0.0394777622101294 0 -0.0039541986574402645 -0.038720455516659376 0 -0.0037302020531696099 -0.038253266557764447 0 -0.0033747730862265981 -0.038644532855660121 0 -0.0043884132363310553 -0.03821272264501329 0 -0.0039541986574402645 -0.038720455516659376 0 -0.0037302020531696099 -0.038253266557764447 0 -0.0043884132363310553 -0.03821272264501329 0 -0.0037302020531696099 -0.038253266557764447 0 -0.003233008226722497 -0.037693545773594399 0 -0.0039298526019518687 -0.037542890327477742 0 -0.0027355641978529808 -0.037775321095716602 0 -0.0028726193016430914 -0.037958278935424368 0 -0.0042848875405569432 -0.038311262865812705 0 -0.0030452001418012713 -0.037831545643064741 0 -0.0041667460464182241 -0.038408487905774814 0 -0.0039298526019518687 -0.037542890327477742 0 -0.0028726193016430914 -0.037958278935424368 0 -0.0026424678906563021 -0.041923887773982746 0 -8.7536772466024356e-05 -0.042499086124720337 0 -0.0053360361345071881 -0.037899220442518422 0 -0.0041667460464182241 -0.038408487905774814 0 -0.0039298526019518687 -0.037542890327477742 0 0.0033093257534340626 -0.045183582747620493 0 0.0019878218843322835 -0.044692982724912948 0 0.0026227642734817421 -0.046213547586530401 0 0.001628592222439849 -0.045856339524325884 0 0.00084884028600500094 -0.046988102869602082 0 0.0026227642734817421 -0.046213547586530401 0 0.0019878218843322835 -0.044692982724912948 0 0.001628592222439849 -0.045856339524325884 0 0.0026227642734817421 -0.046213547586530401 0 0.0033093257534340626 -0.045183582747620493 0 0.0026227642734817421 -0.046213547586530401 0 0.0042984801542073764 -0.045709532974656894 0 -8.7536772466024356e-05 -0.042499086124720337 0 -0.0017988099760843216 -0.037120482630054678 0 0.0039297816528606 -0.044854142191550858 0 0.0033093257534340626 -0.045183582747620493 0 0.0042984801542073764 -0.045709532974656894 0 0.00045986192605377256 -0.037076836839587124 0 -0.0017988099760843216 -0.037120482630054678 0 -0.0039298526019518687 -0.037542890327477742 0 -0.0025629662594206515 -0.037191680717150621 0 -0.0027355641978529808 -0.037775321095716602 0 -0.0017988099760843216 -0.037120482630054678 0 -0.0025589227783410101 -0.037716215301469375 0 -0.0017988099760843216 -0.037120482630054678 0 -0.0019135314553484475 -0.032988706361396995 0 -0.0028420150077552858 -0.029334907051959885 0 -0.0040863293650285912 -0.030577827274120579 0 -0.0022227363756929042 -0.030099844687608842 0 -0.0025493734707832272 -0.036964110709489871 0 -0.0013446906572609212 -0.037391297882631493 0 -0.001106951753111161 -0.036573261647931309 0 -0.0030452001418012713 -0.037831545643064741 0 -0.0016879467017800662 -0.037250769917494875 0 -0.0025493734707832272 -0.036964110709489871 0 -0.0027355641978529808 -0.037775321095716602 0 -0.0013446906572609212 -0.037391297882631493 0 -0.0024373198802424782 -0.037684699437954362 0 -0.003233008226722497 -0.037693545773594399 0 -0.0020224740287415003 -0.037222567768087217 0 -0.0024373198802424782 -0.037684699437954362 0 -0.0018345632740161706 -0.037838379585450707 0 -0.0020224740287415003 -0.037222567768087217 0 -0.0024373198802424782 -0.037684699437954362 0 -0.0024180995952044581 -0.038060336096615251 0 -0.0018345632740161706 -0.037838379585450707 0 -0.0024373198802424782 -0.037684699437954362 0 -0.0028071669380153384 -0.037846489189152892 0 -0.0024180995952044581 -0.038060336096615251 0 -0.0028071669380153384 -0.037846489189152892 0 -0.0030777758881847935 -0.03796055854777159 0 -0.003233008226722497 -0.037693545773594399 0 -0.0027355641978529808 -0.037775321095716602 0 -0.0028726193016430914 -0.037958278935424368 0 -0.0013446906572609212 -0.037391297882631493 0 -0.0024373198802424782 -0.037684699437954362 0 -0.0028071669380153384 -0.037846489189152892 0 -0.003233008226722497 -0.037693545773594399 0 -0.0037302020531696099 -0.038253266557764447 0 -0.003233008226722497 -0.037693545773594399 0 -0.0033018534803044134 -0.038124049042783444 0 -0.0030777758881847935 -0.03796055854777159 0 -0.003233008226722497 -0.037693545773594399 0 -0.0033018534803044134 -0.038124049042783444 0 -0.0037302020531696099 -0.038253266557764447 0 -0.0033018534803044134 -0.038124049042783444 0 -0.0033747730862265981 -0.038644532855660121 0 -0.0033018534803044134 -0.038124049042783444 0 -0.0029698230546138854 -0.03817436457337308 0 -0.0033747730862265981 -0.038644532855660121 0 -0.0029698230546138854 -0.03817436457337308 0 -0.0033747730862265981 -0.038644532855660121 0 -0.0026273432527546166 -0.038576182254538731 0 -0.0028071669380153384 -0.037846489189152892 0 -0.0030777758881847935 -0.03796055854777159 0 -0.0029698230546138854 -0.03817436457337308 0 -0.0030777758881847935 -0.03796055854777159 0 -0.0033018534803044134 -0.038124049042783444 0 -0.0029698230546138854 -0.03817436457337308 0 -0.0033747730862265981 -0.038644532855660121 0 -0.00290964686378765 -0.039229612757440399 0 -0.0026273432527546166 -0.038576182254538731 0 -0.0033747730862265981 -0.038644532855660121 0 -0.00290964686378765 -0.039229612757440399 0 -0.0037342342804650916 -0.0394777622101294 0 -0.002252859063799247 -0.0388951088966547 0 -0.0026273432527546166 -0.038576182254538731 0 -0.0018834656955086237 -0.038424145237760991 0 -0.00290964686378765 -0.039229612757440399 0 -0.002252859063799247 -0.0388951088966547 0 -0.0022134651311715909 -0.039565767886988588 0 -0.00290964686378765 -0.039229612757440399 0 -0.002252859063799247 -0.0388951088966547 0 -0.0026273432527546166 -0.038576182254538731 0 -0.0026273432527546166 -0.038576182254538731 0 -0.0024180995952044581 -0.038060336096615251 0 -0.0018834656955086237 -0.038424145237760991 0 -0.0029698230546138854 -0.03817436457337308 0 -0.0026273432527546166 -0.038576182254538731 0 -0.0024180995952044581 -0.038060336096615251 0 -0.0028071669380153384 -0.037846489189152892 0 -0.0029698230546138854 -0.03817436457337308 0 -0.0024180995952044581 -0.038060336096615251 0 -0.0024180995952044581 -0.038060336096615251 0 -0.0018834656955086237 -0.038424145237760991 0 -0.0018345632740161706 -0.037838379585450707 0 -0.0018834656955086237 -0.038424145237760991 0 -0.0014824517125919215 -0.038893410331789904 0 -0.0011247598775475606 -0.038202489520092475 0 -0.0018834656955086237 -0.038424145237760991 0 -0.0011247598775475606 -0.038202489520092475 0 -0.0018345632740161706 -0.037838379585450707 0 -0.0011247598775475606 -0.038202489520092475 0 -0.0012580477487149832 -0.037526205782531581 0 -0.0018345632740161706 -0.037838379585450707 0 -0.002252859063799247 -0.0388951088966547 0 -0.0014824517125919215 -0.038893410331789904 0 -0.0022134651311715909 -0.039565767886988588 0 -0.002252859063799247 -0.0388951088966547 0 -0.0018834656955086237 -0.038424145237760991 0 -0.0014824517125919215 -0.038893410331789904 0 -0.0014824517125919215 -0.038893410331789904 0 -0.00060366716753410855 -0.038962817661667599 0 -0.0011247598775475606 -0.038202489520092475 0 -0.0014824517125919215 -0.038893410331789904 0 -0.00060366716753410855 -0.038962817661667599 0 -0.0013951642016950569 -0.039641147495408237 0 -0.0011247598775475606 -0.038202489520092475 0 -0.00052783808756380602 -0.037542121115385484 0 -0.00033451283194232972 -0.03823395740949552 0 -0.00060366716753410855 -0.038962817661667599 0 -0.0011247598775475606 -0.038202489520092475 0 -0.00033451283194232972 -0.03823395740949552 0 -0.0012580477487149832 -0.037526205782531581 0 -0.00078179347545856274 -0.036793240188543713 0 -0.00052783808756380602 -0.037542121115385484 0 -0.0011247598775475606 -0.038202489520092475 0 -0.0012580477487149832 -0.037526205782531581 0 -0.00052783808756380602 -0.037542121115385484 0 -0.0012580477487149832 -0.037526205782531581 0 -0.0020224740287415003 -0.037222567768087217 0 -0.00078179347545856274 -0.036793240188543713 0 -0.0012580477487149832 -0.037526205782531581 0 -0.0018345632740161706 -0.037838379585450707 0 -0.0020224740287415003 -0.037222567768087217 0 -0.0016879467017800662 -0.037250769917494875 0 -0.00021310822314183061 -0.037279158318476467 0 -0.0013446906572609212 -0.037391297882631493 0 -0.001106951753111161 -0.036573261647931309 0 0.0002264541868179525 -0.036841413449271228 0 -0.00010221613833260519 -0.033062266220158829 0 -0.0019135314553484475 -0.032988706361396995 0 0.00035999344099959987 -0.036173041252637858 0 -0.001106951753111161 -0.036573261647931309 0 0.0002264541868179525 -0.036841413449271228 0 0.0013428253188647805 -0.021814418214732085 0 0.0020960459233261915 -0.020608066382427292 0 0.00012453731969264739 -0.021422485014776685 0 0.0013428253188647805 -0.021814418214732085 0 0.002187896430707778 -0.021895960737460331 0 0.0014689439600428407 -0.022574800131693058 0 0.0013428253188647805 -0.021814418214732085 0 0.0014689439600428407 -0.022574800131693058 0 0.00056057996792927835 -0.022537094374538512 0 0.0013428253188647805 -0.021814418214732085 0 0.002187896430707778 -0.021895960737460331 0 0.0020960459233261915 -0.020608066382427292 0 -0.00070974634996960227 -0.026631523618915128 0 -0.0032817525164004174 -0.029907033619331929 0 -4.6510845893559551e-05 -0.026644916265731587 0 0.002187896430707778 -0.021895960737460331 0 0.0026802636858868612 -0.021160060306208889 0 0.0020960459233261915 -0.020608066382427292 0 0.0032176657197980517 -0.021653570960299025 0 0.002187896430707778 -0.021895960737460331 0 0.0026802636858868612 -0.021160060306208889 0 0.0032176657197980517 -0.021653570960299025 0 0.002187896430707778 -0.021895960737460331 0 0.0021891162737274145 -0.023311318042544975 0 0.0016580517949612806 -0.023205379122385458 0 -0.00073247891759986919 -0.03289172658157493 0 0.0032176657197980517 -0.021653570960299025 0 0.0030329563844788757 -0.021109641473296158 0 0.0026802636858868612 -0.021160060306208889 0 -0.00073247891759986919 -0.03289172658157493 0 -0.0016398528334080405 -0.034869184552591359 0 -0.0021271824523873407 -0.041258114827288986 0 -0.0013103637023190418 -0.041124569019637673 0 -0.0023813697417047071 -0.042075277535645522 0 -0.0021271824523873407 -0.041258114827288986 0 -0.0013103637023190418 -0.041124569019637673 0 -0.001495198241908038 -0.040711907899204508 0 0.0021891162737274145 -0.023311318042544975 0 0.0010132503772572619 -0.023358759116148233 0 0.00057436972003683823 -0.024872339770556428 0 -0.0010399648288379716 -0.040758237803425995 0 -0.0012848711854553431 -0.041037498475420146 0 -0.00049054818691469373 -0.040302712637831396 0 -0.0010399648288379716 -0.040758237803425995 0 -0.0013103637023190418 -0.041124569019637673 0 -0.001495198241908038 -0.040711907899204508 0 -0.0029761358769396428 -0.038651420152938938 0 -0.00073247891759986919 -0.03289172658157493 0 0.0021891162737274145 -0.023311318042544975 0 0.0014689439600428407 -0.022574800131693058 0 0.0010132503772572619 -0.023358759116148233 0 0.002187896430707778 -0.021895960737460331 0 0.0021891162737274145 -0.023311318042544975 0 0.0014689439600428407 -0.022574800131693058 0 0.0014689439600428407 -0.022574800131693058 0 0.0010132503772572619 -0.023358759116148233 0 0.00056057996792927835 -0.022537094374538512 0 -0.0010399648288379716 -0.040758237803425995 0 -0.0011407800397975319 -0.040217921027718824 0 -0.00049054818691469373 -0.040302712637831396 0 -0.00073247891759986919 -0.03289172658157493 0 8.3483831011554573e-05 -0.033010928762468222 0 -0.0010399648288379716 -0.040758237803425995 0 -0.0011407800397975319 -0.040217921027718824 0 -0.001495198241908038 -0.040711907899204508 0 -0.0011407800397975319 -0.040217921027718824 0 -0.00060881307203013342 -0.03965637856333961 0 -0.00049054818691469373 -0.040302712637831396 0 -0.00060366716753410855 -0.038962817661667599 0 -0.00060881307203013342 -0.03965637856333961 0 -0.0013951642016950569 -0.039641147495408237 0 -0.0011407800397975319 -0.040217921027718824 0 -0.00060881307203013342 -0.03965637856333961 0 -0.0013951642016950569 -0.039641147495408237 0 -0.0013951642016950569 -0.039641147495408237 0 -0.0019009876032643491 -0.040258728583537282 0 -0.0022134651311715909 -0.039565767886988588 0 -0.0014824517125919215 -0.038893410331789904 0 -0.0013951642016950569 -0.039641147495408237 0 -0.0022134651311715909 -0.039565767886988588 0 -0.0021271824523873407 -0.041258114827288986 0 -0.0019009876032643491 -0.040258728583537282 0 -0.001495198241908038 -0.040711907899204508 0 -0.0011407800397975319 -0.040217921027718824 0 -0.0013951642016950569 -0.039641147495408237 0 -0.0019009876032643491 -0.040258728583537282 0 -0.0011407800397975319 -0.040217921027718824 0 -0.0019009876032643491 -0.040258728583537282 0 -0.001495198241908038 -0.040711907899204508 0 -0.0021271824523873407 -0.041258114827288986 0 -0.0019009876032643491 -0.040258728583537282 0 -0.002944816793414266 -0.040265057958947394 0 -0.0019009876032643491 -0.040258728583537282 0 -0.0022134651311715909 -0.039565767886988588 0 -0.002944816793414266 -0.040265057958947394 0 -0.0021701833738304536 -0.041231475728979235 0 -0.0029956606236859044 -0.040462403354425351 0 -0.00290964686378765 -0.039229612757440399 0 -0.0022134651311715909 -0.039565767886988588 0 -0.002944816793414266 -0.040265057958947394 0 -0.00290964686378765 -0.039229612757440399 0 -0.002944816793414266 -0.040265057958947394 0 -0.0037342342804650916 -0.0394777622101294 0 -0.0029956606236859044 -0.040462403354425351 0 -0.0037926473487891257 -0.03966910024764312 0 -0.0031025735072576933 -0.040625409292972793 0 -0.0035999754459683044 -0.041734861362661489 0 -0.0039789342047758386 -0.041352833525277313 0 -0.0031025735072576933 -0.040625409292972793 0 -0.0035999754459683044 -0.041734861362661489 0 -0.0028865838222961026 -0.041549962397852198 0 -0.0021271824523873407 -0.041258114827288986 0 -0.0031025735072576933 -0.040625409292972793 0 -0.0028865838222961026 -0.041549962397852198 0 -0.0021271824523873407 -0.041258114827288986 0 -0.0028865838222961026 -0.041549962397852198 0 -0.0023813697417047071 -0.042075277535645522 0 -0.0028865838222961026 -0.041549962397852198 0 -0.0023813697417047071 -0.042075277535645522 0 -0.00319290411729946 -0.042221398778045233 0 -0.00070974634996960227 -0.026631523618915128 0 -4.6510845893559551e-05 -0.026644916265731587 0 0.0017930712735979757 -0.02354731092050899 0 -0.0023813697417047071 -0.042075277535645522 0 -0.00319290411729946 -0.042221398778045233 0 -0.0034954438382690822 -0.042948259989924166 0 -0.00319290411729946 -0.042221398778045233 0 -0.0039554998449036257 -0.042384837209772569 0 -0.0036548834298259546 -0.042555063179714886 0 -0.0035999754459683044 -0.041734861362661489 0 -0.00319290411729946 -0.042221398778045233 0 -0.0039554998449036257 -0.042384837209772569 0 -0.0035999754459683044 -0.041734861362661489 0 -0.0028865838222961026 -0.041549962397852198 0 -0.00319290411729946 -0.042221398778045233 0 -0.0035999754459683044 -0.041734861362661489 0 -0.0042174787254862399 -0.042027685306669227 0 -0.0039554998449036257 -0.042384837209772569 0 -0.0042174787254862399 -0.042027685306669227 0 -0.0039554998449036257 -0.042384837209772569 0 -0.0044564276630743409 -0.042672628111934077 0 -0.0042174787254862399 -0.042027685306669227 0 -0.0046154018099485421 -0.042311417098719363 0 -0.0044564276630743409 -0.042672628111934077 0 -0.0046154018099485421 -0.042311417098719363 0 -0.0046460316206102213 -0.041643443406898371 0 -0.0051119094035633732 -0.042147555561121937 0 -0.0042174787254862399 -0.042027685306669227 0 -0.0046154018099485421 -0.042311417098719363 0 -0.0046460316206102213 -0.041643443406898371 0 -0.0046460316206102213 -0.041643443406898371 0 -0.0039789342047758386 -0.041352833525277313 0 -0.0043050039292904753 -0.040752353343331368 0 -0.0042174787254862399 -0.042027685306669227 0 -0.0046460316206102213 -0.041643443406898371 0 -0.0039789342047758386 -0.041352833525277313 0 -0.0035999754459683044 -0.041734861362661489 0 -0.0042174787254862399 -0.042027685306669227 0 -0.0039789342047758386 -0.041352833525277313 0 -0.0031025735072576933 -0.040625409292972793 0 -0.0039789342047758386 -0.041352833525277313 0 -0.0043050039292904753 -0.040752353343331368 0 -0.0031025735072576933 -0.040625409292972793 0 -0.0038041803087658583 -0.03989764193340762 0 -0.0043050039292904753 -0.040752353343331368 0 -0.0046066275528916512 -0.039991746833200573 0 -0.0043050039292904753 -0.040752353343331368 0 -0.0050826940144316161 -0.040581035813931812 0 -0.0038041803087658583 -0.03989764193340762 0 -0.0046066275528916512 -0.039991746833200573 0 -0.0043050039292904753 -0.040752353343331368 0 -0.0046460316206102213 -0.041643443406898371 0 -0.0043050039292904753 -0.040752353343331368 0 -0.0050019059423946017 -0.041170313705556891 0 -0.0043050039292904753 -0.040752353343331368 0 -0.0050019059423946017 -0.041170313705556891 0 -0.0050826940144316161 -0.040581035813931812 0 -0.0050019059423946017 -0.041170313705556891 0 -0.0050826940144316161 -0.040581035813931812 0 -0.0055971146826187708 -0.041165473445778485 0 -0.0050826940144316161 -0.040581035813931812 0 -0.0056780582594431091 -0.040548788758034034 0 -0.0055971146826187708 -0.041165473445778485 0 -0.0052879289373601659 -0.039704809482676122 0 -0.0050826940144316161 -0.040581035813931812 0 -0.0056780582594431091 -0.040548788758034034 0 -0.0052879289373601659 -0.039704809482676122 0 -0.0046066275528916512 -0.039991746833200573 0 -0.0050826940144316161 -0.040581035813931812 0 -0.0052879289373601659 -0.039704809482676122 0 -0.005984230822904375 -0.039937790306185612 0 -0.0056780582594431091 -0.040548788758034034 0 -0.005984230822904375 -0.039937790306185612 0 -0.0061677381558813095 -0.040598032852024485 0 -0.0056780582594431091 -0.040548788758034034 0 -0.0061677381558813095 -0.040598032852024485 0 -0.0056780582594431091 -0.040548788758034034 0 -0.0060294972545722548 -0.041086361477735561 0 -0.0056780582594431091 -0.040548788758034034 0 -0.0055971146826187708 -0.041165473445778485 0 -0.0060294972545722548 -0.041086361477735561 0 -0.0055971146826187708 -0.041165473445778485 0 -0.0052493324578714072 -0.041630472962513876 0 -0.0059064646776796192 -0.041967807354328687 0 -0.0055971146826187708 -0.041165473445778485 0 -0.0060294972545722548 -0.041086361477735561 0 -0.0059064646776796192 -0.041967807354328687 0 -0.0060294972545722548 -0.041086361477735561 0 -0.0059064646776796192 -0.041967807354328687 0 -0.006567461622127368 -0.04113542409782777 0 -0.0052493324578714072 -0.041630472962513876 0 -0.0051119094035633732 -0.042147555561121937 0 -0.0059064646776796192 -0.041967807354328687 0 -0.0050019059423946017 -0.041170313705556891 0 -0.0055971146826187708 -0.041165473445778485 0 -0.0052493324578714072 -0.041630472962513876 0 -0.0046460316206102213 -0.041643443406898371 0 -0.0050019059423946017 -0.041170313705556891 0 -0.0052493324578714072 -0.041630472962513876 0 -0.0046460316206102213 -0.041643443406898371 0 -0.0052493324578714072 -0.041630472962513876 0 -0.0051119094035633732 -0.042147555561121937 0 -0.0051119094035633732 -0.042147555561121937 0 -0.0059064646776796192 -0.041967807354328687 0 -0.0051211351819904988 -0.042867913023250333 0 -0.0046154018099485421 -0.042311417098719363 0 -0.0051119094035633732 -0.042147555561121937 0 -0.0051211351819904988 -0.042867913023250333 0 -0.0029747562886478477 -0.04553564068671332 0 -0.0029192917116557322 -0.045589991562336972 0 -0.0030628944282837202 -0.045649334265011526 0 -0.0046359432661282358 -0.04334082906223434 0 -0.0039069053051958447 -0.044117864340058675 0 -0.0029747562886478477 -0.04553564068671332 0 -0.0029192917116557322 -0.045589991562336972 0 -0.0029519820385410741 -0.045451573313131169 0 -0.0029192917116557322 -0.045589991562336972 0 -0.0027472880131938241 -0.044338204069225215 0 -0.0028965810527509933 -0.045620714728574159 0 -0.0029192917116557322 -0.045589991562336972 0 -0.0028965810527509933 -0.045620714728574159 0 -0.0033968378341921544 -0.045751090652165559 0 -0.0039069053051958447 -0.044117864340058675 0 -0.0037576715818411328 -0.043025501281820311 0 -0.0029192917116557322 -0.045589991562336972 0 -0.0029519820385410741 -0.045451573313131169 0 -0.0027472880131938241 -0.044338204069225215 0 -0.0029519820385410741 -0.045451573313131169 0 -0.0027472880131938241 -0.044338204069225215 0 -0.0035650924103991263 -0.042849158009469479 0 -0.0027472880131938241 -0.044338204069225215 0 -0.0025446296104900466 -0.046216322713874138 0 -0.0031538055027304211 -0.042234577931081936 0 0.0020957691427338897 -0.04118520152244614 0 -0.0029805194892311218 -0.042349555919553639 0 -0.0027472880131938241 -0.044338204069225215 0 -0.0028965810527509933 -0.045620714728574159 0 -0.0025446296104900466 -0.046216322713874138 0 -0.0028965810527509933 -0.045620714728574159 0 -0.0025446296104900466 -0.046216322713874138 0 -0.0035739764358517804 -0.047010725830744601 0 0.0079195574447924917 -0.035963896259151383 0 0.011963013980454136 -0.028047895514538502 0 0.0078433975061863309 -0.023734636515160199 0 0.011963013980454136 -0.028047895514538502 0 0.0078433975061863309 -0.023734636515160199 0 0.01282853348788314 -0.024272429501706241 0 0.0075786291951047127 -0.023763454607982692 0 0.0024986502028925719 -0.027867909633594083 0 0.0078433975061863309 -0.023734636515160199 0 0.0055580718236776508 -0.021796370688980358 0 0.0060875732578866372 -0.021674638358250026 0 0.0079195574447924917 -0.035963896259151383 0 0.0078433975061863309 -0.023734636515160199 0 -0.0014625814673928099 -0.034116968620925593 0 0.0079195574447924917 -0.035963896259151383 0 -0.0014625814673928099 -0.034116968620925593 0 -0.0031538055027304211 -0.042234577931081936 0 0.0050637176602730712 -0.021227379524091736 0 0.0055580718236776508 -0.021796370688980358 0 0.0048885095006674928 -0.021381824796582797 0 0.0024986502028925719 -0.027867909633594083 0 -0.00036396444372565668 -0.032000831895198707 0 -0.0014625814673928099 -0.034116968620925593 0 -0.0058330821047525823 -0.043007925859829862 0 -0.0031538055027304211 -0.042234577931081936 0 0.0050637176602730712 -0.021227379524091736 0 0.0055580718236776508 -0.021796370688980358 0 0.0053786451906357733 -0.02114746777186783 0 0.0055580718236776508 -0.021796370688980358 0 0.0053786451906357733 -0.02114746777186783 0 0.0060875732578866372 -0.021674638358250026 0 0.0050637176602730712 -0.021227379524091736 0 0.0053786451906357733 -0.02114746777186783 0 0.0049566738268601801 -0.020842105897532374 0 0.0053786451906357733 -0.02114746777186783 0 0.0047766245804462294 -0.020291156138218969 0 0.0049566738268601801 -0.020842105897532374 0 0.0047766245804462294 -0.020291156138218969 0 0.0045590461655468893 -0.020618146468409902 0 0.0040486258822099502 -0.019927976240908654 0 0.0047766245804462294 -0.020291156138218969 0 0.0049566738268601801 -0.020842105897532374 0 0.0045590461655468893 -0.020618146468409902 0 0.0050637176602730712 -0.021227379524091736 0 0.0049566738268601801 -0.020842105897532374 0 0.0045590461655468893 -0.020618146468409902 0 0.0050637176602730712 -0.021227379524091736 0 0.00433465585005145 -0.020905156167701645 0 0.0048885095006674928 -0.021381824796582797 0 0.0045590461655468893 -0.020618146468409902 0 0.00433465585005145 -0.020905156167701645 0 0.003852239212277439 -0.020401043698507169 0 0.0050637176602730712 -0.021227379524091736 0 0.0045590461655468893 -0.020618146468409902 0 0.00433465585005145 -0.020905156167701645 0 -0.00036396444372565668 -0.032000831895198707 0 -0.00023716551619111425 -0.033142872308904295 0 -0.0058330821047525823 -0.043007925859829862 0 -0.004639020331899087 -0.043087393444080593 0 -0.0044646482213630415 -0.04286131964188445 0 0.0048885095006674928 -0.021381824796582797 0 0.0029713969966189517 -0.023566837860018699 0 0.0039125300902465325 -0.021224675380900528 0 0.00433465585005145 -0.020905156167701645 0 0.0048885095006674928 -0.021381824796582797 0 0.0039125300902465325 -0.021224675380900528 0 -0.0058330821047525823 -0.043007925859829862 0 -0.0031538055027304211 -0.042234577931081936 0 -0.0044577564139462169 -0.043067388101105435 0 -0.0031538055027304211 -0.042234577931081936 0 -0.0035650924103991263 -0.042849158009469479 0 -0.0044577564139462169 -0.043067388101105435 0 -0.0027472880131938241 -0.044338204069225215 0 -0.0031538055027304211 -0.042234577931081936 0 -0.0035650924103991263 -0.042849158009469479 0 -0.0044577564139462169 -0.043067388101105435 0 -0.004639020331899087 -0.043087393444080593 0 -0.0042746074892192933 -0.042971588620128107 0 -0.0035650924103991263 -0.042849158009469479 0 -0.0044577564139462169 -0.043067388101105435 0 -0.0042746074892192933 -0.042971588620128107 0 -0.0058330821047525823 -0.043007925859829862 0 -0.0044577564139462169 -0.043067388101105435 0 -0.004639020331899087 -0.043087393444080593 0 -0.0051211351819904988 -0.042867913023250333 0 -0.0035650924103991263 -0.042849158009469479 0 -0.0042746074892192933 -0.042971588620128107 0 -0.004639020331899087 -0.043087393444080593 0 -0.0042746074892192933 -0.042971588620128107 0 -0.0045453080579784377 -0.042824939701319197 0 -0.0051211351819904988 -0.042867913023250333 0 -0.0042746074892192933 -0.042971588620128107 0 -0.0045453080579784377 -0.042824939701319197 0 -0.0046154018099485421 -0.042311417098719363 0 -0.0051211351819904988 -0.042867913023250333 0 -0.0045453080579784377 -0.042824939701319197 0 -0.0046154018099485421 -0.042311417098719363 0 -0.0045453080579784377 -0.042824939701319197 0 -0.0044564276630743409 -0.042672628111934077 0 -0.004639020331899087 -0.043087393444080593 0 -0.0045453080579784377 -0.042824939701319197 0 -0.0044564276630743409 -0.042672628111934077 0 -0.0058330821047525823 -0.043007925859829862 0 -0.0044646482213630415 -0.04286131964188445 0 -0.0034954438382690822 -0.042948259989924166 0 -0.0039554998449036257 -0.042384837209772569 0 -0.0044646482213630415 -0.04286131964188445 0 -0.003904652210799157 -0.042669200576871194 0 -0.0039554998449036257 -0.042384837209772569 0 -0.0044564276630743409 -0.042672628111934077 0 -0.0044646482213630415 -0.04286131964188445 0 -0.004639020331899087 -0.043087393444080593 0 -0.0044564276630743409 -0.042672628111934077 0 -0.0044646482213630415 -0.04286131964188445 0 0.0029713969966189517 -0.023566837860018699 0 0.0017930712735979757 -0.02354731092050899 0 0.0039125300902465325 -0.021224675380900528 0 -0.0044646482213630415 -0.04286131964188445 0 -0.0034954438382690822 -0.042948259989924166 0 -0.003904652210799157 -0.042669200576871194 0 -0.0034954438382690822 -0.042948259989924166 0 -0.003904652210799157 -0.042669200576871194 0 -0.0036548834298259546 -0.042555063179714886 0 -0.0039554998449036257 -0.042384837209772569 0 -0.003904652210799157 -0.042669200576871194 0 -0.0036548834298259546 -0.042555063179714886 0 -0.00319290411729946 -0.042221398778045233 0 -0.0034954438382690822 -0.042948259989924166 0 -0.0036548834298259546 -0.042555063179714886 0 0.0016580517949612806 -0.023205379122385458 0 0.0026018591810272719 -0.022410870455873325 0 -0.0016398528334080405 -0.034869184552591359 0 -0.00023716551619111425 -0.033142872308904295 0 -4.6510845893559551e-05 -0.026644916265731587 0 0.0029713969966189517 -0.023566837860018699 0 0.0017930712735979757 -0.02354731092050899 0 0.0032176657197980517 -0.021653570960299025 0 0.0032389368331517832 -0.020944548225264738 0 0.0035521371187821806 -0.020848184264718697 0 0.0032176657197980517 -0.021653570960299025 0 0.0032389368331517832 -0.020944548225264738 0 0.0030329563844788757 -0.021109641473296158 0 0.0032389368331517832 -0.020944548225264738 0 0.0033237442825441322 -0.020643503481331742 0 0.00288385655732096 -0.02072064655938391 0 0.0032389368331517832 -0.020944548225264738 0 0.0035521371187821806 -0.020848184264718697 0 0.0033237442825441322 -0.020643503481331742 0 0.0033237442825441322 -0.020643503481331742 0 0.0035973276212574144 -0.020790408526980508 0 0.003315479321767823 -0.020262734093939624 0 0.0035521371187821806 -0.020848184264718697 0 0.0033237442825441322 -0.020643503481331742 0 0.0035973276212574144 -0.020790408526980508 0 0.0033237442825441322 -0.020643503481331742 0 0.003315479321767823 -0.020262734093939624 0 0.0025931552754792616 -0.019985713292126894 0 0.0035973276212574144 -0.020790408526980508 0 0.0037446313854914304 -0.020755753739790297 0 0.003315479321767823 -0.020262734093939624 0 0.0035521371187821806 -0.020848184264718697 0 0.0035973276212574144 -0.020790408526980508 0 0.0039125300902465325 -0.021224675380900528 0 0.0026018591810272719 -0.022410870455873325 0 0.0038744030050602645 -0.021162621150824765 0 0.0035973276212574144 -0.020790408526980508 0 0.0039125300902465325 -0.021224675380900528 0 0.0037446313854914304 -0.020755753739790297 0 0.00433465585005145 -0.020905156167701645 0 0.0039125300902465325 -0.021224675380900528 0 0.0037446313854914304 -0.020755753739790297 0 0.00433465585005145 -0.020905156167701645 0 0.0037446313854914304 -0.020755753739790297 0 0.003852239212277439 -0.020401043698507169 0 0.0037446313854914304 -0.020755753739790297 0 0.003852239212277439 -0.020401043698507169 0 0.003315479321767823 -0.020262734093939624 0 0.003852239212277439 -0.020401043698507169 0 0.0040486258822099502 -0.019927976240908654 0 0.003310874851332064 -0.019627022765125679 0 0.0045590461655468893 -0.020618146468409902 0 0.003852239212277439 -0.020401043698507169 0 0.0040486258822099502 -0.019927976240908654 0 0.0040486258822099502 -0.019927976240908654 0 0.003310874851332064 -0.019627022765125679 0 0.0034739634577880723 -0.018978816228493175 0 0.003310874851332064 -0.019627022765125679 0 0.003315479321767823 -0.020262734093939624 0 0.0026943038311984849 -0.019411414930831726 0 0.003852239212277439 -0.020401043698507169 0 0.003310874851332064 -0.019627022765125679 0 0.003315479321767823 -0.020262734093939624 0 0.003315479321767823 -0.020262734093939624 0 0.0026943038311984849 -0.019411414930831726 0 0.0025931552754792616 -0.019985713292126894 0 0.0026943038311984849 -0.019411414930831726 0 0.002093616240038934 -0.019149304795568978 0 0.0025931552754792616 -0.019985713292126894 0 0.0026943038311984849 -0.019411414930831726 0 0.0019720891425423098 -0.01842083230865485 0 0.0025920483028455616 -0.018541505673159174 0 0.003310874851332064 -0.019627022765125679 0 0.0026943038311984849 -0.019411414930831726 0 0.0025920483028455616 -0.018541505673159174 0 0.0026943038311984849 -0.019411414930831726 0 0.0019720891425423098 -0.01842083230865485 0 0.002093616240038934 -0.019149304795568978 0 0.0019720891425423098 -0.01842083230865485 0 0.002093616240038934 -0.019149304795568978 0 0.0014226867417155801 -0.018517004931386843 0 0.002093616240038934 -0.019149304795568978 0 0.0018060199317289809 -0.019526152076885153 0 0.0025931552754792616 -0.019985713292126894 0 0.0018060199317289809 -0.019526152076885153 0 0.0025931552754792616 -0.019985713292126894 0 0.0020960459233261915 -0.020608066382427292 0 0.0033237442825441322 -0.020643503481331742 0 0.0025931552754792616 -0.019985713292126894 0 0.00288385655732096 -0.02072064655938391 0 0.0025931552754792616 -0.019985713292126894 0 0.00288385655732096 -0.02072064655938391 0 0.0020960459233261915 -0.020608066382427292 0 0.00288385655732096 -0.02072064655938391 0 0.0030329563844788757 -0.021109641473296158 0 0.0026802636858868612 -0.021160060306208889 0 0.0032389368331517832 -0.020944548225264738 0 0.00288385655732096 -0.02072064655938391 0 0.0030329563844788757 -0.021109641473296158 0 0.00288385655732096 -0.02072064655938391 0 0.0026802636858868612 -0.021160060306208889 0 0.0020960459233261915 -0.020608066382427292 0 0.0018060199317289809 -0.019526152076885153 0 0.0020960459233261915 -0.020608066382427292 0 0.0014756340045868456 -0.019757518564624037 0 -0.00097572914024618917 -0.054413152526780161 0 -0.00037735289349817596 -0.054943034013597257 0 -0.0008607743939360547 -0.054755179421375567 0 -0.00025406790972876104 -0.054760605810750339 0 -0.00024784046289854381 -0.05509710611464886 0 -0.001082778285530381 -0.054161402938018556 0 -0.001475626336719394 -0.054685573051329796 0 -0.0018203488547604409 -0.053952022089424415 0 -0.001082778285530381 -0.054161402938018556 0 -0.00094055810128039388 -0.054675025073775245 0 -0.001475626336719394 -0.054685573051329796 0 -0.00097572914024618917 -0.054413152526780161 0 -0.0018055109735956533 -0.053274323720564516 0 -0.001082778285530381 -0.054161402938018556 0 -0.0018203488547604409 -0.053952022089424415 0 -0.0018473270861019252 -0.053181658657526658 0 -0.0008607743939360547 -0.054755179421375567 0 -0.0018473270861019252 -0.053181658657526658 0 -0.00089267827178932146 -0.053489039293620415 0 -0.00048808848684021492 -0.054324900053464589 0 -0.00089267827178932146 -0.053489039293620415 0 -0.00012514471915779066 -0.054333741472796952 0 -0.0008607743939360547 -0.054755179421375567 0 -0.00048808848684021492 -0.054324900053464589 0 -0.00025406790972876104 -0.054760605810750339 0 -0.0008607743939360547 -0.054755179421375567 0 -0.00048808848684021492 -0.054324900053464589 0 -0.00089267827178932146 -0.053489039293620415 0 -3.4464775998206144e-05 -0.054849181655915416 0 -0.00025406790972876104 -0.054760605810750339 0 -0.00012514471915779066 -0.054333741472796952 0 -0.00048808848684021492 -0.054324900053464589 0 -0.00025406790972876104 -0.054760605810750339 0 -0.00012514471915779066 -0.054333741472796952 0 -2.0498465975878512e-08 -0.054999736866465442 0 -0.00034911097410205837 -0.054289497970329441 0 1.2857723347218699e-07 -0.054999127698701515 0 -3.4464775998206144e-05 -0.054849181655915416 0 -0.00012514471915779066 -0.054333741472796952 0 1.2857723347218699e-07 -0.054999127698701515 0 -2.4745758036093991e-08 -0.0550000018986792 0 -3.4464775998206144e-05 -0.054849181655915416 0 -2.4745758036093991e-08 -0.0550000018986792 0 -3.4464775998206144e-05 -0.054849181655915416 0 -8.6360628874410995e-05 -0.05495831022648074 0 -0.00025406790972876104 -0.054760605810750339 0 -8.6360628874410995e-05 -0.05495831022648074 0 -0.00024784046289854381 -0.05509710611464886 0 -3.4464775998206144e-05 -0.054849181655915416 0 -0.00025406790972876104 -0.054760605810750339 0 -8.6360628874410995e-05 -0.05495831022648074 0 -8.6360628874410995e-05 -0.05495831022648074 0 -0.00024784046289854381 -0.05509710611464886 0 -7.0025607840877154e-05 -0.055024515079787263 0 -2.4745758036093991e-08 -0.0550000018986792 0 -8.6360628874410995e-05 -0.05495831022648074 0 -7.0025607840877154e-05 -0.055024515079787263 0 -2.4745758036093991e-08 -0.0550000018986792 0 -7.0025607840877154e-05 -0.055024515079787263 0 -1.0864421010874972e-07 -0.055000093989099712 0 -7.7813596716650777e-05 -0.05505246666814409 0 -7.0025607840877154e-05 -0.055024515079787263 0 -1.0864421010874972e-07 -0.055000093989099712 0 -0.00010342612475175128 -0.055062744596936192 0 -0.00037735289349817596 -0.054943034013597257 0 -7.7813596716650777e-05 -0.05505246666814409 0 -0.00024784046289854381 -0.05509710611464886 0 -7.0025607840877154e-05 -0.055024515079787263 0 -7.7813596716650777e-05 -0.05505246666814409 0 -0.00049856734065256551 -0.054801627598541791 0 -0.00035419969959612455 -0.054987456138161077 0 -0.00015939471367366832 -0.055096594023852162 0 -0.00035419969959612455 -0.054987456138161077 0 -0.00071192952841009057 -0.054995720445433528 0 -0.00033829224374735099 -0.054050230525650139 0 -0.00089381528670754405 -0.053453751483465803 0 -0.00015939471367366832 -0.055096594023852162 0 -7.7813596716650777e-05 -0.05505246666814409 0 -0.00035419969959612455 -0.054987456138161077 0 -0.0010098999414000663 -0.052609731755852165 0 -0.00033729910228574232 -0.053044378273614357 0 -0.0010791650849798096 -0.051862076829881705 0 -0.0010098999414000663 -0.052609731755852165 0 -0.0013091406857205887 -0.052175333174560634 0 -0.0010791650849798096 -0.051862076829881705 0 -0.0013091406857205887 -0.052175333174560634 0 -0.0010791650849798096 -0.051862076829881705 0 -0.0013632548247727336 -0.051904315973332574 0 -0.00049856734065256551 -0.054801627598541791 0 -0.00035419969959612455 -0.054987456138161077 0 -0.00071192952841009057 -0.054995720445433528 0 -0.001082778285530381 -0.054161402938018556 0 -0.00049856734065256551 -0.054801627598541791 0 -0.00094055810128039388 -0.054675025073775245 0 -0.00049856734065256551 -0.054801627598541791 0 -0.00071192952841009057 -0.054995720445433528 0 -0.00094055810128039388 -0.054675025073775245 0 -0.00089381528670754405 -0.053453751483465803 0 -0.0015726487047793549 -0.052993846180651165 0 -0.00071192952841009057 -0.054995720445433528 0 -0.00094055810128039388 -0.054675025073775245 0 -0.001475626336719394 -0.054685573051329796 0 -0.0010791650849798096 -0.051862076829881705 0 -0.0015127466141341549 -0.051511113988412696 0 -0.0014487704802532719 -0.051725456746755695 0 -0.0015127466141341549 -0.051511113988412696 0 -0.0014487704802532719 -0.051725456746755695 0 -0.0015704661731722803 -0.051625008913500546 0 -0.0014485648713762503 -0.052629207802073759 0 -0.0013091406857205887 -0.052175333174560634 0 -0.0015184432334323121 -0.05187181924865962 0 -0.0014487704802532719 -0.051725456746755695 0 -0.0013632548247727336 -0.051904315973332574 0 -0.0015184432334323121 -0.05187181924865962 0 -0.0010791650849798096 -0.051862076829881705 0 -0.0014487704802532719 -0.051725456746755695 0 -0.0013632548247727336 -0.051904315973332574 0 -0.0014487704802532719 -0.051725456746755695 0 -0.0015184432334323121 -0.05187181924865962 0 -0.0015704661731722803 -0.051625008913500546 0 -0.0013091406857205887 -0.052175333174560634 0 -0.0013632548247727336 -0.051904315973332574 0 -0.0015184432334323121 -0.05187181924865962 0 -0.0015913515844555477 -0.051626950543052996 0 -0.0015184432334323121 -0.05187181924865962 0 -0.0015798439570786429 -0.051593740869576236 0 -0.0015184432334323121 -0.05187181924865962 0 -0.0015798439570786429 -0.051593740869576236 0 -0.0015704661731722803 -0.051625008913500546 0 -0.0015798439570786429 -0.051593740869576236 0 -0.0015704661731722803 -0.051625008913500546 0 -0.0015921482714038049 -0.051521359198261701 0 -0.0015798439570786429 -0.051593740869576236 0 -0.0015122838698733007 -0.051370566438197499 0 -0.0015921482714038049 -0.051521359198261701 0 -0.0015913515844555477 -0.051626950543052996 0 -0.0015798439570786429 -0.051593740869576236 0 -0.0015122838698733007 -0.051370566438197499 0 -0.0015122838698733007 -0.051370566438197499 0 -0.0022101987445564773 -0.050465054956751063 0 -0.0019950678661713977 -0.049782468323605306 0 -0.0015122838698733007 -0.051370566438197499 0 -0.0020640274938392897 -0.051167597247365547 0 -0.0022101987445564773 -0.050465054956751063 0 -0.0018276612117119654 -0.051558419556609392 0 -0.0015122838698733007 -0.051370566438197499 0 -0.0020640274938392897 -0.051167597247365547 0 -0.0015122838698733007 -0.051370566438197499 0 -0.0019950678661713977 -0.049782468323605306 0 -0.0013980628690292713 -0.048760113625776307 0 -0.0015910398900573614 -0.051533704930598022 0 -0.0015921482714038049 -0.051521359198261701 0 -0.0016412652096473781 -0.051550940375612406 0 -0.0015460668979056695 -0.051226173739758081 0 -0.0013521491699031471 -0.050187545842292423 0 -0.0015122838698733007 -0.051370566438197499 0 -0.0015921482714038049 -0.051521359198261701 0 -0.0016412652096473781 -0.051550940375612406 0 -0.0015127466141341549 -0.051511113988412696 0 -0.0015910398900573614 -0.051533704930598022 0 -0.0015944738422893662 -0.051512599410868803 0 -0.0015127466141341549 -0.051511113988412696 0 -0.0015910398900573614 -0.051533704930598022 0 -0.0015704661731722803 -0.051625008913500546 0 -0.0015910398900573614 -0.051533704930598022 0 -0.0015704661731722803 -0.051625008913500546 0 -0.0015921482714038049 -0.051521359198261701 0 -0.005984230822904375 -0.039937790306185612 0 -0.0061677381558813095 -0.040598032852024485 0 -0.0065839561739997462 -0.040165393008480141 0 -0.0025181889270166884 -0.050836272198734309 0 -0.0022101987445564773 -0.050465054956751063 0 -0.002852571819742313 -0.050161256464185358 0 -0.0032876259039743695 -0.050869064338685731 0 -0.0025181889270166884 -0.050836272198734309 0 -0.002852571819742313 -0.050161256464185358 0 -0.002392709437615298 -0.051457374391368438 0 -0.0032876259039743695 -0.050869064338685731 0 -0.0025181889270166884 -0.050836272198734309 0 -0.002392709437615298 -0.051457374391368438 0 -0.0020640274938392897 -0.051167597247365547 0 -0.0025181889270166884 -0.050836272198734309 0 -0.0020640274938392897 -0.051167597247365547 0 -0.0025181889270166884 -0.050836272198734309 0 -0.0022101987445564773 -0.050465054956751063 0 -0.0022101987445564773 -0.050465054956751063 0 -0.0019950678661713977 -0.049782468323605306 0 -0.0026253055729818548 -0.049598904437459901 0 -0.0019950678661713977 -0.049782468323605306 0 -0.0026253055729818548 -0.049598904437459901 0 -0.0025463707094769169 -0.048608665845332216 0 -0.0019950678661713977 -0.049782468323605306 0 -0.0025463707094769169 -0.048608665845332216 0 -0.0013980628690292713 -0.048760113625776307 0 -0.0026253055729818548 -0.049598904437459901 0 -0.0031193326608476095 -0.048963618775776617 0 -0.0025463707094769169 -0.048608665845332216 0 -0.0026253055729818548 -0.049598904437459901 0 -0.0030261447148049432 -0.049464965218358178 0 -0.0031193326608476095 -0.048963618775776617 0 -0.0026253055729818548 -0.049598904437459901 0 -0.0030261447148049432 -0.049464965218358178 0 -0.002852571819742313 -0.050161256464185358 0 -0.0022101987445564773 -0.050465054956751063 0 -0.0026253055729818548 -0.049598904437459901 0 -0.002852571819742313 -0.050161256464185358 0 -0.0032876259039743695 -0.050869064338685731 0 -0.002852571819742313 -0.050161256464185358 0 -0.003450195741235831 -0.049543505919692206 0 -0.0032876259039743695 -0.050869064338685731 0 -0.0036783089390284231 -0.049310567344398148 0 -0.003450195741235831 -0.049543505919692206 0 -0.0061677381558813095 -0.040598032852024485 0 -0.0065839561739997462 -0.040165393008480141 0 -0.006567461622127368 -0.04113542409782777 0 -0.0049695971346078267 -0.045491642277058576 0 -0.0044613300010039993 -0.045419292101353592 0 -0.0030261447148049432 -0.049464965218358178 0 -0.002852571819742313 -0.050161256464185358 0 -0.003450195741235831 -0.049543505919692206 0 -0.0030261447148049432 -0.049464965218358178 0 -0.003450195741235831 -0.049543505919692206 0 -0.0031193326608476095 -0.048963618775776617 0 -0.0037352584590839601 -0.049227664826825765 0 -0.003450195741235831 -0.049543505919692206 0 -0.0031193326608476095 -0.048963618775776617 0 -0.0044613300010039993 -0.045419292101353592 0 -0.0035891858618335381 -0.046940976409508173 0 -0.0061677381558813095 -0.040598032852024485 0 -0.0060294972545722548 -0.041086361477735561 0 -0.006567461622127368 -0.04113542409782777 0 -0.0029747562886478477 -0.04553564068671332 0 -0.003255865389913085 -0.045130201626127076 0 -0.0032378585249469715 -0.045458500399565831 0 -0.0046359432661282358 -0.04334082906223434 0 -0.0044613300010039993 -0.045419292101353592 0 -0.0037352584590839601 -0.049227664826825765 0 -0.0037111812752802171 -0.047510027966392483 0 -0.0031193326608476095 -0.048963618775776617 0 -0.0044613300010039993 -0.045419292101353592 0 -0.0034321303826369992 -0.046820342701828305 0 -0.0037111812752802171 -0.047510027966392483 0 -0.0031193326608476095 -0.048963618775776617 0 -0.0025463707094769169 -0.048608665845332216 0 -0.0037111812752802171 -0.047510027966392483 0 -0.0025463707094769169 -0.048608665845332216 0 -0.0025382817875109964 -0.047437975773164852 0 -0.0025463707094769169 -0.048608665845332216 0 -0.0025382817875109964 -0.047437975773164852 0 -0.0013980628690292713 -0.048760113625776307 0 -0.0033763636730560968 -0.048666482935310028 0 -0.0013521491699031471 -0.050187545842292423 0 -0.002217009948735171 -0.046124879526554703 0 -0.0025382817875109964 -0.047437975773164852 0 -0.0013980628690292713 -0.048760113625776307 0 -0.002217009948735171 -0.046124879526554703 0 -0.0028827547201910847 -0.046284169831943188 0 -0.0025382817875109964 -0.047437975773164852 0 -0.0037111812752802171 -0.047510027966392483 0 -0.0028827547201910847 -0.046284169831943188 0 -0.0032674517143650174 -0.045935550255671448 0 -0.0032378585249469715 -0.045458500399565831 0 -0.0030628944282837202 -0.045649334265011526 0 -0.0032674517143650174 -0.045935550255671448 0 -0.0034321303826369992 -0.046820342701828305 0 -0.00333926856243648 -0.045931008522262694 0 -0.0037111812752802171 -0.047510027966392483 0 -0.0028827547201910847 -0.046284169831943188 0 -0.0025382817875109964 -0.047437975773164852 0 -0.0029747562886478477 -0.04553564068671332 0 -0.0032378585249469715 -0.045458500399565831 0 -0.0030628944282837202 -0.045649334265011526 0 -0.0015127466141341549 -0.051511113988412696 0 -0.0015944738422893662 -0.051512599410868803 0 -0.0015770595909231505 -0.051445136792895099 0 -0.0015726487047793549 -0.052993846180651165 0 -0.0018494623869988651 -0.053350554991807145 0 -0.001475626336719394 -0.054685573051329796 0 -0.0025489012211733194 -0.054194904246302578 0 -0.0018203488547604409 -0.053952022089424415 0 -0.0015910398900573614 -0.051533704930598022 0 -0.0015944738422893662 -0.051512599410868803 0 -0.0016412652096473781 -0.051550940375612406 0 -0.0015944738422893662 -0.051512599410868803 0 -0.0016412652096473781 -0.051550940375612406 0 -0.0015770595909231505 -0.051445136792895099 0 -0.0025489012211733194 -0.054194904246302578 0 -0.0022603065331148536 -0.05339093332995682 0 -0.0030865185362503591 -0.053008374237710931 0 -0.0043290934465203103 -0.053020355769712327 0 -0.0025489012211733194 -0.054194904246302578 0 -0.0030865185362503591 -0.053008374237710931 0 -0.0033763636730560968 -0.048666482935310028 0 -0.0018494623869988651 -0.053350554991807145 0 -0.0018047949902863967 -0.051225516987625598 0 -0.0016412652096473781 -0.051550940375612406 0 -0.0015770595909231505 -0.051445136792895099 0 -0.0022603065331148536 -0.05339093332995682 0 -0.0018203488547604409 -0.053952022089424415 0 -0.0018473270861019252 -0.053181658657526658 0 -0.0025489012211733194 -0.054194904246302578 0 -0.0022603065331148536 -0.05339093332995682 0 -0.0018203488547604409 -0.053952022089424415 0 -0.0028578763553704116 -0.052179022234764852 0 -0.0029079926948194085 -0.051543674100606687 0 -0.0023196146288887126 -0.052149277563446519 0 -0.0028578763553704116 -0.052179022234764852 0 -0.0030982901530937261 -0.051658099509299456 0 -0.0029079926948194085 -0.051543674100606687 0 -0.0028578763553704116 -0.052179022234764852 0 -0.0030982901530937261 -0.051658099509299456 0 -0.0034349639186357708 -0.051564310880191928 0 -0.0022603065331148536 -0.05339093332995682 0 -0.0021676336185404233 -0.0526388652562466 0 -0.0030865185362503591 -0.053008374237710931 0 -0.0022603065331148536 -0.05339093332995682 0 -0.0018473270861019252 -0.053181658657526658 0 -0.0021676336185404233 -0.0526388652562466 0 -0.0025526315082497358 -0.052418716801865758 0 -0.0040692203635572036 -0.051743076680202962 0 -0.0021676336185404233 -0.0526388652562466 0 -0.0030865185362503591 -0.053008374237710931 0 -0.0041460387200206138 -0.051625356781178369 0 -0.0028578763553704116 -0.052179022234764852 0 -0.0034349639186357708 -0.051564310880191928 0 -0.0041460387200206138 -0.051625356781178369 0 -0.0043290934465203103 -0.053020355769712327 0 -0.0030865185362503591 -0.053008374237710931 0 -0.0041460387200206138 -0.051625356781178369 0 -0.0034349639186357708 -0.051564310880191928 0 -0.0038101031011495419 -0.051051892863494153 0 -0.0041460387200206138 -0.051625356781178369 0 -0.0030982901530937261 -0.051658099509299456 0 -0.0034349639186357708 -0.051564310880191928 0 -0.0032452294425941615 -0.051283511537116445 0 -0.0034349639186357708 -0.051564310880191928 0 -0.0032452294425941615 -0.051283511537116445 0 -0.0035694134093076 -0.05081888412839889 0 -0.0032452294425941615 -0.051283511537116445 0 -0.0035694134093076 -0.05081888412839889 0 -0.0033007318551272341 -0.050747892965255045 0 -0.0038101031011495419 -0.051051892863494153 0 -0.0035694134093076 -0.05081888412839889 0 -0.0040099322787551265 -0.050154498504448627 0 -0.0034349639186357708 -0.051564310880191928 0 -0.0038101031011495419 -0.051051892863494153 0 -0.0035694134093076 -0.05081888412839889 0 -0.0037004354468427583 -0.050092750346029245 0 -0.0040099322787551265 -0.050154498504448627 0 -0.0041574711204554349 -0.049415160184114043 0 -0.0035694134093076 -0.05081888412839889 0 -0.0037004354468427583 -0.050092750346029245 0 -0.0040099322787551265 -0.050154498504448627 0 -0.0035694134093076 -0.05081888412839889 0 -0.0037004354468427583 -0.050092750346029245 0 -0.0033007318551272341 -0.050747892965255045 0 -0.0029690512818495054 -0.050927520026753194 0 -0.0026213570879675 -0.051358519901942616 0 -0.0029079926948194085 -0.051543674100606687 0 -0.0033007318551272341 -0.050747892965255045 0 -0.0029690512818495054 -0.050927520026753194 0 -0.0033088847159120495 -0.050179992265744121 0 -0.0033007318551272341 -0.050747892965255045 0 -0.0029690512818495054 -0.050927520026753194 0 -0.0029079926948194085 -0.051543674100606687 0 -0.0029690512818495054 -0.050927520026753194 0 -0.0026213570879675 -0.051358519901942616 0 -0.0027409830320452777 -0.050669330126484231 0 -0.0026213570879675 -0.051358519901942616 0 -0.0027409830320452777 -0.050669330126484231 0 -0.002172909619981137 -0.051517681151380966 0 -0.0026213570879675 -0.051358519901942616 0 -0.0029079926948194085 -0.051543674100606687 0 -0.0023196146288887126 -0.052149277563446519 0 -0.0030982901530937261 -0.051658099509299456 0 -0.0032452294425941615 -0.051283511537116445 0 -0.0029079926948194085 -0.051543674100606687 0 -0.0032452294425941615 -0.051283511537116445 0 -0.0033007318551272341 -0.050747892965255045 0 -0.0029079926948194085 -0.051543674100606687 0 -0.0028827547201910847 -0.046284169831943188 0 -0.0032674517143650174 -0.045935550255671448 0 -0.0033968378341921544 -0.045751090652165559 0 -0.0029192917116557322 -0.045589991562336972 0 -0.0032674517143650174 -0.045935550255671448 0 -0.0033968378341921544 -0.045751090652165559 0 -0.0029192917116557322 -0.045589991562336972 0 -0.0030628944282837202 -0.045649334265011526 0 -0.0032674517143650174 -0.045935550255671448 0 -0.0062832624890159523 -0.043463929706491218 0 -0.0056332497114978501 -0.045553469870241177 0 -0.0033968378341921544 -0.045751090652165559 0 -0.0033763636730560968 -0.048666482935310028 0 -0.004059490167050846 -0.044422271835530686 0 -0.002217009948735171 -0.046124879526554703 0 -0.0028827547201910847 -0.046284169831943188 0 -0.0033968378341921544 -0.045751090652165559 0 -0.0033763636730560968 -0.048666482935310028 0 -0.0051881470967138537 -0.048257430588661041 0 -0.0043290934465203103 -0.053020355769712327 0 -0.0049521173081094379 -0.051286466392076874 0 -0.0041460387200206138 -0.051625356781178369 0 -0.0038101031011495419 -0.051051892863494153 0 -0.0041460387200206138 -0.051625356781178369 0 -0.0043055150810111156 -0.05055509397478139 0 -0.0049521173081094379 -0.051286466392076874 0 -0.0041460387200206138 -0.051625356781178369 0 -0.0043055150810111156 -0.05055509397478139 0 -0.0038101031011495419 -0.051051892863494153 0 -0.0043055150810111156 -0.05055509397478139 0 -0.0040099322787551265 -0.050154498504448627 0 -0.0040099322787551265 -0.050154498504448627 0 -0.0047523983626053274 -0.0483810141480523 0 -0.0041574711204554349 -0.049415160184114043 0 -0.0043055150810111156 -0.05055509397478139 0 -0.0040099322787551265 -0.050154498504448627 0 -0.0047523983626053274 -0.0483810141480523 0 -0.0056332497114978501 -0.045553469870241177 0 -0.0047523983626053274 -0.0483810141480523 0 -0.0041991980946433551 -0.046764838013302015 0 -0.0049521173081094379 -0.051286466392076874 0 -0.0043055150810111156 -0.05055509397478139 0 -0.0047523983626053274 -0.0483810141480523 0 -0.0051881470967138537 -0.048257430588661041 0 -0.0048936889218962011 -0.048558918419072138 0 -0.0056332497114978501 -0.045553469870241177 0 -0.0041991980946433551 -0.046764838013302015 0 -0.0033968378341921544 -0.045751090652165559 0 -0.0041991980946433551 -0.046764838013302015 0 -0.0035739764358517804 -0.047010725830744601 0 -0.0033968378341921544 -0.045751090652165559 0 -0.0047523983626053274 -0.0483810141480523 0 -0.0041991980946433551 -0.046764838013302015 0 -0.0035739764358517804 -0.047010725830744601 0 -0.0028965810527509933 -0.045620714728574159 0 -0.0035739764358517804 -0.047010725830744601 0 -0.0033968378341921544 -0.045751090652165559 0 -0.0025446296104900466 -0.046216322713874138 0 -0.0035739764358517804 -0.047010725830744601 0 -0.0043356831877039001 -0.048872213122204154 0 0.0020957691427338897 -0.04118520152244614 0 0.0075209699779828273 -0.039154539688528736 0 0.0079195574447924917 -0.035963896259151383 0 0.011963013980454136 -0.028047895514538502 0 0.017783954766323162 -0.030054921252212409 0 -0.0047523983626053274 -0.0483810141480523 0 -0.0035739764358517804 -0.047010725830744601 0 -0.0043356831877039001 -0.048872213122204154 0 -0.0043356831877039001 -0.048872213122204154 0 -0.0041712605891008831 -0.04921643242227286 0 -0.0036629601688872144 -0.049299445382423979 0 -0.0047523983626053274 -0.0483810141480523 0 -0.0043356831877039001 -0.048872213122204154 0 -0.0041712605891008831 -0.04921643242227286 0 -0.0041574711204554349 -0.049415160184114043 0 -0.0041712605891008831 -0.04921643242227286 0 -0.0037855210116782691 -0.049605010650342923 0 -0.0047523983626053274 -0.0483810141480523 0 -0.0041574711204554349 -0.049415160184114043 0 -0.0041712605891008831 -0.04921643242227286 0 0.0075209699779828273 -0.039154539688528736 0 0.0056274781825533492 -0.040500904782926013 0 0.018701270121088586 -0.028465254635429274 0 0.022808851768558666 -0.027813006255459179 0 0.020074915011299821 -0.025202139138054021 0 0.020232906594588464 -0.025445280796520586 0 0.01336027345062591 -0.0291926950651951 0 0.017783954766323162 -0.030054921252212409 0 0.018701270121088586 -0.028465254635429274 0 0.022808851768558666 -0.027813006255459179 0 0.019300739299033691 -0.023897545083045736 0 0.018701270121088586 -0.028465254635429274 0 0.021537874718921692 -0.022008277131167629 0 0.019300739299033691 -0.023897545083045736 0 0.018701270121088586 -0.028465254635429274 0 0.017473397707086766 -0.025934902953575468 0 0.019300739299033691 -0.023897545083045736 0 0.017473397707086766 -0.025934902953575468 0 0.016441365540977255 -0.023551247701118744 0 0.011963013980454136 -0.028047895514538502 0 0.017783954766323162 -0.030054921252212409 0 0.015696811742159828 -0.026769434946177315 0 0.018701270121088586 -0.028465254635429274 0 0.015696811742159828 -0.026769434946177315 0 0.017473397707086766 -0.025934902953575468 0 0.017783954766323162 -0.030054921252212409 0 0.018701270121088586 -0.028465254635429274 0 0.015696811742159828 -0.026769434946177315 0 0.015696811742159828 -0.026769434946177315 0 0.01282853348788314 -0.024272429501706241 0 0.016441365540977255 -0.023551247701118744 0 0.015696811742159828 -0.026769434946177315 0 0.017473397707086766 -0.025934902953575468 0 0.016441365540977255 -0.023551247701118744 0 0.011963013980454136 -0.028047895514538502 0 0.015696811742159828 -0.026769434946177315 0 0.01282853348788314 -0.024272429501706241 0 -0.003065098002725791 -0.050112449572242201 0 -0.0033679809703579177 -0.049670919890390137 0 -0.0027855688834152723 -0.049929655006937482 0 -0.003065098002725791 -0.050112449572242201 0 -0.0033088847159120495 -0.050179992265744121 0 -0.0033679809703579177 -0.049670919890390137 0 -0.0027409830320452777 -0.050669330126484231 0 -0.0027855688834152723 -0.049929655006937482 0 -0.0020833901951661073 -0.050655753626752752 0 -0.003065098002725791 -0.050112449572242201 0 -0.0027409830320452777 -0.050669330126484231 0 -0.0027855688834152723 -0.049929655006937482 0 -0.0029690512818495054 -0.050927520026753194 0 -0.0027409830320452777 -0.050669330126484231 0 -0.0033088847159120495 -0.050179992265744121 0 -0.003065098002725791 -0.050112449572242201 0 -0.0027409830320452777 -0.050669330126484231 0 -0.0033088847159120495 -0.050179992265744121 0 -0.0037004354468427583 -0.050092750346029245 0 -0.0033088847159120495 -0.050179992265744121 0 -0.0037855210116782691 -0.049605010650342923 0 -0.0037004354468427583 -0.050092750346029245 0 -0.0033007318551272341 -0.050747892965255045 0 -0.0033088847159120495 -0.050179992265744121 0 -0.0037004354468427583 -0.050092750346029245 0 -0.0041574711204554349 -0.049415160184114043 0 -0.0037855210116782691 -0.049605010650342923 0 -0.0041712605891008831 -0.04921643242227286 0 -0.0037855210116782691 -0.049605010650342923 0 -0.0036629601688872144 -0.049299445382423979 0 -0.0033088847159120495 -0.050179992265744121 0 -0.0037855210116782691 -0.049605010650342923 0 -0.0033679809703579177 -0.049670919890390137 0 -0.0037855210116782691 -0.049605010650342923 0 -0.0033679809703579177 -0.049670919890390137 0 -0.0036629601688872144 -0.049299445382423979 0 0.0021635732004216162 -0.043967020117692823 0 0.0056274781825533492 -0.040500904782926013 0 0.0056274781825533492 -0.040500904782926013 0 0.01336027345062591 -0.0291926950651951 0 0.006434240750279552 -0.039337443991753311 0 0.0076184361619888799 -0.041544488644660982 0 0.0089936599752661606 -0.041847634666688012 0 0.006434240750279552 -0.039337443991753311 0 0.0076184361619888799 -0.041544488644660982 0 0.0051723334396927478 -0.041747233862889102 0 -0.0035947911477868014 -0.049464024667842672 0 -0.0027855688834152723 -0.049929655006937482 0 -0.0021934854560752941 -0.049344096168339978 0 0.0056274781825533492 -0.040500904782926013 0 -0.0010042027325005214 -0.046144053283691949 0 0.006434240750279552 -0.039337443991753311 0 0.0010699151833075547 -0.041243174448536014 0 0.0051723334396927478 -0.041747233862889102 0 -0.0033679809703579177 -0.049670919890390137 0 -0.0035947911477868014 -0.049464024667842672 0 -0.0027855688834152723 -0.049929655006937482 0 -0.0027855688834152723 -0.049929655006937482 0 -0.0020833901951661073 -0.050655753626752752 0 -0.0021934854560752941 -0.049344096168339978 0 -0.0008523582881574559 -0.050925797101097264 0 -0.0020833901951661073 -0.050655753626752752 0 -0.0021934854560752941 -0.049344096168339978 0 -0.00059458636189890768 -0.051653608539222899 0 -0.0010042027325005214 -0.046144053283691949 0 -0.00017073222272322362 -0.051493410532342569 0 4.5496871939301441e-05 -0.049476475335428989 0 -0.0020288999771828921 -0.050165168400787261 0 -0.0008523582881574559 -0.050925797101097264 0 -0.0016108493385917563 -0.05146300191833094 0 -0.0013004632414403328 -0.052676749233916208 0 -0.0008523582881574559 -0.050925797101097264 0 -0.0016108493385917563 -0.05146300191833094 0 -0.0020833901951661073 -0.050655753626752752 0 -0.0016108493385917563 -0.05146300191833094 0 -0.0020833901951661073 -0.050655753626752752 0 -0.002172909619981137 -0.051517681151380966 0 -0.0027409830320452777 -0.050669330126484231 0 -0.0020833901951661073 -0.050655753626752752 0 -0.002172909619981137 -0.051517681151380966 0 -0.0026213570879675 -0.051358519901942616 0 -0.002172909619981137 -0.051517681151380966 0 -0.0023196146288887126 -0.052149277563446519 0 -0.002172909619981137 -0.051517681151380966 0 -0.0023196146288887126 -0.052149277563446519 0 -0.0013004632414403328 -0.052676749233916208 0 -0.0016108493385917563 -0.05146300191833094 0 -0.002172909619981137 -0.051517681151380966 0 -0.0013004632414403328 -0.052676749233916208 0 -0.0012955082674289118 -0.053383879866650268 0 -0.00034911097410205837 -0.054289497970329441 0 -0.0013004632414403328 -0.052676749233916208 0 -0.0017355376815394274 -0.053277955096973528 0 -0.0005355144302623009 -0.05427653529935246 0 -0.0028578763553704116 -0.052179022234764852 0 -0.0023196146288887126 -0.052149277563446519 0 -0.0017355376815394274 -0.053277955096973528 0 -0.0018473270861019252 -0.053181658657526658 0 -0.0021676336185404233 -0.0526388652562466 0 -0.00089267827178932146 -0.053489039293620415 0 -0.0025526315082497358 -0.052418716801865758 0 -0.0012955082674289118 -0.053383879866650268 0 -0.0023196146288887126 -0.052149277563446519 0 -0.0013004632414403328 -0.052676749233916208 0 -0.0017355376815394274 -0.053277955096973528 0 4.2654602902800451e-07 -0.055000874145254924 0 -0.00034314680568578215 -0.053727816775621454 0 0.00014982816599543855 -0.054642993423322433 0 4.2654602902800451e-07 -0.055000874145254924 0 0.00014982816599543855 -0.054642993423322433 0 1.9869552074873718e-07 -0.054995831097564507 0 4.2654602902800451e-07 -0.055000874145254924 0 -0.0005355144302623009 -0.05427653529935246 0 -0.00034314680568578215 -0.053727816775621454 0 -0.0013004632414403328 -0.052676749233916208 0 -0.0005355144302623009 -0.05427653529935246 0 -0.00034314680568578215 -0.053727816775621454 0 -0.0008523582881574559 -0.050925797101097264 0 -0.0013004632414403328 -0.052676749233916208 0 -0.00034314680568578215 -0.053727816775621454 0 -0.00034314680568578215 -0.053727816775621454 0 0.00022397990051971272 -0.053305131943449026 0 0.00014982816599543855 -0.054642993423322433 0 0.0004973581780755151 -0.055291134007036426 0 0.00014982816599543855 -0.054642993423322433 0 1.9869552074873718e-07 -0.054995831097564507 0 0.0005328914816580539 -0.053773105024136396 0 0.00043334363289000184 -0.054357926815733613 0 0.0005328914816580539 -0.053773105024136396 0 7.0051610147866517e-07 -0.054999345021650277 0 -3.7249070550134685e-08 -0.054996327810669536 0 -3.4362815078121358e-10 -0.05499999736813773 0 1.624419174223356e-09 -0.054999969618170538 0 0.0005328914816580539 -0.053773105024136396 0 0.00056191566618736684 -0.05342147261425835 0 -3.7249070550134685e-08 -0.054996327810669536 0 -3.8071030905250867e-06 -0.054985788359831027 0 1.624419174223356e-09 -0.054999969618170538 0 -0.00017073222272322362 -0.051493410532342569 0 0.0016927468618927305 -0.052822273782857802 0 0.0008723920261343289 -0.051142469081313743 0 -0.00059458636189890768 -0.051653608539222899 0 0.0005328914816580539 -0.053773105024136396 0 -0.0008523582881574559 -0.050925797101097264 0 -0.00034314680568578215 -0.053727816775621454 0 0.00022397990051971272 -0.053305131943449026 0 0.00056191566618736684 -0.05342147261425835 0 -5.5029443400123785e-05 -0.050465549600548887 0 -0.00017073222272322362 -0.051493410532342569 0 0.0008723920261343289 -0.051142469081313743 0 4.5496871939301441e-05 -0.049476475335428989 0 -3.8071030905250867e-06 -0.054985788359831027 0 1.624419174223356e-09 -0.054999969618170538 0 -1.4163909487165483e-06 -0.05498473108756595 0 -1.4163909487165483e-06 -0.05498473108756595 0 -2.9314525473525564e-06 -0.054980182019958579 0 -3.4242004703735279e-09 -0.054999966703538759 0 1.624419174223356e-09 -0.054999969618170538 0 -1.4163909487165483e-06 -0.05498473108756595 0 -3.4242004703735279e-09 -0.054999966703538759 0 -1.4163909487165483e-06 -0.05498473108756595 0 -2.9314525473525564e-06 -0.054980182019958579 0 -1.0262706651264499e-05 -0.054954924719949769 0 -3.8071030905250867e-06 -0.054985788359831027 0 -1.4163909487165483e-06 -0.05498473108756595 0 -1.0262706651264499e-05 -0.054954924719949769 0 -0.00024811437880451197 -0.054877161314252319 0 -5.5029443400123785e-05 -0.050465549600548887 0 9.4714661093916973e-06 -0.054938867368139972 0 3.1439659449393233e-05 -0.054903526147213999 0 -1.991508108150068e-07 -0.054980031157263361 0 -1.4204862064956641e-06 -0.054936437395245612 0 9.4714661093916973e-06 -0.054938867368139972 0 -3.0212741382423062e-06 -0.054974394626975703 0 -1.4204862064956641e-06 -0.054936437395245612 0 2.1782123706500328e-05 -0.054882321935037899 0 9.4714661093916973e-06 -0.054938867368139972 0 2.1782123706500328e-05 -0.054882321935037899 0 9.4714661093916973e-06 -0.054938867368139972 0 3.1439659449393233e-05 -0.054903526147213999 0 -1.4204862064956641e-06 -0.054936437395245612 0 -2.5845055728056885e-08 -0.054999867545733709 0 -3.0212741382423062e-06 -0.054974394626975703 0 -0.00024811437880451197 -0.054877161314252319 0 1.3662152747569179e-07 -0.054999904268006168 0 0.0015297083081356987 -0.041735466119404693 0 0.00078346362749280541 -0.04469799195722645 0 0.0027181776050890704 -0.044864969073815486 0 0.0015297083081356987 -0.041735466119404693 0 -0.00062065016791025996 -0.043612481970039502 0 0.00078346362749280541 -0.04469799195722645 0 -5.5029443400123785e-05 -0.050465549600548887 0 -0.0010042027325005214 -0.046144053283691949 0 -0.002748221296721648 -0.043330949022858847 0 0.0015297083081356987 -0.041735466119404693 0 -0.00062065016791025996 -0.043612481970039502 0 -0.00062065016791025996 -0.043612481970039502 0 -0.0015668580144274032 -0.044089953951655207 0 -0.00097102179354910476 -0.044566430831666615 0 -5.5029443400123785e-05 -0.050465549600548887 0 -0.0014766263877917702 -0.049136550524168737 0 -0.002748221296721648 -0.043330949022858847 0 -0.00062065016791025996 -0.043612481970039502 0 -0.0015668580144274032 -0.044089953951655207 0 -0.002748221296721648 -0.043330949022858847 0 -0.0015668580144274032 -0.044089953951655207 0 -0.0019526838639750152 -0.044915778124776609 0 -0.0015668580144274032 -0.044089953951655207 0 -0.0019526838639750152 -0.044915778124776609 0 -0.00097102179354910476 -0.044566430831666615 0 -0.0014766263877917702 -0.049136550524168737 0 -0.0016723330077317341 -0.045902857382156589 0 -0.0019526838639750152 -0.044915778124776609 0 -0.00041298495357408957 -0.045577475178197803 0 -0.00087178987960140851 -0.047036495630197066 0 -0.00041298495357408957 -0.045577475178197803 0 0.00090421782334326956 -0.046511872743757308 0 -0.00087178987960140851 -0.047036495630197066 0 -0.00041298495357408957 -0.045577475178197803 0 -0.00097102179354910476 -0.044566430831666615 0 0.00078346362749280541 -0.04469799195722645 0 -0.00062065016791025996 -0.043612481970039502 0 -0.00097102179354910476 -0.044566430831666615 0 0.00078346362749280541 -0.04469799195722645 0 -0.0019526838639750152 -0.044915778124776609 0 -0.00041298495357408957 -0.045577475178197803 0 -0.00097102179354910476 -0.044566430831666615 0 -0.00041298495357408957 -0.045577475178197803 0 0.00078346362749280541 -0.04469799195722645 0 0.00090421782334326956 -0.046511872743757308 0 0.00090421782334326956 -0.046511872743757308 0 0.0026314867930542656 -0.04717537279041524 0 0.0027181776050890704 -0.044864969073815486 0 0.00078346362749280541 -0.04469799195722645 0 0.00090421782334326956 -0.046511872743757308 0 0.0027181776050890704 -0.044864969073815486 0 0.00075305608929265389 -0.048595818838982036 0 0.0026314867930542656 -0.04717537279041524 0 0.0027107729359380885 -0.04896543835074179 0 0.00090421782334326956 -0.046511872743757308 0 0.00075305608929265389 -0.048595818838982036 0 0.0026314867930542656 -0.04717537279041524 0 0.00090421782334326956 -0.046511872743757308 0 0.00075305608929265389 -0.048595818838982036 0 -0.00087178987960140851 -0.047036495630197066 0 -0.001820666317893415 -0.045170876700623828 0 -0.00087178987960140851 -0.047036495630197066 0 -0.0037767864793115604 -0.049210934871557713 0 0.00075305608929265389 -0.048595818838982036 0 -0.00087178987960140851 -0.047036495630197066 0 -0.0011951191452733397 -0.049645113974788865 0 -0.00087178987960140851 -0.047036495630197066 0 -0.0011951191452733397 -0.049645113974788865 0 -0.0037767864793115604 -0.049210934871557713 0 0.0018493876804262441 -0.051154199920553652 0 -0.00099055528597578532 -0.052363752900876498 0 -0.0011951191452733397 -0.049645113974788865 0 0.0012269546980302425 -0.050901514467827973 0 -0.0022950910574423052 -0.052008285824310364 0 0.00075305608929265389 -0.048595818838982036 0 -0.0011951191452733397 -0.049645113974788865 0 0.0012269546980302425 -0.050901514467827973 0 0.00075305608929265389 -0.048595818838982036 0 0.0012269546980302425 -0.050901514467827973 0 0.0027107729359380885 -0.04896543835074179 0 -2.5845055728056885e-08 -0.054999867545733709 0 -3.0212741382423062e-06 -0.054974394626975703 0 -1.9345718966689967e-09 -0.054999986978876897 0 -3.0212741382423062e-06 -0.054974394626975703 0 -1.991508108150068e-07 -0.054980031157263361 0 -1.9345718966689967e-09 -0.054999986978876897 0 -0.0014766263877917702 -0.049136550524168737 0 -0.0020070524186729345 -0.052309319304586696 0 9.4714661093916973e-06 -0.054938867368139972 0 -3.0212741382423062e-06 -0.054974394626975703 0 -1.991508108150068e-07 -0.054980031157263361 0 -0.0037767864793115604 -0.049210934871557713 0 -0.0056692384407610666 -0.053168614973330433 0 -0.0022950910574423052 -0.052008285824310364 0 -0.0011951191452733397 -0.049645113974788865 0 -0.0037767864793115604 -0.049210934871557713 0 -0.0022950910574423052 -0.052008285824310364 0 -0.0020070524186729345 -0.052309319304586696 0 -0.001677371165250421 -0.053999588209669713 0 -1.991508108150068e-07 -0.054980031157263361 0 -1.9345718966689967e-09 -0.054999986978876897 0 -4.8858967170258565e-06 -0.054996462689973352 0 -1.9345718966689967e-09 -0.054999986978876897 0 -4.8858967170258565e-06 -0.054996462689973352 0 -1.2898489654527757e-08 -0.0549999865784589 0 -0.001677371165250421 -0.053999588209669713 0 -5.7179134709229973e-07 -0.054998662109092121 0 -0.001677371165250421 -0.053999588209669713 0 -6.1882818554485778e-05 -0.05468404690307125 0 -8.8870335598672381e-06 -0.054996957457254997 0 -2.0343570736014071e-08 -0.055000000084949978 0 1.0160264857095228e-08 -0.054999991515403662 0 -0.00012591489672010938 -0.053839797348531185 0 0.00018660649147936133 -0.054375548087391867 0 0.00046076870396980705 -0.053843781613266667 0 -0.00012591489672010938 -0.053839797348531185 0 0.00018660649147936133 -0.054375548087391867 0 -7.5706689844830268e-07 -0.054998204086928702 0 0.00018660649147936133 -0.054375548087391867 0 -7.5706689844830268e-07 -0.054998204086928702 0 0.00017471645441867676 -0.054693822217436683 0 0.00057886238374293974 -0.0543790908105245 0 0.00046076870396980705 -0.053843781613266667 0 0.0012587763238942169 -0.053822443719676864 0 0.00018660649147936133 -0.054375548087391867 0 0.00057886238374293974 -0.0543790908105245 0 0.00017471645441867676 -0.054693822217436683 0 0.00018660649147936133 -0.054375548087391867 0 0.00057886238374293974 -0.0543790908105245 0 0.00046076870396980705 -0.053843781613266667 0 -0.001677371165250421 -0.053999588209669713 0 -0.00099055528597578532 -0.052363752900876498 0 -0.00012591489672010938 -0.053839797348531185 0 0.00046076870396980705 -0.053843781613266667 0 0.00069232964793124879 -0.052765360697528477 0 0.00046076870396980705 -0.053843781613266667 0 0.00069232964793124879 -0.052765360697528477 0 0.0012587763238942169 -0.053822443719676864 0 0.0021553908535777429 -0.05148919985623631 0 0.00069232964793124879 -0.052765360697528477 0 0.0012587763238942169 -0.053822443719676864 0 0.0021553908535777429 -0.05148919985623631 0 0.0012587763238942169 -0.053822443719676864 0 0.0030988878052183393 -0.053440090152197743 0 0.0033184733276576555 -0.043683645971114099 0 0.0049949053192947677 -0.040256443851277954 0 0.0012587763238942169 -0.053822443719676864 0 0.0017443783559042731 -0.054721698556666518 0 0.0030988878052183393 -0.053440090152197743 0 0.00057886238374293974 -0.0543790908105245 0 0.0012587763238942169 -0.053822443719676864 0 0.00089377757165593744 -0.054741911770356942 0 0.0012587763238942169 -0.053822443719676864 0 0.00089377757165593744 -0.054741911770356942 0 0.0017443783559042731 -0.054721698556666518 0 0.0048477335721694758 -0.032793964983166841 0 0.0031231608183597275 -0.037353117352084693 0 0.0064407654410395324 -0.038429459316204097 0 0.0033184733276576555 -0.043683645971114099 0 0.0019781698683854409 -0.04619839584799075 0 0.00089377757165593744 -0.054741911770356942 0 0.0017443783559042731 -0.054721698556666518 0 0.00078625866062001428 -0.055101349830654893 0 0.00089377757165593744 -0.054741911770356942 0 0.00032468772773351244 -0.054934277737890787 0 0.00078625866062001428 -0.055101349830654893 0 0.00032468772773351244 -0.054934277737890787 0 2.4032570809842769e-07 -0.055000013669591383 0 1.2933986768196821e-07 -0.054999997354096157 0 0.00032468772773351244 -0.054934277737890787 0 2.4032570809842769e-07 -0.055000013669591383 0 0.00017471645441867676 -0.054693822217436683 0 -7.5706689844830268e-07 -0.054998204086928702 0 2.4032570809842769e-07 -0.055000013669591383 0 0.00017471645441867676 -0.054693822217436683 0 0.00057886238374293974 -0.0543790908105245 0 0.00089377757165593744 -0.054741911770356942 0 0.00032468772773351244 -0.054934277737890787 0 0.00057886238374293974 -0.0543790908105245 0 0.00032468772773351244 -0.054934277737890787 0 0.00017471645441867676 -0.054693822217436683 0 0.016376974791434924 -0.027643183030243185 0 0.011999187728494882 -0.029549805063568566 0 0.010831907449302692 -0.024592350330348553 0 0.011841982576741661 -0.018105042044756114 0 0.011238845361462971 -0.020178883946875104 0 0.0097491770591070243 -0.019089478585858521 0 0.013835781723338074 -0.022660638245927719 0 0.01573263415966843 -0.025612979431522274 0 0.016376974791434924 -0.027643183030243185 0 0.014209806533139984 -0.03431362849813837 0 0.019300206060730525 -0.034083798240762769 0 0.016376974791434924 -0.027643183030243185 0 0.011999187728494882 -0.029549805063568566 0 0.014209806533139984 -0.03431362849813837 0 0.011999187728494882 -0.029549805063568566 0 0.0081188274842548397 -0.033700675154174617 0 0.014209806533139984 -0.03431362849813837 0 0.011999187728494882 -0.029549805063568566 0 0.0081129385200597506 -0.027399675905934704 0 0.0081188274842548397 -0.033700675154174617 0 0.0048477335721694758 -0.032793964983166841 0 0.0064407654410395324 -0.038429459316204097 0 0.00913208583676124 -0.036509810893861135 0 0.0048477335721694758 -0.032793964983166841 0 0.0095036672409170367 -0.032178999606096992 0 0.00913208583676124 -0.036509810893861135 0 0.0088740734107357316 -0.029790108207591384 0 0.0086661340418337524 -0.035120101799424347 0 0.0048477335721694758 -0.032793964983166841 0 0.0095036672409170367 -0.032178999606096992 0 0.0068479442052993417 -0.027152581497648414 0 0.011999187728494882 -0.029549805063568566 0 0.0081129385200597506 -0.027399675905934704 0 0.010831907449302692 -0.024592350330348553 0 0.0088740734107357316 -0.029790108207591384 0 0.0096005497715342305 -0.024574599134025241 0 0.0081129385200597506 -0.027399675905934704 0 0.010831907449302692 -0.024592350330348553 0 0.0092103390143088715 -0.022150089202662551 0 0.010831907449302692 -0.024592350330348553 0 0.0092103390143088715 -0.022150089202662551 0 0.010828535075760487 -0.022113462828384729 0 0.010831907449302692 -0.024592350330348553 0 0.010828535075760487 -0.022113462828384729 0 0.012391603475816124 -0.021449198760711025 0 0.0095036672409170367 -0.032178999606096992 0 0.010007342049578162 -0.026935596983289553 0 0.0068479442052993417 -0.027152581497648414 0 0.0068479442052993417 -0.027152581497648414 0 0.0099730883772375135 -0.020193187958918276 0 0.010269839377601824 -0.020504109689052689 0 0.0049949053192947677 -0.040256443851277954 0 0.0075055007068696227 -0.035358545070352208 0 0.0021553908535777429 -0.05148919985623631 0 0.0030988878052183393 -0.053440090152197743 0 0.0048198658465864784 -0.050700462829094968 0 0.010007342049578162 -0.026935596983289553 0 0.0068479442052993417 -0.027152581497648414 0 0.010269839377601824 -0.020504109689052689 0 0.0096005497715342305 -0.024574599134025241 0 0.010135564552720138 -0.020825606287264355 0 0.0092103390143088715 -0.022150089202662551 0 0.011019345164608507 -0.021151030752095672 0 0.010269839377601824 -0.020504109689052689 0 0.010828535075760487 -0.022113462828384729 0 0.011019345164608507 -0.021151030752095672 0 0.012391603475816124 -0.021449198760711025 0 0.0092103390143088715 -0.022150089202662551 0 0.010828535075760487 -0.022113462828384729 0 0.011019345164608507 -0.021151030752095672 0 0.011019345164608507 -0.021151030752095672 0 0.011937061510668681 -0.021463920768003769 0 0.010686802052236545 -0.020663685220385281 0 0.011019345164608507 -0.021151030752095672 0 0.012391603475816124 -0.021449198760711025 0 0.011937061510668681 -0.021463920768003769 0 0.012391603475816124 -0.021449198760711025 0 0.011238845361462971 -0.020178883946875104 0 0.011937061510668681 -0.021463920768003769 0 0.016376974791434924 -0.027643183030243185 0 0.010831907449302692 -0.024592350330348553 0 0.012391603475816124 -0.021449198760711025 0 0.011841982576741661 -0.018105042044756114 0 0.012391603475816124 -0.021449198760711025 0 0.011238845361462971 -0.020178883946875104 0 0.013835781723338074 -0.022660638245927719 0 0.012670268014849781 -0.021573100517925468 0 0.010418205937264169 -0.019857094074151468 0 0.0086275405776081015 -0.019032920643769238 0 0.011238845361462971 -0.020178883946875104 0 0.011937061510668681 -0.021463920768003769 0 0.009861851689956477 -0.020915006612807974 0 0.0091573432608556913 -0.018280399757430222 0 0.0078392659805052878 -0.018782203845856878 0 0.0073580818077887584 -0.017189510507271896 0 0.0091573432608556913 -0.018280399757430222 0 0.0090983027246602094 -0.019877191804401204 0 0.0078392659805052878 -0.018782203845856878 0 0.011937061510668681 -0.021463920768003769 0 0.010686802052236545 -0.020663685220385281 0 0.010655982122772351 -0.020107504758395258 0 0.0091573432608556913 -0.018280399757430222 0 0.0097624449587408388 -0.019672152796336096 0 0.010655982122772351 -0.020107504758395258 0 0.0091573432608556913 -0.018280399757430222 0 0.0097624449587408388 -0.019672152796336096 0 0.0090983027246602094 -0.019877191804401204 0 0.010418205937264169 -0.019857094074151468 0 0.010625275910089625 -0.020041261382193792 0 0.0097624449587408388 -0.019672152796336096 0 0.010038628712188894 -0.020310146288601817 0 0.010655982122772351 -0.020107504758395258 0 0.0097624449587408388 -0.019672152796336096 0 0.010038628712188894 -0.020310146288601817 0 0.0090983027246602094 -0.019877191804401204 0 0.010038628712188894 -0.020310146288601817 0 0.0094576562432851733 -0.020879801715480959 0 0.0090983027246602094 -0.019877191804401204 0 0.010038628712188894 -0.020310146288601817 0 0.0094576562432851733 -0.020879801715480959 0 0.010759289981036962 -0.020850118778807863 0 0.0094576562432851733 -0.020879801715480959 0 0.0090983027246602094 -0.019877191804401204 0 0.0075009266237476982 -0.020348168036998029 0 0.0090983027246602094 -0.019877191804401204 0 0.0078392659805052878 -0.018782203845856878 0 0.0075009266237476982 -0.020348168036998029 0 0.0018493876804262441 -0.051154199920553652 0 0.004789098000389666 -0.049935198867262338 0 0.0012269546980302425 -0.050901514467827973 0 0.0049759908399134621 -0.049822231747554159 0 0.0027107729359380885 -0.04896543835074179 0 0.0021553908535777429 -0.05148919985623631 0 0.0048198658465864784 -0.050700462829094968 0 0.0049759908399134621 -0.049822231747554159 0 0.0099730883772375135 -0.020193187958918276 0 0.010269839377601824 -0.020504109689052689 0 0.010655982122772351 -0.020107504758395258 0 0.011019345164608507 -0.021151030752095672 0 0.010269839377601824 -0.020504109689052689 0 0.010686802052236545 -0.020663685220385281 0 0.010269839377601824 -0.020504109689052689 0 0.010686802052236545 -0.020663685220385281 0 0.010655982122772351 -0.020107504758395258 0 0.0048198658465864784 -0.050700462829094968 0 0.0049759908399134621 -0.049822231747554159 0 0.0068817020616429971 -0.046410802678250235 0 0.0075055007068696227 -0.035358545070352208 0 0.0081092474363210643 -0.034457735111920414 0 0.0099730883772375135 -0.020193187958918276 0 0.010655982122772351 -0.020107504758395258 0 0.010759289981036962 -0.020850118778807863 0 0.0049759908399134621 -0.049822231747554159 0 0.0043214931806044672 -0.047679365193616624 0 0.0068817020616429971 -0.046410802678250235 0 0.010038628712188894 -0.020310146288601817 0 0.010655982122772351 -0.020107504758395258 0 0.010759289981036962 -0.020850118778807863 0 0.0049759908399134621 -0.049822231747554159 0 0.0043214931806044672 -0.047679365193616624 0 0.0027107729359380885 -0.04896543835074179 0 0.0043214931806044672 -0.047679365193616624 0 0.0026314867930542656 -0.04717537279041524 0 0.0027107729359380885 -0.04896543835074179 0 0.0043214931806044672 -0.047679365193616624 0 0.0026314867930542656 -0.04717537279041524 0 0.0044969107313058299 -0.045469062446250472 0 0.0027181776050890704 -0.044864969073815486 0 0.0044969107313058299 -0.045469062446250472 0 0.0043407061659862002 -0.043453235890024221 0 0.0026314867930542656 -0.04717537279041524 0 0.0027181776050890704 -0.044864969073815486 0 0.0044969107313058299 -0.045469062446250472 0 0.0044969107313058299 -0.045469062446250472 0 0.0063070654526149366 -0.043111879920842359 0 0.0043407061659862002 -0.043453235890024221 0 0.0044969107313058299 -0.045469062446250472 0 0.0068817020616429971 -0.046410802678250235 0 0.0063070654526149366 -0.043111879920842359 0 0.0081092474363210643 -0.034457735111920414 0 0.01336027345062591 -0.0291926950651951 0 0.0043214931806044672 -0.047679365193616624 0 0.0044969107313058299 -0.045469062446250472 0 0.0068817020616429971 -0.046410802678250235 0 0.0068817020616429971 -0.046410802678250235 0 0.0063070654526149366 -0.043111879920842359 0 0.0089875285737594911 -0.041862003498496045 0 0.0076184361619888799 -0.041544488644660982 0 0.0063070654526149366 -0.043111879920842359 0 0.0089875285737594911 -0.041862003498496045 0 0.0076184361619888799 -0.041544488644660982 0 0.0063070654526149366 -0.043111879920842359 0 0.0051723334396927478 -0.041747233862889102 0 0.0063070654526149366 -0.043111879920842359 0 0.0043407061659862002 -0.043453235890024221 0 0.0051723334396927478 -0.041747233862889102 0 -0.0010042027325005214 -0.046144053283691949 0 0.0042065422809920254 -0.042667134273676459 0 0.0015297083081356987 -0.041735466119404693 0 0.0027181776050890704 -0.044864969073815486 0 0.0043407061659862002 -0.043453235890024221 0 0.0010699151833075547 -0.041243174448536014 0 0.0043407061659862002 -0.043453235890024221 0 0.0051723334396927478 -0.041747233862889102 0 0.007614258301902101 -0.019460640931223946 0 0.0075087983232964952 -0.0198105097708819 0 0.0082891102020851981 -0.019697701474416268 0 0.0072594703246455991 -0.019577453825750414 0 0.0070139196318405863 -0.01879211223201991 0 0.0094576562432851733 -0.020879801715480959 0 0.0088256899501342606 -0.021686563216116686 0 0.0075009266237476982 -0.020348168036998029 0 0.0082891102020851981 -0.019697701474416268 0 0.0076882071538668349 -0.020495571035728924 0 0.0072594703246455991 -0.019577453825750414 0 0.0094576562432851733 -0.020879801715480959 0 0.0088256899501342606 -0.021686563216116686 0 0.0098473792906011437 -0.021878384128018485 0 0.010759289981036962 -0.020850118778807863 0 0.0098473792906011437 -0.021878384128018485 0 0.010085149874907566 -0.02298196717591789 0 0.0094576562432851733 -0.020879801715480959 0 0.010759289981036962 -0.020850118778807863 0 0.0098473792906011437 -0.021878384128018485 0 0.007614258301902101 -0.019460640931223946 0 0.01336027345062591 -0.0291926950651951 0 0.0088256899501342606 -0.021686563216116686 0 0.0098473792906011437 -0.021878384128018485 0 0.010085149874907566 -0.02298196717591789 0 0.010102635893079101 -0.034221185215421626 0 0.01336027345062591 -0.0291926950651951 0 0.019300739299033691 -0.023897545083045736 0 0.021537874718921692 -0.022008277131167629 0 0.016441365540977255 -0.023551247701118744 0 0.021537874718921692 -0.022008277131167629 0 0.016441365540977255 -0.023551247701118744 0 0.012740667386845535 -0.019917216289672333 0 0.0082891102020851981 -0.019697701474416268 0 0.0098413834594533959 -0.021252671482771157 0 0.0076882071538668349 -0.020495571035728924 0 0.01336027345062591 -0.0291926950651951 0 0.010558842577148262 -0.019511370171454167 0 0.01282853348788314 -0.024272429501706241 0 0.016441365540977255 -0.023551247701118744 0 0.012740667386845535 -0.019917216289672333 0 0.0078433975061863309 -0.023734636515160199 0 0.01282853348788314 -0.024272429501706241 0 0.012740667386845535 -0.019917216289672333 0 0.010558842577148262 -0.019511370171454167 0 0.0065775626872397524 -0.019558230048450583 0 0.0078433975061863309 -0.023734636515160199 0 0.012740667386845535 -0.019917216289672333 0 0.0067247898962133354 -0.019158424072795964 0 0.0072594703246455991 -0.019577453825750414 0 0.0062856424728669072 -0.019805825090438586 0 0.0070139196318405863 -0.01879211223201991 0 0.0076882071538668349 -0.020495571035728924 0 0.0072594703246455991 -0.019577453825750414 0 0.0062856424728669072 -0.019805825090438586 0 0.0062856424728669072 -0.019805825090438586 0 0.0070139196318405863 -0.01879211223201991 0 0.0060229341680433993 -0.018884438707444141 0 0.0062856424728669072 -0.019805825090438586 0 0.005180498004100669 -0.019190037281118427 0 0.0060229341680433993 -0.018884438707444141 0 0.0067247898962133354 -0.019158424072795964 0 0.0060875732578866372 -0.021674638358250026 0 0.005338073128039909 -0.020191967160862103 0 0.0078433975061863309 -0.023734636515160199 0 0.0067247898962133354 -0.019158424072795964 0 0.0060875732578866372 -0.021674638358250026 0 0.0053786451906357733 -0.02114746777186783 0 0.0060875732578866372 -0.021674638358250026 0 0.005338073128039909 -0.020191967160862103 0 0.0053786451906357733 -0.02114746777186783 0 0.0047766245804462294 -0.020291156138218969 0 0.005338073128039909 -0.020191967160862103 0 0.0047766245804462294 -0.020291156138218969 0 0.005338073128039909 -0.020191967160862103 0 0.0048924523695203824 -0.019557398756346826 0 0.005338073128039909 -0.020191967160862103 0 0.0048924523695203824 -0.019557398756346826 0 0.005180498004100669 -0.019190037281118427 0 0.0047766245804462294 -0.020291156138218969 0 0.0048924523695203824 -0.019557398756346826 0 0.0041890664640984714 -0.019375931991498081 0 0.0047766245804462294 -0.020291156138218969 0 0.0040486258822099502 -0.019927976240908654 0 0.0041890664640984714 -0.019375931991498081 0 0.0048419487059025487 -0.019424252311666605 0 0.0039425419960887427 -0.018515416660817755 0 0.0048924523695203824 -0.019557398756346826 0 0.005180498004100669 -0.019190037281118427 0 0.004830611845401604 -0.018711222165889715 0 0.0048924523695203824 -0.019557398756346826 0 0.0041890664640984714 -0.019375931991498081 0 0.003737042743607442 -0.017975868927980688 0 0.0048924523695203824 -0.019557398756346826 0 0.004830611845401604 -0.018711222165889715 0 0.0041876939912991098 -0.018987684668970384 0 0.0065775626872397524 -0.019558230048450583 0 0.0052826646768899281 -0.019193835410686665 0 0.0067247898962133354 -0.019158424072795964 0 0.005338073128039909 -0.020191967160862103 0 0.005180498004100669 -0.019190037281118427 0 0.005180498004100669 -0.019190037281118427 0 0.0054569784993251562 -0.018467656708862672 0 0.0060229341680433993 -0.018884438707444141 0 0.005180498004100669 -0.019190037281118427 0 0.0054569784993251562 -0.018467656708862672 0 0.004830611845401604 -0.018711222165889715 0 0.004830611845401604 -0.018711222165889715 0 0.00493886014408167 -0.017744840136877965 0 0.0042243895179038468 -0.018144930775070619 0 0.0054569784993251562 -0.018467656708862672 0 0.004830611845401604 -0.018711222165889715 0 0.00493886014408167 -0.017744840136877965 0 0.0054569784993251562 -0.018467656708862672 0 0.0056114461397153495 -0.017861777564446346 0 0.0062426799284700605 -0.018442006871494568 0 0.0054569784993251562 -0.018467656708862672 0 0.00493886014408167 -0.017744840136877965 0 0.0056114461397153495 -0.017861777564446346 0 0.0056114461397153495 -0.017861777564446346 0 0.0062426799284700605 -0.018442006871494568 0 0.0060336026866210663 -0.017455996631768611 0 0.0062426799284700605 -0.018442006871494568 0 0.0078392659805052878 -0.018782203845856878 0 0.0073580818077887584 -0.017189510507271896 0 0.0062426799284700605 -0.018442006871494568 0 0.0078392659805052878 -0.018782203845856878 0 0.0075009266237476982 -0.020348168036998029 0 0.0062454586525452372 -0.01847114234866187 0 0.0075087983232964952 -0.0198105097708819 0 0.0062426799284700605 -0.018442006871494568 0 0.0070139196318405863 -0.01879211223201991 0 0.0060229341680433993 -0.018884438707444141 0 0.0054569784993251562 -0.018467656708862672 0 0.0062426799284700605 -0.018442006871494568 0 0.0060229341680433993 -0.018884438707444141 0 0.0017699545274004397 -0.01762686834605243 0 0.0019092471407043906 -0.017236642010398717 0 0.0013223728281653376 -0.01701520180213258 0 0.0017699545274004397 -0.01762686834605243 0 0.0023060726345187081 -0.017723866812473493 0 0.0019092471407043906 -0.017236642010398717 0 0.0019720891425423098 -0.01842083230865485 0 0.0017699545274004397 -0.01762686834605243 0 0.0025920483028455616 -0.018541505673159174 0 0.0017699545274004397 -0.01762686834605243 0 0.0025920483028455616 -0.018541505673159174 0 0.0023060726345187081 -0.017723866812473493 0 0.0025920483028455616 -0.018541505673159174 0 0.0023060726345187081 -0.017723866812473493 0 0.0028966368270196903 -0.018070651749921444 0 0.0023060726345187081 -0.017723866812473493 0 0.0028966368270196903 -0.018070651749921444 0 0.0025731670361626813 -0.017127672249786906 0 0.0028966368270196903 -0.018070651749921444 0 0.003737042743607442 -0.017975868927980688 0 0.0025731670361626813 -0.017127672249786906 0 0.0028966368270196903 -0.018070651749921444 0 0.0034739634577880723 -0.018978816228493175 0 0.003737042743607442 -0.017975868927980688 0 0.0025920483028455616 -0.018541505673159174 0 0.0028966368270196903 -0.018070651749921444 0 0.0034739634577880723 -0.018978816228493175 0 0.003310874851332064 -0.019627022765125679 0 0.0025920483028455616 -0.018541505673159174 0 0.0034739634577880723 -0.018978816228493175 0 0.0034739634577880723 -0.018978816228493175 0 0.0041890664640984714 -0.019375931991498081 0 0.003737042743607442 -0.017975868927980688 0 0.0040486258822099502 -0.019927976240908654 0 0.0034739634577880723 -0.018978816228493175 0 0.0041890664640984714 -0.019375931991498081 0 0.004830611845401604 -0.018711222165889715 0 0.0041876939912991098 -0.018987684668970384 0 0.0042243895179038468 -0.018144930775070619 0 0.00493886014408167 -0.017744840136877965 0 0.0042243895179038468 -0.018144930775070619 0 0.0039679629013810048 -0.01721977248865866 0 0.0039679629013810048 -0.01721977248865866 0 0.0031241182055445089 -0.018210438679071579 0 0.0028550165288344824 -0.01696333700652497 0 0.0042243895179038468 -0.018144930775070619 0 0.0039679629013810048 -0.01721977248865866 0 0.0031241182055445089 -0.018210438679071579 0 0.0039425419960887427 -0.018515416660817755 0 0.0028549414272109582 -0.017668094005205602 0 0.0041876939912991098 -0.018987684668970384 0 0.0042243895179038468 -0.018144930775070619 0 0.0031241182055445089 -0.018210438679071579 0 0.0023060726345187081 -0.017723866812473493 0 0.0025731670361626813 -0.017127672249786906 0 0.0019092471407043906 -0.017236642010398717 0 0.0028549414272109582 -0.017668094005205602 0 0.0019607132280142327 -0.017049643069165104 0 0.0031241182055445089 -0.018210438679071579 0 0.0028550165288344824 -0.01696333700652497 0 0.0018831544343820587 -0.016981853430722029 0 0.0018831544343820587 -0.016981853430722029 0 0.0021485422946195577 -0.016263520931157294 0 0.0012755516051137891 -0.016799930738725679 0 0.0028550165288344824 -0.01696333700652497 0 0.0018831544343820587 -0.016981853430722029 0 0.0021485422946195577 -0.016263520931157294 0 0.0018831544343820587 -0.016981853430722029 0 0.0019092471407043906 -0.017236642010398717 0 0.0013223728281653376 -0.01701520180213258 0 0.0025731670361626813 -0.017127672249786906 0 0.0018831544343820587 -0.016981853430722029 0 0.0019092471407043906 -0.017236642010398717 0 0.0019274259951393956 -0.015260409643459469 0 0.0021485422946195577 -0.016263520931157294 0 0.0025697563291246566 -0.015486081853990507 0 0.0019274259951393956 -0.015260409643459469 0 0.0025697563291246566 -0.015486081853990507 0 0.0023498709899994201 -0.014542182988817383 0 0.0028550165288344824 -0.01696333700652497 0 0.0021485422946195577 -0.016263520931157294 0 0.0032055745373166379 -0.016241559008115941 0 0.0032055745373166379 -0.016241559008115941 0 0.0025697563291246566 -0.015486081853990507 0 0.0032513978851593825 -0.015143676471068068 0 0.0021485422946195577 -0.016263520931157294 0 0.0032055745373166379 -0.016241559008115941 0 0.0025697563291246566 -0.015486081853990507 0 0.0032055745373166379 -0.016241559008115941 0 0.0043930670050415736 -0.016159100088978959 0 0.0032513978851593825 -0.015143676471068068 0 0.0039679629013810048 -0.01721977248865866 0 0.0028550165288344824 -0.01696333700652497 0 0.0032055745373166379 -0.016241559008115941 0 0.0039679629013810048 -0.01721977248865866 0 0.0032055745373166379 -0.016241559008115941 0 0.0043930670050415736 -0.016159100088978959 0 0.0039679629013810048 -0.01721977248865866 0 0.0043930670050415736 -0.016159100088978959 0 0.0048194379544242959 -0.016976441615280433 0 0.00493886014408167 -0.017744840136877965 0 0.0039679629013810048 -0.01721977248865866 0 0.0048194379544242959 -0.016976441615280433 0 0.0043930670050415736 -0.016159100088978959 0 0.0048194379544242959 -0.016976441615280433 0 0.0051161950367257375 -0.016751491594663995 0 0.0043930670050415736 -0.016159100088978959 0 0.0041911571245455519 -0.014744678986976836 0 0.0051289798367018273 -0.014838085402017882 0 0.0044018628259932437 -0.016236595195233277 0 0.0050488332784492445 -0.015761486096270271 0 0.0041911571245455519 -0.014744678986976836 0 0.0047199239819631228 -0.013798555513045275 0 0.0039000130504284764 -0.013928580475205897 0 0.0041911571245455519 -0.014744678986976836 0 0.0047199239819631228 -0.013798555513045275 0 0.0051289798367018273 -0.014838085402017882 0 0.0039000130504284764 -0.013928580475205897 0 0.0031873619624259593 -0.014131858208432361 0 0.0031514599819616306 -0.013199695145841185 0 0.0041911571245455519 -0.014744678986976836 0 0.0039000130504284764 -0.013928580475205897 0 0.0031873619624259593 -0.014131858208432361 0 0.0043930670050415736 -0.016159100088978959 0 0.0041911571245455519 -0.014744678986976836 0 0.0032513978851593825 -0.015143676471068068 0 0.0041911571245455519 -0.014744678986976836 0 0.0032513978851593825 -0.015143676471068068 0 0.0031873619624259593 -0.014131858208432361 0 0.0032513978851593825 -0.015143676471068068 0 0.0031873619624259593 -0.014131858208432361 0 0.0023498709899994201 -0.014542182988817383 0 0.0025697563291246566 -0.015486081853990507 0 0.0032513978851593825 -0.015143676471068068 0 0.0023498709899994201 -0.014542182988817383 0 0.0031873619624259593 -0.014131858208432361 0 0.0024946361836496703 -0.013688448794445472 0 0.0023498709899994201 -0.014542182988817383 0 0.0031873619624259593 -0.014131858208432361 0 0.0024946361836496703 -0.013688448794445472 0 0.0031514599819616306 -0.013199695145841185 0 0.0024946361836496703 -0.013688448794445472 0 0.0023498709899994201 -0.014542182988817383 0 0.0014116152983529172 -0.013859231963118408 0 0.0024946361836496703 -0.013688448794445472 0 0.0018069134468188448 -0.013224051422807703 0 0.0014116152983529172 -0.013859231963118408 0 0.0019274259951393956 -0.015260409643459469 0 0.0023498709899994201 -0.014542182988817383 0 0.0014116152983529172 -0.013859231963118408 0 0.0067797675905797222 -0.018006259219216617 0 0.0086275405776081015 -0.019032920643769238 0 0.0074667941553448278 -0.019308705024463888 0 0.0097491770591070243 -0.019089478585858521 0 0.009861851689956477 -0.020915006612807974 0 0.011238845361462971 -0.020178883946875104 0 0.0097491770591070243 -0.019089478585858521 0 0.009861851689956477 -0.020915006612807974 0 0.0059790980296121699 -0.016703135544226096 0 0.0073580818077887584 -0.017189510507271896 0 0.0060336026866210663 -0.017455996631768611 0 0.0062426799284700605 -0.018442006871494568 0 0.0073580818077887584 -0.017189510507271896 0 0.0060336026866210663 -0.017455996631768611 0 0.0056114461397153495 -0.017861777564446346 0 0.0060336026866210663 -0.017455996631768611 0 0.0054135047087975523 -0.01716181769340043 0 0.0059790980296121699 -0.016703135544226096 0 0.0060336026866210663 -0.017455996631768611 0 0.0054135047087975523 -0.01716181769340043 0 0.00493886014408167 -0.017744840136877965 0 0.0056114461397153495 -0.017861777564446346 0 0.0054135047087975523 -0.01716181769340043 0 0.00493886014408167 -0.017744840136877965 0 0.0054135047087975523 -0.01716181769340043 0 0.0048194379544242959 -0.016976441615280433 0 0.0043930670050415736 -0.016159100088978959 0 0.0051161950367257375 -0.016751491594663995 0 0.0050280921405928391 -0.016755388669281175 0 0.0054135047087975523 -0.01716181769340043 0 0.0048194379544242959 -0.016976441615280433 0 0.0051161950367257375 -0.016751491594663995 0 0.0051161950367257375 -0.016751491594663995 0 0.0054923424433130415 -0.016869690057419635 0 0.0054554276119532386 -0.017031727090457645 0 0.0059790980296121699 -0.016703135544226096 0 0.0054923424433130415 -0.016869690057419635 0 0.0054554276119532386 -0.017031727090457645 0 0.0059790980296121699 -0.016703135544226096 0 0.0054135047087975523 -0.01716181769340043 0 0.0054923424433130415 -0.016869690057419635 0 0.0054135047087975523 -0.01716181769340043 0 0.0051161950367257375 -0.016751491594663995 0 0.0054923424433130415 -0.016869690057419635 0 0.0067654239025799895 -0.017095523967098361 0 0.0054554276119532386 -0.017031727090457645 0 0.0059123200964817883 -0.015968446606687305 0 0.0074667941553448278 -0.019308705024463888 0 0.0067654239025799895 -0.017095523967098361 0 0.0054554276119532386 -0.017031727090457645 0 0.0067797675905797222 -0.018006259219216617 0 0.0055953360679585817 -0.017166100806588331 0 0.0054554276119532386 -0.017031727090457645 0 0.0050280921405928391 -0.016755388669281175 0 0.0059123200964817883 -0.015968446606687305 0 0.0051161950367257375 -0.016751491594663995 0 0.0054554276119532386 -0.017031727090457645 0 0.0050280921405928391 -0.016755388669281175 0 0.0047199239819631228 -0.013798555513045275 0 0.0051289798367018273 -0.014838085402017882 0 0.0056286549501946455 -0.013992745926814548 0 0.0050488332784492445 -0.015761486096270271 0 0.005669850037515611 -0.015189909021169956 0 0.0067654239025799895 -0.017095523967098361 0 0.0059123200964817883 -0.015968446606687305 0 0.0083644251389008856 -0.01678816446740259 0 0.0059123200964817883 -0.015968446606687305 0 0.0083644251389008856 -0.01678816446740259 0 0.0076003186662254082 -0.014439640971374032 0 0.0074667941553448278 -0.019308705024463888 0 0.0067654239025799895 -0.017095523967098361 0 0.0083644251389008856 -0.01678816446740259 0 0.0074667941553448278 -0.019308705024463888 0 0.0097491770591070243 -0.019089478585858521 0 0.0083644251389008856 -0.01678816446740259 0 0.011841982576741661 -0.018105042044756114 0 0.0097491770591070243 -0.019089478585858521 0 0.0083644251389008856 -0.01678816446740259 0 0.011841982576741661 -0.018105042044756114 0 0.0083644251389008856 -0.01678816446740259 0 0.010472260102163584 -0.015285491710700941 0 0.0083644251389008856 -0.01678816446740259 0 0.0076003186662254082 -0.014439640971374032 0 0.010472260102163584 -0.015285491710700941 0 0.010563418356286719 -0.022809824769433433 0 0.01573263415966843 -0.025612979431522274 0 0.0092571274285696385 -0.01292359504621896 0 0.0076003186662254082 -0.014439640971374032 0 0.010472260102163584 -0.015285491710700941 0 0.021768423773621436 -0.039917167326089485 0 0.020266977307954653 -0.040278358953499752 0 0.017981013319483673 -0.03763561166594586 0 0.010563418356286719 -0.022809824769433433 0 0.012432547722950667 -0.033720483808780309 0 0.021768423773621436 -0.039917167326089485 0 0.020266977307954653 -0.040278358953499752 0 0.0203364695411355 -0.041337494353472122 0 0.014271951719750865 -0.037950464865863898 0 0.012432547722950667 -0.033720483808780309 0 0.006393483521161163 -0.013010620222100006 0 0.0060236235904464249 -0.013393282029435865 0 0.0058137985534240369 -0.01287012646637165 0 0.010563418356286719 -0.022809824769433433 0 0.0070184930163594969 -0.012647608066662451 0 0.0056286549501946455 -0.013992745926814548 0 0.0060236235904464249 -0.013393282029435865 0 0.0054184798894791209 -0.013262374551385646 0 0.005669850037515611 -0.015189909021169956 0 0.0070184930163594969 -0.012647608066662451 0 0.0047199239819631228 -0.013798555513045275 0 0.0054184798894791209 -0.013262374551385646 0 0.0045443964792324775 -0.012869463722429813 0 0.0047199239819631228 -0.013798555513045275 0 0.0056286549501946455 -0.013992745926814548 0 0.0054184798894791209 -0.013262374551385646 0 0.005427331521394174 -0.012808071061961478 0 0.0051317739012294991 -0.012547809616187063 0 0.0045443964792324775 -0.012869463722429813 0 0.0054184798894791209 -0.013262374551385646 0 0.005427331521394174 -0.012808071061961478 0 0.0045443964792324775 -0.012869463722429813 0 0.0047980107864022282 -0.012510452569012823 0 0.0045889721266420538 -0.012794095568252891 0 0.0060236235904464249 -0.013393282029435865 0 0.0054184798894791209 -0.013262374551385646 0 0.0058137985534240369 -0.01287012646637165 0 0.0054184798894791209 -0.013262374551385646 0 0.005427331521394174 -0.012808071061961478 0 0.0058137985534240369 -0.01287012646637165 0 0.005427331521394174 -0.012808071061961478 0 0.0058137985534240369 -0.01287012646637165 0 0.0055645204892932352 -0.012538701699167119 0 0.0055645204892932352 -0.012538701699167119 0 0.0051317739012294991 -0.012547809616187063 0 0.0055154629611419157 -0.012254383377483878 0 0.005427331521394174 -0.012808071061961478 0 0.0055645204892932352 -0.012538701699167119 0 0.0051317739012294991 -0.012547809616187063 0 0.0046653814172930288 -0.012051713682027489 0 0.0045916007493742731 -0.011788475037700497 0 0.004199968314280266 -0.011812148002346848 0 0.0041663644886662165 -0.011953184627149314 0 0.0044167047851144991 -0.011353942725589022 0 0.0045916007493742731 -0.011788475037700497 0 0.004199968314280266 -0.011812148002346848 0 0.0046866332259017651 -0.011639169239943702 0 0.0046653814172930288 -0.012051713682027489 0 0.0045916007493742731 -0.011788475037700497 0 0.0047372709400690825 -0.011695881086569177 0 0.0047980107864022282 -0.012510452569012823 0 0.0053284223899600957 -0.011098874277220042 0 0.004199968314280266 -0.011812148002346848 0 0.0042130752743056617 -0.011899221412383908 0 0.0041322833905590431 -0.011891069854107478 0 0.0045916007493742731 -0.011788475037700497 0 0.0047372709400690825 -0.011695881086569177 0 0.0046866332259017651 -0.011639169239943702 0 0.0055154629611419157 -0.012254383377483878 0 0.0060162218080517162 -0.012398205727710864 0 0.00574919096078078 -0.011982192958577382 0 0.0055645204892932352 -0.012538701699167119 0 0.0055154629611419157 -0.012254383377483878 0 0.0060162218080517162 -0.012398205727710864 0 0.0073044700916642938 -0.025820250843353775 0 0.0075099826667716103 -0.025714852244602734 0 0.0076205421482387955 -0.026150093722002995 0 0.0079363201712172107 -0.029589214187766864 0 0.012432547722950667 -0.033720483808780309 0 0.010563418356286719 -0.022809824769433433 0 0.0061027202607822099 -0.018614182622753155 0 0.0075295361373220945 -0.026236028739478525 0 0.0073044700916642938 -0.025820250843353775 0 0.0076205421482387955 -0.026150093722002995 0 0.0058137985534240369 -0.01287012646637165 0 0.0055645204892932352 -0.012538701699167119 0 0.0060162218080517162 -0.012398205727710864 0 0.006393483521161163 -0.013010620222100006 0 0.0058137985534240369 -0.01287012646637165 0 0.0060162218080517162 -0.012398205727710864 0 0.0018804542400703082 -0.012422851751170609 0 0.002421171039685718 -0.012971446773864165 0 0.0028094164167396323 -0.01237458759351737 0 0.0018804542400703082 -0.012422851751170609 0 0.0028094164167396323 -0.01237458759351737 0 0.0022619748813993068 -0.011756880088369946 0 0.0018804542400703082 -0.012422851751170609 0 0.0018069134468188448 -0.013224051422807703 0 0.002421171039685718 -0.012971446773864165 0 0.0024946361836496703 -0.013688448794445472 0 0.0018069134468188448 -0.013224051422807703 0 0.002421171039685718 -0.012971446773864165 0 0.002421171039685718 -0.012971446773864165 0 0.0031514599819616306 -0.013199695145841185 0 0.0028094164167396323 -0.01237458759351737 0 0.0024946361836496703 -0.013688448794445472 0 0.002421171039685718 -0.012971446773864165 0 0.0031514599819616306 -0.013199695145841185 0 0.0031514599819616306 -0.013199695145841185 0 0.0028094164167396323 -0.01237458759351737 0 0.0036106611188168798 -0.012651800224476257 0 0.0028094164167396323 -0.01237458759351737 0 0.0036106611188168798 -0.012651800224476257 0 0.0034251533643469248 -0.012069251212068423 0 0.0036106611188168798 -0.012651800224476257 0 0.0039550688754426402 -0.012296061461993146 0 0.0034251533643469248 -0.012069251212068423 0 0.0031514599819616306 -0.013199695145841185 0 0.0036106611188168798 -0.012651800224476257 0 0.0039361694436786049 -0.013253588231137176 0 0.0039000130504284764 -0.013928580475205897 0 0.0031514599819616306 -0.013199695145841185 0 0.0039361694436786049 -0.013253588231137176 0 0.0047199239819631228 -0.013798555513045275 0 0.0039361694436786049 -0.013253588231137176 0 0.0045443964792324775 -0.012869463722429813 0 0.0047199239819631228 -0.013798555513045275 0 0.0039000130504284764 -0.013928580475205897 0 0.0039361694436786049 -0.013253588231137176 0 0.0045443964792324775 -0.012869463722429813 0 0.0039550688754426402 -0.012296061461993146 0 0.0043103654415172742 -0.012139990613800469 0 0.0036106611188168798 -0.012651800224476257 0 0.0039361694436786049 -0.013253588231137176 0 0.0045443964792324775 -0.012869463722429813 0 0.0036106611188168798 -0.012651800224476257 0 0.0045443964792324775 -0.012869463722429813 0 0.0039550688754426402 -0.012296061461993146 0 0.0046653814172930288 -0.012051713682027489 0 0.0045443964792324775 -0.012869463722429813 0 0.0043103654415172742 -0.012139990613800469 0 0.0039550688754426402 -0.012296061461993146 0 0.0043103654415172742 -0.012139990613800469 0 0.0039053849672853417 -0.011828655860389295 0 0.0043103654415172742 -0.012139990613800469 0 0.004199968314280266 -0.011812148002346848 0 0.0039053849672853417 -0.011828655860389295 0 0.0046653814172930288 -0.012051713682027489 0 0.0043103654415172742 -0.012139990613800469 0 0.004199968314280266 -0.011812148002346848 0 0.004199968314280266 -0.011812148002346848 0 0.0042774846216769996 -0.011832307118513416 0 0.0039053849672853417 -0.011828655860389295 0 0.0040750539802008254 -0.011538585579832913 0 0.003924552156177887 -0.011801997590042971 0 0.004199968314280266 -0.011812148002346848 0 0.0042774846216769996 -0.011832307118513416 0 0.0042130752743056617 -0.011899221412383908 0 0.0039596098297780442 -0.011014008155688966 0 0.0035190335184082989 -0.011226680177943567 0 0.0039053849672853417 -0.011828655860389295 0 0.0035190335184082989 -0.011226680177943567 0 0.0033803241255674268 -0.011583526792253777 0 0.0039053849672853417 -0.011828655860389295 0 0.0035190335184082989 -0.011226680177943567 0 0.0030498377590965401 -0.011092201869021366 0 0.0034257226032790326 -0.010823903481922822 0 0.0035190335184082989 -0.011226680177943567 0 0.0033803241255674268 -0.011583526792253777 0 0.0030498377590965401 -0.011092201869021366 0 0.0033803241255674268 -0.011583526792253777 0 0.0034251533643469248 -0.012069251212068423 0 0.0029117224202072833 -0.011697873019780205 0 0.0033803241255674268 -0.011583526792253777 0 0.0039053849672853417 -0.011828655860389295 0 0.0034251533643469248 -0.012069251212068423 0 0.0039550688754426402 -0.012296061461993146 0 0.0039053849672853417 -0.011828655860389295 0 0.0034251533643469248 -0.012069251212068423 0 0.0028094164167396323 -0.01237458759351737 0 0.0034251533643469248 -0.012069251212068423 0 0.0029117224202072833 -0.011697873019780205 0 0.0028094164167396323 -0.01237458759351737 0 0.0029117224202072833 -0.011697873019780205 0 0.0022619748813993068 -0.011756880088369946 0 0.0029117224202072833 -0.011697873019780205 0 0.002501518393999732 -0.011257814641463467 0 0.0022619748813993068 -0.011756880088369946 0 0.0029117224202072833 -0.011697873019780205 0 0.0030498377590965401 -0.011092201869021366 0 0.002501518393999732 -0.011257814641463467 0 0.0030498377590965401 -0.011092201869021366 0 0.002501518393999732 -0.011257814641463467 0 0.0024653860772129777 -0.010733374789394111 0 0.0033803241255674268 -0.011583526792253777 0 0.0029117224202072833 -0.011697873019780205 0 0.0030498377590965401 -0.011092201869021366 0 0.002501518393999732 -0.011257814641463467 0 0.0024653860772129777 -0.010733374789394111 0 0.0018747092105656012 -0.011096615918186231 0 0.002501518393999732 -0.011257814641463467 0 0.0022619748813993068 -0.011756880088369946 0 0.0018747092105656012 -0.011096615918186231 0 0.0022619748813993068 -0.011756880088369946 0 0.0016549300534772708 -0.011720677375420478 0 0.0018747092105656012 -0.011096615918186231 0 0.0018804542400703082 -0.012422851751170609 0 0.0022619748813993068 -0.011756880088369946 0 0.0016549300534772708 -0.011720677375420478 0 0.0024060442127646015 -0.010140599959542378 0 0.001947054405755082 -0.010489306595004307 0 0.0016768081783358607 -0.010008841552219497 0 0.0024060442127646015 -0.010140599959542378 0 0.0024653860772129777 -0.010733374789394111 0 0.001947054405755082 -0.010489306595004307 0 0.0024653860772129777 -0.010733374789394111 0 0.001947054405755082 -0.010489306595004307 0 0.0018747092105656012 -0.011096615918186231 0 0.0030498377590965401 -0.011092201869021366 0 0.0024653860772129777 -0.010733374789394111 0 0.003079150562092365 -0.010471075174524367 0 0.0024060442127646015 -0.010140599959542378 0 0.003079150562092365 -0.010471075174524367 0 0.0029080073266678406 -0.0099200259868845574 0 0.0024060442127646015 -0.010140599959542378 0 0.0024653860772129777 -0.010733374789394111 0 0.003079150562092365 -0.010471075174524367 0 0.003079150562092365 -0.010471075174524367 0 0.0034822589989508598 -0.01013634655087974 0 0.0029080073266678406 -0.0099200259868845574 0 0.003079150562092365 -0.010471075174524367 0 0.0034822589989508598 -0.01013634655087974 0 0.003676064184066909 -0.010552906378119502 0 0.003079150562092365 -0.010471075174524367 0 0.0034257226032790326 -0.010823903481922822 0 0.003676064184066909 -0.010552906378119502 0 0.0030498377590965401 -0.011092201869021366 0 0.003079150562092365 -0.010471075174524367 0 0.0034257226032790326 -0.010823903481922822 0 0.0039596098297780442 -0.011014008155688966 0 0.0035190335184082989 -0.011226680177943567 0 0.0034257226032790326 -0.010823903481922822 0 0.0040750539802008254 -0.011538585579832913 0 0.0042184954744232282 -0.010940814818867804 0 0.0039596098297780442 -0.011014008155688966 0 0.003676064184066909 -0.010552906378119502 0 0.0040929248798296427 -0.01040914642472506 0 0.0042774846216769996 -0.011832307118513416 0 0.0042130752743056617 -0.011899221412383908 0 0.0042823479165057287 -0.01221807270250262 0 0.0039596098297780442 -0.011014008155688966 0 0.0034257226032790326 -0.010823903481922822 0 0.003676064184066909 -0.010552906378119502 0 0.003676064184066909 -0.010552906378119502 0 0.0037912464728622869 -0.010292072507377152 0 0.0040929248798296427 -0.01040914642472506 0 0.0034822589989508598 -0.01013634655087974 0 0.003676064184066909 -0.010552906378119502 0 0.0037912464728622869 -0.010292072507377152 0 0.0034822589989508598 -0.01013634655087974 0 0.0037912464728622869 -0.010292072507377152 0 0.0038976181368935593 -0.010066364664241484 0 0.0037912464728622869 -0.010292072507377152 0 0.0038976181368935593 -0.010066364664241484 0 0.0040929248798296427 -0.01040914642472506 0 0.0034822589989508598 -0.01013634655087974 0 0.0038976181368935593 -0.010066364664241484 0 0.0036477162155318338 -0.0097808838403726905 0 0.0038976181368935593 -0.010066364664241484 0 0.0036477162155318338 -0.0097808838403726905 0 0.0040059082594277474 -0.0098198404945160616 0 0.0036477162155318338 -0.0097808838403726905 0 0.0038157956528107498 -0.0095043634004405818 0 0.0040059082594277474 -0.0098198404945160616 0 0.0013503149159486529 -0.011622036224495355 0 0.0013046438066951209 -0.011580617414714877 0 0.0012925378319359742 -0.011515342747778401 0 0.0023427457685890065 -0.0097228314896018308 0 0.002184091485759725 -0.010817875944553927 0 0.0036477162155318338 -0.0097808838403726905 0 0.0038157956528107498 -0.0095043634004405818 0 0.0030460310442254135 -0.0094538133825520145 0 0.0034822589989508598 -0.01013634655087974 0 0.0032744228690708694 -0.0098223755188286046 0 0.0029080073266678406 -0.0099200259868845574 0 0.0036477162155318338 -0.0097808838403726905 0 0.0032744228690708694 -0.0098223755188286046 0 0.0030460310442254135 -0.0094538133825520145 0 0.0034822589989508598 -0.01013634655087974 0 0.0036477162155318338 -0.0097808838403726905 0 0.0032744228690708694 -0.0098223755188286046 0 0.0032744228690708694 -0.0098223755188286046 0 0.0029080073266678406 -0.0099200259868845574 0 0.0030460310442254135 -0.0094538133825520145 0 0.0029080073266678406 -0.0099200259868845574 0 0.0030460310442254135 -0.0094538133825520145 0 0.0022230330106377759 -0.0095069119067190209 0 0.002184091485759725 -0.010817875944553927 0 0.0013936061937547439 -0.0088669074583875383 0 0.0013046438066951209 -0.011580617414714877 0 0.00088148545655429979 -0.011363772040744093 0 0.0012486254252238494 -0.011338622811742628 0 0.0013046438066951209 -0.011580617414714877 0 0.00063818176545845132 -0.011757581844468703 0 0.00088148545655429979 -0.011363772040744093 0 0.0013936061937547439 -0.0088669074583875383 0 -0.00012366763184827947 -0.008579374278470624 0 0.00063818176545845132 -0.011757581844468703 0 0.00088148545655429979 -0.011363772040744093 0 0.00030872553947548065 -0.011079260938935987 0 0.0025686391171302484 -0.010367752486855472 0 0.0013936061937547439 -0.0088669074583875383 0 0.0024060442127646015 -0.010140599959542378 0 0.0021290794471886085 -0.0093882346776367146 0 0.0016768081783358607 -0.010008841552219497 0 0.0024060442127646015 -0.010140599959542378 0 0.0029080073266678406 -0.0099200259868845574 0 0.0022230330106377759 -0.0095069119067190209 0 0.0069518578843656637 -0.016715273702770796 0 0.0077814741964328474 -0.01846061155445608 0 0.0031028332418147338 -0.022958768060934616 0 0.0063612485622017547 -0.017476720815107458 0 0.0047644973446571261 -0.024938317201962091 0 0.0073475403628244593 -0.025512454825328486 0 0.0073426143717282384 -0.025411508327059816 0 0.0072978821126058148 -0.025355419101210173 0 0.0073475403628244593 -0.025512454825328486 0 0.0071644753130214187 -0.02550045543755541 0 0.0072978821126058148 -0.025355419101210173 0 0.005968724631326223 -0.01704741739615848 0 0.0024892977254231713 -0.020411755691318759 0 0.0040133749429898564 -0.020774027199460261 0 0.0052635345588252606 -0.015056288469939083 0 0.0047644973446571261 -0.024938317201962091 0 0.0073426143717282384 -0.025411508327059816 0 0.0074369997406639916 -0.025416270782807872 0 0.0072978821126058148 -0.025355419101210173 0 0.0073475403628244593 -0.025512454825328486 0 0.0073426143717282384 -0.025411508327059816 0 0.0074369997406639916 -0.025416270782807872 0 0.0071515854517011593 -0.034121219129814973 0 0.0047644973446571261 -0.024938317201962091 0 0.0075099826667716103 -0.025714852244602734 0 0.0073475403628244593 -0.025512454825328486 0 0.0074369997406639916 -0.025416270782807872 0 0.0079363201712172107 -0.029589214187766864 0 0.0071515854517011593 -0.034121219129814973 0 0.0092298567527236888 -0.036109202767341905 0 0.0092971196339280988 -0.037435382239286913 0 0.0084855743276535667 -0.036464959325687017 0 0.0073044700916642938 -0.025820250843353775 0 0.0075099826667716103 -0.025714852244602734 0 0.0073475403628244593 -0.025512454825328486 0 0.0061027202607822099 -0.018614182622753155 0 0.0063612485622017547 -0.017476720815107458 0 0.0073044700916642938 -0.025820250843353775 0 0.0073475403628244593 -0.025512454825328486 0 0.0071644753130214187 -0.02550045543755541 0 0.0047372709400690825 -0.011695881086569177 0 0.0047344302400002024 -0.011718710063954481 0 0.0046866332259017651 -0.011639169239943702 0 0.0053284223899600957 -0.011098874277220042 0 0.0063612485622017547 -0.017476720815107458 0 0.0047344302400002024 -0.011718710063954481 0 0.0046866332259017651 -0.011639169239943702 0 0.0047364175105614539 -0.011729593661515126 0 0.0044167047851144991 -0.011353942725589022 0 0.0052635345588252606 -0.015056288469939083 0 0.0041322833905590431 -0.011891069854107478 0 0.0041605982981266169 -0.012021424514529439 0 0.0038077293995063353 -0.012229214767100942 0 0.0042130752743056617 -0.011899221412383908 0 0.0041605982981266169 -0.012021424514529439 0 0.0042823479165057287 -0.01221807270250262 0 0.0042130752743056617 -0.011899221412383908 0 0.0041322833905590431 -0.011891069854107478 0 0.0041605982981266169 -0.012021424514529439 0 0.0038976181368935593 -0.010066364664241484 0 0.0040929248798296427 -0.01040914642472506 0 0.0042790487508695338 -0.0098949269714084642 0 0.0042823479165057287 -0.01221807270250262 0 0.0040198498176562732 -0.012568220035137847 0 0.0041034509210464577 -0.012778564264661514 0 0.0042397894949549224 -0.011470879092380391 0 0.0044031509919457059 -0.014835016399954042 0 0.0041605982981266169 -0.012021424514529439 0 0.0040570279053291263 -0.012251760367446435 0 0.0037384226748532466 -0.012383002837849438 0 0.0042184954744232282 -0.010940814818867804 0 0.0050322415918266049 -0.01366290771609076 0 0.0041605982981266169 -0.012021424514529439 0 0.0042823479165057287 -0.01221807270250262 0 0.0040570279053291263 -0.012251760367446435 0 0.0042823479165057287 -0.01221807270250262 0 0.0040570279053291263 -0.012251760367446435 0 0.0040369205009061111 -0.012377169050026579 0 0.0042823479165057287 -0.01221807270250262 0 0.0040369205009061111 -0.012377169050026579 0 0.0040198498176562732 -0.012568220035137847 0 0.0041605982981266169 -0.012021424514529439 0 0.0038077293995063353 -0.012229214767100942 0 0.0038601467852753227 -0.012343585319724888 0 0.0052635345588252606 -0.015056288469939083 0 0.0044031509919457059 -0.014835016399954042 0 0.0063612485622017547 -0.017476720815107458 0 0.0052635345588252606 -0.015056288469939083 0 0.0040570279053291263 -0.012251760367446435 0 0.0040369205009061111 -0.012377169050026579 0 0.0037384226748532466 -0.012383002837849438 0 0.0040369205009061111 -0.012377169050026579 0 0.0037384226748532466 -0.012383002837849438 0 0.0040198498176562732 -0.012568220035137847 0 0.0044031509919457059 -0.014835016399954042 0 0.0035786947623211844 -0.020850961333540877 0 0.005968724631326223 -0.01704741739615848 0 0.006660132452298748 -0.018504078381774113 0 0.0040133749429898564 -0.020774027199460261 0 0.0053618715696310418 -0.020135165337098807 0 0.0045689194386364981 -0.021172372412671267 0 0.0027642348681541241 -0.019533138862521716 0 0.0045609147557863963 -0.017309866202847187 0 0.0035786947623211844 -0.020850961333540877 0 0.0042337429805242664 -0.017317415037017208 0 0.0046442099769671095 -0.018185165212092378 0 0.003529815818620614 -0.01792616641694901 0 0.0044031509919457059 -0.014835016399954042 0 0.0045609147557863963 -0.017309866202847187 0 0.0037384226748532466 -0.012383002837849438 0 0.0038902236065492574 -0.012730239995835347 0 0.0040198498176562732 -0.012568220035137847 0 0.0053618715696310418 -0.020135165337098807 0 0.0045689194386364981 -0.021172372412671267 0 0.0058863100734397027 -0.021195915695158118 0 0.0045609147557863963 -0.017309866202847187 0 0.0058417493422993922 -0.020486492336164085 0 0.0045689194386364981 -0.021172372412671267 0 0.0034381593436071068 -0.021793518592114224 0 0.0027642348681541241 -0.019533138862521716 0 0.0042086107278745868 -0.0099006697227412444 0 0.0040059082594277474 -0.0098198404945160616 0 0.004371522817016929 -0.0095782028323073091 0 0.0038976181368935593 -0.010066364664241484 0 0.0042790487508695338 -0.0098949269714084642 0 0.0040059082594277474 -0.0098198404945160616 0 0.0045609147557863963 -0.017309866202847187 0 0.0050322415918266049 -0.01366290771609076 0 0.0038902236065492574 -0.012730239995835347 0 0.0040198498176562732 -0.012568220035137847 0 0.0041034509210464577 -0.012778564264661514 0 0.005331093551823496 -0.020038527189636692 0 0.0066148178796592129 -0.020369799539206198 0 0.0058863100734397027 -0.021195915695158118 0 0.0050322415918266049 -0.01366290771609076 0 0.0035816972478386051 -0.011069242214656006 0 0.0023427457685890065 -0.0097228314896018308 0 0.0044700430054170435 -0.018081840852180266 0 0.0066148178796592129 -0.020369799539206198 0 0.0058863100734397027 -0.021195915695158118 0 0.0053908919940713835 -0.023222885263255784 0 0.0013503149159486529 -0.011622036224495355 0 0.0014170667342690117 -0.011720716814099204 0 0.0013821788371735659 -0.011658917841811986 0 0.0038157956528107498 -0.0095043634004405818 0 0.0040059082594277474 -0.0098198404945160616 0 0.004371522817016929 -0.0095782028323073091 0 0.0050322415918266049 -0.01366290771609076 0 0.0044700430054170435 -0.018081840852180266 0 0.0044700430054170435 -0.018081840852180266 0 0.0029783140418488613 -0.026284212637243922 0 0.0034381593436071068 -0.021793518592114224 0 0.0053908919940713835 -0.023222885263255784 0 0.0022088780513971956 -0.023700765769274046 0 0.0045689194386364981 -0.021172372412671267 0 0.0034381593436071068 -0.021793518592114224 0 0.0053908919940713835 -0.023222885263255784 0 0.0045689194386364981 -0.021172372412671267 0 0.0058863100734397027 -0.021195915695158118 0 0.0053908919940713835 -0.023222885263255784 0 0.0022088780513971956 -0.023700765769274046 0 0.001295462091961205 -0.022593958411846353 0 0.00016258502135181382 -0.023262921194555111 0 0.0022088780513971956 -0.023700765769274046 0 0.0020789644926098275 -0.021784090859644341 0 0.001295462091961205 -0.022593958411846353 0 0.0020789644926098275 -0.021784090859644341 0 0.001295462091961205 -0.022593958411846353 0 0.0006832290449952825 -0.021313806688714489 0 0.0034381593436071068 -0.021793518592114224 0 0.0022088780513971956 -0.023700765769274046 0 0.0020789644926098275 -0.021784090859644341 0 0.0034381593436071068 -0.021793518592114224 0 0.0020789644926098275 -0.021784090859644341 0 0.0027642348681541241 -0.019533138862521716 0 0.0035786947623211844 -0.020850961333540877 0 0.0023654143555028031 -0.026219897616322131 0 0.0020789644926098275 -0.021784090859644341 0 0.0027642348681541241 -0.019533138862521716 0 0.0006832290449952825 -0.021313806688714489 0 0.0047644973446571261 -0.024938317201962091 0 0.0023654143555028031 -0.026219897616322131 0 0.0034637912901126365 -0.02275822802649553 0 0.0046915329755362993 -0.023052347685443876 0 0.0020145004902576234 -0.025332393546852815 0 0.0047644973446571261 -0.024938317201962091 0 0.0035786947623211844 -0.020850961333540877 0 0.0053161848823788339 -0.042333455531464538 0 0.0053665025207831696 -0.042749412043974713 0 0.0050183739977591518 -0.0426317999137883 0 0.0047644973446571261 -0.024938317201962091 0 0.0033138883698990798 -0.034695449662991137 0 0.0043433921479874016 -0.030413871542079196 0 0.0058488331577790723 -0.030758053660202712 0 0.0044774780765571365 -0.032089501899978966 0 0.0071515854517011593 -0.034121219129814973 0 0.0033138883698990798 -0.034695449662991137 0 0.0052305878535369079 -0.026067834326133341 0 0.0030001121908485077 -0.0299995699910151 0 0.0016010844642863323 -0.029526907427606119 0 0.0033138883698990798 -0.034695449662991137 0 0.0020925668302919807 -0.029821956071753697 0 0.0030001121908485077 -0.0299995699910151 0 0.0016010844642863323 -0.029526907427606119 0 0.0017332047802616883 -0.031064976931280467 0 0.0053665025207831696 -0.042749412043974713 0 0.0049085411768753527 -0.042881452451918427 0 0.0050183739977591518 -0.0426317999137883 0 0.0028775447597439476 -0.031748137099637475 0 0.002919582201876584 -0.032282464565908074 0 0.0016183338456344544 -0.032896021714538454 0 0.0029783140418488613 -0.026284212637243922 0 -0.00042899671639839374 -0.028572412081328838 0 0.0022088780513971956 -0.023700765769274046 0 0.00016258502135181382 -0.023262921194555111 0 -0.00099160355974526942 -0.024176443740543188 0 0.0030252711393819621 -0.032030009998865842 0 0.0030601526353283858 -0.032397397312400641 0 0.0013370061441890673 -0.033571328121527917 0 0.0033138883698990798 -0.034695449662991137 0 0.0031367690611042377 -0.038041089245109197 0 0.002919582201876584 -0.032282464565908074 0 0.0013370061441890673 -0.033571328121527917 0 0.0016183338456344544 -0.032896021714538454 0 0.0053665025207831696 -0.042749412043974713 0 0.0050329544138242961 -0.04312782031466348 0 0.0049085411768753527 -0.042881452451918427 0 0.0020925668302919807 -0.029821956071753697 0 0.0013488444879185921 -0.03369961362664755 0 0.001295462091961205 -0.022593958411846353 0 0.0006832290449952825 -0.021313806688714489 0 7.7013041842297384e-05 -0.022333878166346379 0 0.0023654143555028031 -0.026219897616322131 0 0.0013836508687497652 -0.026868042253306388 0 0.0023654143555028031 -0.026219897616322131 0 0.0020925668302919807 -0.029821956071753697 0 0.0021410852852738749 -0.026736632861432439 0 0.0010274488115939069 -0.02767029467593218 0 0.0010940066397243935 -0.028465138860066651 0 0.0020925668302919807 -0.029821956071753697 0 0.0013836508687497652 -0.026868042253306388 0 0.0013836508687497652 -0.026868042253306388 0 0.00088331193538398794 -0.02403468018250398 0 0.001295462091961205 -0.022593958411846353 0 7.7013041842297384e-05 -0.022333878166346379 0 0.00016258502135181382 -0.023262921194555111 0 8.9121597294745445e-05 -0.022367778746753234 0 0.00016258502135181382 -0.023262921194555111 0 -0.00099160355974526942 -0.024176443740543188 0 0.0013836508687497652 -0.026868042253306388 0 -0.00042899671639839374 -0.028572412081328838 0 0.0030601526353283858 -0.032397397312400641 0 0.0013370061441890673 -0.033571328121527917 0 0.0022243270849842283 -0.033837796477970424 0 0.0031367690611042377 -0.038041089245109197 0 0.0018477415444333449 -0.038373900502960738 0 0.0013370061441890673 -0.033571328121527917 0 0.0016183338456344544 -0.032896021714538454 0 0.00032526172449712297 -0.034093257603177857 0 0.0046721334963876517 -0.04314896086402073 0 0.0046523486705939369 -0.04353166103623398 0 0.0046890066519089425 -0.043486617373254918 0 0.0046721334963876517 -0.04314896086402073 0 0.0050329544138242961 -0.04312782031466348 0 0.0046890066519089425 -0.043486617373254918 0 0.0046721334963876517 -0.04314896086402073 0 0.0047031226218971801 -0.042924269962336788 0 0.0049085411768753527 -0.042881452451918427 0 0.0046721334963876517 -0.04314896086402073 0 0.0050329544138242961 -0.04312782031466348 0 0.0049085411768753527 -0.042881452451918427 0 0.0037731355883140701 -0.044001726613729399 0 0.0042452444233800962 -0.042872128241697144 0 0.0048140302794210136 -0.044662986514710075 0 0.0046721334963876517 -0.04314896086402073 0 0.0042452444233800962 -0.042872128241697144 0 0.0046523486705939369 -0.04353166103623398 0 0.0050576200128750011 -0.044245029015094167 0 0.0019887596100469553 -0.041161944886431927 0 0.0046721334963876517 -0.04314896086402073 0 0.0047031226218971801 -0.042924269962336788 0 0.0042452444233800962 -0.042872128241697144 0 0.0037731355883140701 -0.044001726613729399 0 0.0042452444233800962 -0.042872128241697144 0 0.0033672069022420261 -0.043324145482555171 0 0.0046293393677766734 -0.042783589134579005 0 0.0044302730254021988 -0.042554302859116322 0 0.0041716481537772375 -0.04269614689430816 0 0.0042452444233800962 -0.042872128241697144 0 0.0046293393677766734 -0.042783589134579005 0 0.0031236187595365707 -0.042681270314532019 0 0.0047415845012955746 -0.042883302127570765 0 0.003257809046307764 -0.042202496369993542 0 0.0047031226218971801 -0.042924269962336788 0 0.0042452444233800962 -0.042872128241697144 0 0.0046293393677766734 -0.042783589134579005 0 0.0046293393677766734 -0.042783589134579005 0 0.0044302730254021988 -0.042554302859116322 0 0.0047784944352226915 -0.042541113881249447 0 0.0053161848823788339 -0.042333455531464538 0 0.0047784944352226915 -0.042541113881249447 0 0.0050183739977591518 -0.0426317999137883 0 0.0049085411768753527 -0.042881452451918427 0 0.004807707603135653 -0.042722802313193892 0 0.0050183739977591518 -0.0426317999137883 0 0.0046293393677766734 -0.042783589134579005 0 0.004807707603135653 -0.042722802313193892 0 0.0047784944352226915 -0.042541113881249447 0 0.0047031226218971801 -0.042924269962336788 0 0.0049085411768753527 -0.042881452451918427 0 0.004807707603135653 -0.042722802313193892 0 0.0047031226218971801 -0.042924269962336788 0 0.0046293393677766734 -0.042783589134579005 0 0.004807707603135653 -0.042722802313193892 0 0.004807707603135653 -0.042722802313193892 0 0.0047784944352226915 -0.042541113881249447 0 0.0050183739977591518 -0.0426317999137883 0 0.0092971196339280988 -0.037435382239286913 0 0.0081734220368170317 -0.037224831190428714 0 0.0084855743276535667 -0.036464959325687017 0 0.0071515854517011593 -0.034121219129814973 0 0.006171949293572892 -0.039897980658693488 0 0.0053161848823788339 -0.042333455531464538 0 0.0047784944352226915 -0.042541113881249447 0 0.0046372593373813021 -0.042290545596796722 0 0.006171949293572892 -0.039897980658693488 0 0.0070214395960974899 -0.043955981738322776 0 0.0044302730254021988 -0.042554302859116322 0 0.0046372593373813021 -0.042290545596796722 0 0.0041027797320571432 -0.042236304562036191 0 0.0044302730254021988 -0.042554302859116322 0 0.0047784944352226915 -0.042541113881249447 0 0.0046372593373813021 -0.042290545596796722 0 0.0081734220368170317 -0.037224831190428714 0 0.0077141623259732884 -0.036254179522243843 0 0.0084855743276535667 -0.036464959325687017 0 0.0081734220368170317 -0.037224831190428714 0 0.0077141623259732884 -0.036254179522243843 0 0.0070049494122910259 -0.037025306948874404 0 0.0078023229354772612 -0.050202250486152761 0 0.0079535877906691168 -0.048861250630999581 0 0.0095941702714257594 -0.05061273458025068 0 0.0079535877906691168 -0.048861250630999581 0 0.010052768420496986 -0.049008766632790149 0 0.0095941702714257594 -0.05061273458025068 0 0.0078023229354772612 -0.050202250486152761 0 0.0079535877906691168 -0.048861250630999581 0 0.0058647586280526033 -0.049717622759734043 0 0.0078023229354772612 -0.050202250486152761 0 0.0073222541391586579 -0.051466440871089321 0 0.0058647586280526033 -0.049717622759734043 0 0.0079535877906691168 -0.048861250630999581 0 0.0065900456669000813 -0.047675984448671445 0 0.0091265163570573155 -0.046643728672245741 0 0.0079535877906691168 -0.048861250630999581 0 0.0058647586280526033 -0.049717622759734043 0 0.0065900456669000813 -0.047675984448671445 0 0.0079535877906691168 -0.048861250630999581 0 0.010052768420496986 -0.049008766632790149 0 0.0091265163570573155 -0.046643728672245741 0 0.013342313311894826 -0.048041116998266152 0 0.010052768420496986 -0.049008766632790149 0 0.010354063505332576 -0.050819169243636754 0 0.013342313311894826 -0.048041116998266152 0 0.010052768420496986 -0.049008766632790149 0 0.0091265163570573155 -0.046643728672245741 0 0.010797220348109196 -0.041960436232862053 0 0.0070214395960974899 -0.043955981738322776 0 0.010052768420496986 -0.049008766632790149 0 0.0095941702714257594 -0.05061273458025068 0 0.010354063505332576 -0.050819169243636754 0 0.0088110383404201888 -0.045335879974059058 0 0.0070214395960974899 -0.043955981738322776 0 0.0041027797320571432 -0.042236304562036191 0 0.0037192888157480336 -0.04266761387226102 0 0.0041716481537772375 -0.04269614689430816 0 0.0044302730254021988 -0.042554302859116322 0 0.0041027797320571432 -0.042236304562036191 0 0.0041716481537772375 -0.04269614689430816 0 0.0070214395960974899 -0.043955981738322776 0 0.0039278784604613801 -0.04821665548054991 0 0.0095941702714257594 -0.05061273458025068 0 0.010283347461236941 -0.050772837733228091 0 0.0071232191450227422 -0.053870527865143986 0 0.0095941702714257594 -0.05061273458025068 0 0.0073222541391586579 -0.051466440871089321 0 0.0071232191450227422 -0.053870527865143986 0 0.0078023229354772612 -0.050202250486152761 0 0.0095941702714257594 -0.05061273458025068 0 0.0073222541391586579 -0.051466440871089321 0 0.0039278784604613801 -0.04821665548054991 0 0.003257809046307764 -0.042202496369993542 0 0.001484774111359128 -0.04246402928325501 0 0.0031236187595365707 -0.042681270314532019 0 0.0023244043633031462 -0.043746884342472703 0 0.0042452444233800962 -0.042872128241697144 0 0.0031236187595365707 -0.042681270314532019 0 0.0033672069022420261 -0.043324145482555171 0 0.0037731355883140701 -0.044001726613729399 0 0.0033672069022420261 -0.043324145482555171 0 0.0023244043633031462 -0.043746884342472703 0 0.0037731355883140701 -0.044001726613729399 0 0.0023244043633031462 -0.043746884342472703 0 0.0029484094337425223 -0.044848673446250535 0 0.0031236187595365707 -0.042681270314532019 0 0.0033672069022420261 -0.043324145482555171 0 0.0023244043633031462 -0.043746884342472703 0 0.001484774111359128 -0.04246402928325501 0 0.0023244043633031462 -0.043746884342472703 0 0.00020586612968151113 -0.043796336973803682 0 0.0023244043633031462 -0.043746884342472703 0 0.00020586612968151113 -0.043796336973803682 0 0.0011366737181274979 -0.04517259373742976 0 0.0012163030178282631 -0.049149495819167492 0 0.00059906779686427509 -0.051513185073333564 0 0.0026139644424781582 -0.054713825901574982 0 0.0017417540977324548 -0.053953371168016649 0 0.0012766762607457087 -0.054740993074377228 0 0.0026139644424781582 -0.054713825901574982 0 0.0012766762607457087 -0.054740993074377228 0 0.001314868209637395 -0.055917235227768931 0 0.0026139644424781582 -0.054713825901574982 0 0.0025499052510215493 -0.053250600318614054 0 0.0017417540977324548 -0.053953371168016649 0 0.0025499052510215493 -0.053250600318614054 0 0.0017417540977324548 -0.053953371168016649 0 0.0012898994119882868 -0.052905943674414285 0 0.0038737425750037329 -0.053427265471040569 0 0.0026139644424781582 -0.054713825901574982 0 0.0025499052510215493 -0.053250600318614054 0 0.0039278784604613801 -0.04821665548054991 0 0.0037148066830016671 -0.053493270917665411 0 0.0039278784604613801 -0.04821665548054991 0 0.0012163030178282631 -0.049149495819167492 0 9.76828586898954e-07 -0.05500086715557008 0 0.00040725565401230734 -0.055029173676173937 0 -2.7588375433863894e-06 -0.054996959739623111 0 0.00040725565401230734 -0.055029173676173937 0 0.00051948813619847115 -0.054349505921166517 0 -2.7588375433863894e-06 -0.054996959739623111 0 0.0012766762607457087 -0.054740993074377228 0 0.00040725565401230734 -0.055029173676173937 0 0.001314868209637395 -0.055917235227768931 0 0.0012766762607457087 -0.054740993074377228 0 0.00040725565401230734 -0.055029173676173937 0 0.00051948813619847115 -0.054349505921166517 0 0.0017417540977324548 -0.053953371168016649 0 0.0012766762607457087 -0.054740993074377228 0 0.00051948813619847115 -0.054349505921166517 0 0.0017417540977324548 -0.053953371168016649 0 0.00051948813619847115 -0.054349505921166517 0 0.0012898994119882868 -0.052905943674414285 0 0.00051948813619847115 -0.054349505921166517 0 -2.7588375433863894e-06 -0.054996959739623111 0 -0.00089304743254106742 -0.051593320946302992 0 -1.4798666074310105e-07 -0.05499928132168496 0 -0.00034932138306246249 -0.053201433039686732 0 -1.8816646460666628e-09 -0.055000002423134645 0 1.2950422785825785e-05 -0.055001845626200481 0 2.1555826923584813e-09 -0.054999995698226646 0 0.00051948813619847115 -0.054349505921166517 0 -0.00089304743254106742 -0.051593320946302992 0 0.0012898994119882868 -0.052905943674414285 0 -0.00089304743254106742 -0.051593320946302992 0 0.0012898994119882868 -0.052905943674414285 0 0.002718102799237742 -0.050659180813607534 0 -0.00034932138306246249 -0.053201433039686732 0 4.4485847581795465e-05 -0.050930451105247597 0 -0.00089304743254106742 -0.051593320946302992 0 0.002718102799237742 -0.050659180813607534 0 -6.1585234233127131e-05 -0.046908112114762458 0 1.2950422785825785e-05 -0.055001845626200481 0 8.4697090607736283e-08 -0.055000040907169971 0 8.8278650919544079e-05 -0.05501050664505918 0 1.2950422785825785e-05 -0.055001845626200481 0 2.1555826923584813e-09 -0.054999995698226646 0 8.4697090607736283e-08 -0.055000040907169971 0 0.0053936305039101818 -0.051836038222045584 0 0.002718102799237742 -0.050659180813607534 0 0.0058647586280526033 -0.049717622759734043 0 0.0071232191450227422 -0.053870527865143986 0 0.0040593661096039891 -0.053326243341312619 0 0.0053936305039101818 -0.051836038222045584 0 0.0073222541391586579 -0.051466440871089321 0 0.0053936305039101818 -0.051836038222045584 0 0.0058647586280526033 -0.049717622759734043 0 0.0073222541391586579 -0.051466440871089321 0 0.0071232191450227422 -0.053870527865143986 0 0.0053936305039101818 -0.051836038222045584 0 0.0040593661096039891 -0.053326243341312619 0 0.0053936305039101818 -0.051836038222045584 0 0.002718102799237742 -0.050659180813607534 0 0.0040593661096039891 -0.053326243341312619 0 0.0012898994119882868 -0.052905943674414285 0 0.002718102799237742 -0.050659180813607534 0 0.0037148066830016671 -0.053493270917665411 0 0.0013115511867289773 -0.052913636755424244 0 0.002718102799237742 -0.050659180813607534 0 0.0040608050789963188 -0.047711762993156596 0 -6.1585234233127131e-05 -0.046908112114762458 0 0.002718102799237742 -0.050659180813607534 0 0.0058647586280526033 -0.049717622759734043 0 0.0040608050789963188 -0.047711762993156596 0 0.0058647586280526033 -0.049717622759734043 0 0.0065900456669000813 -0.047675984448671445 0 0.0040608050789963188 -0.047711762993156596 0 0.0060489971522119431 -0.045397244038846464 0 0.0040608050789963188 -0.047711762993156596 0 0.0032143712894741731 -0.044733168336526928 0 0.0065900456669000813 -0.047675984448671445 0 0.0060489971522119431 -0.045397244038846464 0 0.0040608050789963188 -0.047711762993156596 0 0.0040608050789963188 -0.047711762993156596 0 0.0032143712894741731 -0.044733168336526928 0 -6.1585234233127131e-05 -0.046908112114762458 0 0.0032143712894741731 -0.044733168336526928 0 -6.1585234233127131e-05 -0.046908112114762458 0 0.0013631254493528865 -0.041994811916175045 0 0.0032143712894741731 -0.044733168336526928 0 0.0052832482919329795 -0.041600534617923991 0 0.0013631254493528865 -0.041994811916175045 0 0.0060489971522119431 -0.045397244038846464 0 0.0032143712894741731 -0.044733168336526928 0 0.0052832482919329795 -0.041600534617923991 0 8.4697090607736283e-08 -0.055000040907169971 0 8.8278650919544079e-05 -0.05501050664505918 0 9.9261649818908817e-05 -0.055032811429443058 0 8.8278650919544079e-05 -0.05501050664505918 0 9.9261649818908817e-05 -0.055032811429443058 0 0.00031035317547239451 -0.055075066653603469 0 4.4485847581795465e-05 -0.050930451105247597 0 0.00087229928448839941 -0.048511196432728144 0 8.4697090607736283e-08 -0.055000040907169971 0 9.9261649818908817e-05 -0.055032811429443058 0 1.3504041535542963e-07 -0.05500013243404156 0 9.9261649818908817e-05 -0.055032811429443058 0 1.3504041535542963e-07 -0.05500013243404156 0 0.00022108093492429718 -0.055063602950069762 0 1.3504041535542963e-07 -0.05500013243404156 0 0.00022108093492429718 -0.055063602950069762 0 1.2933986768196821e-07 -0.054999997354096157 0 9.9261649818908817e-05 -0.055032811429443058 0 0.00022108093492429718 -0.055063602950069762 0 0.00031035317547239451 -0.055075066653603469 0 0.00032468772773351244 -0.054934277737890787 0 0.00022108093492429718 -0.055063602950069762 0 0.00078625866062001428 -0.055101349830654893 0 0.00032468772773351244 -0.054934277737890787 0 0.00022108093492429718 -0.055063602950069762 0 1.2933986768196821e-07 -0.054999997354096157 0 0.00087229928448839941 -0.048511196432728144 0 0.0019781698683854409 -0.04619839584799075 0 0.00022108093492429718 -0.055063602950069762 0 0.00031035317547239451 -0.055075066653603469 0 0.00078625866062001428 -0.055101349830654893 0 0.0052832482919329795 -0.041600534617923991 0 0.0013631254493528865 -0.041994811916175045 0 0.0031231608183597275 -0.037353117352084693 0 0.0052832482919329795 -0.041600534617923991 0 0.0031231608183597275 -0.037353117352084693 0 0.0064407654410395324 -0.038429459316204097 0 0.0064407654410395324 -0.038429459316204097 0 0.00913208583676124 -0.036509810893861135 0 0.0088162791684880462 -0.040048298786629487 0 0.0086661340418337524 -0.035120101799424347 0 0.0087542396910422118 -0.039632031652355425 0 0.0052832482919329795 -0.041600534617923991 0 0.0088162791684880462 -0.040048298786629487 0 0.0084700297750960243 -0.043438069635503708 0 0.0052832482919329795 -0.041600534617923991 0 0.0064407654410395324 -0.038429459316204097 0 0.0088162791684880462 -0.040048298786629487 0 0.0088162791684880462 -0.040048298786629487 0 0.011575866790336202 -0.041334651293461103 0 0.01162558789815249 -0.037596835824138954 0 0.0081188274842548397 -0.033700675154174617 0 0.01162558789815249 -0.037596835824138954 0 0.014209806533139984 -0.03431362849813837 0 0.0081188274842548397 -0.033700675154174617 0 0.0088162791684880462 -0.040048298786629487 0 0.01162558789815249 -0.037596835824138954 0 0.014209806533139984 -0.03431362849813837 0 0.017981013319483673 -0.03763561166594586 0 0.014431937240555071 -0.039506471145500204 0 0.01162558789815249 -0.037596835824138954 0 0.014209806533139984 -0.03431362849813837 0 0.014431937240555071 -0.039506471145500204 0 0.021768423773621436 -0.039917167326089485 0 0.019300206060730525 -0.034083798240762769 0 0.017981013319483673 -0.03763561166594586 0 0.014209806533139984 -0.03431362849813837 0 0.019300206060730525 -0.034083798240762769 0 0.017981013319483673 -0.03763561166594586 0 0.017981013319483673 -0.03763561166594586 0 0.014431937240555071 -0.039506471145500204 0 0.017382510678124803 -0.041104754294542169 0 0.020266977307954653 -0.040278358953499752 0 0.020335483838708097 -0.041443323018680457 0 0.017382510678124803 -0.041104754294542169 0 0.020266977307954653 -0.040278358953499752 0 0.017981013319483673 -0.03763561166594586 0 0.017382510678124803 -0.041104754294542169 0 0.011575866790336202 -0.041334651293461103 0 0.01162558789815249 -0.037596835824138954 0 0.014431937240555071 -0.039506471145500204 0 0.014431937240555071 -0.039506471145500204 0 0.014410572978142661 -0.042288344255215458 0 0.017382510678124803 -0.041104754294542169 0 0.011575866790336202 -0.041334651293461103 0 0.014431937240555071 -0.039506471145500204 0 0.014410572978142661 -0.042288344255215458 0 0.014410572978142661 -0.042288344255215458 0 0.016692553040359041 -0.044977888552972529 0 0.012189387403616801 -0.044527281262084897 0 0.011575866790336202 -0.041334651293461103 0 0.014410572978142661 -0.042288344255215458 0 0.012189387403616801 -0.044527281262084897 0 0.020335483838708097 -0.041443323018680457 0 0.017382510678124803 -0.041104754294542169 0 0.016692553040359041 -0.044977888552972529 0 0.014410572978142661 -0.042288344255215458 0 0.017382510678124803 -0.041104754294542169 0 0.016692553040359041 -0.044977888552972529 0 0.012432547722950667 -0.033720483808780309 0 0.012553656453175162 -0.040680565536621326 0 0.0092298567527236888 -0.036109202767341905 0 0.0084855743276535667 -0.036464959325687017 0 0.0084336468738348321 -0.035488254215529091 0 0.0092298567527236888 -0.036109202767341905 0 0.0091754266009269614 -0.034728579169330649 0 0.0084336468738348321 -0.035488254215529091 0 0.0077141623259732884 -0.036254179522243843 0 0.0084855743276535667 -0.036464959325687017 0 0.0084336468738348321 -0.035488254215529091 0 0.013342313311894826 -0.048041116998266152 0 0.016692553040359041 -0.044977888552972529 0 0.012189387403616801 -0.044527281262084897 0 0.010797220348109196 -0.041960436232862053 0 0.012553656453175162 -0.040680565536621326 0 0.0091265163570573155 -0.046643728672245741 0 0.0084700297750960243 -0.043438069635503708 0 0.012189387403616801 -0.044527281262084897 0 0.013342313311894826 -0.048041116998266152 0 0.0091265163570573155 -0.046643728672245741 0 0.012189387403616801 -0.044527281262084897 0 0.0060489971522119431 -0.045397244038846464 0 0.0091265163570573155 -0.046643728672245741 0 0.0084700297750960243 -0.043438069635503708 0 0.0065900456669000813 -0.047675984448671445 0 0.0060489971522119431 -0.045397244038846464 0 0.0091265163570573155 -0.046643728672245741 0 0.0060489971522119431 -0.045397244038846464 0 0.0052832482919329795 -0.041600534617923991 0 0.0084700297750960243 -0.043438069635503708 0 0.011575866790336202 -0.041334651293461103 0 0.0084700297750960243 -0.043438069635503708 0 0.012189387403616801 -0.044527281262084897 0 0.0088162791684880462 -0.040048298786629487 0 0.011575866790336202 -0.041334651293461103 0 0.0084700297750960243 -0.043438069635503708 0 0.0076648662499088109 0.020729495832574253 0 0.0081885973002480406 0.020363658014821272 0 0.007833201969810126 0.02005970744665711 0 0.0076648662499088109 0.020729495832574253 0 0.0078617009485942458 0.020795124110582756 0 0.0081885973002480406 0.020363658014821272 0 0.0076648662499088109 0.020729495832574253 0 0.0073959663820523571 0.020461378721683812 0 0.0073094280195729567 0.021098264187506433 0 0.0076648662499088109 0.020729495832574253 0 0.007833201969810126 0.02005970744665711 0 0.0073959663820523571 0.020461378721683812 0 0.0076648662499088109 0.020729495832574253 0 0.0073094280195729567 0.021098264187506433 0 0.0074842891685320181 0.021011863578825511 0 0.0076648662499088109 0.020729495832574253 0 0.0076901864852009965 0.020923235307968479 0 0.0074842891685320181 0.021011863578825511 0 0.0078617009485942458 0.020795124110582756 0 0.0080290055071988026 0.020812175413735621 0 0.0081885973002480406 0.020363658014821272 0 0.0076648662499088109 0.020729495832574253 0 0.0076901864852009965 0.020923235307968479 0 0.0078617009485942458 0.020795124110582756 0 0.00074698336666256771 0.004339313554548801 0 0.0032003935174332462 0.0062370204224662679 0 -0.0022183594661217432 -0.0073164293567484235 0 -0.0009797236567117831 -0.0085474081961859644 0 -0.0024877865446761059 -0.0090624807585367832 0 -0.001626913306479212 -0.010639373782869617 0 -0.0011921516191108004 -0.010702728470314912 0 -0.0011823764232509297 -0.011160723403008414 0 0.00025325914095071658 -0.0051698437706518136 0 0.0015255530987151639 -0.0067957803139599001 0 0.00068398183713906972 -0.00028995778392645302 0 0.0032133917020234679 -0.0025262753153015025 0 0.002237087392462219 1.9130799322358985e-05 0 0.00074698336666256771 0.004339313554548801 0 0.0013316736238149726 -0.0066523699253431962 0 0.0032133917020234679 -0.0025262753153015025 0 0.002237087392462219 1.9130799322358985e-05 0 0.004018738725416097 -0.002367180719920781 0 -0.0009797236567117831 -0.0085474081961859644 0 -0.0024877865446761059 -0.0090624807585367832 0 -0.001304327063466171 -0.010066726997948059 0 -0.0024877865446761059 -0.0090624807585367832 0 -0.001304327063466171 -0.010066726997948059 0 -0.0026603748344800429 -0.010636912308628024 0 -0.001304327063466171 -0.010066726997948059 0 -0.00039007159906926455 -0.01085777746030233 0 -0.0015189652607706498 -0.011079533188737381 0 -0.001304327063466171 -0.010066726997948059 0 -0.0026603748344800429 -0.010636912308628024 0 -0.0015189652607706498 -0.011079533188737381 0 0.0084058690426865972 0.019249877221694352 0 0.007833201969810126 0.02005970744665711 0 0.0076156306684024028 0.018921067961359461 0 0.0032003935174332462 0.0062370204224662679 0 0.0027802416004603461 0.0040293827514486106 0 0.0081885973002480406 0.020363658014821272 0 0.0084058690426865972 0.019249877221694352 0 0.007833201969810126 0.02005970744665711 0 0.007833201969810126 0.02005970744665711 0 0.0073959663820523571 0.020461378721683812 0 0.0072411269832442088 0.019832416356268628 0 0.0072411269832442088 0.019832416356268628 0 0.0076156306684024028 0.018921067961359461 0 0.0067213957448540897 0.018464230418411515 0 0.007833201969810126 0.02005970744665711 0 0.0072411269832442088 0.019832416356268628 0 0.0076156306684024028 0.018921067961359461 0 0.0072411269832442088 0.019832416356268628 0 0.0059054824971008502 0.019274554045165121 0 0.0067213957448540897 0.018464230418411515 0 0.0072026426842438963 0.019834243659557761 0 0.0062609423296893516 0.019492762256363011 0 0.0065931279792033242 0.019790882307134442 0 0.006922337785504217 0.020445641330462831 0 0.0062390762592388852 0.020893590505442931 0 0.0072411269832442088 0.019832416356268628 0 0.0065931279792033242 0.019790882307134442 0 0.006922337785504217 0.020445641330462831 0 0.0073959663820523571 0.020461378721683812 0 0.0072411269832442088 0.019832416356268628 0 0.006922337785504217 0.020445641330462831 0 0.0057318539441376451 0.020331379219332455 0 0.0055410656660050449 0.019455531798776852 0 0.0048443344406595198 0.020627798707457776 0 0.005490046070148814 0.020298836426490861 0 0.0048317466734651955 0.020086525943177006 0 0.0048864558352134709 0.021294924183486681 0 0.0052539149995178887 0.019495404936614631 0 0.004901321605928129 0.02104825553792489 0 0.0062609423296893516 0.019492762256363011 0 0.0052539149995178887 0.019495404936614631 0 0.0065931279792033242 0.019790882307134442 0 0.0057318539441376451 0.020331379219332455 0 0.0055410656660050449 0.019455531798776852 0 0.0065931279792033242 0.019790882307134442 0 0.0057318539441376451 0.020331379219332455 0 0.0062390762592388852 0.020893590505442931 0 0.0057318539441376451 0.020331379219332455 0 0.005575224659449908 0.02107909627498512 0 0.0062390762592388852 0.020893590505442931 0 0.0057318539441376451 0.020331379219332455 0 0.005575224659449908 0.02107909627498512 0 0.0048443344406595198 0.020627798707457776 0 0.0050668379856634409 0.02184742876035424 0 0.005575224659449908 0.02107909627498512 0 0.0048443344406595198 0.020627798707457776 0 0.0050668379856634409 0.02184742876035424 0 0.005575224659449908 0.02107909627498512 0 0.0058043592749383839 0.02178828637730789 0 0.0062390762592388852 0.020893590505442931 0 0.0058043592749383839 0.02178828637730789 0 0.0065998297124864949 0.021398114290755138 0 0.005575224659449908 0.02107909627498512 0 0.0062390762592388852 0.020893590505442931 0 0.0058043592749383839 0.02178828637730789 0 0.0058043592749383839 0.02178828637730789 0 0.0063636447736039239 0.022249891644463265 0 0.005691084539689124 0.022741945717652329 0 0.0058043592749383839 0.02178828637730789 0 0.0065998297124864949 0.021398114290755138 0 0.0063636447736039239 0.022249891644463265 0 0.0050668379856634409 0.02184742876035424 0 0.0058043592749383839 0.02178828637730789 0 0.005184560888828238 0.022487604843488936 0 0.0058043592749383839 0.02178828637730789 0 0.005184560888828238 0.022487604843488936 0 0.005691084539689124 0.022741945717652329 0 0.0050668379856634409 0.02184742876035424 0 0.005184560888828238 0.022487604843488936 0 0.0046604030773979262 0.022667370808328903 0 0.0073959663820523571 0.020461378721683812 0 0.006922337785504217 0.020445641330462831 0 0.0073094280195729567 0.021098264187506433 0 0.006922337785504217 0.020445641330462831 0 0.0073094280195729567 0.021098264187506433 0 0.0065998297124864949 0.021398114290755138 0 0.006922337785504217 0.020445641330462831 0 0.0062390762592388852 0.020893590505442931 0 0.0065998297124864949 0.021398114290755138 0 0.0073094280195729567 0.021098264187506433 0 0.0065998297124864949 0.021398114290755138 0 0.0069744701403392107 0.021891490455728545 0 0.0065998297124864949 0.021398114290755138 0 0.0063636447736039239 0.022249891644463265 0 0.0069744701403392107 0.021891490455728545 0 0.0063636447736039239 0.022249891644463265 0 0.0069744701403392107 0.021891490455728545 0 0.0069430216690439962 0.022625826529783462 0 0.0069744701403392107 0.021891490455728545 0 0.0078298662465042523 0.022191972405782918 0 0.0069430216690439962 0.022625826529783462 0 0.0073094280195729567 0.021098264187506433 0 0.0069744701403392107 0.021891490455728545 0 0.0078298662465042523 0.022191972405782918 0 0.0073564124040235244 0.021102722162359554 0 0.0076816619892656687 0.021714117107952048 0 0.0074316645545816256 0.022848938726505279 0 0.0069430216690439962 0.022625826529783462 0 0.0067991646872965 0.023495592980534934 0 0.0078298662465042523 0.022191972405782918 0 0.0074316645545816256 0.022848938726505279 0 0.0081715840321518809 0.023045303253520347 0 0.0074316645545816256 0.022848938726505279 0 0.0067991646872965 0.023495592980534934 0 0.0081715840321518809 0.023045303253520347 0 0.0078298662465042523 0.022191972405782918 0 0.0074316645545816256 0.022848938726505279 0 0.0069430216690439962 0.022625826529783462 0 0.0069430216690439962 0.022625826529783462 0 0.0062816335850793817 0.022907896392469193 0 0.0067991646872965 0.023495592980534934 0 0.0063636447736039239 0.022249891644463265 0 0.0069430216690439962 0.022625826529783462 0 0.0062816335850793817 0.022907896392469193 0 0.0067497276143556875 0.027126330717235896 0 0.0068665139421675318 0.027078095724962874 0 0.0065897719861304572 0.027123092255264235 0 0.0067497276143556875 0.027126330717235896 0 0.0065903137236505167 0.027058829225648878 0 0.0065897719861304572 0.027123092255264235 0 0.0067497276143556875 0.027126330717235896 0 0.0065903137236505167 0.027058829225648878 0 0.0064696001968916885 0.027100244849419346 0 0.0083573217738102043 0.020244414389434903 0 0.0066288283782396555 0.019984224534275671 0 0.0055013109022108543 0.021126236182665604 0 0.0065903137236505167 0.027058829225648878 0 0.0064932329899066972 0.026955013822762434 0 0.0065897719861304572 0.027123092255264235 0 0.0075973229985426254 0.024231522799013236 0 0.0071256556572719051 0.021424537438797187 0 0.0065903137236505167 0.027058829225648878 0 0.0064932329899066972 0.026955013822762434 0 0.0064696001968916885 0.027100244849419346 0 0.0075973229985426254 0.024231522799013236 0 0.0072732032736091941 0.02337488274171684 0 0.005184560888828238 0.022487604843488936 0 0.005691084539689124 0.022741945717652329 0 0.0046285091017779943 0.023506337991728618 0 0.005691084539689124 0.022741945717652329 0 0.0056535991833767674 0.023395816647723465 0 0.0046285091017779943 0.023506337991728618 0 0.0062816335850793817 0.022907896392469193 0 0.005691084539689124 0.022741945717652329 0 0.0056535991833767674 0.023395816647723465 0 0.0063636447736039239 0.022249891644463265 0 0.0062816335850793817 0.022907896392469193 0 0.005691084539689124 0.022741945717652329 0 0.0075973229985426254 0.024231522799013236 0 0.0072480663950644604 0.027238680044657473 0 0.0062816335850793817 0.022907896392469193 0 0.0067991646872965 0.023495592980534934 0 0.0056535991833767674 0.023395816647723465 0 0.0093468522163059706 0.026116240391595897 0 0.0080134225509637079 0.025976164900487046 0 0.0078449851953091253 0.026711098752130614 0 0.0075973229985426254 0.024231522799013236 0 0.0069349571329060476 0.024757483086844397 0 0.0067497276143556875 0.027126330717235896 0 0.0066106126974072215 0.027041445519664843 0 0.0068665139421675318 0.027078095724962874 0 0.0080134225509637079 0.025976164900487046 0 0.0078449851953091253 0.026711098752130614 0 0.0065237434964170882 0.025724093900540014 0 0.0069349571329060476 0.024757483086844397 0 0.0055357827789708856 0.024607423364085491 0 0.0066106126974072215 0.027041445519664843 0 0.0060428014060323193 0.027852751769053646 0 0.0052781891796187695 0.027593650701613234 0 0.0066106126974072215 0.027041445519664843 0 0.0066868448051281958 0.027402967474642864 0 0.0060428014060323193 0.027852751769053646 0 0.0072480663950644604 0.027238680044657473 0 0.0056795305062391291 0.027470260646515792 0 0.0066868448051281958 0.027402967474642864 0 0.0067180964824434496 0.028194744911023344 0 0.0070957608351477578 0.026957811147424154 0 0.0066106126974072215 0.027041445519664843 0 0.0066868448051281958 0.027402967474642864 0 0.0068665139421675318 0.027078095724962874 0 0.0066868448051281958 0.027402967474642864 0 0.0068665139421675318 0.027078095724962874 0 0.0070957608351477578 0.026957811147424154 0 0.0067180964824434496 0.028194744911023344 0 0.0060428014060323193 0.027852751769053646 0 0.0056988091531624914 0.029022052179119691 0 0.0066868448051281958 0.027402967474642864 0 0.0067180964824434496 0.028194744911023344 0 0.0060428014060323193 0.027852751769053646 0 0.0035833641612852576 0.027867074359943612 0 0.0048978944997620693 0.026038068465788211 0 0.0065897719861304572 0.027123092255264235 0 0.0045297156442672785 0.027252352316484298 0 0.0065125780346709239 0.027110063097919551 0 0.0048978944997620693 0.026038068465788211 0 0.0052806584199102972 0.024062103984563019 0 0.0028330600109891389 0.024414010801271532 0 0.0048978944997620693 0.026038068465788211 0 0.0028896201824770841 0.026234788657491671 0 0.0028330600109891389 0.024414010801271532 0 0.0035833641612852576 0.027867074359943612 0 0.0028896201824770841 0.026234788657491671 0 0.0018676646663795401 0.026959898397441267 0 0.0035833641612852576 0.027867074359943612 0 0.0048978944997620693 0.026038068465788211 0 0.0028896201824770841 0.026234788657491671 0 0.0048978944997620693 0.026038068465788211 0 0.0065897719861304572 0.027123092255264235 0 0.0070957608351477578 0.026957811147424154 0 0.0068665139421675318 0.027078095724962874 0 0.0065897719861304572 0.027123092255264235 0 0.0070957608351477578 0.026957811147424154 0 0.0048978944997620693 0.026038068465788211 0 0.0070957608351477578 0.026957811147424154 0 0.0052806584199102972 0.024062103984563019 0 0.0071560638143855224 0.026775058467260519 0 0.0050802685444002911 0.026766603498732017 0 0.0067180964824434496 0.028194744911023344 0 0.0070957608351477578 0.026957811147424154 0 0.0077279502564288572 0.027544323683935737 0 0.0032664455051038734 0.029508306581186406 0 0.0035312025995510449 0.029384143693033628 0 0.0034928610864527702 0.029580209484118096 0 0.0050489819230997999 0.029099082748658262 0 0.0050802685444002911 0.026766603498732017 0 0.0035312025995510449 0.029384143693033628 0 0.0036107316025066885 0.029494575689847372 0 0.0034928610864527702 0.029580209484118096 0 0.0052806584199102972 0.024062103984563019 0 0.0028330600109891389 0.024414010801271532 0 0.0024521107666035514 0.020997912391886517 0 0.0050802685444002911 0.026766603498732017 0 0.0033442394034033838 0.025590798354374739 0 0.0024521107666035514 0.020997912391886517 0 -0.00034119356733065581 0.022105424813256679 0 0.00060922225412558286 0.023864460966932018 0 0.0024521107666035514 0.020997912391886517 0 -0.00034119356733065581 0.022105424813256679 0 -0.00067460108498316931 0.02038455679355659 0 -0.00034119356733065581 0.022105424813256679 0 -0.0017889332518366125 0.021485378128627951 0 -0.00067460108498316931 0.02038455679355659 0 -0.00034119356733065581 0.022105424813256679 0 0.00060922225412558286 0.023864460966932018 0 -0.0016202755364426739 0.024669880948147673 0 0.0028330600109891389 0.024414010801271532 0 0.0024521107666035514 0.020997912391886517 0 0.00060922225412558286 0.023864460966932018 0 -0.0012141574596547717 0.010523468640841475 0 -0.0016537645202635558 0.0094410994278474897 0 0.0001726833395573872 -0.0024505495335382962 0 -0.00025443266814856856 -0.0029707796707471017 0 3.2609642845333964e-05 -0.0015860161816084006 0 -0.0017889332518366125 0.021485378128627951 0 -0.0016202755364426739 0.024669880948147673 0 -0.0035030291917303676 0.020523954034131549 0 0.00043651427845251212 -0.002177823976850094 0 0.00079958373308540616 -0.0020576064603802678 0 3.2609642845333964e-05 -0.0015860161816084006 0 0.00043651427845251212 -0.002177823976850094 0 0.0001726833395573872 -0.0024505495335382962 0 3.2609642845333964e-05 -0.0015860161816084006 0 -0.00034119356733065581 0.022105424813256679 0 -0.0017889332518366125 0.021485378128627951 0 -0.0016202755364426739 0.024669880948147673 0 0.0001726833395573872 -0.0024505495335382962 0 0.00041627669252132971 -0.0030684525366572817 0 0.00068969857604837413 -0.0025347796377781211 0 0.0001726833395573872 -0.0024505495335382962 0 0.00041627669252132971 -0.0030684525366572817 0 -0.00025443266814856856 -0.0029707796707471017 0 0.00043651427845251212 -0.002177823976850094 0 0.0001726833395573872 -0.0024505495335382962 0 0.00068969857604837413 -0.0025347796377781211 0 -0.00025443266814856856 -0.0029707796707471017 0 3.2930874540577554e-05 -0.0035273554412378425 0 -0.00046737954916738363 -0.0037155346862021007 0 0.00041627669252132971 -0.0030684525366572817 0 -0.00025443266814856856 -0.0029707796707471017 0 3.2930874540577554e-05 -0.0035273554412378425 0 0.00041627669252132971 -0.0030684525366572817 0 3.2930874540577554e-05 -0.0035273554412378425 0 0.00082777011527819153 -0.0035586076511042457 0 3.2930874540577554e-05 -0.0035273554412378425 0 0.00037493676940054098 -0.0040567320739974665 0 0.00082777011527819153 -0.0035586076511042457 0 -0.0012141574596547717 0.010523468640841475 0 0.0027461416451868689 0.013646862589454774 0 -0.0016202755364426739 0.024669880948147673 0 0.00011772557967619855 0.02586226772980444 0 0.00020865896658011143 0.028580348919209266 0 0.0028896201824770841 0.026234788657491671 0 0.0028330600109891389 0.024414010801271532 0 0.0013719646517229545 0.025703301816840357 0 0.0028330600109891389 0.024414010801271532 0 0.00060922225412558286 0.023864460966932018 0 0.0013719646517229545 0.025703301816840357 0 0.00060922225412558286 0.023864460966932018 0 0.0013719646517229545 0.025703301816840357 0 0.00011772557967619855 0.02586226772980444 0 0.00060922225412558286 0.023864460966932018 0 -0.0016202755364426739 0.024669880948147673 0 0.00011772557967619855 0.02586226772980444 0 0.00011772557967619855 0.02586226772980444 0 0.00084496656824989804 0.026957019180060132 0 0.00020865896658011143 0.028580348919209266 0 0.00084496656824989804 0.026957019180060132 0 0.0018676646663795401 0.026959898397441267 0 0.0016283167821660694 0.027592662042931541 0 0.0035833641612852576 0.027867074359943612 0 0.0018676646663795401 0.026959898397441267 0 0.0016283167821660694 0.027592662042931541 0 0.0013719646517229545 0.025703301816840357 0 0.00011772557967619855 0.02586226772980444 0 0.00084496656824989804 0.026957019180060132 0 0.0013719646517229545 0.025703301816840357 0 0.00084496656824989804 0.026957019180060132 0 0.0018676646663795401 0.026959898397441267 0 0.0028896201824770841 0.026234788657491671 0 0.0013719646517229545 0.025703301816840357 0 0.0018676646663795401 0.026959898397441267 0 0.00084496656824989804 0.026957019180060132 0 0.0016283167821660694 0.027592662042931541 0 0.00020865896658011143 0.028580348919209266 0 0.0066288283782396555 0.019984224534275671 0 0.0050740982982531591 0.020157268694089472 0 0.0048139377999594874 0.019566153149754045 0 0.0035833641612852576 0.027867074359943612 0 0.0016283167821660694 0.027592662042931541 0 0.00020865896658011143 0.028580348919209266 0 0.0072732032736091941 0.02337488274171684 0 0.0027461416451868689 0.013646862589454774 0 0.0045297156442672785 0.027252352316484298 0 0.0027461416451868689 0.013646862589454774 0 0.0064932329899066972 0.026955013822762434 0 0.0064696001968916885 0.027100244849419346 0 0.005984832398644108 0.026862735965977855 0 0.0066288283782396555 0.019984224534275671 0 0.0050740982982531591 0.020157268694089472 0 0.0055013109022108543 0.021126236182665604 0 0.0052196212303936918 0.013859514889030556 0 0.0071256556572719051 0.021424537438797187 0 -0.0022438460547285844 0.0023035651862670183 0 -0.0017049823552231014 0.0027203552911325996 0 -0.00079001741932160463 0.0010608874264401223 0 0.00065609628367502856 0.0059574592877163109 0 0.0027461416451868689 0.013646862589454774 0 -0.0022438460547285844 0.0023035651862670183 0 -0.0017049823552231014 0.0027203552911325996 0 -0.0020181532355684089 0.0028077251777418781 0 0.0052196212303936918 0.013859514889030556 0 0.0027461416451868689 0.013646862589454774 0 0.00065609628367502856 0.0059574592877163109 0 -0.00069110505907148318 -0.0051251273565504985 0 3.2930874540577554e-05 -0.0035273554412378425 0 -0.00034904619258698135 -0.0037537050428012443 0 -0.00046737954916738363 -0.0037155346862021007 0 -0.00019015122516076617 -0.00042825041828187103 0 9.503895019211132e-05 -0.00045453953075541315 0 0.00019797666899581048 -0.00060448114199940434 0 -0.0017049823552231014 0.0027203552911325996 0 -0.00079001741932160463 0.0010608874264401223 0 0.00052026011905781443 0.0021263024340020535 0 3.2930874540577554e-05 -0.0035273554412378425 0 -0.00034904619258698135 -0.0037537050428012443 0 0.00020927025202465248 -0.0037364019079590195 0 0.00065609628367502856 0.0059574592877163109 0 -0.00091199955269372491 -0.0048083563076704826 0 -0.00048416904322166996 -0.0041857281708237888 0 -0.00069110505907148318 -0.0051251273565504985 0 0.0052196212303936918 0.013859514889030556 0 0.0033558264826139992 0.011210546879692434 0 0.0078617009485942458 0.020795124110582756 0 0.0080290055071988026 0.020812175413735621 0 0.0077949012274883484 0.0209995642220582 0 0.0076901864852009965 0.020923235307968479 0 0.0078617009485942458 0.020795124110582756 0 0.0077949012274883484 0.0209995642220582 0 0.00074698336666256771 0.004339313554548801 0 0.0033558264826139992 0.011210546879692434 0 0.0076901864852009965 0.020923235307968479 0 0.0077949012274883484 0.0209995642220582 0 0.0076839157886608575 0.021001944073164556 0 0.0076901864852009965 0.020923235307968479 0 0.0076132133281599538 0.02100736924579668 0 0.0076839157886608575 0.021001944073164556 0 0.0076816619892656687 0.021714117107952048 0 0.0071256556572719051 0.021424537438797187 0 0.0074842891685320181 0.021011863578825511 0 0.0076132133281599538 0.02100736924579668 0 0.0076102792515533521 0.021036633078299023 0 0.0076901864852009965 0.020923235307968479 0 0.0074842891685320181 0.021011863578825511 0 0.0076132133281599538 0.02100736924579668 0 0.0076132133281599538 0.02100736924579668 0 0.007615943306134504 0.021030977876794171 0 0.0076102792515533521 0.021036633078299023 0 0.0076174474389879123 0.021074773516628061 0 0.007615943306134504 0.021030977876794171 0 0.0076031251530291784 0.021033270779130833 0 0.0071934030954310599 0.02139429197904168 0 0.0071256556572719051 0.021424537438797187 0 0.0076174474389879123 0.021074773516628061 0 0.007615943306134504 0.021030977876794171 0 0.0076839157886608575 0.021001944073164556 0 0.0076174474389879123 0.021074773516628061 0 0.0077949012274883484 0.0209995642220582 0 0.0076839157886608575 0.021001944073164556 0 0.0076132133281599538 0.02100736924579668 0 0.007615943306134504 0.021030977876794171 0 0.0076839157886608575 0.021001944073164556 0 -0.001626913306479212 -0.010639373782869617 0 -0.0020936399927197883 -0.010027642166571961 0 -0.0014701857134610766 -0.010243451188598141 0 -0.001626913306479212 -0.010639373782869617 0 -0.0014701857134610766 -0.010243451188598141 0 -0.0011921516191108004 -0.010702728470314912 0 0.002237087392462219 1.9130799322358985e-05 0 0.00078278196311584172 0.00012585491881422813 0 0.00052026011905781443 0.0021263024340020535 0 -0.00079001741932160463 0.0010608874264401223 0 0.00078278196311584172 0.00012585491881422813 0 0.00052026011905781443 0.0021263024340020535 0 0.00025325914095071658 -0.0051698437706518136 0 -0.00091199955269372491 -0.0048083563076704826 0 0.00068398183713906972 -0.00028995778392645302 0 0.002237087392462219 1.9130799322358985e-05 0 0.00078278196311584172 0.00012585491881422813 0 0.00071360128180126474 -0.00023915789255382023 0 -0.00079001741932160463 0.0010608874264401223 0 0.00078278196311584172 0.00012585491881422813 0 0.00074698336666256771 0.004339313554548801 0 0.00054805924533705128 0.0027657459284443639 0 -0.00069110505907148318 -0.0051251273565504985 0 0.00051695655201578882 -0.0072557304791222516 0 -0.0015488254414659855 -0.010003212029848996 0 -0.0013355031343363077 -0.010102789925861128 0 -0.001155598358387244 -0.010027167998489172 0 -0.0014675292158052833 -0.010121080972645946 0 -0.0013355031343363077 -0.010102789925861128 0 -0.0011677473021706923 -0.010262547551866124 0 -0.00091199955269372491 -0.0048083563076704826 0 -0.001338713593155502 -0.010599386622678737 0 -0.0015488254414659855 -0.010003212029848996 0 -0.0014675292158052833 -0.010121080972645946 0 -0.0013355031343363077 -0.010102789925861128 0 -0.00069110505907148318 -0.0051251273565504985 0 -0.00091199955269372491 -0.0048083563076704826 0 -0.0013355031343363077 -0.010102789925861128 0 -0.0011677473021706923 -0.010262547551866124 0 -0.001155598358387244 -0.010027167998489172 0 -0.0011677473021706923 -0.010262547551866124 0 -0.001155598358387244 -0.010027167998489172 0 -0.00093477830893204448 -0.010193251056257381 0 0.0018783363934127819 -0.0032653952611532461 0 0.0027177953862234615 -0.0024567953985736952 0 0.0023651371396417441 -0.0035745960734844288 0 0.00218750275450919 -0.0039876498588801547 0 0.0018783363934127819 -0.0032653952611532461 0 0.0023651371396417441 -0.0035745960734844288 0 0.00218750275450919 -0.0039876498588801547 0 0.0018783363934127819 -0.0032653952611532461 0 0.0011644713743965999 -0.003140030984913915 0 0.00037493676940054098 -0.0040567320739974665 0 0.00218750275450919 -0.0039876498588801547 0 0.00082777011527819153 -0.0035586076511042457 0 0.00218750275450919 -0.0039876498588801547 0 0.00082777011527819153 -0.0035586076511042457 0 0.0011644713743965999 -0.003140030984913915 0 0.00041627669252132971 -0.0030684525366572817 0 0.00082777011527819153 -0.0035586076511042457 0 0.0011644713743965999 -0.003140030984913915 0 0.00041627669252132971 -0.0030684525366572817 0 0.0011644713743965999 -0.003140030984913915 0 0.00068969857604837413 -0.0025347796377781211 0 0.0011644713743965999 -0.003140030984913915 0 0.00068969857604837413 -0.0025347796377781211 0 0.0012010942726006783 -0.0023639739114662745 0 0.0011644713743965999 -0.003140030984913915 0 0.0012010942726006783 -0.0023639739114662745 0 0.0017456173979665305 -0.0023977956295776356 0 0.0012010942726006783 -0.0023639739114662745 0 0.00079958373308540616 -0.0020576064603802678 0 0.0014180412217069068 -0.001625987686174256 0 0.0012010942726006783 -0.0023639739114662745 0 0.0017456173979665305 -0.0023977956295776356 0 0.0014180412217069068 -0.001625987686174256 0 0.00068969857604837413 -0.0025347796377781211 0 0.0012010942726006783 -0.0023639739114662745 0 0.00079958373308540616 -0.0020576064603802678 0 0.00043651427845251212 -0.002177823976850094 0 0.00068969857604837413 -0.0025347796377781211 0 0.00079958373308540616 -0.0020576064603802678 0 0.0018783363934127819 -0.0032653952611532461 0 0.0017456173979665305 -0.0023977956295776356 0 0.0027177953862234615 -0.0024567953985736952 0 0.0018783363934127819 -0.0032653952611532461 0 0.0011644713743965999 -0.003140030984913915 0 0.0017456173979665305 -0.0023977956295776356 0 0.0031118152270697432 -0.004603519112261709 0 0.0028459777265161983 -0.0044551101874154998 0 0.002791744761651178 -0.0049382306254877753 0 0.0031118152270697432 -0.004603519112261709 0 0.0027285894666900447 -0.0040564724849259885 0 0.0028459777265161983 -0.0044551101874154998 0 0.0027177953862234615 -0.0024567953985736952 0 0.0023651371396417441 -0.0035745960734844288 0 0.0027285894666900447 -0.0040564724849259885 0 0.00218750275450919 -0.0039876498588801547 0 0.0027285894666900447 -0.0040564724849259885 0 0.0029652319666860277 -0.0042323772209573382 0 0.00051695655201578882 -0.0072557304791222516 0 0.0011214114351519914 -0.0070807079274610458 0 0.0028896135754466804 -0.0034249135690606145 0 0.0028020760099221435 -0.004031055695773487 0 0.00218750275450919 -0.0039876498588801547 0 0.0023651371396417441 -0.0035745960734844288 0 0.0027285894666900447 -0.0040564724849259885 0 0.0027285894666900447 -0.0040564724849259885 0 0.0029652319666860277 -0.0042323772209573382 0 0.0028459777265161983 -0.0044551101874154998 0 0.0029652319666860277 -0.0042323772209573382 0 0.0027417170930321391 -0.0044834994660307151 0 0.0028459777265161983 -0.0044551101874154998 0 0.0028459777265161983 -0.0044551101874154998 0 0.0026667923932113397 -0.0046711716669906823 0 0.002791744761651178 -0.0049382306254877753 0 0.0027417170930321391 -0.0044834994660307151 0 0.0028459777265161983 -0.0044551101874154998 0 0.0026667923932113397 -0.0046711716669906823 0 0.0024533188046985074 -0.0047699464123372873 0 0.0026667923932113397 -0.0046711716669906823 0 0.0024491200873247372 -0.0049897995248805059 0 0.0024533188046985074 -0.0047699464123372873 0 0.0026667923932113397 -0.0046711716669906823 0 0.0024077956753180353 -0.0045313669627921336 0 0.0022926330176216976 -0.0048657457690538964 0 0.0020666078199896142 -0.0052049796790639728 0 0.0024491200873247372 -0.0049897995248805059 0 0.0024533188046985074 -0.0047699464123372873 0 0.0022926330176216976 -0.0048657457690538964 0 0.0024491200873247372 -0.0049897995248805059 0 0.0024533188046985074 -0.0047699464123372873 0 0.0022926330176216976 -0.0048657457690538964 0 0.0024077956753180353 -0.0045313669627921336 0 0.0011139324296369638 -0.0072176588453462158 0 0.0012418545695946587 -0.0072840020542946386 0 0.0022926330176216976 -0.0048657457690538964 0 0.0024077956753180353 -0.0045313669627921336 0 0.0019923031613175305 -0.0047811293238941835 0 -0.00072779291464918961 -0.01000633981234538 0 -0.00020484291329212883 -0.0099082904595418683 0 -0.00046654995537044396 -0.010245282027778684 0 0.0029652319666860277 -0.0042323772209573382 0 0.0027417170930321391 -0.0044834994660307151 0 0.0024077956753180353 -0.0045313669627921336 0 0.0027417170930321391 -0.0044834994660307151 0 0.0026667923932113397 -0.0046711716669906823 0 0.0024077956753180353 -0.0045313669627921336 0 0.0011214114351519914 -0.0070807079274610458 0 0.0011139324296369638 -0.0072176588453462158 0 -0.00020484291329212883 -0.0099082904595418683 0 -0.00046654995537044396 -0.010245282027778684 0 -0.00018673090124085625 -0.010429952038392656 0 -0.00046654995537044396 -0.010245282027778684 0 -0.00018673090124085625 -0.010429952038392656 0 -0.00046498889080827323 -0.010641668670096803 0 -0.00020484291329212883 -0.0099082904595418683 0 -0.00018673090124085625 -0.010429952038392656 0 0.00028318851592539499 -0.010412901436742018 0 -0.00018673090124085625 -0.010429952038392656 0 -0.00046498889080827323 -0.010641668670096803 0 -4.338369365334585e-05 -0.010969001363124868 0 -0.00018673090124085625 -0.010429952038392656 0 0.00028318851592539499 -0.010412901436742018 0 -4.338369365334585e-05 -0.010969001363124868 0 -0.00046498889080827323 -0.010641668670096803 0 -0.00092267925140738626 -0.010465748095130348 0 -0.00079956972394078674 -0.010970302207420627 0 -0.00048829718974495863 -0.010613556028937066 0 -0.00088635329976305486 -0.010425489509467005 0 -0.00046498889080827323 -0.010641668670096803 0 -0.00085146172144897312 -0.01042509350673866 0 -0.00069908408272466803 -0.010292065579213746 0 -0.0011921516191108004 -0.010702728470314912 0 -0.00092267925140738626 -0.010465748095130348 0 -0.00079956972394078674 -0.010970302207420627 0 -0.0014701857134610766 -0.010243451188598141 0 -0.0011921516191108004 -0.010702728470314912 0 -0.00092267925140738626 -0.010465748095130348 0 -0.001338713593155502 -0.010599386622678737 0 -0.00088635329976305486 -0.010425489509467005 0 -0.00085146172144897312 -0.01042509350673866 0 -0.00093477830893204448 -0.010193251056257381 0 -0.00069908408272466803 -0.010292065579213746 0 -0.001155598358387244 -0.010027167998489172 0 -0.00072779291464918961 -0.01000633981234538 0 -0.00093477830893204448 -0.010193251056257381 0 -0.0011677473021706923 -0.010262547551866124 0 -0.00085146172144897312 -0.01042509350673866 0 -0.00093477830893204448 -0.010193251056257381 0 -0.00072779291464918961 -0.01000633981234538 0 -0.00093477830893204448 -0.010193251056257381 0 -0.00069908408272466803 -0.010292065579213746 0 -0.00046654995537044396 -0.010245282027778684 0 -0.00046498889080827323 -0.010641668670096803 0 -0.00069908408272466803 -0.010292065579213746 0 -0.00072779291464918961 -0.01000633981234538 0 -0.00046654995537044396 -0.010245282027778684 0 -0.00069908408272466803 -0.010292065579213746 0 0.0013936061937547439 -0.0088669074583875383 0 0.00096378856906904041 -0.0070665473911673297 0 0.0021290794471886085 -0.0093882346776367146 0 0.0012029639935991895 -0.0095564996578929029 0 0.0016768081783358607 -0.010008841552219497 0 -0.00068227884614634811 -0.0051607838253454373 0 0.00046233842452068663 -0.0057434223241939362 0 -0.00034775932084748817 -0.0063667301649582841 0 -0.00068227884614634811 -0.0051607838253454373 0 0.00046233842452068663 -0.0057434223241939362 0 0.00098631867053398893 -0.0049658331865510457 0 0.00046233842452068663 -0.0057434223241939362 0 0.0014116618184457804 -0.0055531157783410114 0 0.00098631867053398893 -0.0049658331865510457 0 0.0012029639935991895 -0.0095564996578929029 0 0.00085385816831888691 -0.01014676091351966 0 0.0012603648259770642 -0.010035669134645429 0 0.0012029639935991895 -0.0095564996578929029 0 0.0012603648259770642 -0.010035669134645429 0 0.0016768081783358607 -0.010008841552219497 0 0.00096378856906904041 -0.0070665473911673297 0 0.0012418545695946587 -0.0072840020542946386 0 0.0012029639935991895 -0.0095564996578929029 0 0.00043017668073670317 -0.0097564979099970164 0 0.00085385816831888691 -0.01014676091351966 0 0.0014116618184457804 -0.0055531157783410114 0 0.0020666078199896142 -0.0052049796790639728 0 0.0019923031613175305 -0.0047811293238941835 0 0.0014453105467008994 -0.0055472917919884238 0 0.0024382530628211082 -0.0057530609693243655 0 0.0014116618184457804 -0.0055531157783410114 0 0.00098631867053398893 -0.0049658331865510457 0 0.0019923031613175305 -0.0047811293238941835 0 0.0022926330176216976 -0.0048657457690538964 0 0.0020666078199896142 -0.0052049796790639728 0 0.0019923031613175305 -0.0047811293238941835 0 -0.00020484291329212883 -0.0099082904595418683 0 0.00043017668073670317 -0.0097564979099970164 0 0.00028318851592539499 -0.010412901436742018 0 0.00028318851592539499 -0.010412901436742018 0 0.00045417721640522474 -0.011004791118410073 0 -4.338369365334585e-05 -0.010969001363124868 0 0.00028318851592539499 -0.010412901436742018 0 0.00081104473177877421 -0.01065343796997778 0 0.00045417721640522474 -0.011004791118410073 0 0.00028318851592539499 -0.010412901436742018 0 0.00081104473177877421 -0.01065343796997778 0 0.00085385816831888691 -0.01014676091351966 0 0.00043017668073670317 -0.0097564979099970164 0 0.00028318851592539499 -0.010412901436742018 0 0.00085385816831888691 -0.01014676091351966 0 0.00085385816831888691 -0.01014676091351966 0 0.0012603648259770642 -0.010035669134645429 0 0.0013516144152137238 -0.010503303917433697 0 0.00081104473177877421 -0.01065343796997778 0 0.00085385816831888691 -0.01014676091351966 0 0.0013516144152137238 -0.010503303917433697 0 0.0012603648259770642 -0.010035669134645429 0 0.0013516144152137238 -0.010503303917433697 0 0.0016768081783358607 -0.010008841552219497 0 0.00081104473177877421 -0.01065343796997778 0 0.0013516144152137238 -0.010503303917433697 0 0.0010880370514117655 -0.011253186002716608 0 0.0013516144152137238 -0.010503303917433697 0 0.0018747092105656012 -0.011096615918186231 0 0.0010880370514117655 -0.011253186002716608 0 0.0013516144152137238 -0.010503303917433697 0 0.001947054405755082 -0.010489306595004307 0 0.0018747092105656012 -0.011096615918186231 0 0.0013516144152137238 -0.010503303917433697 0 0.001947054405755082 -0.010489306595004307 0 0.0016768081783358607 -0.010008841552219497 0 0.0016549300534772708 -0.011720677375420478 0 0.0018747092105656012 -0.011096615918186231 0 0.0010880370514117655 -0.011253186002716608 0 0.0010880370514117655 -0.011253186002716608 0 0.00059763935701852343 -0.01179582182953226 0 0.001127427537616804 -0.012097853749093135 0 0.0016549300534772708 -0.011720677375420478 0 0.0010880370514117655 -0.011253186002716608 0 0.001127427537616804 -0.012097853749093135 0 0.00059763935701852343 -0.01179582182953226 0 0.00045417721640522474 -0.011004791118410073 0 0.00016422815144449601 -0.011500639567259632 0 0.00081104473177877421 -0.01065343796997778 0 0.0010880370514117655 -0.011253186002716608 0 0.00045417721640522474 -0.011004791118410073 0 0.0010880370514117655 -0.011253186002716608 0 0.00059763935701852343 -0.01179582182953226 0 0.00045417721640522474 -0.011004791118410073 0 0.00045417721640522474 -0.011004791118410073 0 0.00016422815144449601 -0.011500639567259632 0 -4.338369365334585e-05 -0.010969001363124868 0 0.00059763935701852343 -0.01179582182953226 0 0.00016422815144449601 -0.011500639567259632 0 0.00014284991088512833 -0.011982255707972908 0 0.00014284991088512833 -0.011982255707972908 0 -7.2652381790187608e-05 -0.011788860136803884 0 -6.8882025340905896e-05 -0.012045726505661068 0 0.00016422815144449601 -0.011500639567259632 0 0.00014284991088512833 -0.011982255707972908 0 -7.2652381790187608e-05 -0.011788860136803884 0 -2.7795419103434991e-05 -0.012404531023946274 0 -0.00040869337917236762 -0.01223965503965304 0 -2.3110040511000046e-05 -0.012466327862671702 0 -0.00086962776764546714 -0.012704488361202687 0 -0.00051951289663620254 -0.012884193149471429 0 -2.3110040511000046e-05 -0.012466327862671702 0 -6.8882025340905896e-05 -0.012045726505661068 0 -3.9901457433321645e-05 -0.011775864162698629 0 0.00014284991088512833 -0.011982255707972908 0 -2.3110040511000046e-05 -0.012466327862671702 0 -6.8882025340905896e-05 -0.012045726505661068 0 0.00014284991088512833 -0.011982255707972908 0 -2.3110040511000046e-05 -0.012466327862671702 0 0.00053745240556839137 -0.012383460878103599 0 -2.3110040511000046e-05 -0.012466327862671702 0 0.00053745240556839137 -0.012383460878103599 0 0.00039364053436077373 -0.013106889330044802 0 0.00059763935701852343 -0.01179582182953226 0 0.00014284991088512833 -0.011982255707972908 0 0.00053745240556839137 -0.012383460878103599 0 0.00053745240556839137 -0.012383460878103599 0 0.001127427537616804 -0.012097853749093135 0 0.0011504132751153705 -0.012830987026526729 0 0.00059763935701852343 -0.01179582182953226 0 0.00053745240556839137 -0.012383460878103599 0 0.001127427537616804 -0.012097853749093135 0 0.00053745240556839137 -0.012383460878103599 0 0.0011504132751153705 -0.012830987026526729 0 0.00039364053436077373 -0.013106889330044802 0 0.0018804542400703082 -0.012422851751170609 0 0.0018069134468188448 -0.013224051422807703 0 0.0011504132751153705 -0.012830987026526729 0 0.0018804542400703082 -0.012422851751170609 0 0.001127427537616804 -0.012097853749093135 0 0.0011504132751153705 -0.012830987026526729 0 0.0018804542400703082 -0.012422851751170609 0 0.0016549300534772708 -0.011720677375420478 0 0.001127427537616804 -0.012097853749093135 0 -0.00079956972394078674 -0.010970302207420627 0 -0.00038764141496217474 -0.011272082275754739 0 -0.0007319172794937451 -0.01163131785928073 0 0.0013316736238149726 -0.0066523699253431962 0 0.0017805662976736259 -0.0083423615602547935 0 -0.0011823764232509297 -0.011160723403008414 0 -0.00079956972394078674 -0.010970302207420627 0 -0.0007319172794937451 -0.01163131785928073 0 0.0015255530987151639 -0.0067957803139599001 0 0.0017805662976736259 -0.0083423615602547935 0 0.0032133917020234679 -0.0025262753153015025 0 0.004018738725416097 -0.002367180719920781 0 0.0057985967811208378 -0.0048076215198559341 0 -0.0011921516191108004 -0.010702728470314912 0 -0.0011823764232509297 -0.011160723403008414 0 -0.00079956972394078674 -0.010970302207420627 0 -0.00046498889080827323 -0.010641668670096803 0 -0.00079956972394078674 -0.010970302207420627 0 -0.00038764141496217474 -0.011272082275754739 0 -0.00046498889080827323 -0.010641668670096803 0 -4.338369365334585e-05 -0.010969001363124868 0 -0.00038764141496217474 -0.011272082275754739 0 -4.338369365334585e-05 -0.010969001363124868 0 -0.00011502744345593902 -0.011371742682617364 0 -0.00038764141496217474 -0.011272082275754739 0 0.00016422815144449601 -0.011500639567259632 0 -4.338369365334585e-05 -0.010969001363124868 0 -0.00011502744345593902 -0.011371742682617364 0 -0.00011502744345593902 -0.011371742682617364 0 -0.00030503068256403055 -0.011669079024408922 0 -7.2652381790187608e-05 -0.011788860136803884 0 0.00016422815144449601 -0.011500639567259632 0 -0.00011502744345593902 -0.011371742682617364 0 -7.2652381790187608e-05 -0.011788860136803884 0 -0.00011502744345593902 -0.011371742682617364 0 -0.00038764141496217474 -0.011272082275754739 0 -0.00030503068256403055 -0.011669079024408922 0 -0.00038764141496217474 -0.011272082275754739 0 -0.00030503068256403055 -0.011669079024408922 0 -0.0007319172794937451 -0.01163131785928073 0 -0.00030503068256403055 -0.011669079024408922 0 -0.00013244184342382862 -0.011890765679658606 0 -0.00032670279214100053 -0.011884136040951055 0 -0.00030503068256403055 -0.011669079024408922 0 -7.2652381790187608e-05 -0.011788860136803884 0 -0.00013244184342382862 -0.011890765679658606 0 -7.2652381790187608e-05 -0.011788860136803884 0 -6.8882025340905896e-05 -0.012045726505661068 0 -0.00013244184342382862 -0.011890765679658606 0 -6.8882025340905896e-05 -0.012045726505661068 0 -0.00013244184342382862 -0.011890765679658606 0 -3.9901457433321645e-05 -0.011775864162698629 0 -0.00013244184342382862 -0.011890765679658606 0 7.8454693487219784e-07 -0.011652509842682759 0 -3.9901457433321645e-05 -0.011775864162698629 0 -0.00013244184342382862 -0.011890765679658606 0 -0.00032670279214100053 -0.011884136040951055 0 7.8454693487219784e-07 -0.011652509842682759 0 0.00025785924109453533 -0.010706459648198347 0 9.7409156980974798e-05 -0.011195972256032789 0 7.8454693487219784e-07 -0.011652509842682759 0 -0.00011449626507973543 -0.01136864112860783 0 -3.7071270609755427e-05 -0.011505019723885937 0 0.00025785924109453533 -0.010706459648198347 0 9.7409156980974798e-05 -0.011195972256032789 0 -0.00039007159906926455 -0.01085777746030233 0 9.7409156980974798e-05 -0.011195972256032789 0 -0.00039007159906926455 -0.01085777746030233 0 6.0793491065000965e-05 -0.011310086394029242 0 0.00025785924109453533 -0.010706459648198347 0 -2.0217859391468185e-05 -0.0097606263119989472 0 -0.00039007159906926455 -0.01085777746030233 0 -0.00011449626507973543 -0.01136864112860783 0 0.0017805662976736259 -0.0083423615602547935 0 -0.00030503068256403055 -0.011669079024408922 0 -0.00032670279214100053 -0.011884136040951055 0 -0.0007319172794937451 -0.01163131785928073 0 -0.001304327063466171 -0.010066726997948059 0 -2.0217859391468185e-05 -0.0097606263119989472 0 -0.00039007159906926455 -0.01085777746030233 0 -0.0009797236567117831 -0.0085474081961859644 0 -0.001304327063466171 -0.010066726997948059 0 -2.0217859391468185e-05 -0.0097606263119989472 0 -0.001275365564787651 -0.012060966126315541 0 -0.00059766860047742428 -0.012019316844060971 0 -0.00039007159906926455 -0.01085777746030233 0 -0.00087197364208956626 -0.011632623014001031 0 6.0793491065000965e-05 -0.011310086394029242 0 -0.0015958463030414855 -0.012492624315831476 0 -0.001269647628200256 -0.012881745041709979 0 -0.0016337254370171598 -0.01276475625486251 0 -0.0015958463030414855 -0.012492624315831476 0 -0.001269647628200256 -0.012881745041709979 0 -0.0012291293889877663 -0.012689581654622008 0 -0.001269647628200256 -0.012881745041709979 0 -0.0012291293889877663 -0.012689581654622008 0 -0.0010466656993616873 -0.012866397413551542 0 -0.00059766860047742428 -0.012019316844060971 0 -0.00040869337917236762 -0.01223965503965304 0 9.7409156980974798e-05 -0.011195972256032789 0 6.0793491065000965e-05 -0.011310086394029242 0 7.8454693487219784e-07 -0.011652509842682759 0 6.0793491065000965e-05 -0.011310086394029242 0 7.8454693487219784e-07 -0.011652509842682759 0 -3.9901457433321645e-05 -0.011775864162698629 0 -0.0012291293889877663 -0.012689581654622008 0 -0.0010466656993616873 -0.012866397413551542 0 -0.00086962776764546714 -0.012704488361202687 0 -0.00086962776764546714 -0.012704488361202687 0 -0.00080056692074027109 -0.012992010761892995 0 -0.00051951289663620254 -0.012884193149471429 0 -0.0010466656993616873 -0.012866397413551542 0 -0.00086962776764546714 -0.012704488361202687 0 -0.00080056692074027109 -0.012992010761892995 0 -0.00080056692074027109 -0.012992010761892995 0 -0.00071066239021487173 -0.013319694414932599 0 -0.0009932452798066579 -0.013044611723606599 0 -0.00080056692074027109 -0.012992010761892995 0 -0.00071066239021487173 -0.013319694414932599 0 -0.00034456132036112045 -0.013305782502544604 0 -0.001269647628200256 -0.012881745041709979 0 -0.0010466656993616873 -0.012866397413551542 0 -0.0009932452798066579 -0.013044611723606599 0 -0.001269647628200256 -0.012881745041709979 0 -0.0009932452798066579 -0.013044611723606599 0 -0.0010902487392141997 -0.01320340527444103 0 -0.00071066239021487173 -0.013319694414932599 0 -0.0009932452798066579 -0.013044611723606599 0 -0.0010902487392141997 -0.01320340527444103 0 -0.0010466656993616873 -0.012866397413551542 0 -0.00080056692074027109 -0.012992010761892995 0 -0.0009932452798066579 -0.013044611723606599 0 -0.0010902487392141997 -0.01320340527444103 0 -0.00089789854046824779 -0.013418647355600151 0 -0.0011970284231781585 -0.013476355103414332 0 -0.00071066239021487173 -0.013319694414932599 0 -0.0010902487392141997 -0.01320340527444103 0 -0.00089789854046824779 -0.013418647355600151 0 -0.00071066239021487173 -0.013319694414932599 0 -0.00089789854046824779 -0.013418647355600151 0 -0.00045186832757573262 -0.013609372907672366 0 -0.00089789854046824779 -0.013418647355600151 0 -0.00072534732017674795 -0.01367428191775295 0 -0.0010072069118789819 -0.013610720904671426 0 -0.00089789854046824779 -0.013418647355600151 0 -0.00045186832757573262 -0.013609372907672366 0 -0.00072534732017674795 -0.01367428191775295 0 -0.00089789854046824779 -0.013418647355600151 0 -0.0011970284231781585 -0.013476355103414332 0 -0.0010072069118789819 -0.013610720904671426 0 -0.0011970284231781585 -0.013476355103414332 0 -0.0013989487044687378 -0.013470104700731116 0 -0.0013556922535923747 -0.013174983232771224 0 -0.0013989487044687378 -0.013470104700731116 0 -0.0013556922535923747 -0.013174983232771224 0 -0.0017273106700222435 -0.013183222711389178 0 -0.0013556922535923747 -0.013174983232771224 0 -0.0017273106700222435 -0.013183222711389178 0 -0.0016337254370171598 -0.01276475625486251 0 -0.001269647628200256 -0.012881745041709979 0 -0.0013556922535923747 -0.013174983232771224 0 -0.0016337254370171598 -0.01276475625486251 0 -0.0010902487392141997 -0.01320340527444103 0 -0.0011970284231781585 -0.013476355103414332 0 -0.0013556922535923747 -0.013174983232771224 0 -0.001269647628200256 -0.012881745041709979 0 -0.0010902487392141997 -0.01320340527444103 0 -0.0013556922535923747 -0.013174983232771224 0 0.0019274259951393956 -0.015260409643459469 0 0.0011908784310933785 -0.014669928211051796 0 0.0014116152983529172 -0.013859231963118408 0 0.0018069134468188448 -0.013224051422807703 0 0.0011504132751153705 -0.012830987026526729 0 0.0014116152983529172 -0.013859231963118408 0 0.0014116152983529172 -0.013859231963118408 0 6.0925212745725113e-05 -0.013884511546010295 0 0.00039364053436077373 -0.013106889330044802 0 0.0011504132751153705 -0.012830987026526729 0 0.0014116152983529172 -0.013859231963118408 0 0.00039364053436077373 -0.013106889330044802 0 0.0011908784310933785 -0.014669928211051796 0 0.0014116152983529172 -0.013859231963118408 0 6.0925212745725113e-05 -0.013884511546010295 0 6.0925212745725113e-05 -0.013884511546010295 0 -0.00034456132036112045 -0.013305782502544604 0 -0.00045186832757573262 -0.013609372907672366 0 -2.3110040511000046e-05 -0.012466327862671702 0 0.00039364053436077373 -0.013106889330044802 0 -0.00034456132036112045 -0.013305782502544604 0 6.0925212745725113e-05 -0.013884511546010295 0 0.00039364053436077373 -0.013106889330044802 0 -0.00034456132036112045 -0.013305782502544604 0 -2.3110040511000046e-05 -0.012466327862671702 0 -0.00051951289663620254 -0.012884193149471429 0 -0.00034456132036112045 -0.013305782502544604 0 -0.00080056692074027109 -0.012992010761892995 0 -0.00051951289663620254 -0.012884193149471429 0 -0.00034456132036112045 -0.013305782502544604 0 -0.00071066239021487173 -0.013319694414932599 0 -0.00034456132036112045 -0.013305782502544604 0 -0.00045186832757573262 -0.013609372907672366 0 -0.00045186832757573262 -0.013609372907672366 0 -0.00051592414582310626 -0.013719856565302259 0 -0.00072534732017674795 -0.01367428191775295 0 -0.00045186832757573262 -0.013609372907672366 0 -0.00037461378763392855 -0.013664685421943079 0 -0.00051592414582310626 -0.013719856565302259 0 6.0925212745725113e-05 -0.013884511546010295 0 -0.00045186832757573262 -0.013609372907672366 0 -0.00037461378763392855 -0.013664685421943079 0 3.4881609110354969e-05 -0.013904092466905138 0 -0.00025316875397223004 -0.014825691535864147 0 6.0925212745725113e-05 -0.013884511546010295 0 -7.2887187903588734e-06 -0.015977422754990971 0 0.001147098294153379 -0.015713686768340299 0 0.0011908784310933785 -0.014669928211051796 0 6.0925212745725113e-05 -0.013884511546010295 0 0.001147098294153379 -0.015713686768340299 0 -7.2887187903588734e-06 -0.015977422754990971 0 0.001147098294153379 -0.015713686768340299 0 0.0012755516051137891 -0.016799930738725679 0 0.0021485422946195577 -0.016263520931157294 0 0.001147098294153379 -0.015713686768340299 0 0.0012755516051137891 -0.016799930738725679 0 0.0019274259951393956 -0.015260409643459469 0 0.0011908784310933785 -0.014669928211051796 0 0.001147098294153379 -0.015713686768340299 0 0.0019274259951393956 -0.015260409643459469 0 0.0021485422946195577 -0.016263520931157294 0 0.001147098294153379 -0.015713686768340299 0 0.0018831544343820587 -0.016981853430722029 0 0.0013223728281653376 -0.01701520180213258 0 0.0012755516051137891 -0.016799930738725679 0 0.0011214859473879322 -0.017240434872946703 0 0.00047017231980133736 -0.015602339538192468 0 -7.2887187903588734e-06 -0.015977422754990971 0 0.0012755516051137891 -0.016799930738725679 0 5.4189850735030686e-05 -0.017592947090311145 0 0.0013223728281653376 -0.01701520180213258 0 0.0012755516051137891 -0.016799930738725679 0 0.0011554070959046306 -0.016878532467251614 0 0.00047017231980133736 -0.015602339538192468 0 -0.00039518051114330143 -0.014219179092819329 0 -0.00044106007198927094 -0.013844036264668015 0 -0.00051592414582310626 -0.013719856565302259 0 -0.00065810401073383826 -0.013943392191737078 0 -0.00025316875397223004 -0.014825691535864147 0 0.00047017231980133736 -0.015602339538192468 0 -0.00037461378763392855 -0.013664685421943079 0 -0.00044106007198927094 -0.013844036264668015 0 -0.00051592414582310626 -0.013719856565302259 0 -0.00051592414582310626 -0.013719856565302259 0 -0.00072534732017674795 -0.01367428191775295 0 -0.00065810401073383826 -0.013943392191737078 0 -0.00065810401073383826 -0.013943392191737078 0 -0.00095227916023696789 -0.013809148257572897 0 -0.0010211634329156147 -0.014100047806840939 0 -0.00072534732017674795 -0.01367428191775295 0 -0.00065810401073383826 -0.013943392191737078 0 -0.00095227916023696789 -0.013809148257572897 0 -0.00029498349862770495 -0.01483034355987313 0 -0.00031400799917136982 -0.015939545242608551 0 -0.0010644880287161056 -0.014955462687885151 0 -0.00039518051114330143 -0.014219179092819329 0 -0.0011288033246880859 -0.014520529121145305 0 -0.00031400799917136982 -0.015939545242608551 0 -0.0010644880287161056 -0.014955462687885151 0 -0.0013252516533911486 -0.015260384123378814 0 -0.00031400799917136982 -0.015939545242608551 0 0.00084426968506398148 -0.016479388342545413 0 0.00056737789597380089 -0.017283612349991685 0 0.00098670677646792962 -0.01399635680886204 0 -0.00029498349862770495 -0.01483034355987313 0 0.00084426968506398148 -0.016479388342545413 0 0.00047017231980133736 -0.015602339538192468 0 0.0010479544718089483 -0.016373633893801011 0 -0.00029498349862770495 -0.01483034355987313 0 -0.00031400799917136982 -0.015939545242608551 0 0.00084426968506398148 -0.016479388342545413 0 0.0013223728281653376 -0.01701520180213258 0 0.0011554070959046306 -0.016878532467251614 0 0.00084426968506398148 -0.016479388342545413 0 0.0013223728281653376 -0.01701520180213258 0 0.00084426968506398148 -0.016479388342545413 0 0.0013368019175940106 -0.017418581759323624 0 0.00084426968506398148 -0.016479388342545413 0 0.0013368019175940106 -0.017418581759323624 0 0.00056737789597380089 -0.017283612349991685 0 0.0019720891425423098 -0.01842083230865485 0 0.0017699545274004397 -0.01762686834605243 0 0.0013368019175940106 -0.017418581759323624 0 0.0017699545274004397 -0.01762686834605243 0 0.0013223728281653376 -0.01701520180213258 0 0.0013368019175940106 -0.017418581759323624 0 -0.0014345717991760445 -0.013691399483886467 0 -0.0014430255917791809 -0.013730842165312236 0 -0.0016546957466018497 -0.013656578422144711 0 -0.0014345717991760445 -0.013691399483886467 0 -0.0014219238406918172 -0.013832652668719241 0 -0.0016546957466018497 -0.013656578422144711 0 -0.0014430255917791809 -0.013730842165312236 0 -0.0016546957466018497 -0.013656578422144711 0 -0.001123453258866611 -0.013303293707648642 0 -0.0013989487044687378 -0.013470104700731116 0 -0.0014430255917791809 -0.013730842165312236 0 -0.0017273106700222435 -0.013183222711389178 0 -0.0013989487044687378 -0.013470104700731116 0 -0.0014345717991760445 -0.013691399483886467 0 -0.0014430255917791809 -0.013730842165312236 0 -0.0011970284231781585 -0.013476355103414332 0 -0.0013989487044687378 -0.013470104700731116 0 -0.0014345717991760445 -0.013691399483886467 0 -0.0011970284231781585 -0.013476355103414332 0 -0.0012396567321800599 -0.013691401696212104 0 -0.0010072069118789819 -0.013610720904671426 0 -0.0011970284231781585 -0.013476355103414332 0 -0.0014345717991760445 -0.013691399483886467 0 -0.0012396567321800599 -0.013691401696212104 0 -0.00072534732017674795 -0.01367428191775295 0 -0.0010072069118789819 -0.013610720904671426 0 -0.00095227916023696789 -0.013809148257572897 0 -0.0012396567321800599 -0.013691401696212104 0 -0.0010072069118789819 -0.013610720904671426 0 -0.00095227916023696789 -0.013809148257572897 0 -0.0012396567321800599 -0.013691401696212104 0 -0.00095227916023696789 -0.013809148257572897 0 -0.0014219238406918172 -0.013832652668719241 0 -0.0014345717991760445 -0.013691399483886467 0 -0.0012396567321800599 -0.013691401696212104 0 -0.0014219238406918172 -0.013832652668719241 0 -0.0014219238406918172 -0.013832652668719241 0 -0.00174896190545359 -0.014308232445055025 0 -0.0016546957466018497 -0.013656578422144711 0 -0.00095227916023696789 -0.013809148257572897 0 -0.0014219238406918172 -0.013832652668719241 0 -0.0010211634329156147 -0.014100047806840939 0 -0.0011288033246880859 -0.014520529121145305 0 -0.0016558400907799422 -0.014437220502722583 0 -0.0014219238406918172 -0.013832652668719241 0 -0.0010211634329156147 -0.014100047806840939 0 -0.00174896190545359 -0.014308232445055025 0 -0.0010644880287161056 -0.014955462687885151 0 -0.00174896190545359 -0.014308232445055025 0 -0.0013252516533911486 -0.015260384123378814 0 -0.00174896190545359 -0.014308232445055025 0 -0.0018737985145868392 -0.013644017938355783 0 -0.0025203813165096049 -0.014471709833751583 0 -0.0018737985145868392 -0.013644017938355783 0 -0.0016546957466018497 -0.013656578422144711 0 -0.0012782404964432222 -0.012861818940644651 0 -0.00174896190545359 -0.014308232445055025 0 -0.0018737985145868392 -0.013644017938355783 0 -0.0016546957466018497 -0.013656578422144711 0 -0.0016546957466018497 -0.013656578422144711 0 -0.0012782404964432222 -0.012861818940644651 0 -0.001123453258866611 -0.013303293707648642 0 -0.0018737985145868392 -0.013644017938355783 0 -0.0012782404964432222 -0.012861818940644651 0 -0.0015996400825594554 -0.012621374595347524 0 -0.0012782404964432222 -0.012861818940644651 0 -0.00055614878271475338 -0.011847993696558416 0 -0.00060186327870450187 -0.01259551974838693 0 -0.00055614878271475338 -0.011847993696558416 0 -8.865493176623079e-06 -0.011633575896562991 0 -0.00060186327870450187 -0.01259551974838693 0 -8.865493176623079e-06 -0.011633575896562991 0 -0.00060186327870450187 -0.01259551974838693 0 -1.0356535601088434e-05 -0.012633165134955791 0 -0.00060186327870450187 -0.01259551974838693 0 -1.0356535601088434e-05 -0.012633165134955791 0 -0.00032848986851965881 -0.013325056617693096 0 -1.0356535601088434e-05 -0.012633165134955791 0 0.00026103486054818891 -0.013313683645013428 0 -0.00032848986851965881 -0.013325056617693096 0 -0.00060186327870450187 -0.01259551974838693 0 -0.001123453258866611 -0.013303293707648642 0 -0.00032848986851965881 -0.013325056617693096 0 -0.0012782404964432222 -0.012861818940644651 0 -0.00060186327870450187 -0.01259551974838693 0 -0.001123453258866611 -0.013303293707648642 0 0.0011728231815858123 -0.010707202915539824 0 0.0012257521212866375 -0.011644117017651558 0 0.00067782861995797472 -0.011670608485760292 0 0.0018987421048442367 -0.011804176459245507 0 0.0012257521212866375 -0.011644117017651558 0 0.0011066467251564422 -0.012181406200241296 0 0.0018987421048442367 -0.011804176459245507 0 0.0011728231815858123 -0.010707202915539824 0 0.0012257521212866375 -0.011644117017651558 0 0.0011728231815858123 -0.010707202915539824 0 0.00067782861995797472 -0.011670608485760292 0 0.00070331314857809525 -0.010194420259767391 0 -8.865493176623079e-06 -0.011633575896562991 0 0.00067782861995797472 -0.011670608485760292 0 0.00070331314857809525 -0.010194420259767391 0 -8.865493176623079e-06 -0.011633575896562991 0 -1.0356535601088434e-05 -0.012633165134955791 0 0.00067782861995797472 -0.011670608485760292 0 0.0012257521212866375 -0.011644117017651558 0 0.00067782861995797472 -0.011670608485760292 0 0.0011066467251564422 -0.012181406200241296 0 -1.0356535601088434e-05 -0.012633165134955791 0 0.00067782861995797472 -0.011670608485760292 0 0.00069496886286196733 -0.012675251045498546 0 -1.0356535601088434e-05 -0.012633165134955791 0 0.00069496886286196733 -0.012675251045498546 0 0.00026103486054818891 -0.013313683645013428 0 0.00069496886286196733 -0.012675251045498546 0 0.0011416250298995577 -0.012731452859613778 0 0.00090961167847966801 -0.013425641835577188 0 0.00069496886286196733 -0.012675251045498546 0 0.0011066467251564422 -0.012181406200241296 0 0.0011416250298995577 -0.012731452859613778 0 0.00067782861995797472 -0.011670608485760292 0 0.00069496886286196733 -0.012675251045498546 0 0.0011066467251564422 -0.012181406200241296 0 0.0018987421048442367 -0.011804176459245507 0 0.0011416250298995577 -0.012731452859613778 0 0.0012680793926740951 -0.013423906457192731 0 0.0021236747328865291 -0.0081021515675588351 0 0.0025721798986819218 -0.0045277508747125573 0 0.0024355957746985892 -0.0016656766987309625 0 0.0025721798986819218 -0.0045277508747125573 0 0.0027192595244615193 -0.0033162306695784993 0 0.0022600365979012021 -0.002617639074457289 0 0.0031299506581279231 -0.00021267308943906778 0 0.0020560763186023554 -0.00081885490743377216 0 0.0021887938055954602 -0.0025288344787600353 0 0.003228813521799032 0.00022358166791567832 0 0.0018987421048442367 -0.011804176459245507 0 0.0011066467251564422 -0.012181406200241296 0 0.0011416250298995577 -0.012731452859613778 0 0.0020560763186023554 -0.00081885490743377216 0 0.003228813521799032 0.00022358166791567832 0 0.0015775453690725094 0.00077085722361151766 0 0.0011416250298995577 -0.012731452859613778 0 0.0012680793926740951 -0.013423906457192731 0 0.00090961167847966801 -0.013425641835577188 0 0.0012680793926740951 -0.013423906457192731 0 0.00090961167847966801 -0.013425641835577188 0 0.0010054875394735778 -0.013908216075247525 0 0.00069035824263181738 -0.012634999514163796 0 0.00091945970225687317 -0.013879525051232846 0 0.00069496886286196733 -0.012675251045498546 0 0.00070007878780389897 -0.013490198078216541 0 0.00026103486054818891 -0.013313683645013428 0 0.00070007878780389897 -0.013490198078216541 0 0.00026103486054818891 -0.013313683645013428 0 0.00040920686236927046 -0.013767837477215959 0 0.00026103486054818891 -0.013313683645013428 0 0.00040920686236927046 -0.013767837477215959 0 4.5180860521071756e-05 -0.013769267874363065 0 0.00026915224102902447 -0.014104544467290956 0 -0.00053070895228668827 -0.014206771964352204 0 0.00056718354786222712 -0.014567033262146277 0 0.00040920686236927046 -0.013767837477215959 0 0.00026915224102902447 -0.014104544467290956 0 4.5180860521071756e-05 -0.013769267874363065 0 0.0023385658583012095 -0.0094824143679204578 0 0.0039046677650976308 -0.0055259539942366471 0 0.0017629355588324449 -0.00565906850078912 0 0.00026915224102902447 -0.014104544467290956 0 0.00075006572854763775 -0.014129265867483897 0 0.00056718354786222712 -0.014567033262146277 0 0.001584059235316664 -0.010740818842663251 0 -0.00028519076881567274 -0.0098927711965982029 0 0.00091945970225687317 -0.013879525051232846 0 0.001584059235316664 -0.010740818842663251 0 0.00040920686236927046 -0.013767837477215959 0 0.00026915224102902447 -0.014104544467290956 0 0.00075006572854763775 -0.014129265867483897 0 0.00070007878780389897 -0.013490198078216541 0 0.00040920686236927046 -0.013767837477215959 0 0.00075006572854763775 -0.014129265867483897 0 0.0049888921953158329 0.0058453127274939124 0 0.0036790711949755204 0.0044626059178746414 0 0.0025721798986819218 -0.0045277508747125573 0 0.0031492240983444567 -0.0011203307396447017 0 0.003785661366511343 0.0031696075032068291 0 0.0034558263886457705 0.0035531796593793199 0 0.0015775453690725094 0.00077085722361151766 0 0.0071963597729499526 0.010014655082993843 0 0.0051487586229350983 0.0092396282308227877 0 0.0055596679470981047 0.0072898225796587893 0 0.0023110236407665632 -0.0059856728077287103 0 0.0026947194858348484 -0.0049234055927169351 0 0.0025733206494632016 -0.0042388909429230681 0 0.003228813521799032 0.00022358166791567832 0 0.003785661366511343 0.0031696075032068291 0 0.0015775453690725094 0.00077085722361151766 0 0.0025721798986819218 -0.0045277508747125573 0 0.001584059235316664 -0.010740818842663251 0 0.001584059235316664 -0.010740818842663251 0 0.0031492240983444567 -0.0011203307396447017 0 -0.0014430255917791809 -0.013730842165312236 0 -0.001123453258866611 -0.013303293707648642 0 -0.00088339035940637387 -0.013629720438990401 0 -0.001123453258866611 -0.013303293707648642 0 -0.00088339035940637387 -0.013629720438990401 0 -0.00032848986851965881 -0.013325056617693096 0 -0.00032848986851965881 -0.013325056617693096 0 4.5180860521071756e-05 -0.013769267874363065 0 -0.00053070895228668827 -0.014206771964352204 0 -0.00088339035940637387 -0.013629720438990401 0 -0.00032848986851965881 -0.013325056617693096 0 -0.00053070895228668827 -0.014206771964352204 0 0.00026103486054818891 -0.013313683645013428 0 -0.00032848986851965881 -0.013325056617693096 0 4.5180860521071756e-05 -0.013769267874363065 0 -0.0012590415311093655 -0.014331676982419604 0 -0.00028519076881567274 -0.0098927711965982029 0 0.00026915224102902447 -0.014104544467290956 0 4.5180860521071756e-05 -0.013769267874363065 0 -0.00053070895228668827 -0.014206771964352204 0 -0.0014430255917791809 -0.013730842165312236 0 -0.00088339035940637387 -0.013629720438990401 0 -0.00053070895228668827 -0.014206771964352204 0 -0.0014430255917791809 -0.013730842165312236 0 -0.001956805767305126 -0.013509742335162106 0 -0.0017273106700222435 -0.013183222711389178 0 -0.0014446784753255383 -0.013634478777057398 0 -0.0012590415311093655 -0.014331676982419604 0 -0.0017273106700222435 -0.013183222711389178 0 -0.0020011736191991865 -0.012694008417730256 0 -0.0016337254370171598 -0.01276475625486251 0 -0.0017273106700222435 -0.013183222711389178 0 -0.0020011736191991865 -0.012694008417730256 0 -0.0021430234599651796 -0.012878680046513803 0 -0.0022880550699547844 -0.012658925440136483 0 -0.0020011736191991865 -0.012694008417730256 0 -0.0022973024299132363 -0.012439949399642923 0 -0.0022880550699547844 -0.012658925440136483 0 -0.0021430234599651796 -0.012878680046513803 0 -0.0024208832602078999 -0.012659470049813736 0 -0.0022880550699547844 -0.012658925440136483 0 -0.0020011736191991865 -0.012694008417730256 0 -0.0021430234599651796 -0.012878680046513803 0 -0.001956805767305126 -0.013509742335162106 0 -0.0022009830411423049 -0.013160289114850609 0 -0.0026324512935397451 -0.013245204003209025 0 -0.001956805767305126 -0.013509742335162106 0 -0.0017273106700222435 -0.013183222711389178 0 -0.0022009830411423049 -0.013160289114850609 0 -0.0021430234599651796 -0.012878680046513803 0 -0.0022009830411423049 -0.013160289114850609 0 -0.0024208832602078999 -0.012659470049813736 0 -0.0017273106700222435 -0.013183222711389178 0 -0.0021430234599651796 -0.012878680046513803 0 -0.0022009830411423049 -0.013160289114850609 0 -0.00028519076881567274 -0.0098927711965982029 0 -0.002866279785080817 -0.013705931677091126 0 -0.0022670038927848401 -0.012057863472096288 0 -0.0022389365502866339 -0.012323277794894795 0 -0.0024208832602078999 -0.012659470049813736 0 -0.0022009830411423049 -0.013160289114850609 0 -0.0026324512935397451 -0.013245204003209025 0 -0.0024208832602078999 -0.012659470049813736 0 0.0039046677650976308 -0.0055259539942366471 0 0.0017629355588324449 -0.00565906850078912 0 0.0016238265544087878 -0.0047253714399919204 0 -0.00028519076881567274 -0.0098927711965982029 0 0.0035904200301958974 1.3152703702628213e-05 0 -0.0022670038927848401 -0.012057863472096288 0 -0.0022389365502866339 -0.012323277794894795 0 -0.0020250683109611697 -0.01210425165144287 0 -0.0022389365502866339 -0.012323277794894795 0 -0.0021525353632432455 -0.012446031663867532 0 -0.0020250683109611697 -0.01210425165144287 0 0.001379228718736931 -0.0022105604003826505 0 0.0035904200301958974 1.3152703702628213e-05 0 -0.0022389365502866339 -0.012323277794894795 0 -0.0021525353632432455 -0.012446031663867532 0 -0.0024208832602078999 -0.012659470049813736 0 0.0031492240983444567 -0.0011203307396447017 0 0.0035904200301958974 1.3152703702628213e-05 0 0.003785661366511343 0.0031696075032068291 0 0.00374451570977054 0.0034484128693300529 0 0.0034558263886457705 0.0035531796593793199 0 0.0035904200301958974 1.3152703702628213e-05 0 0.0049888921953158329 0.0058453127274939124 0 0.0026999388462464356 0.0044735225129688807 0 0.0029286999601803167 0.0043991181407641005 0 0.0027515449306055764 0.0041358724100284874 0 0.0049888921953158329 0.0058453127274939124 0 0.0049835855603587269 0.0072915607732088111 0 0.0035904200301958974 1.3152703702628213e-05 0 0.0049835855603587269 0.0072915607732088111 0 0.0074029367922776668 0.016320556710456686 0 0.0074884704952841033 0.016453847304994301 0 0.0069419673742624 0.016796265047145605 0 0.0025867507941769795 0.00018670485456365773 0 0.003547952531202392 0.0034206759663474467 0 0.0037545796301680272 0.001928777414879712 0 0.001379228718736931 -0.0022105604003826505 0 0.0049835855603587269 0.0072915607732088111 0 0.0049835855603587269 0.0072915607732088111 0 0.0071650978489869689 0.017460790696055963 0 0.008008720855428763 0.012986219059825754 0 0.0075375778799775797 0.012261207446389753 0 0.0071289487464244019 0.01519754470557517 0 0.0074884704952841033 0.016453847304994301 0 0.0069419673742624 0.016796265047145605 0 0.0073587124954074415 0.017279172950786785 0 0.0069419673742624 0.016796265047145605 0 0.0073587124954074415 0.017279172950786785 0 0.0068732176848428136 0.017335842379885648 0 0.0073587124954074415 0.017279172950786785 0 0.0069274174021267468 0.017713099602451165 0 0.0068732176848428136 0.017335842379885648 0 -0.0024960363051243916 -0.012834003242109857 0 -0.0024562425983337809 -0.012592862529269319 0 -0.0026905232186914003 -0.012165948786978261 0 0.008008720855428763 0.012986219059825754 0 0.0071289487464244019 0.01519754470557517 0 0.0085253052039083385 0.017313158183746732 0 0.001379228718736931 -0.0022105604003826505 0 0.0031453175196265383 0.0031217827553582612 0 -0.0022880550699547844 -0.012658925440136483 0 -0.0024208832602078999 -0.012659470049813736 0 -0.0024562425983337809 -0.012592862529269319 0 0.001379228718736931 -0.0022105604003826505 0 -0.0043307559720830134 -0.015231566970192857 0 -0.0021525353632432455 -0.012446031663867532 0 -0.0024208832602078999 -0.012659470049813736 0 -0.0024562425983337809 -0.012592862529269319 0 -0.0022880550699547844 -0.012658925440136483 0 -0.0024562425983337809 -0.012592862529269319 0 -0.0022973024299132363 -0.012439949399642923 0 -0.0026905232186914003 -0.012165948786978261 0 -0.0020814882521794299 -0.012105189088758661 0 -0.0022973024299132363 -0.012439949399642923 0 -0.0024562425983337809 -0.012592862529269319 0 -0.0026905232186914003 -0.012165948786978261 0 -0.0022973024299132363 -0.012439949399642923 0 0.0071650978489869689 0.017460790696055963 0 0.0072767281328298804 0.017165577083394942 0 0.0073587124954074415 0.017279172950786785 0 0.0072637214043386276 0.017801415583262408 0 0.0069274174021267468 0.017713099602451165 0 0.0071289487464244019 0.01519754470557517 0 0.0085253052039083385 0.017313158183746732 0 0.0072637214043386276 0.017801415583262408 0 0.0072637214043386276 0.017801415583262408 0 0.0067213957448540897 0.018464230418411515 0 0.0069274174021267468 0.017713099602451165 0 0.0085253052039083385 0.017313158183746732 0 0.0072637214043386276 0.017801415583262408 0 0.0076156306684024028 0.018921067961359461 0 0.0072637214043386276 0.017801415583262408 0 0.0076156306684024028 0.018921067961359461 0 0.0067213957448540897 0.018464230418411515 0 -0.0026603748344800429 -0.010636912308628024 0 -0.0026905232186914003 -0.012165948786978261 0 -0.0020814882521794299 -0.012105189088758661 0 0.0084058690426865972 0.019249877221694352 0 0.0085253052039083385 0.017313158183746732 0 0.0076156306684024028 0.018921067961359461 0 0.0027802416004603461 0.0040293827514486106 0 0.0031453175196265383 0.0031217827553582612 0 -0.0026603748344800429 -0.010636912308628024 0 -0.0015189652607706498 -0.011079533188737381 0 -0.0020814882521794299 -0.012105189088758661 0 -0.001275365564787651 -0.012060966126315541 0 -0.0020590328528447164 -0.012132377809810056 0 -0.00039007159906926455 -0.01085777746030233 0 -0.00087197364208956626 -0.011632623014001031 0 -0.0015189652607706498 -0.011079533188737381 0 -0.00087197364208956626 -0.011632623014001031 0 -0.0015189652607706498 -0.011079533188737381 0 -0.0020814882521794299 -0.012105189088758661 0 -0.0020011736191991865 -0.012694008417730256 0 -0.0016337254370171598 -0.01276475625486251 0 -0.0020814882521794299 -0.012105189088758661 0 -0.0015958463030414855 -0.012492624315831476 0 -0.0016337254370171598 -0.01276475625486251 0 -0.0020814882521794299 -0.012105189088758661 0 -0.0020011736191991865 -0.012694008417730256 0 -0.0020814882521794299 -0.012105189088758661 0 -0.0022973024299132363 -0.012439949399642923 0 0.0055983655451119366 0.017979648122909583 0 0.0052559647063268105 0.017855686956601492 0 0.0049096080163262687 0.018164183482052173 0 0.0055983655451119366 0.017979648122909583 0 0.0049096080163262687 0.018164183482052173 0 0.0047004233903755899 0.018763954455823746 0 0.0055983655451119366 0.017979648122909583 0 0.0052559647063268105 0.017855686956601492 0 0.0054682303294184692 0.017662568602399897 0 0.0055983655451119366 0.017979648122909583 0 0.0057049546048889383 0.017645180480980571 0 0.0054682303294184692 0.017662568602399897 0 0.0049096080163262687 0.018164183482052173 0 0.0045434143401819546 0.018434876743311467 0 0.0043028134433910712 0.018128675063033568 0 0.0045434143401819546 0.018434876743311467 0 0.0047004233903755899 0.018763954455823746 0 0.0042635076261083264 0.018685209513373307 0 0.0049096080163262687 0.018164183482052173 0 0.0045434143401819546 0.018434876743311467 0 0.0047004233903755899 0.018763954455823746 0 0.0049886671181243571 0.019360523195795676 0 0.0047004233903755899 0.018763954455823746 0 0.0042860500891603861 0.019111992068957993 0 0.0052539149995178887 0.019495404936614631 0 0.0045885186971070654 0.01961000339400629 0 0.0047004233903755899 0.018763954455823746 0 0.0042860500891603861 0.019111992068957993 0 0.0042635076261083264 0.018685209513373307 0 0.0055096598005523623 0.017919923262709414 0 0.0052539149995178887 0.019495404936614631 0 0.0059054824971008502 0.019274554045165121 0 0.0049699006200415131 0.01888284973381292 0 0.0055940026841061492 0.018624841533093978 0 0.0055983655451119366 0.017979648122909583 0 0.0049886671181243571 0.019360523195795676 0 0.0047004233903755899 0.018763954455823746 0 0.0055983655451119366 0.017979648122909583 0 0.0049699006200415131 0.01888284973381292 0 0.0055940026841061492 0.018624841533093978 0 0.0059054824971008502 0.019274554045165121 0 0.0055940026841061492 0.018624841533093978 0 0.0060290656839250799 0.018275171205858472 0 0.0059054824971008502 0.019274554045165121 0 0.0060290656839250799 0.018275171205858472 0 0.0067213957448540897 0.018464230418411515 0 0.0060290656839250799 0.018275171205858472 0 0.0067213957448540897 0.018464230418411515 0 0.0064772989547977108 0.017769340523189774 0 0.0067213957448540897 0.018464230418411515 0 0.0064772989547977108 0.017769340523189774 0 0.0069274174021267468 0.017713099602451165 0 0.0064772989547977108 0.017769340523189774 0 0.0069274174021267468 0.017713099602451165 0 0.0068732176848428136 0.017335842379885648 0 0.0060290656839250799 0.018275171205858472 0 0.0064772989547977108 0.017769340523189774 0 0.0060142774423344349 0.017559151747458739 0 0.0055983655451119366 0.017979648122909583 0 0.0055940026841061492 0.018624841533093978 0 0.0060290656839250799 0.018275171205858472 0 0.0055983655451119366 0.017979648122909583 0 0.0060290656839250799 0.018275171205858472 0 0.0060142774423344349 0.017559151747458739 0 0.0055983655451119366 0.017979648122909583 0 0.0057049546048889383 0.017645180480980571 0 0.0060142774423344349 0.017559151747458739 0 0.0043002935374936721 0.010953202802978181 0 0.0025107398623331876 0.010843624592458254 0 0.002117856407974929 0.011527811283867373 0 0.005581556913950036 0.014578121664926601 0 0.0041263951627668691 0.016354397221178815 0 0.0063373452760077361 0.016830671306471236 0 0.0052459808204434587 0.017398581175858838 0 0.0055389812864427334 0.01737070780794463 0 0.0060142774423344349 0.017559151747458739 0 0.0063373452760077361 0.016830671306471236 0 0.0055389812864427334 0.01737070780794463 0 0.0057049546048889383 0.017645180480980571 0 0.0060142774423344349 0.017559151747458739 0 0.0055389812864427334 0.01737070780794463 0 0.0060142774423344349 0.017559151747458739 0 0.0064757386182101107 0.017277466075179569 0 0.0063373452760077361 0.016830671306471236 0 0.0064772989547977108 0.017769340523189774 0 0.0060142774423344349 0.017559151747458739 0 0.0064757386182101107 0.017277466075179569 0 0.0064772989547977108 0.017769340523189774 0 0.0068732176848428136 0.017335842379885648 0 0.0064757386182101107 0.017277466075179569 0 0.0069419673742624 0.016796265047145605 0 0.0064757386182101107 0.017277466075179569 0 0.0063373452760077361 0.016830671306471236 0 0.0069419673742624 0.016796265047145605 0 0.0068732176848428136 0.017335842379885648 0 0.0064757386182101107 0.017277466075179569 0 0.0043002935374936721 0.010953202802978181 0 0.0051487586229350983 0.0092396282308227877 0 0.0035894698745647423 0.0094149590914372992 0 0.0071963597729499526 0.010014655082993843 0 0.0043002935374936721 0.010953202802978181 0 0.0051487586229350983 0.0092396282308227877 0 0.0049888921953158329 0.0058453127274939124 0 0.005581556913950036 0.014578121664926601 0 0.0074029367922776668 0.016320556710456686 0 0.0069419673742624 0.016796265047145605 0 0.0063373452760077361 0.016830671306471236 0 0.0043002935374936721 0.010953202802978181 0 0.0031518029782238183 0.010443407665716062 0 0.0025107398623331876 0.010843624592458254 0 0.0043002935374936721 0.010953202802978181 0 0.0031518029782238183 0.010443407665716062 0 0.0035894698745647423 0.0094149590914372992 0 0.0031518029782238183 0.010443407665716062 0 0.0024406759824127915 0.010178074403530989 0 0.0035894698745647423 0.0094149590914372992 0 0.0024406759824127915 0.010178074403530989 0 0.0016837674264377441 0.0098882653760643206 0 0.002247318255872462 0.0094293757243895781 0 0.0024406759824127915 0.010178074403530989 0 0.0018025139700606242 0.010516289746205207 0 0.0016837674264377441 0.0098882653760643206 0 0.0018025139700606242 0.010516289746205207 0 0.0025107398623331876 0.010843624592458254 0 0.0018386997151445723 0.011042090934899697 0 0.0024406759824127915 0.010178074403530989 0 0.0018025139700606242 0.010516289746205207 0 0.0025107398623331876 0.010843624592458254 0 0.0031518029782238183 0.010443407665716062 0 0.0024406759824127915 0.010178074403530989 0 0.0025107398623331876 0.010843624592458254 0 0.0018386997151445723 0.011042090934899697 0 0.002117856407974929 0.011527811283867373 0 0.0013791069211156908 0.011202839726982603 0 0.0025107398623331876 0.010843624592458254 0 0.0018386997151445723 0.011042090934899697 0 0.002117856407974929 0.011527811283867373 0 0.0052559647063268105 0.017855686956601492 0 0.0049096080163262687 0.018164183482052173 0 0.0052422532302929103 0.017443638650014637 0 0.0052559647063268105 0.017855686956601492 0 0.0052422532302929103 0.017443638650014637 0 0.0054682303294184692 0.017662568602399897 0 0.0057049546048889383 0.017645180480980571 0 0.0054682303294184692 0.017662568602399897 0 0.0055389812864427334 0.01737070780794463 0 0.0041263951627668691 0.016354397221178815 0 0.0052542585940972561 0.016746785001166734 0 0.0052422532302929103 0.017443638650014637 0 0.0054682303294184692 0.017662568602399897 0 0.0055389812864427334 0.01737070780794463 0 0.0041263951627668691 0.016354397221178815 0 0.0018229425740699863 0.015268160462110993 0 0.0045269344964953369 0.01930568711961167 0 0.0035601303428164917 0.019723767183356316 0 0.0034473287963511221 0.019360966347205199 0 0.002117856407974929 0.011527811283867373 0 0.0013791069211156908 0.011202839726982603 0 0.00049304583131715575 0.011330575640295014 0 0.0049096080163262687 0.018164183482052173 0 0.0052422532302929103 0.017443638650014637 0 0.0043028134433910712 0.018128675063033568 0 0.0041263951627668691 0.016354397221178815 0 0.0040427678592156362 0.019148525681729263 0 0.0018386997151445723 0.011042090934899697 0 0.0013791069211156908 0.011202839726982603 0 0.0012850059355876337 0.010775546858488758 0 0.0013791069211156908 0.011202839726982603 0 0.00090890114848299548 0.010962084565668065 0 0.0012850059355876337 0.010775546858488758 0 0.0013791069211156908 0.011202839726982603 0 0.00090890114848299548 0.010962084565668065 0 0.00049304583131715575 0.011330575640295014 0 0.00090890114848299548 0.010962084565668065 0 0.00087292214100385913 0.01068030631476884 0 0.00055753701301230747 0.010818056603413626 0 0.00090890114848299548 0.010962084565668065 0 0.00087292214100385913 0.01068030631476884 0 0.0012850059355876337 0.010775546858488758 0 0.00087292214100385913 0.01068030631476884 0 0.0012850059355876337 0.010775546858488758 0 0.0013274310148799421 0.010319378661605719 0 0.0018025139700606242 0.010516289746205207 0 0.0018386997151445723 0.011042090934899697 0 0.0012850059355876337 0.010775546858488758 0 0.0018025139700606242 0.010516289746205207 0 0.0012850059355876337 0.010775546858488758 0 0.0013274310148799421 0.010319378661605719 0 0.0018025139700606242 0.010516289746205207 0 0.0016837674264377441 0.0098882653760643206 0 0.0013274310148799421 0.010319378661605719 0 0.0016837674264377441 0.0098882653760643206 0 0.0013274310148799421 0.010319378661605719 0 0.0011186306730209667 0.0098289621595189867 0 0.0008486363891924369 0.010239292564631826 0 0.0011186306730209667 0.0098289621595189867 0 0.00048004541001398708 0.010065141140392572 0 0.00087292214100385913 0.01068030631476884 0 0.0008486363891924369 0.010239292564631826 0 0.00058909328363951742 0.010480801115131264 0 0.00087292214100385913 0.01068030631476884 0 0.0013274310148799421 0.010319378661605719 0 0.0008486363891924369 0.010239292564631826 0 0.0013274310148799421 0.010319378661605719 0 0.0008486363891924369 0.010239292564631826 0 0.0011186306730209667 0.0098289621595189867 0 0.0011186306730209667 0.0098289621595189867 0 0.0010074501789758103 0.0092613124128515089 0 0.00029650402877208021 0.0098846446452354811 0 -0.00079277950147546756 0.0066126807199911319 0 0.002019845520600398 0.0092498025818749767 0 0.001057236732777176 0.0097985015072461403 0 -0.00011693573284183438 0.0097301348352002714 0 0.0016837674264377441 0.0098882653760643206 0 0.0010074501789758103 0.0092613124128515089 0 0.002247318255872462 0.0094293757243895781 0 0.0016837674264377441 0.0098882653760643206 0 0.0011186306730209667 0.0098289621595189867 0 0.0010074501789758103 0.0092613124128515089 0 0.0024406759824127915 0.010178074403530989 0 0.002247318255872462 0.0094293757243895781 0 0.0035894698745647423 0.0094149590914372992 0 -0.0010199996962617782 0.008364340175103931 0 0.0012422546981781654 0.0088915904221890454 0 0.00083466707042278022 0.0078523863648951968 0 0.0012422546981781654 0.0088915904221890454 0 0.0020446994547250845 0.0076380692369747436 0 0.00083466707042278022 0.0078523863648951968 0 0.0010766150549360166 0.0065168160367932585 0 0.0024444248884087001 0.0064466286027738519 0 0.003140603111848475 0.0046722201268573869 0 0.0020446994547250845 0.0076380692369747436 0 0.0010766150549360166 0.0065168160367932585 0 0.0024444248884087001 0.0064466286027738519 0 0.0020446994547250845 0.0076380692369747436 0 0.00083466707042278022 0.0078523863648951968 0 0.0010766150549360166 0.0065168160367932585 0 -0.0021119741878272993 -0.0010827635238723795 0 -0.0021017157559353209 -0.0016742553300388961 0 -0.0016894722447437283 -0.0018750745463634549 0 -0.0021119741878272993 -0.0010827635238723795 0 -0.0024856957831734397 -0.0015600155803966243 0 -0.0021017157559353209 -0.0016742553300388961 0 -0.0028858992933308773 -0.00047003165556215294 0 -0.0021119741878272993 -0.0010827635238723795 0 -0.002829358832924208 -0.0011240141097180027 0 -0.0010199996962617782 0.008364340175103931 0 0.00083466707042278022 0.0078523863648951968 0 0.0010766150549360166 0.0065168160367932585 0 -0.002829358832924208 -0.0011240141097180027 0 -0.0024856957831734397 -0.0015600155803966243 0 -0.0031810007314069921 -0.0015053055018133532 0 -0.0021119741878272993 -0.0010827635238723795 0 -0.002829358832924208 -0.0011240141097180027 0 -0.0024856957831734397 -0.0015600155803966243 0 -0.00079277950147546756 0.0066126807199911319 0 -0.00050426690221143248 0.0024502248647179335 0 -0.0028858992933308773 -0.00047003165556215294 0 -0.002829358832924208 -0.0011240141097180027 0 -0.0032886293405662583 -0.0010074411536243224 0 0.0044695810401324089 0.0083639761047593492 0 0.003553560228039454 0.0074879579724342164 0 0.0055596679470981047 0.0072898225796587893 0 0.0051487586229350983 0.0092396282308227877 0 0.0044695810401324089 0.0083639761047593492 0 0.0055596679470981047 0.0072898225796587893 0 0.0051487586229350983 0.0092396282308227877 0 0.0044695810401324089 0.0083639761047593492 0 0.0035894698745647423 0.0094149590914372992 0 0.0012422546981781654 0.0088915904221890454 0 0.0020446994547250845 0.0076380692369747436 0 0.0035894698745647423 0.0094149590914372992 0 0.002019845520600398 0.0092498025818749767 0 0.0033309987893055371 0.0094025714106297092 0 0.0044695810401324089 0.0083639761047593492 0 0.0035894698745647423 0.0094149590914372992 0 0.003553560228039454 0.0074879579724342164 0 0.0020446994547250845 0.0076380692369747436 0 0.0035894698745647423 0.0094149590914372992 0 0.003553560228039454 0.0074879579724342164 0 0.0020446994547250845 0.0076380692369747436 0 0.0024444248884087001 0.0064466286027738519 0 0.003553560228039454 0.0074879579724342164 0 0.0024444248884087001 0.0064466286027738519 0 0.0035581536031376406 0.0059792251964676437 0 0.003140603111848475 0.0046722201268573869 0 0.0024444248884087001 0.0064466286027738519 0 0.0035581536031376406 0.0059792251964676437 0 0.003553560228039454 0.0074879579724342164 0 0.0035581536031376406 0.0059792251964676437 0 0.003553560228039454 0.0074879579724342164 0 0.0055596679470981047 0.0072898225796587893 0 0.0036790711949755204 0.0044626059178746414 0 0.001672516272879721 -0.00031892402408472445 0 0.0035581536031376406 0.0059792251964676437 0 0.0055596679470981047 0.0072898225796587893 0 0.003661323082046366 0.0042063029592372776 0 0.0020560763186023554 -0.00081885490743377216 0 0.0015775453690725094 0.00077085722361151766 0 0.0011771264838144472 -0.0012125657373078403 0 0.0015775453690725094 0.00077085722361151766 0 0.0011771264838144472 -0.0012125657373078403 0 -0.00050783316965486184 -0.0022163927594990585 0 0.0016365913646235665 -0.0017470311235579666 0 0.0011771264838144472 -0.0012125657373078403 0 0.00083051348052394741 -0.0023074874384265026 0 0.0021887938055954602 -0.0025288344787600353 0 0.0014168110798075276 -0.0025700415711418325 0 0.0016365913646235665 -0.0017470311235579666 0 0.0014168110798075276 -0.0025700415711418325 0 0.0016365913646235665 -0.0017470311235579666 0 0.00083051348052394741 -0.0023074874384265026 0 0.0020560763186023554 -0.00081885490743377216 0 0.0021887938055954602 -0.0025288344787600353 0 0.0016365913646235665 -0.0017470311235579666 0 0.0020560763186023554 -0.00081885490743377216 0 0.0016365913646235665 -0.0017470311235579666 0 0.0011771264838144472 -0.0012125657373078403 0 0.0011771264838144472 -0.0012125657373078403 0 0.00083051348052394741 -0.0023074874384265026 0 -0.00050783316965486184 -0.0022163927594990585 0 0.00083051348052394741 -0.0023074874384265026 0 -0.00050783316965486184 -0.0022163927594990585 0 0.0009975389923137074 -0.0037520243153568726 0 -0.00074244088635498401 -0.0021719661096761033 0 -0.00099475304351238523 -0.0030046126653153933 0 -0.00033789616584269024 -0.0034414929003391587 0 -0.00034636280724404571 -0.0025311210961995235 0 -0.00074244088635498401 -0.0021719661096761033 0 -0.00033789616584269024 -0.0034414929003391587 0 0.001672516272879721 -0.00031892402408472445 0 0.0010201720759476058 0.00097215760351335254 0 0.0035581536031376406 0.0059792251964676437 0 0.003661323082046366 0.0042063029592372776 0 0.003140603111848475 0.0046722201268573869 0 -0.00074244088635498401 -0.0021719661096761033 0 -0.0016894722447437283 -0.0018750745463634549 0 -0.0014497213371902802 -0.0024405035186544676 0 -0.00074244088635498401 -0.0021719661096761033 0 -0.00099475304351238523 -0.0030046126653153933 0 -0.0014497213371902802 -0.0024405035186544676 0 -0.00099475304351238523 -0.0030046126653153933 0 -0.00091219632194049736 -0.0039037361623226602 0 -0.0016743273584898428 -0.0030859513182442599 0 -0.00099475304351238523 -0.0030046126653153933 0 -0.00091219632194049736 -0.0039037361623226602 0 -0.00033789616584269024 -0.0034414929003391587 0 -0.00091219632194049736 -0.0039037361623226602 0 -0.00033789616584269024 -0.0034414929003391587 0 5.2744907763521905e-05 -0.0045142226994968658 0 0.0024355957746985892 -0.0016656766987309625 0 0.00077348413087727089 -0.0058891643105312185 0 0.0027192595244615193 -0.0033162306695784993 0 0.0022600365979012021 -0.002617639074457289 0 0.00077896160750697365 -0.0057006863343368993 0 0.0021887938055954602 -0.0025288344787600353 0 0.0009975389923137074 -0.0037520243153568726 0 0.00077896160750697365 -0.0057006863343368993 0 -0.00034636280724404571 -0.0025311210961995235 0 -0.00033789616584269024 -0.0034414929003391587 0 0.0009975389923137074 -0.0037520243153568726 0 0.001672516272879721 -0.00031892402408472445 0 0.00083398399750016434 -0.0035078657534227614 0 -0.00033789616584269024 -0.0034414929003391587 0 5.2744907763521905e-05 -0.0045142226994968658 0 0.0009975389923137074 -0.0037520243153568726 0 5.2744907763521905e-05 -0.0045142226994968658 0 0.0009975389923137074 -0.0037520243153568726 0 0.00077896160750697365 -0.0057006863343368993 0 0.0014168110798075276 -0.0025700415711418325 0 0.00083051348052394741 -0.0023074874384265026 0 0.0009975389923137074 -0.0037520243153568726 0 0.0021887938055954602 -0.0025288344787600353 0 0.0014168110798075276 -0.0025700415711418325 0 0.0009975389923137074 -0.0037520243153568726 0 -0.0029912151993362231 -0.0023986623194262478 0 -0.0039027541977573166 -0.0019657959251879013 0 -0.0036661634285882075 -0.0032986419265537484 0 -0.0025425567161951323 -0.001551387027563285 0 -0.0036012823744597353 -0.0017635267050525349 0 -0.0029912151993362231 -0.0023986623194262478 0 -0.0024856957831734397 -0.0015600155803966243 0 -0.0039027541977573166 -0.0019657959251879013 0 -0.0029912151993362231 -0.0023986623194262478 0 -0.0021276561701659385 -0.0022428750837236036 0 -0.0025454734185633905 -0.0030340971976724525 0 -0.0029912151993362231 -0.0023986623194262478 0 -0.0024856957831734397 -0.0015600155803966243 0 -0.0021276561701659385 -0.0022428750837236036 0 -0.00050426690221143248 0.0024502248647179335 0 0.0010201720759476058 0.00097215760351335254 0 -0.0024856957831734397 -0.0015600155803966243 0 -0.0021017157559353209 -0.0016742553300388961 0 -0.0021276561701659385 -0.0022428750837236036 0 -0.0021119741878272993 -0.0010827635238723795 0 -0.00074244088635498401 -0.0021719661096761033 0 -0.0016894722447437283 -0.0018750745463634549 0 -0.0021017157559353209 -0.0016742553300388961 0 -0.0016894722447437283 -0.0018750745463634549 0 -0.0021276561701659385 -0.0022428750837236036 0 -0.0016894722447437283 -0.0018750745463634549 0 -0.0014497213371902802 -0.0024405035186544676 0 -0.0021276561701659385 -0.0022428750837236036 0 -0.00099475304351238523 -0.0030046126653153933 0 -0.0014497213371902802 -0.0024405035186544676 0 -0.0016743273584898428 -0.0030859513182442599 0 -0.0014497213371902802 -0.0024405035186544676 0 -0.0021276561701659385 -0.0022428750837236036 0 -0.0016743273584898428 -0.0030859513182442599 0 -0.0021276561701659385 -0.0022428750837236036 0 -0.0016743273584898428 -0.0030859513182442599 0 -0.0025454734185633905 -0.0030340971976724525 0 -0.0016743273584898428 -0.0030859513182442599 0 -0.0025454734185633905 -0.0030340971976724525 0 -0.0021891810200204871 -0.0041856229457321635 0 -0.00091219632194049736 -0.0039037361623226602 0 -0.0016743273584898428 -0.0030859513182442599 0 -0.0021891810200204871 -0.0041856229457321635 0 -0.0022364714247322241 -0.0040507204121060097 0 -0.0043732945232497749 -0.0027647722228950249 0 -0.0025454734185633905 -0.0030340971976724525 0 -0.0021891810200204871 -0.0041856229457321635 0 -0.0036661634285882075 -0.0032986419265537484 0 -0.0029912151993362231 -0.0023986623194262478 0 -0.0025454734185633905 -0.0030340971976724525 0 -0.0036661634285882075 -0.0032986419265537484 0 -0.0021891810200204871 -0.0041856229457321635 0 -0.0040323475036955353 -0.0045740642975535453 0 -0.004600987834075693 -0.0020502208182972387 0 -0.0021891810200204871 -0.0041856229457321635 0 -0.0019329370823554398 -0.0056710163704011335 0 -0.0040323475036955353 -0.0045740642975535453 0 -0.0021891810200204871 -0.0041856229457321635 0 -0.0019329370823554398 -0.0056710163704011335 0 -0.00048194886177750412 -0.0054797163365370013 0 -0.0019329370823554398 -0.0056710163704011335 0 -0.0040323475036955353 -0.0045740642975535453 0 -0.0020203151329124401 -0.0069659956873452519 0 -0.0040323475036955353 -0.0045740642975535453 0 -0.0036849411258785924 -0.006885910820600449 0 -0.0020203151329124401 -0.0069659956873452519 0 -0.0036849411258785924 -0.006885910820600449 0 -0.0020203151329124401 -0.0069659956873452519 0 -0.0027100621680588434 -0.0077884777188538387 0 -0.0019329370823554398 -0.0056710163704011335 0 -0.0020203151329124401 -0.0069659956873452519 0 -0.00052212166535974425 -0.0074014950106268381 0 -0.0020203151329124401 -0.0069659956873452519 0 -0.00049395531758534823 -0.008049085194268165 0 -0.00052212166535974425 -0.0074014950106268381 0 -0.0013424355968001981 -0.0092742853321985327 0 -0.0029492484417738231 -0.0034322991012051764 0 -0.0020203151329124401 -0.0069659956873452519 0 -0.0027100621680588434 -0.0077884777188538387 0 -0.0016917005236963042 -0.0086321862612019178 0 -0.0020203151329124401 -0.0069659956873452519 0 -0.00049395531758534823 -0.008049085194268165 0 -0.00099715769894988282 -0.0089529425045108656 0 -0.0027100621680588434 -0.0077884777188538387 0 -0.0036878114460995172 -0.0086089390747246825 0 -0.0016917005236963042 -0.0086321862612019178 0 -0.0039863103360195645 0.0019395807567375361 0 -0.0029492484417738231 -0.0034322991012051764 0 -0.0036849411258785924 -0.006885910820600449 0 -0.0027100621680588434 -0.0077884777188538387 0 -0.0036878114460995172 -0.0086089390747246825 0 0.00043243927715523774 -0.0084632328420891165 0 0.00027859744537197362 -0.0080875772232721927 0 0.0007691999719047453 -0.0085281159718644337 0 0.00043243927715523774 -0.0084632328420891165 0 0.00027859744537197362 -0.0080875772232721927 0 0.00017456540627860194 -0.0086732793883197348 0 -0.00049395531758534823 -0.008049085194268165 0 0.00027859744537197362 -0.0080875772232721927 0 0.00017456540627860194 -0.0086732793883197348 0 -0.00049395531758534823 -0.008049085194268165 0 -0.00099715769894988282 -0.0089529425045108656 0 0.00017456540627860194 -0.0086732793883197348 0 -0.00049395531758534823 -0.008049085194268165 0 -0.00052212166535974425 -0.0074014950106268381 0 0.00027859744537197362 -0.0080875772232721927 0 -0.00052212166535974425 -0.0074014950106268381 0 0.00027859744537197362 -0.0080875772232721927 0 0.00055474730170319082 -0.0077153686566160526 0 0.00027859744537197362 -0.0080875772232721927 0 0.00055474730170319082 -0.0077153686566160526 0 0.0007691999719047453 -0.0085281159718644337 0 0.00055474730170319082 -0.0077153686566160526 0 0.0015226690496574515 -0.0079338729660600009 0 0.0007691999719047453 -0.0085281159718644337 0 0.00055474730170319082 -0.0077153686566160526 0 0.0003566176357147386 -0.0068167924700157281 0 0.0015226690496574515 -0.0079338729660600009 0 0.00055474730170319082 -0.0077153686566160526 0 0.0003566176357147386 -0.0068167924700157281 0 -0.00045820323420092386 -0.0066515836676378651 0 -0.0019329370823554398 -0.0056710163704011335 0 -0.00052212166535974425 -0.0074014950106268381 0 -0.00045820323420092386 -0.0066515836676378651 0 -0.0019329370823554398 -0.0056710163704011335 0 -0.00045820323420092386 -0.0066515836676378651 0 -0.00048194886177750412 -0.0054797163365370013 0 -0.00052212166535974425 -0.0074014950106268381 0 0.00055474730170319082 -0.0077153686566160526 0 -0.00045820323420092386 -0.0066515836676378651 0 0.0003566176357147386 -0.0068167924700157281 0 -0.00045820323420092386 -0.0066515836676378651 0 -0.00048194886177750412 -0.0054797163365370013 0 -0.00091219632194049736 -0.0039037361623226602 0 -0.0021891810200204871 -0.0041856229457321635 0 -0.00048194886177750412 -0.0054797163365370013 0 -0.00091219632194049736 -0.0039037361623226602 0 5.2744907763521905e-05 -0.0045142226994968658 0 -0.00048194886177750412 -0.0054797163365370013 0 0.0027192595244615193 -0.0033162306695784993 0 0.0015226690496574515 -0.0079338729660600009 0 0.00077896160750697365 -0.0057006863343368993 0 0.0003566176357147386 -0.0068167924700157281 0 0.0015226690496574515 -0.0079338729660600009 0 0.00077896160750697365 -0.0057006863343368993 0 0.0003566176357147386 -0.0068167924700157281 0 -0.00048194886177750412 -0.0054797163365370013 0 0.00077896160750697365 -0.0057006863343368993 0 5.2744907763521905e-05 -0.0045142226994968658 0 -0.00048194886177750412 -0.0054797163365370013 0 0.00077896160750697365 -0.0057006863343368993 0 0.0018987421048442367 -0.011804176459245507 0 0.0011728231815858123 -0.010707202915539824 0 0.0015226690496574515 -0.0079338729660600009 0 0.0011728231815858123 -0.010707202915539824 0 0.0015226690496574515 -0.0079338729660600009 0 0.00070331314857809525 -0.010194420259767391 0 0.0021236747328865291 -0.0081021515675588351 0 0.0016917270221743883 -0.0077387107418225637 0 0.0015226690496574515 -0.0079338729660600009 0 0.00070331314857809525 -0.010194420259767391 0 0.00073477824272533967 -0.0090913332372691696 0 -8.865493176623079e-06 -0.011633575896562991 0 0.00070331314857809525 -0.010194420259767391 0 -3.6058524308829663e-06 -0.010761903389821588 0 0.00070331314857809525 -0.010194420259767391 0 0.00040353964716435809 -0.0099547677864019746 0 0.00073477824272533967 -0.0090913332372691696 0 0.00070331314857809525 -0.010194420259767391 0 0.00040353964716435809 -0.0099547677864019746 0 -3.6058524308829663e-06 -0.010761903389821588 0 0.00040353964716435809 -0.0099547677864019746 0 0.00073477824272533967 -0.0090913332372691696 0 0.00022289137026945211 -0.0098009305484846373 0 0.00073477824272533967 -0.0090913332372691696 0 0.00022289137026945211 -0.0098009305484846373 0 0.00033118839693498841 -0.0092185345727114464 0 0.0015226690496574515 -0.0079338729660600009 0 0.00073477824272533967 -0.0090913332372691696 0 0.0007691999719047453 -0.0085281159718644337 0 -0.0012782404964432222 -0.012861818940644651 0 -0.00055614878271475338 -0.011847993696558416 0 -0.00081661359235478978 -0.011580130206651863 0 -0.00055614878271475338 -0.011847993696558416 0 -0.00081661359235478978 -0.011580130206651863 0 -3.6058524308829663e-06 -0.010761903389821588 0 -0.00055614878271475338 -0.011847993696558416 0 -8.865493176623079e-06 -0.011633575896562991 0 -3.6058524308829663e-06 -0.010761903389821588 0 0.00022289137026945211 -0.0098009305484846373 0 -0.00037674911117083389 -0.010221656775414876 0 0.00033118839693498841 -0.0092185345727114464 0 -3.6058524308829663e-06 -0.010761903389821588 0 0.00022289137026945211 -0.0098009305484846373 0 -0.00037674911117083389 -0.010221656775414876 0 0.00040353964716435809 -0.0099547677864019746 0 -3.6058524308829663e-06 -0.010761903389821588 0 0.00022289137026945211 -0.0098009305484846373 0 -0.00081661359235478978 -0.011580130206651863 0 -3.6058524308829663e-06 -0.010761903389821588 0 -0.00037674911117083389 -0.010221656775414876 0 -0.00081661359235478978 -0.011580130206651863 0 -0.00037674911117083389 -0.010221656775414876 0 -0.0012186689875440982 -0.010824362495577246 0 -0.00037674911117083389 -0.010221656775414876 0 -0.00013573326090497056 -0.0091308516752617759 0 -0.00076663376845573152 -0.0093003011119860077 0 -0.00037674911117083389 -0.010221656775414876 0 -0.0012186689875440982 -0.010824362495577246 0 -0.00076663376845573152 -0.0093003011119860077 0 -0.00037674911117083389 -0.010221656775414876 0 0.00033118839693498841 -0.0092185345727114464 0 -0.00013573326090497056 -0.0091308516752617759 0 0.00033118839693498841 -0.0092185345727114464 0 -0.00013573326090497056 -0.0091308516752617759 0 0.00045231498138962716 -0.0086564579206636055 0 -0.00013573326090497056 -0.0091308516752617759 0 0.00045231498138962716 -0.0086564579206636055 0 -0.00017778237173061612 -0.0085861920107654192 0 -0.00013573326090497056 -0.0091308516752617759 0 -0.00067292808232721833 -0.0087363856014533534 0 -0.00076663376845573152 -0.0093003011119860077 0 0.00043243927715523774 -0.0084632328420891165 0 0.0007691999719047453 -0.0085281159718644337 0 0.00036069860940408672 -0.0084440271273889256 0 0.00073477824272533967 -0.0090913332372691696 0 0.00033118839693498841 -0.0092185345727114464 0 0.0007691999719047453 -0.0085281159718644337 0 0.00033118839693498841 -0.0092185345727114464 0 0.0007691999719047453 -0.0085281159718644337 0 0.00045231498138962716 -0.0086564579206636055 0 0.00071988553599184105 -0.0085389833997967027 0 0.00042594734852546525 -0.008577922647903604 0 0.00028362633508261805 -0.008414214137624141 0 0.00036069860940408672 -0.0084440271273889256 0 0.00032948349909280711 -0.0084144549895740859 0 0.00043243927715523774 -0.0084632328420891165 0 0.00028362633508261805 -0.008414214137624141 0 0.00036069860940408672 -0.0084440271273889256 0 0.00036069860940408672 -0.0084440271273889256 0 0.00032948349909280711 -0.0084144549895740859 0 0.00025521780489849678 -0.0083809846640475801 0 0.00036069860940408672 -0.0084440271273889256 0 0.00025521780489849678 -0.0083809846640475801 0 0.00017859926751200893 -0.0083787241327917504 0 0.00032948349909280711 -0.0084144549895740859 0 0.00025521780489849678 -0.0083809846640475801 0 0.00035442826828604789 -0.0083640348817760439 0 0.00025521780489849678 -0.0083809846640475801 0 0.00035442826828604789 -0.0083640348817760439 0 0.00017851741723540567 -0.0082310235785739323 0 0.00028362633508261805 -0.008414214137624141 0 0.00032948349909280711 -0.0084144549895740859 0 0.00035442826828604789 -0.0083640348817760439 0 0.00024022875002235582 -0.0083861197458046585 0 -0.00013547754781275472 -0.0080312171972358511 0 0.00028362633508261805 -0.008414214137624141 0 -0.00062888203485918595 -0.0077150985035306929 0 0.00022670479659753662 -0.0078014290975223638 0 -0.00013573326090497056 -0.0091308516752617759 0 -0.00067292808232721833 -0.0087363856014533534 0 -0.00017778237173061612 -0.0085861920107654192 0 -0.00067292808232721833 -0.0087363856014533534 0 -0.00017778237173061612 -0.0085861920107654192 0 -0.00050168425406667337 -0.008270812021798031 0 0.00042594734852546525 -0.008577922647903604 0 0.00010424220710274193 -0.007971571703853212 0 0.00045231498138962716 -0.0086564579206636055 0 -0.00017778237173061612 -0.0085861920107654192 0 -6.0890741254369214e-05 -0.008034197952231998 0 0.00025521780489849678 -0.0083809846640475801 0 0.00017859926751200893 -0.0083787241327917504 0 0.00016249272694716452 -0.008312788636178535 0 -0.00017778237173061612 -0.0085861920107654192 0 -6.0890741254369214e-05 -0.008034197952231998 0 -0.00050168425406667337 -0.008270812021798031 0 -6.0890741254369214e-05 -0.008034197952231998 0 -0.00050168425406667337 -0.008270812021798031 0 -0.00049611844931856774 -0.0078991806800001001 0 -0.00050168425406667337 -0.008270812021798031 0 -0.00049611844931856774 -0.0078991806800001001 0 -0.00084415739655385551 -0.007935099091875621 0 0.00017859926751200893 -0.0083787241327917504 0 0.00016249272694716452 -0.008312788636178535 0 5.1516095899912956e-05 -0.0082563518705815134 0 -6.0890741254369214e-05 -0.008034197952231998 0 -0.00049611844931856774 -0.0078991806800001001 0 -0.00057964133049293216 -0.0073613321722060575 0 -0.00049611844931856774 -0.0078991806800001001 0 -0.00057964133049293216 -0.0073613321722060575 0 -0.00084415739655385551 -0.007935099091875621 0 0.00010424220710274193 -0.007971571703853212 0 -0.00086118192668739786 -0.0091100574320267629 0 -6.1719463205034519e-05 -0.0081808697963969713 0 -0.00015734242264790453 -0.0079508575604926839 0 -0.00043067314913656184 -0.007883135369498662 0 7.0875825720157602e-05 -0.0081952324171366917 0 -0.00086819994473436805 -0.0089542102621791159 0 -6.1719463205034519e-05 -0.0081808697963969713 0 0.00011994837420403519 -0.007993481309322998 0 -0.00015734242264790453 -0.0079508575604926839 0 0.00025521780489849678 -0.0083809846640475801 0 -6.1719463205034519e-05 -0.0081808697963969713 0 0.00017851741723540567 -0.0082310235785739323 0 0.00023147080988710026 -0.0083799863806687507 0 7.0875825720157602e-05 -0.0081952324171366917 0 -6.1719463205034519e-05 -0.0081808697963969713 0 0.00011994837420403519 -0.007993481309322998 0 0.00017851741723540567 -0.0082310235785739323 0 -0.00078815507068350573 -0.0072199802618253548 0 -0.0015822021576767796 -0.0068323806894889441 0 0.00011994837420403519 -0.007993481309322998 0 -0.00020873930654448575 -0.0078111676698841906 0 -0.000286093950167215 -0.0075264425774187356 0 -0.0016790021135657327 -0.0065614282090260857 0 -0.0019292496690524802 -0.0056861965410477718 0 -0.0026929437108477506 -0.0053977383113799843 0 -0.0016790021135657327 -0.0065614282090260857 0 -0.0015654007252834674 -0.0057074790726436668 0 -0.0019292496690524802 -0.0056861965410477718 0 0.00011994837420403519 -0.007993481309322998 0 -0.00015734242264790453 -0.0079508575604926839 0 -0.00020873930654448575 -0.0078111676698841906 0 0.00016249272694716452 -0.008312788636178535 0 5.5934073201861155e-05 -0.0082448417992504307 0 5.1516095899912956e-05 -0.0082563518705815134 0 -0.00015734242264790453 -0.0079508575604926839 0 -0.00020873930654448575 -0.0078111676698841906 0 -0.00043067314913656184 -0.007883135369498662 0 -0.00086819994473436805 -0.0089542102621791159 0 -0.0015822021576767796 -0.0068323806894889441 0 -0.00020873930654448575 -0.0078111676698841906 0 -0.00043067314913656184 -0.007883135369498662 0 -0.000286093950167215 -0.0075264425774187356 0 -0.0014771499416938723 -0.0086898552162311873 0 -0.0013214570154482762 -0.0096027809210709539 0 -0.0019413484144183083 -0.0090387250906075692 0 -0.0014771499416938723 -0.0086898552162311873 0 -0.0013214570154482762 -0.0096027809210709539 0 -0.00075181285363070619 -0.0082642750359966863 0 -0.00086819994473436805 -0.0089542102621791159 0 -0.0012872810898768136 -0.011360499508923805 0 -0.00086118192668739786 -0.0091100574320267629 0 -0.0012872810898768136 -0.011360499508923805 0 -0.001567792840840095 -0.0097255094074884772 0 -0.0014463898086568264 -0.0094431937592454034 0 -0.0006161777223284852 -0.010607922220153972 0 -0.00086819994473436805 -0.0089542102621791159 0 -0.00086118192668739786 -0.0091100574320267629 0 -0.00062888203485918595 -0.0077150985035306929 0 -0.00021107013757310102 -0.0071344770874576351 0 0.00022670479659753662 -0.0078014290975223638 0 -0.00021107013757310102 -0.0071344770874576351 0 0.00046067885599287257 -0.0067306633062856553 0 0.00022670479659753662 -0.0078014290975223638 0 -0.00021107013757310102 -0.0071344770874576351 0 -0.00075744957977008892 -0.006769633232850408 0 -0.00026450179779577627 -0.0063978772274093237 0 -0.00021107013757310102 -0.0071344770874576351 0 -0.00026450179779577627 -0.0063978772274093237 0 0.00046067885599287257 -0.0067306633062856553 0 -0.00062888203485918595 -0.0077150985035306929 0 -0.00021107013757310102 -0.0071344770874576351 0 -0.00075744957977008892 -0.006769633232850408 0 -0.00013547754781275472 -0.0080312171972358511 0 -0.00078815507068350573 -0.0072199802618253548 0 -0.00062888203485918595 -0.0077150985035306929 0 -0.0016790021135657327 -0.0065614282090260857 0 -0.00075744957977008892 -0.006769633232850408 0 0.00035442826828604789 -0.0083640348817760439 0 0.00011994837420403519 -0.007993481309322998 0 0.00017851741723540567 -0.0082310235785739323 0 -0.00075744957977008892 -0.006769633232850408 0 -0.00094987446796333743 -0.0059612078156266726 0 -0.00026450179779577627 -0.0063978772274093237 0 -0.0016790021135657327 -0.0065614282090260857 0 -0.00075744957977008892 -0.006769633232850408 0 -0.00094987446796333743 -0.0059612078156266726 0 -0.0016790021135657327 -0.0065614282090260857 0 -0.0015654007252834674 -0.0057074790726436668 0 -0.00094987446796333743 -0.0059612078156266726 0 -0.0015654007252834674 -0.0057074790726436668 0 -0.00094987446796333743 -0.0059612078156266726 0 -0.0012577572517576499 -0.0053472883751105003 0 -0.00094987446796333743 -0.0059612078156266726 0 -0.00026450179779577627 -0.0063978772274093237 0 -0.00022742871493231819 -0.0055425798391306926 0 -0.00026450179779577627 -0.0063978772274093237 0 0.00027959471910626583 -0.0059745214111873524 0 0.00046067885599287257 -0.0067306633062856553 0 -0.00026450179779577627 -0.0063978772274093237 0 0.00027959471910626583 -0.0059745214111873524 0 -0.00022742871493231819 -0.0055425798391306926 0 0.00027959471910626583 -0.0059745214111873524 0 0.00099481081476457942 -0.0059131445303941136 0 0.00044455896330812631 -0.0052856421797495296 0 0.00099481081476457942 -0.0059131445303941136 0 0.001095205539944056 -0.0065522896228920229 0 0.0018329742100081238 -0.0064402376798592519 0 0.00099481081476457942 -0.0059131445303941136 0 0.001095205539944056 -0.0065522896228920229 0 0.00046067885599287257 -0.0067306633062856553 0 0.00027959471910626583 -0.0059745214111873524 0 0.00099481081476457942 -0.0059131445303941136 0 0.00046067885599287257 -0.0067306633062856553 0 0.00046067885599287257 -0.0067306633062856553 0 0.0010886276770271364 -0.0071293448228557394 0 0.00022670479659753662 -0.0078014290975223638 0 0.001095205539944056 -0.0065522896228920229 0 0.00046067885599287257 -0.0067306633062856553 0 0.0010886276770271364 -0.0071293448228557394 0 0.00034659570838666551 -0.0074856442154517255 0 0.00037554547507005764 -0.0076574511445107879 0 0.0003516096721023774 -0.0076142238445963961 0 0.00022670479659753662 -0.0078014290975223638 0 0.00032614977205096664 -0.0078606366057150639 0 0.0003516096721023774 -0.0076142238445963961 0 0.00065445944498879942 -0.0074515397708211657 0 0.00032614977205096664 -0.0078606366057150639 0 -0.00095426287598225417 -0.00090181435997178504 0 -0.0021676033013906101 0.0036354890779705076 0 -0.0040503285390912159 0.010842442260454275 0 -0.0047321611084379898 0.011282043960476813 0 -0.0046607267603493126 0.012217963520541098 0 0.001095205539944056 -0.0065522896228920229 0 0.0010886276770271364 -0.0071293448228557394 0 0.0018329742100081238 -0.0064402376798592519 0 0.0003516096721023774 -0.0076142238445963961 0 0.00065445944498879942 -0.0074515397708211657 0 0.00062204989287993227 -0.0073142449621329533 0 0.00034659570838666551 -0.0074856442154517255 0 -0.00011797845766979264 -0.0020337118237553683 0 -0.0040503285390912159 0.010842442260454275 0 -0.0043233730421220785 0.010096139616302699 0 -0.0047321611084379898 0.011282043960476813 0 -0.00095426287598225417 -0.00090181435997178504 0 -0.00011797845766979264 -0.0020337118237553683 0 0.00099481081476457942 -0.0059131445303941136 0 0.0018329742100081238 -0.0064402376798592519 0 0.0015785972286586015 -0.0054024136205538332 0 -0.00095426287598225417 -0.00090181435997178504 0 -0.00099508521319763613 0.0066364342042850031 0 -0.0018871912771392309 -0.00097178335884278463 0 -0.0025035498475711728 0.0014852632825269917 0 7.2271326836348052e-05 0.003797662195471643 0 -0.00011797845766979264 -0.0020337118237553683 0 0.0016433896302109128 -0.0029638618608586417 0 0.0010993510766760513 0.0018185104376063211 0 0.00058885152346852259 0.0011430711731819552 0 0.0015931328237993689 -5.8962213720973457e-05 0 0.0010993510766760513 0.0018185104376063211 0 0.00052620888545224637 0.0013116835887467739 0 0.00058885152346852259 0.0011430711731819552 0 -0.00011797845766979264 -0.0020337118237553683 0 -0.00099508521319763613 0.0066364342042850031 0 -0.00099508521319763613 0.0066364342042850031 0 5.6451157405529222e-05 0.0046918822533240177 0 -0.0051731299172276448 0.013641485723723758 0 -0.0045834067594616949 0.013623182465738577 0 -0.0046089486389365849 0.014135433845686213 0 -0.00034021405085572841 0.0061983704218795772 0 -0.00034218250238894106 0.006204967688625833 0 -0.00027057721770502922 0.0062716989801772606 0 -0.0051731299172276448 0.013641485723723758 0 -0.0045834067594616949 0.013623182465738577 0 -0.0048711699293263779 0.013396805753631101 0 -0.00099508521319763613 0.0066364342042850031 0 -0.0018872642084218488 0.0098649411672023166 0 -0.0045834067594616949 0.013623182465738577 0 -0.0048711699293263779 0.013396805753631101 0 -0.0046081058473119978 0.013236174953049759 0 -0.0043363451493917474 0.014263084774900604 0 -0.0018872642084218488 0.0098649411672023166 0 -0.0045834067594616949 0.013623182465738577 0 -0.0039454169230185472 0.013818096708127571 0 -0.0041862583856174885 0.013444507357857913 0 -0.0045834067594616949 0.013623182465738577 0 -0.0039454169230185472 0.013818096708127571 0 -0.0046089486389365849 0.014135433845686213 0 -0.0039454169230185472 0.013818096708127571 0 -0.0041862583856174885 0.013444507357857913 0 -0.0037922276422388264 0.013341309410883467 0 -0.0041862583856174885 0.013444507357857913 0 -0.004232508927873615 0.013029696287448909 0 -0.0037922276422388264 0.013341309410883467 0 -0.0041862583856174885 0.013444507357857913 0 -0.004232508927873615 0.013029696287448909 0 -0.0046081058473119978 0.013236174953049759 0 -0.0045834067594616949 0.013623182465738577 0 -0.0041862583856174885 0.013444507357857913 0 -0.0046081058473119978 0.013236174953049759 0 -0.004232508927873615 0.013029696287448909 0 -0.0046081058473119978 0.013236174953049759 0 -0.0045986650824123279 0.012837077812900844 0 -0.004232508927873615 0.013029696287448909 0 -0.0038834541198056551 0.012757623901460813 0 -0.0037922276422388264 0.013341309410883467 0 -0.0051731299172276448 0.013641485723723758 0 -0.0048711699293263779 0.013396805753631101 0 -0.0050313767671001479 0.013083219614239056 0 -0.00099508521319763613 0.0066364342042850031 0 -0.0051601041786738001 0.013126653464496343 0 -0.0048711699293263779 0.013396805753631101 0 -0.0046081058473119978 0.013236174953049759 0 -0.0050313767671001479 0.013083219614239056 0 -0.0045986650824123279 0.012837077812900844 0 -0.0050313767671001479 0.013083219614239056 0 -0.0047823770703693301 0.01225494055722212 0 -0.0046081058473119978 0.013236174953049759 0 -0.0045986650824123279 0.012837077812900844 0 -0.0050313767671001479 0.013083219614239056 0 -0.0051601041786738001 0.013126653464496343 0 -0.004701304968940374 0.011916955990588538 0 -0.0047321611084379898 0.011282043960476813 0 -0.0047823770703693301 0.01225494055722212 0 -0.0046607267603493126 0.012217963520541098 0 -0.0045986650824123279 0.012837077812900844 0 -0.0047823770703693301 0.01225494055722212 0 -0.0044060801138459402 0.012496998041338964 0 -0.0047823770703693301 0.01225494055722212 0 -0.0044060801138459402 0.012496998041338964 0 -0.0046128241670209298 0.012014870727000011 0 -0.0047823770703693301 0.01225494055722212 0 -0.0046128241670209298 0.012014870727000011 0 -0.0046607267603493126 0.012217963520541098 0 -0.004232508927873615 0.013029696287448909 0 -0.0044060801138459402 0.012496998041338964 0 -0.0038834541198056551 0.012757623901460813 0 -0.004232508927873615 0.013029696287448909 0 -0.0045986650824123279 0.012837077812900844 0 -0.0044060801138459402 0.012496998041338964 0 -0.0044060801138459402 0.012496998041338964 0 -0.0042019283643728433 0.01222800340276938 0 -0.0046128241670209298 0.012014870727000011 0 -0.0044060801138459402 0.012496998041338964 0 -0.0042019283643728433 0.01222800340276938 0 -0.0038834541198056551 0.012757623901460813 0 -0.0041175419224988583 0.011432270442490261 0 -0.0042019283643728433 0.01222800340276938 0 -0.0036881348386740083 0.012009045205256433 0 -0.0041175419224988583 0.011432270442490261 0 -0.0046128241670209298 0.012014870727000011 0 -0.0048340226411658924 0.011618279759939065 0 -0.0041175419224988583 0.011432270442490261 0 -0.0042019283643728433 0.01222800340276938 0 -0.0046128241670209298 0.012014870727000011 0 -0.0029492484417738231 -0.0034322991012051764 0 -0.0021676033013906101 0.0036354890779705076 0 -0.0046128241670209298 0.012014870727000011 0 -0.0048340226411658924 0.011618279759939065 0 -0.0046607267603493126 0.012217963520541098 0 0.00080410788826727156 -0.0086792641905843893 0 0.00041022713107867606 -0.0083186340027621049 0 0.00074590089490184173 -0.007838075312825649 0 0.00080410788826727156 -0.0086792641905843893 0 0.00041022713107867606 -0.0083186340027621049 0 0.00017456540627860194 -0.0086732793883197348 0 -0.0029492484417738231 -0.0034322991012051764 0 0.0010048815010386047 -0.0080524750615268252 0 0.00041022713107867606 -0.0083186340027621049 0 0.00029647219186388095 -0.0084424418394777878 0 0.00034422661718545893 -0.0080970085166514535 0 0.00041022713107867606 -0.0083186340027621049 0 0.00017456540627860194 -0.0086732793883197348 0 0.00029647219186388095 -0.0084424418394777878 0 0.00028362633508261805 -0.008414214137624141 0 0.00029647219186388095 -0.0084424418394777878 0 0.00034422661718545893 -0.0080970085166514535 0 0.00043243927715523774 -0.0084632328420891165 0 0.00017456540627860194 -0.0086732793883197348 0 0.00029647219186388095 -0.0084424418394777878 0 0.00043243927715523774 -0.0084632328420891165 0 0.00028362633508261805 -0.008414214137624141 0 0.00029647219186388095 -0.0084424418394777878 0 0.00028362633508261805 -0.008414214137624141 0 0.00022670479659753662 -0.0078014290975223638 0 0.00032614977205096664 -0.0078606366057150639 0 0.00028362633508261805 -0.008414214137624141 0 0.00032614977205096664 -0.0078606366057150639 0 0.00034422661718545893 -0.0080970085166514535 0 0.00065445944498879942 -0.0074515397708211657 0 0.00032614977205096664 -0.0078606366057150639 0 0.00034422661718545893 -0.0080970085166514535 0 0.00050829674830544234 -0.0068068030775432506 0 0.00074590089490184173 -0.007838075312825649 0 0.00034422661718545893 -0.0080970085166514535 0 -0.00095426287598225417 -0.00090181435997178504 0 0.00044515514865398759 -0.010518018882141461 0 0.00041022713107867606 -0.0083186340027621049 0 0.00074590089490184173 -0.007838075312825649 0 0.00034422661718545893 -0.0080970085166514535 0 0.0020960459233261915 -0.020608066382427292 0 0.0014756340045868456 -0.019757518564624037 0 0.0012277089824722395 -0.019844483173631387 0 0.0024229637852931766 -0.020847469873802777 0 -0.00062783952539353992 -0.01900940804605802 0 0.0020960459233261915 -0.020608066382427292 0 -0.00082082012662794261 -0.020367792220916961 0 0.00012453731969264739 -0.021422485014776685 0 0.0014756340045868456 -0.019757518564624037 0 0.0012277089824722395 -0.019844483173631387 0 0.0012318895244580995 -0.019800219397750958 0 0.0014756340045868456 -0.019757518564624037 0 0.0012318895244580995 -0.019800219397750958 0 0.0012320947538775587 -0.019542132594048169 0 -0.00062783952539353992 -0.01900940804605802 0 -0.0013495391235664234 -0.018165187885352593 0 0.0012352119509920891 -0.019851772117381622 0 0.00097841984458312079 -0.01940701682521008 0 0.00010505669377850469 -0.019488082830159195 0 0.0012352119509920891 -0.019851772117381622 0 0.0012318895244580995 -0.019800219397750958 0 0.00097841984458312079 -0.01940701682521008 0 -0.00062783952539353992 -0.01900940804605802 0 -0.00059141189297405681 -0.019068836274569477 0 0.0012318895244580995 -0.019800219397750958 0 0.0012320947538775587 -0.019542132594048169 0 0.00097841984458312079 -0.01940701682521008 0 0.0012320947538775587 -0.019542132594048169 0 0.00097841984458312079 -0.01940701682521008 0 0.0012351713858630392 -0.019174293877675282 0 0.00097841984458312079 -0.01940701682521008 0 0.00069635683724204975 -0.018568528051548416 0 0.0012351713858630392 -0.019174293877675282 0 0.0018060199317289809 -0.019526152076885153 0 0.0014756340045868456 -0.019757518564624037 0 0.0012351713858630392 -0.019174293877675282 0 0.0018060199317289809 -0.019526152076885153 0 0.0012351713858630392 -0.019174293877675282 0 0.0014226867417155801 -0.018517004931386843 0 0.0014756340045868456 -0.019757518564624037 0 0.0012320947538775587 -0.019542132594048169 0 0.0012351713858630392 -0.019174293877675282 0 0.002093616240038934 -0.019149304795568978 0 0.0018060199317289809 -0.019526152076885153 0 0.0014226867417155801 -0.018517004931386843 0 0.0019720891425423098 -0.01842083230865485 0 0.0013368019175940106 -0.017418581759323624 0 0.0014226867417155801 -0.018517004931386843 0 0.0013368019175940106 -0.017418581759323624 0 0.0014226867417155801 -0.018517004931386843 0 0.00056737789597380089 -0.017283612349991685 0 0.00069635683724204975 -0.018568528051548416 0 0.0014226867417155801 -0.018517004931386843 0 0.00056737789597380089 -0.017283612349991685 0 0.00069635683724204975 -0.018568528051548416 0 0.0012351713858630392 -0.019174293877675282 0 0.0014226867417155801 -0.018517004931386843 0 0.00069635683724204975 -0.018568528051548416 0 0.00056737789597380089 -0.017283612349991685 0 -0.00021308118148795257 -0.017972896358427391 0 -0.00031400799917136982 -0.015939545242608551 0 -0.00041339058845582289 -0.016581652861761068 0 -0.0013252516533911486 -0.015260384123378814 0 -0.00031400799917136982 -0.015939545242608551 0 0.00056737789597380089 -0.017283612349991685 0 -0.00041339058845582289 -0.016581652861761068 0 -0.00041339058845582289 -0.016581652861761068 0 -0.00021308118148795257 -0.017972896358427391 0 -0.0013244101179714532 -0.017172655695809336 0 0.00056737789597380089 -0.017283612349991685 0 -0.00041339058845582289 -0.016581652861761068 0 -0.00021308118148795257 -0.017972896358427391 0 -0.00021308118148795257 -0.017972896358427391 0 0.00010505669377850469 -0.019488082830159195 0 -0.0015944960813700712 -0.019307903481618593 0 0.00069635683724204975 -0.018568528051548416 0 -0.00021308118148795257 -0.017972896358427391 0 0.00010505669377850469 -0.019488082830159195 0 0.00097841984458312079 -0.01940701682521008 0 0.00069635683724204975 -0.018568528051548416 0 0.00010505669377850469 -0.019488082830159195 0 -0.002884934172791708 -0.017117015088233226 0 -0.0027432018225908542 -0.016999868340243526 0 -0.0028740478777237624 -0.017141913410784259 0 -0.0025860059392421608 -0.017021052622231941 0 -0.002884934172791708 -0.017117015088233226 0 -0.0028740478777237624 -0.017141913410784259 0 -0.002884934172791708 -0.017117015088233226 0 -0.0024428786613834839 -0.017217135876399677 0 -0.0027432018225908542 -0.016999868340243526 0 -0.0013495391235664234 -0.018165187885352593 0 -0.0021659218446358993 -0.018799643280409336 0 -0.0024428786613834839 -0.017217135876399677 0 -0.0017834617503344422 -0.0172535848540331 0 -0.0021431208146212612 -0.016839149167248841 0 -0.0015944960813700712 -0.019307903481618593 0 -0.0024859887995526716 -0.018234600779709214 0 -0.0040002128440566019 -0.019234809681739167 0 -0.0021659218446358993 -0.018799643280409336 0 -0.0021910478964900543 -0.014288522839592584 0 -0.0024859887995526716 -0.018234600779709214 0 -0.0034785835367194995 -0.017338441342814415 0 -0.0040002128440566019 -0.019234809681739167 0 -0.0024859887995526716 -0.018234600779709214 0 -0.0013244101179714532 -0.017172655695809336 0 -0.0034785835367194995 -0.017338441342814415 0 -0.0015944960813700712 -0.019307903481618593 0 -0.0024859887995526716 -0.018234600779709214 0 -0.0013244101179714532 -0.017172655695809336 0 -0.00021308118148795257 -0.017972896358427391 0 -0.0015944960813700712 -0.019307903481618593 0 -0.0013244101179714532 -0.017172655695809336 0 -0.00041339058845582289 -0.016581652861761068 0 -0.0013244101179714532 -0.017172655695809336 0 -0.0013252516533911486 -0.015260384123378814 0 -0.0013244101179714532 -0.017172655695809336 0 -0.0013252516533911486 -0.015260384123378814 0 -0.0025203813165096049 -0.014471709833751583 0 -0.00174896190545359 -0.014308232445055025 0 -0.0013252516533911486 -0.015260384123378814 0 -0.0025203813165096049 -0.014471709833751583 0 -0.0026322205135089348 -0.014316629161961419 0 -0.0031385114288895529 -0.014249490069240209 0 -0.0013244101179714532 -0.017172655695809336 0 -0.0025203813165096049 -0.014471709833751583 0 -0.0034785835367194995 -0.017338441342814415 0 -0.0025203813165096049 -0.014471709833751583 0 -0.0028184282976009964 -0.011103200383491958 0 -0.001895773415985375 -0.011959068601071885 0 -0.0028184282976009964 -0.011103200383491958 0 -0.001895773415985375 -0.011959068601071885 0 -0.0019017937383660518 -0.010695268326476551 0 -0.001895773415985375 -0.011959068601071885 0 -0.0012186689875440982 -0.010824362495577246 0 -0.0019017937383660518 -0.010695268326476551 0 -0.0018737985145868392 -0.013644017938355783 0 -0.0025203813165096049 -0.014471709833751583 0 -0.0015996400825594554 -0.012621374595347524 0 -0.0025203813165096049 -0.014471709833751583 0 -0.001895773415985375 -0.011959068601071885 0 -0.0015996400825594554 -0.012621374595347524 0 -0.0012782404964432222 -0.012861818940644651 0 -0.00081661359235478978 -0.011580130206651863 0 -0.0015996400825594554 -0.012621374595347524 0 -0.00081661359235478978 -0.011580130206651863 0 -0.0015996400825594554 -0.012621374595347524 0 -0.0012186689875440982 -0.010824362495577246 0 -0.001895773415985375 -0.011959068601071885 0 -0.0015996400825594554 -0.012621374595347524 0 -0.0012186689875440982 -0.010824362495577246 0 -0.0012186689875440982 -0.010824362495577246 0 -0.001536833287244833 -0.0099675430805008392 0 -0.00076663376845573152 -0.0093003011119860077 0 -0.0012186689875440982 -0.010824362495577246 0 -0.001536833287244833 -0.0099675430805008392 0 -0.0019017937383660518 -0.010695268326476551 0 -0.0028184282976009964 -0.011103200383491958 0 -0.0023072841323751184 -0.0098464057936699344 0 -0.0022584251952867487 -0.009296217995215697 0 -0.0031385114288895529 -0.014249490069240209 0 -0.0021910478964900543 -0.014288522839592584 0 -0.0028184282976009964 -0.011103200383491958 0 -0.0019017937383660518 -0.010695268326476551 0 -0.0023072841323751184 -0.0098464057936699344 0 -0.001536833287244833 -0.0099675430805008392 0 -0.0019017937383660518 -0.010695268326476551 0 -0.0023072841323751184 -0.0098464057936699344 0 -0.0017426168760083338 -0.013302866743814951 0 -0.0018192419271424688 -0.01330142294926694 0 -0.0015447457167711575 -0.012500133956946772 0 -0.0020422604133430006 -0.011865598577922106 0 -0.0012327042944742595 -0.0104536558933776 0 -0.001536833287244833 -0.0099675430805008392 0 -0.0023072841323751184 -0.0098464057936699344 0 -0.0021119836713866555 -0.0094068096067957511 0 -0.0023072841323751184 -0.0098464057936699344 0 -0.0020792119907564787 -0.0093044912781141357 0 -0.0022584251952867487 -0.009296217995215697 0 -0.0017484485692847494 -0.010175062756682758 0 -0.0020422604133430006 -0.011865598577922106 0 -0.0020422604133430006 -0.011865598577922106 0 -0.0021910478964900543 -0.014288522839592584 0 -0.0015088288881354394 -0.0092785083048424217 0 -0.0010749348279438646 -0.0089916057766210606 0 -0.0011737953719557731 -0.00855991619508693 0 -0.0020422604133430006 -0.011865598577922106 0 -0.00076383288780125221 -0.0089740977493331046 0 -0.001536833287244833 -0.0099675430805008392 0 -0.0021119836713866555 -0.0094068096067957511 0 -0.00076663376845573152 -0.0093003011119860077 0 -0.0015088288881354394 -0.0092785083048424217 0 -0.0010749348279438646 -0.0089916057766210606 0 -0.00076663376845573152 -0.0093003011119860077 0 -0.00067292808232721833 -0.0087363856014533534 0 -0.0010749348279438646 -0.0089916057766210606 0 -0.00076663376845573152 -0.0093003011119860077 0 -0.00067292808232721833 -0.0087363856014533534 0 -0.00050168425406667337 -0.008270812021798031 0 -0.0011737953719557731 -0.00855991619508693 0 -0.00067292808232721833 -0.0087363856014533534 0 -0.0010749348279438646 -0.0089916057766210606 0 -0.0011737953719557731 -0.00855991619508693 0 -0.0021910478964900543 -0.014288522839592584 0 -0.0015338653864886175 -0.01472901673196113 0 -0.0017834617503344422 -0.0172535848540331 0 -0.0015690373128198845 -0.016725448800008536 0 -0.0021431208146212612 -0.016839149167248841 0 -0.0017426168760083338 -0.013302866743814951 0 -0.0014239927531965954 -0.012594642532018521 0 -0.0015447457167711575 -0.012500133956946772 0 -0.0015690373128198845 -0.016725448800008536 0 -0.0017200760594480826 -0.016029598651868374 0 -0.0019748722428882077 -0.016399594130200094 0 -0.0015690373128198845 -0.016725448800008536 0 -0.0019748722428882077 -0.016399594130200094 0 -0.0021431208146212612 -0.016839149167248841 0 -0.0015690373128198845 -0.016725448800008536 0 -0.0013113234283473488 -0.016086432257958774 0 -0.0017200760594480826 -0.016029598651868374 0 -0.0012327042944742595 -0.0104536558933776 0 -0.00097521308769383868 -0.0099383374737246968 0 -0.0015447457167711575 -0.012500133956946772 0 -0.0010982218339141414 -0.011861374119353519 0 -0.0012678592270754438 -0.011666563026584038 0 -0.00050168425406667337 -0.008270812021798031 0 -0.0011737953719557731 -0.00855991619508693 0 -0.00084415739655385551 -0.007935099091875621 0 -0.0014239927531965954 -0.012594642532018521 0 -0.0015447457167711575 -0.012500133956946772 0 -0.0010982218339141414 -0.011861374119353519 0 -0.0015338653864886175 -0.01472901673196113 0 -0.0013155311408849413 -0.014172454272341933 0 -0.00086118192668739786 -0.0091100574320267629 0 -0.00097521308769383868 -0.0099383374737246968 0 -0.00077020092168375771 -0.011105425180912726 0 -0.0010982218339141414 -0.011861374119353519 0 -0.0012678592270754438 -0.011666563026584038 0 -0.0013113234283473488 -0.016086432257958774 0 -0.0014259958244293442 -0.015604230016894536 0 -0.0017200760594480826 -0.016029598651868374 0 -0.0013113234283473488 -0.016086432257958774 0 -0.0014259958244293442 -0.015604230016894536 0 -0.0010502309973404902 -0.015331662850671599 0 -0.0013155311408849413 -0.014172454272341933 0 -0.0012872810898768136 -0.011360499508923805 0 -0.00077020092168375771 -0.011105425180912726 0 -0.0012678592270754438 -0.011666563026584038 0 -0.00098826953861500932 -0.010806839803328987 0 -0.0014259958244293442 -0.015604230016894536 0 -0.001720977425870599 -0.015453068037501785 0 -0.0013175559013369562 -0.01509150320781727 0 -0.0014259958244293442 -0.015604230016894536 0 -0.0010502309973404902 -0.015331662850671599 0 -0.0013175559013369562 -0.01509150320781727 0 -0.0012872810898768136 -0.011360499508923805 0 -0.0026648934222171469 -0.011559003302792744 0 -0.0014259958244293442 -0.015604230016894536 0 -0.001720977425870599 -0.015453068037501785 0 -0.0017200760594480826 -0.016029598651868374 0 -0.0030944829771374204 -0.017599578540713413 0 -0.003374016768669236 -0.017690324919569442 0 -0.0031533459435175546 -0.016408002307309166 0 -0.0033417110064370651 -0.014378111705749999 0 -0.0030962728651596568 -0.014601132430441264 0 -0.0022234427841063701 -0.01305690894813521 0 -0.0025028359404557971 -0.015039638276416375 0 -0.0026648934222171469 -0.011559003302792744 0 -0.0035674420807262604 -0.016253723083491593 0 -0.0030514411648710519 -0.01637909615662261 0 -0.0030944829771374204 -0.017599578540713413 0 -0.003374016768669236 -0.017690324919569442 0 -0.0037123967904107362 -0.018133632405829953 0 -0.0033417110064370651 -0.014378111705749999 0 -0.0030962728651596568 -0.014601132430441264 0 -0.0044265128197799458 -0.015675308586924112 0 -0.0025028359404557971 -0.015039638276416375 0 -0.0030514411648710519 -0.01637909615662261 0 -0.0017200760594480826 -0.016029598651868374 0 -0.0019864989015105404 -0.016133670203496944 0 -0.0020921057140556409 -0.015809230796556165 0 -0.001720977425870599 -0.015453068037501785 0 -0.0017200760594480826 -0.016029598651868374 0 -0.0020921057140556409 -0.015809230796556165 0 -0.0017200760594480826 -0.016029598651868374 0 -0.0019864989015105404 -0.016133670203496944 0 -0.0019748722428882077 -0.016399594130200094 0 -0.0037123967904107362 -0.018133632405829953 0 -0.0038590028748067048 -0.018076608123989552 0 -0.0039710362230476418 -0.01807104667368007 0 -0.0019864989015105404 -0.016133670203496944 0 -0.0020921057140556409 -0.015809230796556165 0 -0.0021598732910603118 -0.016277590221951389 0 -0.0020921057140556409 -0.015809230796556165 0 -0.002471585081749481 -0.016468353267156365 0 -0.0021598732910603118 -0.016277590221951389 0 -0.0030514411648710519 -0.01637909615662261 0 -0.0021621614958950318 -0.016227654663742933 0 -0.0030514411648710519 -0.01637909615662261 0 -0.0032500446583734791 -0.017333209833335441 0 -0.003374016768669236 -0.017690324919569442 0 -0.0037123967904107362 -0.018133632405829953 0 -0.0036945433303144292 -0.017877976965307511 0 -0.0037123967904107362 -0.018133632405829953 0 -0.0036945433303144292 -0.017877976965307511 0 -0.0038590028748067048 -0.018076608123989552 0 -0.0038590028748067048 -0.018076608123989552 0 -0.0038121821130087576 -0.017767236024265189 0 -0.0039875127461147858 -0.018193568348197801 0 -0.0036945433303144292 -0.017877976965307511 0 -0.0038590028748067048 -0.018076608123989552 0 -0.0038121821130087576 -0.017767236024265189 0 -0.003374016768669236 -0.017690324919569442 0 -0.0036945433303144292 -0.017877976965307511 0 -0.0036111934633293137 -0.017692590413515841 0 -0.0038121821130087576 -0.017767236024265189 0 -0.0036111934633293137 -0.017692590413515841 0 -0.0036068640675227413 -0.017496464460949174 0 -0.003374016768669236 -0.017690324919569442 0 -0.0036111934633293137 -0.017692590413515841 0 -0.0036068640675227413 -0.017496464460949174 0 -0.0036945433303144292 -0.017877976965307511 0 -0.0038121821130087576 -0.017767236024265189 0 -0.0036111934633293137 -0.017692590413515841 0 -0.0038121821130087576 -0.017767236024265189 0 -0.0039875127461147858 -0.018193568348197801 0 -0.0040102176108245324 -0.017379388788075156 0 -0.0039875127461147858 -0.018193568348197801 0 -0.0036851154409692317 -0.01845297274108362 0 -0.0042367583194107637 -0.019052511059051137 0 -0.0036851154409692317 -0.01845297274108362 0 -0.0036067280393408106 -0.018884532214886809 0 -0.0042367583194107637 -0.019052511059051137 0 -0.0039647710560102101 -0.017924151612114244 0 -0.0041613839627316707 -0.018831394459806871 0 -0.0039875127461147858 -0.018193568348197801 0 -0.0037125600144692094 -0.018109721252298511 0 -0.0036851154409692317 -0.01845297274108362 0 -0.0038590028748067048 -0.018076608123989552 0 -0.0039875127461147858 -0.018193568348197801 0 -0.0039710362230476418 -0.01807104667368007 0 -0.0023101341252125384 -0.016226766513087038 0 -0.0024973954679017797 -0.016394904334785333 0 -0.002471585081749481 -0.016468353267156365 0 -0.0039875127461147858 -0.018193568348197801 0 -0.0039710362230476418 -0.01807104667368007 0 -0.0037125600144692094 -0.018109721252298511 0 -0.002471585081749481 -0.016468353267156365 0 -0.0024903533950111473 -0.016812205239496555 0 -0.0027909667819871636 -0.016762913645485215 0 -0.0024973954679017797 -0.016394904334785333 0 -0.002471585081749481 -0.016468353267156365 0 -0.0027909667819871636 -0.016762913645485215 0 -0.002471585081749481 -0.016468353267156365 0 -0.0022500789516850138 -0.016565695879757786 0 -0.0024903533950111473 -0.016812205239496555 0 -0.0019748722428882077 -0.016399594130200094 0 -0.0022500789516850138 -0.016565695879757786 0 -0.0021431208146212612 -0.016839149167248841 0 -0.002471585081749481 -0.016468353267156365 0 -0.0021598732910603118 -0.016277590221951389 0 -0.0022500789516850138 -0.016565695879757786 0 -0.0021598732910603118 -0.016277590221951389 0 -0.0019748722428882077 -0.016399594130200094 0 -0.0022500789516850138 -0.016565695879757786 0 -0.0019864989015105404 -0.016133670203496944 0 -0.0021598732910603118 -0.016277590221951389 0 -0.0019748722428882077 -0.016399594130200094 0 -0.0022500789516850138 -0.016565695879757786 0 -0.0021431208146212612 -0.016839149167248841 0 -0.0024903533950111473 -0.016812205239496555 0 -0.0024428786613834839 -0.017217135876399677 0 -0.0024903533950111473 -0.016812205239496555 0 -0.0027432018225908542 -0.016999868340243526 0 -0.0024428786613834839 -0.017217135876399677 0 -0.0021431208146212612 -0.016839149167248841 0 -0.0024903533950111473 -0.016812205239496555 0 -0.0027432018225908542 -0.016999868340243526 0 -0.0028740478777237624 -0.017141913410784259 0 -0.0027909667819871636 -0.016762913645485215 0 -0.0024903533950111473 -0.016812205239496555 0 -0.0027432018225908542 -0.016999868340243526 0 -0.0027909667819871636 -0.016762913645485215 0 -0.0029026448951267655 -0.017124791007190898 0 -0.0030979942144273723 -0.017154702587282772 0 -0.0028740478777237624 -0.017141913410784259 0 -0.002926959846761207 -0.017781000843428332 0 -0.0034747859454663924 -0.017575407390393347 0 -0.002926959846761207 -0.017781000843428332 0 -0.0034747859454663924 -0.017575407390393347 0 -0.0033512838757633694 -0.018140783629504918 0 -0.0039710362230476418 -0.01807104667368007 0 -0.0034747859454663924 -0.017575407390393347 0 -0.0037125600144692094 -0.018109721252298511 0 -0.0032500446583734791 -0.017333209833335441 0 -0.0030979942144273723 -0.017154702587282772 0 -0.0034747859454663924 -0.017575407390393347 0 -0.0037125600144692094 -0.018109721252298511 0 -0.0033512838757633694 -0.018140783629504918 0 -0.0033512838757633694 -0.018140783629504918 0 -0.0036851154409692317 -0.01845297274108362 0 -0.0033165942092936874 -0.018586124341170105 0 -0.0037125600144692094 -0.018109721252298511 0 -0.0033512838757633694 -0.018140783629504918 0 -0.0036851154409692317 -0.01845297274108362 0 -0.0033165942092936874 -0.018586124341170105 0 -0.0030309727493754881 -0.019113059088118115 0 -0.0036067280393408106 -0.018884532214886809 0 -0.0036851154409692317 -0.01845297274108362 0 -0.0033165942092936874 -0.018586124341170105 0 -0.0036067280393408106 -0.018884532214886809 0 -0.0033165942092936874 -0.018586124341170105 0 -0.0029306794638865792 -0.018396341664021314 0 -0.0030309727493754881 -0.019113059088118115 0 -0.002926959846761207 -0.017781000843428332 0 -0.0033512838757633694 -0.018140783629504918 0 -0.0029306794638865792 -0.018396341664021314 0 -0.0033512838757633694 -0.018140783629504918 0 -0.0033165942092936874 -0.018586124341170105 0 -0.0029306794638865792 -0.018396341664021314 0 -0.0029306794638865792 -0.018396341664021314 0 -0.0024725997662939187 -0.018067820886787392 0 -0.0024968762456501273 -0.018696223527813274 0 -0.002926959846761207 -0.017781000843428332 0 -0.0029306794638865792 -0.018396341664021314 0 -0.0024725997662939187 -0.018067820886787392 0 -0.0017663911176431181 -0.020097484168521512 0 -0.0011378861937378273 -0.028250419795620138 0 -0.0011378861937378273 -0.028250419795620138 0 -0.0017130007230813408 -0.02273571293150763 0 -0.0029306794638865792 -0.018396341664021314 0 -0.0024968762456501273 -0.018696223527813274 0 -0.0030309727493754881 -0.019113059088118115 0 -0.00060881307203013342 -0.03965637856333961 0 0.00030915495524249504 -0.039546968117077766 0 -0.00049054818691469373 -0.040302712637831396 0 -0.00060366716753410855 -0.038962817661667599 0 -0.00060881307203013342 -0.03965637856333961 0 0.00030915495524249504 -0.039546968117077766 0 -0.00107158138692931 -0.024302214941652394 0 0.00057436972003683823 -0.024872339770556428 0 5.9205188434993601e-05 -0.023519141645930119 0 -0.0011378861937378273 -0.028250419795620138 0 8.3483831011554573e-05 -0.033010928762468222 0 -0.00107158138692931 -0.024302214941652394 0 -0.00117749396008051 -0.026397770743405064 0 0.00057436972003683823 -0.024872339770556428 0 -0.00107158138692931 -0.024302214941652394 0 5.9205188434993601e-05 -0.023519141645930119 0 -0.00092029151209169051 -0.022328611557261856 0 0.0010132503772572619 -0.023358759116148233 0 0.00057436972003683823 -0.024872339770556428 0 5.9205188434993601e-05 -0.023519141645930119 0 0.0010132503772572619 -0.023358759116148233 0 5.9205188434993601e-05 -0.023519141645930119 0 0.00056057996792927835 -0.022537094374538512 0 5.9205188434993601e-05 -0.023519141645930119 0 -0.00092029151209169051 -0.022328611557261856 0 0.00056057996792927835 -0.022537094374538512 0 -0.002926959846761207 -0.017781000843428332 0 -0.0024725997662939187 -0.018067820886787392 0 -0.0024841976583349547 -0.017446834450798199 0 -0.0017663911176431181 -0.020097484168521512 0 -0.001771109038303827 -0.020053032903605928 0 -0.0025860059392421608 -0.017021052622231941 0 -0.0028740478777237624 -0.017141913410784259 0 -0.0024841976583349547 -0.017446834450798199 0 -0.00062783952539353992 -0.01900940804605802 0 -0.001771109038303827 -0.020053032903605928 0 -0.0028740478777237624 -0.017141913410784259 0 -0.002926959846761207 -0.017781000843428332 0 -0.0024841976583349547 -0.017446834450798199 0 -0.00082082012662794261 -0.020367792220916961 0 -0.00092029151209169051 -0.022328611557261856 0 0.00012453731969264739 -0.021422485014776685 0 0.0013428253188647805 -0.021814418214732085 0 0.00012453731969264739 -0.021422485014776685 0 0.00056057996792927835 -0.022537094374538512 0 -0.00092029151209169051 -0.022328611557261856 0 0.00012453731969264739 -0.021422485014776685 0 0.00056057996792927835 -0.022537094374538512 0 -0.00078179347545856274 -0.036793240188543713 0 0.00047813593980222788 -0.036387444221224849 0 -0.00010457932638318674 -0.037054035232579718 0 0.00035999344099959987 -0.036173041252637858 0 0.0002264541868179525 -0.036841413449271228 0 0.0018462290140738413 -0.036313920569315698 0 -0.00021310822314183061 -0.037279158318476467 0 0.00046188685677246076 -0.032769128051349038 0 0.00046188685677246076 -0.032769128051349038 0 -0.0001971561997121953 -0.032530798397011507 0 0.00047813593980222788 -0.036387444221224849 0 0.00041491041164178668 -0.037488964671137548 0 -0.00010457932638318674 -0.037054035232579718 0 -0.00072195988287783398 -0.028365235170074915 0 -0.00072245456616830102 -0.028174985333944233 0 -0.0008888490081135704 -0.028207717833962895 0 0.00041491041164178668 -0.037488964671137548 0 -0.00052783808756380602 -0.037542121115385484 0 -0.00033451283194232972 -0.03823395740949552 0 0.00041491041164178668 -0.037488964671137548 0 -0.00010457932638318674 -0.037054035232579718 0 -0.00052783808756380602 -0.037542121115385484 0 -0.00078179347545856274 -0.036793240188543713 0 -0.00010457932638318674 -0.037054035232579718 0 -0.00052783808756380602 -0.037542121115385484 0 -0.00060366716753410855 -0.038962817661667599 0 0.00030915495524249504 -0.039546968117077766 0 0.00034844071744365352 -0.0385369366576402 0 -0.00060366716753410855 -0.038962817661667599 0 -0.00033451283194232972 -0.03823395740949552 0 0.00034844071744365352 -0.0385369366576402 0 -0.00073236912751929977 -0.027824732386545096 0 -0.00072870707723947403 -0.02799687832582921 0 -0.00086460903089100407 -0.02791182937903032 0 -0.0011378861937378273 -0.028250419795620138 0 -0.00014128590924181541 -0.034401740016985503 0 -0.0001971561997121953 -0.032530798397011507 0 -0.00014128590924181541 -0.034401740016985503 0 0.00041491041164178668 -0.037488964671137548 0 -0.00033451283194232972 -0.03823395740949552 0 0.00034844071744365352 -0.0385369366576402 0 -0.00072245456616830102 -0.028174985333944233 0 -0.00072870707723947403 -0.02799687832582921 0 -0.00085166644384880076 -0.02805734839943717 0 -0.00085166644384880076 -0.02805734839943717 0 -0.0010260194960960733 -0.027994173645992139 0 -0.0008888490081135704 -0.028207717833962895 0 -0.00085166644384880076 -0.02805734839943717 0 -0.00086460903089100407 -0.02791182937903032 0 -0.0010260194960960733 -0.027994173645992139 0 -0.00072870707723947403 -0.02799687832582921 0 -0.00085166644384880076 -0.02805734839943717 0 -0.00086460903089100407 -0.02791182937903032 0 -0.0036067280393408106 -0.018884532214886809 0 -0.0035874269000569577 -0.019585666119463802 0 -0.0038708102432042026 -0.019249363039461457 0 -0.0017130007230813408 -0.02273571293150763 0 -0.0025202644274366763 -0.024220862238132017 0 -0.0030309727493754881 -0.019113059088118115 0 -0.0036067280393408106 -0.018884532214886809 0 -0.0035874269000569577 -0.019585666119463802 0 -0.0010260194960960733 -0.027994173645992139 0 -0.0008888490081135704 -0.028207717833962895 0 -0.0010702642924429696 -0.028240097429564438 0 -0.00072245456616830102 -0.028174985333944233 0 -0.00085166644384880076 -0.02805734839943717 0 -0.0008888490081135704 -0.028207717833962895 0 -0.00072195988287783398 -0.028365235170074915 0 -0.0008888490081135704 -0.028207717833962895 0 -0.00093556052764458286 -0.028379258347248276 0 0.00046188685677246076 -0.032769128051349038 0 -0.00019615581229559837 -0.025649213156907377 0 -0.00034556228549272614 -0.021092152660857712 0 -0.00097747051494833097 -0.021442403428058775 0 0.00054640270153504618 -0.021932354798109701 0 -0.00044153178023961716 -0.024927623911456826 0 -0.00019615581229559837 -0.025649213156907377 0 -0.0008888490081135704 -0.028207717833962895 0 -0.0010702642924429696 -0.028240097429564438 0 -0.00093556052764458286 -0.028379258347248276 0 -0.0011162757869478592 -0.021007170359891407 0 -0.0013496672085360267 -0.021663638409881426 0 -0.0016553230757893247 -0.020584785973148955 0 -0.00034556228549272614 -0.021092152660857712 0 -0.0011162757869478592 -0.021007170359891407 0 -0.0012527292228421234 -0.020250683024705514 0 -0.00034556228549272614 -0.021092152660857712 0 -0.0011162757869478592 -0.021007170359891407 0 -0.00097747051494833097 -0.021442403428058775 0 -0.0011162757869478592 -0.021007170359891407 0 -0.00097747051494833097 -0.021442403428058775 0 -0.0013496672085360267 -0.021663638409881426 0 -0.0016873139494493906 -0.020171143636253563 0 -0.0010424760298031949 -0.018735366086506597 0 -0.0016329811690064058 -0.014634888425338857 0 -0.0012606720472610031 -0.014883157329049412 0 -0.0015096410562264798 -0.015103157506188337 0 -0.0010424760298031949 -0.018735366086506597 0 -0.0023806667265585976 -0.016775026906020413 0 -0.0028633499552606903 -0.0093210452790933492 0 -0.0023806667265585976 -0.016775026906020413 0 -0.0030030290855095633 -0.011597196292903286 0 -0.0039322376167748082 -0.012390650808640494 0 -0.0036009730693388289 -0.013626331662907941 0 -0.0058562035599910283 -0.0032653394991530825 0 -0.0062706290882307923 -0.0047506957170645762 0 -0.0052488985640701995 -0.0038684687699248876 0 -0.0028633499552606903 -0.0093210452790933492 0 -0.0042606970356815974 -0.012282716008442275 0 -0.0023806667265585976 -0.016775026906020413 0 -0.0025019350967358201 -0.022051441050604834 0 -0.0062706290882307923 -0.0047506957170645762 0 -0.0062013252347803685 -0.0049947354128907174 0 -0.0053938658632620472 -0.0046568125303061278 0 -0.0034174361148506293 -0.018903570148355375 0 -0.0042481372509978726 -0.015917209137980518 0 -0.0018043005009078115 -0.017539622806035892 0 -0.0023806667265585976 -0.016775026906020413 0 -0.0042606970356815974 -0.012282716008442275 0 -0.0042481372509978726 -0.015917209137980518 0 -0.0018043005009078115 -0.017539622806035892 0 -0.004108799062876145 -0.01542772472107499 0 -0.0025019350967358201 -0.022051441050604834 0 -0.0044087311244073758 -0.015219607261817052 0 -0.0042606970356815974 -0.012282716008442275 0 -0.0044087311244073758 -0.015219607261817052 0 -0.0041491175630882426 -0.020049575566673448 0 -0.0040549946459369152 -0.019721798477840613 0 -0.0044311738615940141 -0.019779851406324572 0 -0.0010260194960960733 -0.027994173645992139 0 -0.0010702642924429696 -0.028240097429564438 0 -0.0012066732778140113 -0.028089757163984114 0 -0.0011162757869478592 -0.021007170359891407 0 -0.0016553230757893247 -0.020584785973148955 0 -0.0012527292228421234 -0.020250683024705514 0 -0.00044153178023961716 -0.024927623911456826 0 -0.0025019350967358201 -0.022051441050604834 0 -0.0025202644274366763 -0.024220862238132017 0 -0.0025019350967358201 -0.022051441050604834 0 -0.0035874269000569577 -0.019585666119463802 0 -0.0040549946459369152 -0.019721798477840613 0 -0.0040505911474554672 -0.019471880666253084 0 -0.0035874269000569577 -0.019585666119463802 0 -0.0041491175630882426 -0.020049575566673448 0 -0.0040549946459369152 -0.019721798477840613 0 -0.0040549946459369152 -0.019721798477840613 0 -0.0040505911474554672 -0.019471880666253084 0 -0.0044311738615940141 -0.019779851406324572 0 -0.0035874269000569577 -0.019585666119463802 0 -0.0040505911474554672 -0.019471880666253084 0 -0.0038708102432042026 -0.019249363039461457 0 -0.0036067280393408106 -0.018884532214886809 0 -0.0038708102432042026 -0.019249363039461457 0 -0.0042367583194107637 -0.019052511059051137 0 -0.0040505911474554672 -0.019471880666253084 0 -0.0038708102432042026 -0.019249363039461457 0 -0.0042367583194107637 -0.019052511059051137 0 -0.003374016768669236 -0.017690324919569442 0 -0.0036068640675227413 -0.017496464460949174 0 -0.0035422845807180745 -0.01716947105932946 0 -0.0040102176108245324 -0.017379388788075156 0 -0.0036068640675227413 -0.017496464460949174 0 -0.0035422845807180745 -0.01716947105932946 0 -0.0038121821130087576 -0.017767236024265189 0 -0.0040102176108245324 -0.017379388788075156 0 -0.0036068640675227413 -0.017496464460949174 0 -0.0041380121596840246 -0.015648144969399529 0 -0.0047639085991251469 -0.013410889490712664 0 -0.0032498743020971752 -0.014808768995008395 0 -0.0041613839627316707 -0.018831394459806871 0 -0.0044087311244073758 -0.015219607261817052 0 -0.0040505911474554672 -0.019471880666253084 0 -0.0042367583194107637 -0.019052511059051137 0 -0.0044311738615940141 -0.019779851406324572 0 -0.0040102176108245324 -0.017379388788075156 0 -0.0035422845807180745 -0.01716947105932946 0 -0.0037328540120061021 -0.016481269491958446 0 -0.0040102176108245324 -0.017379388788075156 0 -0.0037904807110632562 -0.016429077959841786 0 -0.0037328540120061021 -0.016481269491958446 0 -0.0037231968186236626 -0.016755741847008211 0 -0.0049551901017302951 -0.013168719498604721 0 -0.0044087311244073758 -0.015219607261817052 0 -0.0049551901017302951 -0.013168719498604721 0 -0.0041367720322940983 -0.014288193758210383 0 -0.0040873344342165817 -0.014106612203116565 0 -0.0042290321628224783 -0.013981465474117306 0 -0.0049551901017302951 -0.013168719498604721 0 -0.0046226168282704231 -0.010044795956202094 0 -0.0042606970356815974 -0.012282716008442275 0 -0.0049551901017302951 -0.013168719498604721 0 -0.0062013252347803685 -0.0049947354128907174 0 -0.005314434813325942 -0.0057869041839732453 0 -0.0053938658632620472 -0.0046568125303061278 0 -0.0047898928753710469 -0.0049907160270045714 0 -0.005314434813325942 -0.0057869041839732453 0 -0.0053938658632620472 -0.0046568125303061278 0 -0.005314434813325942 -0.0057869041839732453 0 -0.0044104593939946583 -0.0066184329207017688 0 -0.0044305654138563902 -0.0054665333033649165 0 -0.0047898928753710469 -0.0049907160270045714 0 -0.005314434813325942 -0.0057869041839732453 0 -0.0044305654138563902 -0.0054665333033649165 0 -0.003374016768669236 -0.017690324919569442 0 -0.0041380121596840246 -0.015648144969399529 0 -0.0031533459435175546 -0.016408002307309166 0 -0.0034813813345779044 -0.01742999885269407 0 -0.0037231968186236626 -0.016755741847008211 0 -0.0041380121596840246 -0.015648144969399529 0 -0.0032498743020971752 -0.014808768995008395 0 -0.0031533459435175546 -0.016408002307309166 0 -0.0046226168282704231 -0.010044795956202094 0 -0.0032009495557039683 -0.010865348853399204 0 -0.0032498743020971752 -0.014808768995008395 0 -0.0031533459435175546 -0.016408002307309166 0 -0.0018027539007132273 -0.016147242603580924 0 -0.0035674420807262604 -0.016253723083491593 0 -0.0032009495557039683 -0.010865348853399204 0 -0.0030944829771374204 -0.017599578540713413 0 -0.0031533459435175546 -0.016408002307309166 0 -0.0018027539007132273 -0.016147242603580924 0 -0.0020610231306519445 -0.010511448595671458 0 -0.0029821094459015133 -0.0092240986538429416 0 -0.0012674847974254862 -0.0080465432072203101 0 -0.0019044510031705503 -0.011513137938432569 0 -0.0023397569379373139 -0.010908724561249616 0 -0.002465277368312019 -0.01100653882385114 0 -0.0012872810898768136 -0.011360499508923805 0 -0.0027077622523898033 -0.0097789184535759591 0 -0.0030962728651596568 -0.014601132430441264 0 -0.0017275460955599 -0.013507850352943294 0 -0.0022234427841063701 -0.01305690894813521 0 -0.0027077622523898033 -0.0097789184535759591 0 -0.0026648934222171469 -0.011559003302792744 0 -0.0026648934222171469 -0.011559003302792744 0 -0.0032009495557039683 -0.010865348853399204 0 -0.0043524648822629505 -0.0074520993588852455 0 -0.0048047859023927081 -0.007022888247071671 0 -0.0043994915740541785 -0.0069903547653850919 0 -0.0041674802112304571 -0.0073105032655867248 0 -0.0043524648822629505 -0.0074520993588852455 0 -0.0043994915740541785 -0.0069903547653850919 0 -0.0027077622523898033 -0.0097789184535759591 0 -0.0034417246108213854 -0.0086997417156850776 0 -0.0048047859023927081 -0.007022888247071671 0 -0.0043994915740541785 -0.0069903547653850919 0 -0.0036359221533253114 -0.0061604500817435542 0 -0.004184721506115768 -0.0072889779694887604 0 -0.0043994915740541785 -0.0069903547653850919 0 -0.0030429043257808939 -0.0063476581310754499 0 -0.0027077622523898033 -0.0097789184535759591 0 -0.0022186301599416334 -0.0066980808304538579 0 -0.0043994915740541785 -0.0069903547653850919 0 -0.0036359221533253114 -0.0061604500817435542 0 -0.0030429043257808939 -0.0063476581310754499 0 -0.0044104593939946583 -0.0066184329207017688 0 -0.0044305654138563902 -0.0054665333033649165 0 -0.0038788094706976015 -0.0052821382338101523 0 -0.0044104593939946583 -0.0066184329207017688 0 -0.0038788094706976015 -0.0052821382338101523 0 -0.0032033235572875591 -0.0051094505996434145 0 -0.0048047859023927081 -0.007022888247071671 0 -0.0036359221533253114 -0.0061604500817435542 0 -0.0032033235572875591 -0.0051094505996434145 0 -0.0032009495557039683 -0.010865348853399204 0 -0.0033059026508915654 -0.0040041929022447704 0 -0.0044305654138563902 -0.0054665333033649165 0 -0.0038788094706976015 -0.0052821382338101523 0 -0.0040059102392582344 -0.004698608152229616 0 -0.0047898928753710469 -0.0049907160270045714 0 -0.0044305654138563902 -0.0054665333033649165 0 -0.0040059102392582344 -0.004698608152229616 0 -0.0038788094706976015 -0.0052821382338101523 0 -0.0032033235572875591 -0.0051094505996434145 0 -0.0033370446030731131 -0.0045157545218119117 0 -0.0038788094706976015 -0.0052821382338101523 0 -0.0040059102392582344 -0.004698608152229616 0 -0.0033370446030731131 -0.0045157545218119117 0 -0.0035024557098778763 -0.0038188337051601622 0 -0.0040059102392582344 -0.004698608152229616 0 -0.0033370446030731131 -0.0045157545218119117 0 -0.0035024557098778763 -0.0038188337051601622 0 -0.0044921455999632799 -0.0041565859614149988 0 -0.0044383229792940059 -0.0032806662120236046 0 -0.0035024557098778763 -0.0038188337051601622 0 -0.0044921455999632799 -0.0041565859614149988 0 -0.0040059102392582344 -0.004698608152229616 0 -0.0047898928753710469 -0.0049907160270045714 0 -0.0044921455999632799 -0.0041565859614149988 0 -0.0040059102392582344 -0.004698608152229616 0 -0.0047898928753710469 -0.0049907160270045714 0 -0.0044921455999632799 -0.0041565859614149988 0 -0.0053938658632620472 -0.0046568125303061278 0 -0.0062706290882307923 -0.0047506957170645762 0 -0.0053938658632620472 -0.0046568125303061278 0 -0.0052488985640701995 -0.0038684687699248876 0 -0.0044921455999632799 -0.0041565859614149988 0 -0.0053938658632620472 -0.0046568125303061278 0 -0.0052488985640701995 -0.0038684687699248876 0 -0.0044921455999632799 -0.0041565859614149988 0 -0.0052488985640701995 -0.0038684687699248876 0 -0.0044383229792940059 -0.0032806662120236046 0 -0.0028633499552606903 -0.0093210452790933492 0 -0.0031967789890781761 -0.0048819267938967573 0 -0.0058562035599910283 -0.0032653394991530825 0 -0.0052488985640701995 -0.0038684687699248876 0 -0.0044383229792940059 -0.0032806662120236046 0 -0.0058562035599910283 -0.0032653394991530825 0 -0.0044383229792940059 -0.0032806662120236046 0 -0.004261865650440822 -0.0018834470475927712 0 -0.0034224857082861019 -0.0028728048756449902 0 -0.0044383229792940059 -0.0032806662120236046 0 -0.004261865650440822 -0.0018834470475927712 0 -0.0035024557098778763 -0.0038188337051601622 0 -0.0034224857082861019 -0.0028728048756449902 0 -0.0044383229792940059 -0.0032806662120236046 0 -0.0034224857082861019 -0.0028728048756449902 0 -0.004261865650440822 -0.0018834470475927712 0 -0.0025400095254968138 -0.0020604204298539448 0 -0.0028633499552606903 -0.0093210452790933492 0 -0.00077084757150921177 -0.013881657301256935 0 -0.0025129918903022343 -0.0097892343857674518 0 -0.0017851980884876313 -0.0091750911132363194 0 -0.0022868649692944654 -0.0090433659919662342 0 -0.00077084757150921177 -0.013881657301256935 0 -0.00031314198711609098 -0.016346904839202238 0 -0.0017851980884876313 -0.0091750911132363194 0 -0.0022868649692944654 -0.0090433659919662342 0 -0.001849774393587023 -0.0087540681159626252 0 -0.00031314198711609098 -0.016346904839202238 0 -0.00068495441391094099 -0.012940316356519996 0 -0.001205095752891912 -0.014356024192845727 0 -0.0011115285242948173 -0.014031690772380491 0 -0.0003663424345396558 -0.013827615921945662 0 -0.00011008771881383997 -0.017545360632883655 0 -0.00062316162642310339 -0.014095597032688055 0 -0.00084653617026233348 -0.015268682810476069 0 -0.00023005640265240279 -0.015207387410072595 0 -7.0117975358834856e-05 -0.01510335608041782 0 -0.00077084757150921177 -0.013881657301256935 0 -0.00068495441391094099 -0.012940316356519996 0 -0.00088303560262653472 -0.015397148795882457 0 -0.00084653617026233348 -0.015268682810476069 0 -0.00023005640265240279 -0.015207387410072595 0 -0.00031314198711609098 -0.016346904839202238 0 -0.00011008771881383997 -0.017545360632883655 0 -0.0003800783713189966 -0.01938297497857475 0 0.00065214355038350439 -0.019193547781243516 0 0.00094961150764997051 -0.018158724397961196 0 -0.0017851980884876313 -0.0091750911132363194 0 -0.001849774393587023 -0.0087540681159626252 0 -0.0013000059262247539 -0.008583470322489439 0 -0.0017851980884876313 -0.0091750911132363194 0 -0.00099477397744202794 -0.0084929709971254437 0 -0.0013000059262247539 -0.008583470322489439 0 0.00065214355038350439 -0.019193547781243516 0 0.00094961150764997051 -0.018158724397961196 0 0.0020926351050433588 -0.018330805354651775 0 -0.0011544573976258676 -0.011907313766919432 0 -0.00030089396954499853 -0.011719963362215507 0 2.2116933877099312e-05 -0.011137038615271875 0 -0.0031967789890781761 -0.0048819267938967573 0 -0.0011724250397156502 -0.0061661345815552252 0 -0.00062316162642310339 -0.014095597032688055 0 0.0010832238709458492 -0.014943100604479051 0 -0.001102625418206589 -0.012086067100998573 0 -0.00099644701846091869 -0.012009306996904176 0 -0.0005053767126763269 -0.011875184850152109 0 -0.00068495441391094099 -0.012940316356519996 0 -0.00062316162642310339 -0.014095597032688055 0 -0.00068495441391094099 -0.012940316356519996 0 -0.00087653400292930143 -0.010285691843315046 0 -0.00062316162642310339 -0.014095597032688055 0 -0.00087653400292930143 -0.010285691843315046 0 0.00094961150764997051 -0.018158724397961196 0 0.0010630786427117097 -0.017375184084288082 0 0.0020926351050433588 -0.018330805354651775 0 0.00094961150764997051 -0.018158724397961196 0 0.0010630786427117097 -0.017375184084288082 0 0.00014363717182499925 -0.017410887969405008 0 9.7588454897642581e-07 -0.014458407634140141 0 5.3634079665513947e-05 -0.015836345965777262 0 -5.8286455125542536e-05 -0.012832497392364327 0 0.0010630786427117097 -0.017375184084288082 0 5.3634079665513947e-05 -0.015836345965777262 0 0.001915840516199878 -0.016763046358720883 0 -6.0075517473607181e-05 -0.015427336122010842 0 0.00096494986031509791 -0.015075046453758401 0 0.0010630786427117097 -0.017375184084288082 0 5.3634079665513947e-05 -0.015836345965777262 0 0.00014363717182499925 -0.017410887969405008 0 9.7588454897642581e-07 -0.014458407634140141 0 5.3634079665513947e-05 -0.015836345965777262 0 -1.419110255994171e-06 -0.017664436101675202 0 5.3634079665513947e-05 -0.015836345965777262 0 -0.00018108695677051791 -0.017530620556557023 0 -1.419110255994171e-06 -0.017664436101675202 0 5.3634079665513947e-05 -0.015836345965777262 0 -0.00018108695677051791 -0.017530620556557023 0 0.00014363717182499925 -0.017410887969405008 0 -0.0003800783713189966 -0.01938297497857475 0 0.00094961150764997051 -0.018158724397961196 0 0.00014363717182499925 -0.017410887969405008 0 -0.00011008771881383997 -0.017545360632883655 0 3.4225287812039953e-05 -0.017936775759270662 0 -0.00011872536683374814 -0.017965860866226445 0 0.00014363717182499925 -0.017410887969405008 0 -0.00024040592019852603 -0.017871274239491957 0 -0.00018108695677051791 -0.017530620556557023 0 0.00014363717182499925 -0.017410887969405008 0 -0.00024040592019852603 -0.017871274239491957 0 -0.00018108695677051791 -0.017530620556557023 0 -0.00024040592019852603 -0.017871274239491957 0 -0.0002221234776798383 -0.018477146285110282 0 -0.00018108695677051791 -0.017530620556557023 0 -1.419110255994171e-06 -0.017664436101675202 0 -0.0002221234776798383 -0.018477146285110282 0 -0.0002221234776798383 -0.018477146285110282 0 0.00020197696978740143 -0.018007275730586501 0 1.6639664298871192e-06 -0.020862085179430168 0 -1.419110255994171e-06 -0.017664436101675202 0 -0.0002221234776798383 -0.018477146285110282 0 1.6639664298871192e-06 -0.020862085179430168 0 0.0008122529574929395 -0.021079904598369333 0 2.4716350492277495e-07 -0.020866720138969213 0 -0.00024040592019852603 -0.017871274239491957 0 -0.0002221234776798383 -0.018477146285110282 0 0.00020197696978740143 -0.018007275730586501 0 0.00093234548956894756 -0.025247369714812107 0 0.0018426511819236379 -0.025996181699903309 0 0.00045937093441278853 -0.026287304064346664 0 -0.00024040592019852603 -0.017871274239491957 0 0.00020197696978740143 -0.018007275730586501 0 -5.7635061740546926e-05 -0.017799259967162924 0 0.0014012121500985603 -0.023946644299785443 0 0.00093234548956894756 -0.025247369714812107 0 0.0018426511819236379 -0.025996181699903309 0 0.0008122529574929395 -0.021079904598369333 0 0.00012223134446173988 -0.021623599933490726 0 0.00044101438778717552 -0.019078557471906968 0 0.00046985240465896789 -0.018975506061367213 0 -0.00072391827230819101 -0.01925521511508764 0 -0.00011872536683374814 -0.017965860866226445 0 -0.00024040592019852603 -0.017871274239491957 0 -5.7635061740546926e-05 -0.017799259967162924 0 -0.00011008771881383997 -0.017545360632883655 0 0.00012223134446173988 -0.021623599933490726 0 0.00025546996341790261 -0.017554960213505316 0 0.00035083271484245913 -0.017220530800576353 0 -0.0012968198367646032 -0.017692309519400769 0 -0.00031314198711609098 -0.016346904839202238 0 -0.00042483160239240308 -0.020751694948143506 0 -0.0010424760298031949 -0.018735366086506597 0 -0.00077084757150921177 -0.013881657301256935 0 -0.0010954997261034649 -0.018424444571549171 0 0.00025546996341790261 -0.017554960213505316 0 -0.0012968198367646032 -0.017692309519400769 0 -0.0016329811690064058 -0.014634888425338857 0 -0.0012606720472610031 -0.014883157329049412 0 -0.0010760243048035562 -0.01426932729856846 0 0.00044101438778717552 -0.019078557471906968 0 -0.00072391827230819101 -0.01925521511508764 0 -0.00067647277142846279 -0.019428020706251811 0 0.00030123979219636061 -0.0239832196470307 0 0.00031957171756192421 -0.024051032737742516 0 1.5723378522357815e-05 -0.024074659000992336 0 -0.00097747051494833097 -0.021442403428058775 0 -0.00134377326712277 -0.021666954838743369 0 -0.0011582815091007777 -0.02234417392908121 0 -0.00097747051494833097 -0.021442403428058775 0 -0.0011582815091007777 -0.02234417392908121 0 0.00054640270153504618 -0.021932354798109701 0 -0.0010424760298031949 -0.018735366086506597 0 -0.00042483160239240308 -0.020751694948143506 0 0.00012223134446173988 -0.021623599933490726 0 0.00018356974575740471 -0.025156460867031178 0 0.00012223134446173988 -0.021623599933490726 0 -0.00042483160239240308 -0.020751694948143506 0 -0.00042483160239240308 -0.020751694948143506 0 -0.00019615581229559837 -0.025649213156907377 0 0.00031957171756192421 -0.024051032737742516 0 1.5723378522357815e-05 -0.024074659000992336 0 -0.0001707812407163019 -0.02424529169792973 0 1.5723378522357815e-05 -0.024074659000992336 0 -0.0001707812407163019 -0.02424529169792973 0 -0.00026842995802422363 -0.024164511552787961 0 0.00018356974575740471 -0.025156460867031178 0 0.00033554865432710738 -0.027014989532877742 0 0.00045937093441278853 -0.026287304064346664 0 -0.0009542424016140093 -0.026551051558410161 0 -0.00093355057528856202 -0.025401203793131412 0 0.00033554865432710738 -0.027014989532877742 0 0.0014622381246988459 -0.031626835985693699 0 0.00032910870505734529 -0.029365981813107244 0 0.00054335389290879486 -0.029256603627693022 0 0.0004951142561407327 -0.029219325947361565 0 -0.00019615581229559837 -0.025649213156907377 0 0.00033554865432710738 -0.027014989532877742 0 0.00033554865432710738 -0.027014989532877742 0 -0.00045745361908985433 -0.026926524097255815 0 -0.00093355057528856202 -0.025401203793131412 0 3.1033044005717179e-06 -0.024732461342552529 0 -0.0014812042742588512 -0.023856710099186166 0 -0.00093355057528856202 -0.025401203793131412 0 -0.0014812042742588512 -0.023856710099186166 0 -0.0021046552850030424 -0.02547938945431746 0 -0.0009542424016140093 -0.026551051558410161 0 -0.00093355057528856202 -0.025401203793131412 0 -0.0021046552850030424 -0.02547938945431746 0 0.00045937093441278853 -0.026287304064346664 0 -0.00093355057528856202 -0.025401203793131412 0 3.1033044005717179e-06 -0.024732461342552529 0 0.00093234548956894756 -0.025247369714812107 0 0.00045937093441278853 -0.026287304064346664 0 3.1033044005717179e-06 -0.024732461342552529 0 0.0014012121500985603 -0.023946644299785443 0 0.00093234548956894756 -0.025247369714812107 0 3.1033044005717179e-06 -0.024732461342552529 0 0.0014012121500985603 -0.023946644299785443 0 3.1033044005717179e-06 -0.024732461342552529 0 0.00025522266097638147 -0.023139336984337001 0 3.1033044005717179e-06 -0.024732461342552529 0 0.00025522266097638147 -0.023139336984337001 0 -0.0014812042742588512 -0.023856710099186166 0 0.00025522266097638147 -0.023139336984337001 0 2.7133850304774588e-06 -0.020871454908812922 0 -7.5845433701901571e-05 -0.023544271524892565 0 2.7133850304774588e-06 -0.020871454908812922 0 -7.5845433701901571e-05 -0.023544271524892565 0 -1.2712851383088086e-06 -0.02337228237965876 0 0.0014012121500985603 -0.023946644299785443 0 0.00025522266097638147 -0.023139336984337001 0 2.7133850304774588e-06 -0.020871454908812922 0 -7.5845433701901571e-05 -0.023544271524892565 0 -1.2712851383088086e-06 -0.02337228237965876 0 -0.00024530619875182981 -0.025198149022921369 0 0.0002129812105328957 -0.023364859683799439 0 -0.0010792117503239419 -0.024243278860999019 0 -7.5845433701901571e-05 -0.023544271524892565 0 -0.0001744811140831374 -0.024739434346684814 0 -0.00024530619875182981 -0.025198149022921369 0 0.00025522266097638147 -0.023139336984337001 0 -7.5845433701901571e-05 -0.023544271524892565 0 -0.0001744811140831374 -0.024739434346684814 0 -0.0010792117503239419 -0.024243278860999019 0 -0.00059400665908787163 -0.026102113449061281 0 -0.0001744811140831374 -0.024739434346684814 0 -0.00024530619875182981 -0.025198149022921369 0 -0.00028061670343603048 -0.025940340188708475 0 -0.00024530619875182981 -0.025198149022921369 0 -0.00025031346772934576 -0.025888987137789019 0 -0.00028061670343603048 -0.025940340188708475 0 -1.2712851383088086e-06 -0.02337228237965876 0 -0.00024530619875182981 -0.025198149022921369 0 -0.00018604925517794025 -0.02559680721577411 0 -1.2712851383088086e-06 -0.02337228237965876 0 -0.00018604925517794025 -0.02559680721577411 0 -4.2671061101848567e-08 -0.025878230256456129 0 -0.00024530619875182981 -0.025198149022921369 0 -0.00018604925517794025 -0.02559680721577411 0 -0.00025031346772934576 -0.025888987137789019 0 -1.2054524158362019e-06 -0.028383755319854924 0 -4.2671061101848567e-08 -0.025878230256456129 0 -0.00021401679924979179 -0.026315503968491638 0 -0.00018604925517794025 -0.02559680721577411 0 -4.2671061101848567e-08 -0.025878230256456129 0 -0.00021401679924979179 -0.026315503968491638 0 -0.00018604925517794025 -0.02559680721577411 0 -0.00025031346772934576 -0.025888987137789019 0 -0.00021401679924979179 -0.026315503968491638 0 -0.00062474763611308206 -0.026611110893903337 0 -0.00021401679924979179 -0.026315503968491638 0 -0.00028597649727313566 -0.026305220395331091 0 -0.00025031346772934576 -0.025888987137789019 0 -0.00021401679924979179 -0.026315503968491638 0 -0.00028597649727313566 -0.026305220395331091 0 -0.00025031346772934576 -0.025888987137789019 0 -0.00028061670343603048 -0.025940340188708475 0 -0.00028597649727313566 -0.026305220395331091 0 -0.00059400665908787163 -0.026102113449061281 0 -0.00027223060876089747 -0.026316167107430902 0 -0.00062474763611308206 -0.026611110893903337 0 7.9589087560258875e-05 -0.026588758640029513 0 -0.00028597649727313566 -0.026305220395331091 0 -0.0011863965836452894 -0.027417743809918464 0 -0.00062474763611308206 -0.026611110893903337 0 7.9589087560258875e-05 -0.026588758640029513 0 -0.001334213146237599 -0.028090122839325521 0 0.00039594631996472241 -0.027582178573666936 0 -0.00049053791337461225 -0.028594546358499215 0 0.00039594631996472241 -0.027582178573666936 0 -0.00049053791337461225 -0.028594546358499215 0 0.00037729801204348343 -0.028809685871216472 0 -0.0011549078736420033 -0.027895930017003776 0 -0.00059400665908787163 -0.026102113449061281 0 0.00039594631996472241 -0.027582178573666936 0 0.0012051647394489323 -0.028348285513496902 0 0.00037729801204348343 -0.028809685871216472 0 -0.0014812042742588512 -0.023856710099186166 0 -0.0032094309841091254 -0.024452986971979875 0 -0.0021046552850030424 -0.02547938945431746 0 -0.00059400665908787163 -0.026102113449061281 0 -0.00045745361908985433 -0.026926524097255815 0 0.0012051647394489323 -0.028348285513496902 0 0.00090833728611788302 -0.02931260720295208 0 0.00037729801204348343 -0.028809685871216472 0 0.0019871555513378482 -0.029074942689720044 0 0.0012051647394489323 -0.028348285513496902 0 0.00090833728611788302 -0.02931260720295208 0 0.00032910870505734529 -0.029365981813107244 0 0.0004951142561407327 -0.029219325947361565 0 0.00033284147824636315 -0.029286340549956071 0 0.00046188685677246076 -0.032769128051349038 0 0.0014622381246988459 -0.031626835985693699 0 0.00035999344099959987 -0.036173041252637858 0 0.0018462290140738413 -0.036313920569315698 0 0.0018691903918594702 -0.035800720881165732 0 -0.00010221613833260519 -0.033062266220158829 0 0.0014622381246988459 -0.031626835985693699 0 -0.00058658347781136264 -0.029674286187803225 0 0.00090833728611788302 -0.02931260720295208 0 0.00037729801204348343 -0.028809685871216472 0 -0.00058658347781136264 -0.029674286187803225 0 -0.00049053791337461225 -0.028594546358499215 0 0.00037729801204348343 -0.028809685871216472 0 0.0031154196017051804 5.7113229595148368e-05 0 0.0034689604132254873 -0.00017877655384920894 0 0.0029463405410290228 -0.00024217522959866372 0 0.0031154196017051804 5.7113229595148368e-05 0 0.0029463405410290228 -0.00024217522959866372 0 0.0028121317635804613 0.00013343454786569886 0 0.0031154196017051804 5.7113229595148368e-05 0 0.0028121317635804613 0.00013343454786569886 0 0.0029850883661526597 0.00037190761563412993 0 0.0031154196017051804 5.7113229595148368e-05 0 0.0033287990365621525 0.00023960590621106446 0 0.0029850883661526597 0.00037190761563412993 0 0.00043191016017628194 -0.0031614405579607169 0 0.00090736507732087999 -0.0025894298172424329 0 -0.00011683321532505172 -0.002653687816550719 0 0.00043191016017628194 -0.0031614405579607169 0 0.00090736507732087999 -0.0025894298172424329 0 0.0013562560997994724 -0.0043670053538746529 0 0.0031154196017051804 5.7113229595148368e-05 0 0.0033287990365621525 0.00023960590621106446 0 0.0034689604132254873 -0.00017877655384920894 0 0.0016698201582293704 -0.0014340297152462503 0 0.0020014507661953161 -0.0022812143644422361 0 0.0033287990365621525 0.00023960590621106446 0 0.0034689604132254873 -0.00017877655384920894 0 0.0032865136687953147 0.00056078861455041761 0 0.00060186377745479901 -0.0022239076711481863 0 0.00067224601810620917 -0.0020004079320944013 0 0.00083417247787132074 -0.0018937654045022975 0 0.00060809866390334436 -0.002321979239677445 0 0.0005708287130546352 -0.002178722113317634 0 -0.00011683321532505172 -0.002653687816550719 0 0.00060186377745479901 -0.0022239076711481863 0 0.0005708287130546352 -0.002178722113317634 0 0.00067224601810620917 -0.0020004079320944013 0 0.0005708287130546352 -0.002178722113317634 0 0.00057604248745410152 -0.0020197075270906584 0 0.00067224601810620917 -0.0020004079320944013 0 0.0016698201582293704 -0.0014340297152462503 0 0.0015983673687406251 -0.0016006029647948549 0 0.0005708287130546352 -0.002178722113317634 0 0.00044063092210465908 -0.0019948084462430072 0 0.00012843497917260587 -0.0021821148170686733 0 0.0005708287130546352 -0.002178722113317634 0 0.00044063092210465908 -0.0019948084462430072 0 0.00057604248745410152 -0.0020197075270906584 0 0.00044063092210465908 -0.0019948084462430072 0 0.00057604248745410152 -0.0020197075270906584 0 0.00061695783712845933 -0.0018543685751656149 0 0.0004657621764899805 -0.0018504094331942016 0 0.00061695783712845933 -0.0018543685751656149 0 0.00050725203340858604 -0.0017003751533313141 0 0.00044063092210465908 -0.0019948084462430072 0 0.0004657621764899805 -0.0018504094331942016 0 0.00061695783712845933 -0.0018543685751656149 0 0.00044063092210465908 -0.0019948084462430072 0 0.00012843497917260587 -0.0021821148170686733 0 0.00028942508493604632 -0.0018515741493126067 0 0.00044063092210465908 -0.0019948084462430072 0 0.0004657621764899805 -0.0018504094331942016 0 0.00028942508493604632 -0.0018515741493126067 0 0.00067224601810620917 -0.0020004079320944013 0 0.00076427085149264522 -0.0018210563766995853 0 0.00083417247787132074 -0.0018937654045022975 0 0.00057604248745410152 -0.0020197075270906584 0 0.00067224601810620917 -0.0020004079320944013 0 0.00061695783712845933 -0.0018543685751656149 0 0.00067224601810620917 -0.0020004079320944013 0 0.00061695783712845933 -0.0018543685751656149 0 0.00076427085149264522 -0.0018210563766995853 0 0.00061695783712845933 -0.0018543685751656149 0 0.00076427085149264522 -0.0018210563766995853 0 0.00066436649615055153 -0.0016934472179085903 0 0.00076427085149264522 -0.0018210563766995853 0 0.0008126716626980329 -0.0016703565547835756 0 0.00066436649615055153 -0.0016934472179085903 0 0.00097208969704977184 -0.0016772030711890498 0 0.00083417247787132074 -0.0018937654045022975 0 0.0011146067453603936 -0.0017579742200223712 0 0.00076427085149264522 -0.0018210563766995853 0 0.00097208969704977184 -0.0016772030711890498 0 0.00083417247787132074 -0.0018937654045022975 0 0.00076427085149264522 -0.0018210563766995853 0 0.00097208969704977184 -0.0016772030711890498 0 0.0008126716626980329 -0.0016703565547835756 0 0.0016698201582293704 -0.0014340297152462503 0 0.0020598144312600633 -0.00098999476111182299 0 0.00060186377745479901 -0.0022239076711481863 0 0.00083417247787132074 -0.0018937654045022975 0 0.0011146067453603936 -0.0017579742200223712 0 0.00097208969704977184 -0.0016772030711890498 0 0.0011146067453603936 -0.0017579742200223712 0 0.0011603985546012755 -0.0014967928824340438 0 0.0011146067453603936 -0.0017579742200223712 0 0.0011753276382356127 -0.0014358023264360313 0 0.0011603985546012755 -0.0014967928824340438 0 0.0011146067453603936 -0.0017579742200223712 0 0.0011753276382356127 -0.0014358023264360313 0 0.0011667777799744443 -0.0012524000769693923 0 0.0020598144312600633 -0.00098999476111182299 0 0.0015482559345478973 -0.00084559882001230136 0 0.0029463405410290228 -0.00024217522959866372 0 0.0021373258746229936 -0.00043667577686746703 0 0.0024297295625924295 1.9934955802405355e-05 0 0.0011753276382356127 -0.0014358023264360313 0 0.001115536703531412 -0.0013222089600096278 0 0.0011667777799744443 -0.0012524000769693923 0 0.0011753276382356127 -0.0014358023264360313 0 0.001115536703531412 -0.0013222089600096278 0 0.0011790806119435957 -0.001405781609621183 0 0.00090590620466623594 -0.001172529606077491 0 0.0010149533186435363 -0.0013439778394639741 0 0.00059244677935696302 -0.0013662764059733721 0 0.0015482559345478973 -0.00084559882001230136 0 0.0006482834912495078 -0.00075788605908608567 0 0.0021373258746229936 -0.00043667577686746703 0 0.0013794759445933786 -9.6252088182976681e-05 0 0.00058358037008097877 -0.00070932822196609281 0 0.00090590620466623594 -0.001172529606077491 0 0.0011667777799744443 -0.0012524000769693923 0 0.00058358037008097877 -0.00070932822196609281 0 0.00090590620466623594 -0.001172529606077491 0 0.001115536703531412 -0.0013222089600096278 0 0.0010149533186435363 -0.0013439778394639741 0 0.00090590620466623594 -0.001172529606077491 0 0.001115536703531412 -0.0013222089600096278 0 0.0011667777799744443 -0.0012524000769693923 0 0.0013794759445933786 -9.6252088182976681e-05 0 0.0014208663491279885 0.00045548795841795716 0 0.00080436414015965028 9.1984561446176096e-05 0 0.0013794759445933786 -9.6252088182976681e-05 0 0.0018876289444793941 9.7174570357807453e-05 0 0.0014208663491279885 0.00045548795841795716 0 0.0021373258746229936 -0.00043667577686746703 0 0.0013794759445933786 -9.6252088182976681e-05 0 0.0018876289444793941 9.7174570357807453e-05 0 0.0018876289444793941 9.7174570357807453e-05 0 0.0019460036025156756 0.00061790708717284946 0 0.0024297295625924295 1.9934955802405355e-05 0 0.0021373258746229936 -0.00043667577686746703 0 0.0018876289444793941 9.7174570357807453e-05 0 0.0024297295625924295 1.9934955802405355e-05 0 0.0019460036025156756 0.00061790708717284946 0 0.0024297295625924295 1.9934955802405355e-05 0 0.0023139409999933438 0.00099464642237028942 0 0.0019460036025156756 0.00061790708717284946 0 0.0023139409999933438 0.00099464642237028942 0 0.0019261044367846548 0.0012355611743379449 0 0.0019460036025156756 0.00061790708717284946 0 0.0016633893852175258 0.00084861553045065307 0 0.0019261044367846548 0.0012355611743379449 0 0.0018876289444793941 9.7174570357807453e-05 0 0.0019460036025156756 0.00061790708717284946 0 0.0014208663491279885 0.00045548795841795716 0 0.0014208663491279885 0.00045548795841795716 0 0.0016633893852175258 0.00084861553045065307 0 0.0013704362124965649 0.0010986331928955159 0 0.0014208663491279885 0.00045548795841795716 0 0.0013704362124965649 0.0010986331928955159 0 0.00094541750701270129 0.00064349820974589529 0 0.0019460036025156756 0.00061790708717284946 0 0.0014208663491279885 0.00045548795841795716 0 0.0016633893852175258 0.00084861553045065307 0 0.0024297295625924295 1.9934955802405355e-05 0 0.0029550040769258739 0.0013785420628293669 0 0.0023139409999933438 0.00099464642237028942 0 0.0024297295625924295 1.9934955802405355e-05 0 0.0028121317635804613 0.00013343454786569886 0 0.0026106296645125779 0.00046500316119049776 0 0.0024991626051222653 0.00016253205710125497 0 0.0027320499844370612 0.00080187681403241654 0 0.0029463405410290228 -0.00024217522959866372 0 0.0024297295625924295 1.9934955802405355e-05 0 0.0028121317635804613 0.00013343454786569886 0 0.0026106296645125779 0.00046500316119049776 0 0.0027505756079953154 0.00095023827835958978 0 0.0028817486163661638 0.00063706770802654945 0 0.0026106296645125779 0.00046500316119049776 0 0.0028817486163661638 0.00063706770802654945 0 0.0029850883661526597 0.00037190761563412993 0 0.0029550040769258739 0.0013785420628293669 0 0.0033928011962226423 0.0028061199959598846 0 0.0027007736997681337 0.002428684693240821 0 0.0027320499844370612 0.00080187681403241654 0 0.0019529080666592933 0.0029031120197169184 0 0.0028121317635804613 0.00013343454786569886 0 0.0026106296645125779 0.00046500316119049776 0 0.0029850883661526597 0.00037190761563412993 0 0.0029550040769258739 0.0013785420628293669 0 0.0023139409999933438 0.00099464642237028942 0 0.0023088221803116309 0.0017573985596577057 0 0.0029550040769258739 0.0013785420628293669 0 0.0023088221803116309 0.0017573985596577057 0 0.0027007736997681337 0.002428684693240821 0 0.0023088221803116309 0.0017573985596577057 0 0.0021953976793188672 0.0024061769374394966 0 0.0027007736997681337 0.002428684693240821 0 0.0013704362124965649 0.0010986331928955159 0 0.0017092338159540891 0.001723490790320994 0 0.00061592670157638416 0.0013285084969043115 0 0.0016633893852175258 0.00084861553045065307 0 0.0013704362124965649 0.0010986331928955159 0 0.0019261044367846548 0.0012355611743379449 0 0.0013704362124965649 0.0010986331928955159 0 0.0019261044367846548 0.0012355611743379449 0 0.0017092338159540891 0.001723490790320994 0 0.0023139409999933438 0.00099464642237028942 0 0.0023088221803116309 0.0017573985596577057 0 0.0019261044367846548 0.0012355611743379449 0 0.0023088221803116309 0.0017573985596577057 0 0.0019261044367846548 0.0012355611743379449 0 0.0017092338159540891 0.001723490790320994 0 0.0017092338159540891 0.001723490790320994 0 0.0017299081294196933 0.002476394789633996 0 0.0021953976793188672 0.0024061769374394966 0 0.0023088221803116309 0.0017573985596577057 0 0.0017092338159540891 0.001723490790320994 0 0.0021953976793188672 0.0024061769374394966 0 -0.00031225125234831183 0.0091618447637651281 0 0.00082065480343171979 0.0076663385225118497 0 0.0017092338159540891 0.001723490790320994 0 0.0017299081294196933 0.002476394789633996 0 0.00061592670157638416 0.0013285084969043115 0 -0.0034824677970931427 0.013701827774986821 0 -0.0035222875074274302 0.013846132589646456 0 -0.003590250996356317 0.013761507870162315 0 0.0016416684494508183 0.002533782735517502 0 0.0021953976793188672 0.0024061769374394966 0 0.0025140878899640989 0.0033162369885930743 0 -0.00031225125234831183 0.0091618447637651281 0 -0.0018872642084218488 0.0098649411672023166 0 -0.00031225125234831183 0.0091618447637651281 0 0.0019940143652859353 0.0068088823604428436 0 -0.00034218250238894106 0.006204967688625833 0 -0.00030798796616612173 0.0062814812703855067 0 -0.00027057721770502922 0.0062716989801772606 0 0.0021953976793188672 0.0024061769374394966 0 0.0027007736997681337 0.002428684693240821 0 0.0025140878899640989 0.0033162369885930743 0 0.0033928011962226423 0.0028061199959598846 0 0.0027007736997681337 0.002428684693240821 0 0.0025140878899640989 0.0033162369885930743 0 0.0019529080666592933 0.0029031120197169184 0 -0.0018872642084218488 0.0098649411672023166 0 5.6451157405529222e-05 0.0046918822533240177 0 0.0025983314992894403 -0.00067372407687314457 0 0.0016433896302109128 -0.0029638618608586417 0 0.0020014507661953161 -0.0022812143644422361 0 0.00058885152346852259 0.0011430711731819552 0 0.0015931328237993689 -5.8962213720973457e-05 0 0.0016540009145645984 -0.0017062563249525613 0 5.6451157405529222e-05 0.0046918822533240177 0 0.0019529080666592933 0.0029031120197169184 0 0.001195447629047284 0.0044166424663381601 0 0.00039192338536070848 0.0017536347784236981 0 0.0026290564657898887 0.00051769891415038042 0 0.0015931328237993689 -5.8962213720973457e-05 0 0.0016540009145645984 -0.0017062563249525613 0 0.0020821416316604475 -0.0019415468726277588 0 0.0019529080666592933 0.0029031120197169184 0 0.0025983314992894403 -0.00067372407687314457 0 0.0027505756079953154 0.00095023827835958978 0 0.0028817486163661638 0.00063706770802654945 0 0.0031809244701671052 0.00070301019743112744 0 0.0028817486163661638 0.00063706770802654945 0 0.0031809244701671052 0.00070301019743112744 0 0.0029850883661526597 0.00037190761563412993 0 0.0025983314992894403 -0.00067372407687314457 0 0.0020014507661953161 -0.0022812143644422361 0 0.0033287990365621525 0.00023960590621106446 0 0.0031891413045064829 0.00061144395006995818 0 0.0032865136687953147 0.00056078861455041761 0 0.0033287990365621525 0.00023960590621106446 0 0.0031809244701671052 0.00070301019743112744 0 0.0029850883661526597 0.00037190761563412993 0 0.0031406204180391925 0.00057351719655196595 0 0.0025983314992894403 -0.00067372407687314457 0 0.00043191016017628194 -0.0031614405579607169 0 0.00046491314192396017 -0.0038957775531361961 0 0.0013562560997994724 -0.0043670053538746529 0 0.00072665975918867855 -0.003950732863340101 0 0.0020014507661953161 -0.0022812143644422361 0 0.00046491314192396017 -0.0038957775531361961 0 0.0013312620376774666 -0.0043796746012444631 0 0.00064262363640297854 -0.0046264430465941583 0 0.0015785972286586015 -0.0054024136205538332 0 0.0013312620376774666 -0.0043796746012444631 0 0.00099904694224897 -0.0051197707846456506 0 0.00064262363640297854 -0.0046264430465941583 0 0.00099904694224897 -0.0051197707846456506 0 0.00044455896330812631 -0.0052856421797495296 0 0.0013312620376774666 -0.0043796746012444631 0 0.00064262363640297854 -0.0046264430465941583 0 0.00099904694224897 -0.0051197707846456506 0 0.00099481081476457942 -0.0059131445303941136 0 0.0015785972286586015 -0.0054024136205538332 0 0.00099904694224897 -0.0051197707846456506 0 0.00099481081476457942 -0.0059131445303941136 0 0.00099904694224897 -0.0051197707846456506 0 0.00044455896330812631 -0.0052856421797495296 0 0.00027959471910626583 -0.0059745214111873524 0 0.00044455896330812631 -0.0052856421797495296 0 -0.00022742871493231819 -0.0055425798391306926 0 0.00064262363640297854 -0.0046264430465941583 0 0.00044455896330812631 -0.0052856421797495296 0 -0.00014515867811624119 -0.0045917134910742653 0 0.00044455896330812631 -0.0052856421797495296 0 -0.00022742871493231819 -0.0055425798391306926 0 -0.00014515867811624119 -0.0045917134910742653 0 -0.00022742871493231819 -0.0055425798391306926 0 -0.00075763168679849517 -0.0051002837538356247 0 -0.00014515867811624119 -0.0045917134910742653 0 -0.00094987446796333743 -0.0059612078156266726 0 -0.00022742871493231819 -0.0055425798391306926 0 -0.00075763168679849517 -0.0051002837538356247 0 -0.00075763168679849517 -0.0051002837538356247 0 -0.0011903876249625633 -0.0043045547802884705 0 -0.00014515867811624119 -0.0045917134910742653 0 -0.00094987446796333743 -0.0059612078156266726 0 -0.0012577572517576499 -0.0053472883751105003 0 -0.00075763168679849517 -0.0051002837538356247 0 -0.0012577572517576499 -0.0053472883751105003 0 -0.0012392570724939385 -0.004891887372944174 0 -0.00075763168679849517 -0.0051002837538356247 0 -0.0012577572517576499 -0.0053472883751105003 0 -0.0012392570724939385 -0.004891887372944174 0 -0.0017793439483742744 -0.0050766915443169044 0 -0.0012392570724939385 -0.004891887372944174 0 -0.00075763168679849517 -0.0051002837538356247 0 -0.0011903876249625633 -0.0043045547802884705 0 -0.0012392570724939385 -0.004891887372944174 0 -0.0011903876249625633 -0.0043045547802884705 0 -0.0017793439483742744 -0.0050766915443169044 0 -0.0011903876249625633 -0.0043045547802884705 0 -0.00014515867811624119 -0.0045917134910742653 0 -0.00047876721157531608 -0.0036020012929036888 0 0.00046491314192396017 -0.0038957775531361961 0 -0.00014515867811624119 -0.0045917134910742653 0 -0.00047876721157531608 -0.0036020012929036888 0 0.00046491314192396017 -0.0038957775531361961 0 0.00064262363640297854 -0.0046264430465941583 0 -0.00014515867811624119 -0.0045917134910742653 0 -0.0015822021576767796 -0.0068323806894889441 0 -0.002097930532035316 -0.0046983677200880805 0 -0.0012872810898768136 -0.011360499508923805 0 -0.0019944682494925478 -0.0068888881376964646 0 -0.0025215818171310527 -0.006753364110847775 0 -0.0025697029722488518 -0.006168972276912623 0 -0.0019299473749063946 -0.005343598193425057 0 -0.0014771499416938723 -0.0086898552162311873 0 -0.0019413484144183083 -0.0090387250906075692 0 -0.001444044743868464 -0.0074901958273211186 0 -0.0029821094459015133 -0.0092240986538429416 0 -0.0012674847974254862 -0.0080465432072203101 0 -0.0011972094249007709 -0.0078286075583128417 0 -0.0019944682494925478 -0.0068888881376964646 0 -0.0015822021576767796 -0.0068323806894889441 0 -0.0030629406130683037 -0.0061464094289427635 0 -0.0030285044206402674 -0.0060404124909386805 0 -0.0025697029722488518 -0.006168972276912623 0 -0.0019944682494925478 -0.0068888881376964646 0 -0.0022186301599416334 -0.0066980808304538579 0 -0.0014771499416938723 -0.0086898552162311873 0 -0.001444044743868464 -0.0074901958273211186 0 -0.00075181285363070619 -0.0082642750359966863 0 -0.0030629406130683037 -0.0061464094289427635 0 -0.0025215818171310527 -0.006753364110847775 0 -0.0025697029722488518 -0.006168972276912623 0 -0.0026929437108477506 -0.0053977383113799843 0 -0.0017793439483742744 -0.0050766915443169044 0 -0.002169745974861421 -0.0042065644852388989 0 -0.0019292496690524802 -0.0056861965410477718 0 -0.0026929437108477506 -0.0053977383113799843 0 -0.0017793439483742744 -0.0050766915443169044 0 -0.0015654007252834674 -0.0057074790726436668 0 -0.0012577572517576499 -0.0053472883751105003 0 -0.0017793439483742744 -0.0050766915443169044 0 -0.0015654007252834674 -0.0057074790726436668 0 -0.0019292496690524802 -0.0056861965410477718 0 -0.0017793439483742744 -0.0050766915443169044 0 -0.0011903876249625633 -0.0043045547802884705 0 -0.0017793439483742744 -0.0050766915443169044 0 -0.002169745974861421 -0.0042065644852388989 0 -0.0011903876249625633 -0.0043045547802884705 0 -0.002169745974861421 -0.0042065644852388989 0 -0.0015822225821689583 -0.0030345122530304339 0 -0.0019299473749063946 -0.005343598193425057 0 -0.0024491909153805773 -0.0050535241422496021 0 -0.0022984181008046129 -0.0044145609297664944 0 -0.0030285044206402674 -0.0060404124909386805 0 -0.0025697029722488518 -0.006168972276912623 0 -0.0022789772591561733 -0.0054449560029468883 0 -0.0022186301599416334 -0.0066980808304538579 0 -0.0023300945720947509 -0.0057414229717910525 0 -0.0025697029722488518 -0.006168972276912623 0 -0.0019299473749063946 -0.005343598193425057 0 -0.0022789772591561733 -0.0054449560029468883 0 -0.003009189547019832 -0.0060342972184065074 0 -0.0022789772591561733 -0.0054449560029468883 0 -0.0027815558555910566 -0.0053172510436291847 0 -0.0024491909153805773 -0.0050535241422496021 0 -0.0028170361477392785 -0.0047455682116493963 0 -0.0022984181008046129 -0.0044145609297664944 0 -0.0019299473749063946 -0.005343598193425057 0 -0.0022789772591561733 -0.0054449560029468883 0 -0.0024491909153805773 -0.0050535241422496021 0 -0.0024491909153805773 -0.0050535241422496021 0 -0.0027815558555910566 -0.0053172510436291847 0 -0.0028170361477392785 -0.0047455682116493963 0 -0.0022789772591561733 -0.0054449560029468883 0 -0.0024491909153805773 -0.0050535241422496021 0 -0.0027815558555910566 -0.0053172510436291847 0 -0.0027815558555910566 -0.0053172510436291847 0 -0.0028170361477392785 -0.0047455682116493963 0 -0.0032033235572875591 -0.0051094505996434145 0 -0.0028170361477392785 -0.0047455682116493963 0 -0.0032033235572875591 -0.0051094505996434145 0 -0.0033370446030731131 -0.0045157545218119117 0 -0.0036359221533253114 -0.0061604500817435542 0 -0.0030429043257808939 -0.0063476581310754499 0 -0.0027815558555910566 -0.0053172510436291847 0 -0.0022186301599416334 -0.0066980808304538579 0 -0.0025141989976756795 -0.00561791484954525 0 -0.0036359221533253114 -0.0061604500817435542 0 -0.0027815558555910566 -0.0053172510436291847 0 -0.0032033235572875591 -0.0051094505996434145 0 -0.0035024557098778763 -0.0038188337051601622 0 -0.002871721360412245 -0.0041641323941166101 0 -0.0023960339695921038 -0.00333288094392437 0 -0.0035024557098778763 -0.0038188337051601622 0 -0.0033370446030731131 -0.0045157545218119117 0 -0.002871721360412245 -0.0041641323941166101 0 -0.0028170361477392785 -0.0047455682116493963 0 -0.0033370446030731131 -0.0045157545218119117 0 -0.002871721360412245 -0.0041641323941166101 0 -0.0028170361477392785 -0.0047455682116493963 0 -0.002871721360412245 -0.0041641323941166101 0 -0.0022984181008046129 -0.0044145609297664944 0 -0.002871721360412245 -0.0041641323941166101 0 -0.0022984181008046129 -0.0044145609297664944 0 -0.0023960339695921038 -0.00333288094392437 0 -0.002097930532035316 -0.0046983677200880805 0 -0.0014941701357379809 -0.0034366943224760312 0 -0.0019299473749063946 -0.005343598193425057 0 -0.0022984181008046129 -0.0044145609297664944 0 -0.0013979051307270985 -0.0038065180427723686 0 -0.0022984181008046129 -0.0044145609297664944 0 -0.0013979051307270985 -0.0038065180427723686 0 -0.0023960339695921038 -0.00333288094392437 0 -0.0023960339695921038 -0.00333288094392437 0 -0.00099277902124644932 -0.0021863627003967838 0 -0.0025400095254968138 -0.0020604204298539448 0 -0.0013979051307270985 -0.0038065180427723686 0 -0.0023960339695921038 -0.00333288094392437 0 -0.00099277902124644932 -0.0021863627003967838 0 -0.0034224857082861019 -0.0028728048756449902 0 -0.0023960339695921038 -0.00333288094392437 0 -0.0025400095254968138 -0.0020604204298539448 0 -0.0035024557098778763 -0.0038188337051601622 0 -0.0034224857082861019 -0.0028728048756449902 0 -0.0023960339695921038 -0.00333288094392437 0 0.00043191016017628194 -0.0031614405579607169 0 0.00046491314192396017 -0.0038957775531361961 0 -0.00047876721157531608 -0.0036020012929036888 0 -0.00047876721157531608 -0.0036020012929036888 0 -0.0007703464817090279 -0.0027852502527239689 0 -0.00011683321532505172 -0.002653687816550719 0 0.00043191016017628194 -0.0031614405579607169 0 -0.00047876721157531608 -0.0036020012929036888 0 -0.00011683321532505172 -0.002653687816550719 0 -0.0015822225821689583 -0.0030345122530304339 0 -0.00047876721157531608 -0.0036020012929036888 0 -0.0007703464817090279 -0.0027852502527239689 0 -0.0011903876249625633 -0.0043045547802884705 0 -0.0015822225821689583 -0.0030345122530304339 0 -0.00047876721157531608 -0.0036020012929036888 0 -0.0015822225821689583 -0.0030345122530304339 0 -0.0007703464817090279 -0.0027852502527239689 0 -0.00099277902124644932 -0.0021863627003967838 0 -0.0014941701357379809 -0.0034366943224760312 0 -0.0010405336050534578 -0.0023164244234903917 0 -0.0007703464817090279 -0.0027852502527239689 0 -0.00099277902124644932 -0.0021863627003967838 0 -0.00031736121250293512 -0.0020649962012449898 0 0.0016698201582293704 -0.0014340297152462503 0 -0.00034860008290581824 -0.0025782061714144811 0 -0.0007703464817090279 -0.0027852502527239689 0 -0.00031736121250293512 -0.0020649962012449898 0 -0.00011683321532505172 -0.002653687816550719 0 0.0005708287130546352 -0.002178722113317634 0 -0.00011683321532505172 -0.002653687816550719 0 0.00012843497917260587 -0.0021821148170686733 0 -0.00031736121250293512 -0.0020649962012449898 0 0.00012843497917260587 -0.0021821148170686733 0 0.00028942508493604632 -0.0018515741493126067 0 -0.00031736121250293512 -0.0020649962012449898 0 -0.00011683321532505172 -0.002653687816550719 0 0.00012843497917260587 -0.0021821148170686733 0 -0.00031736121250293512 -0.0020649962012449898 0 1.6646558226582675e-05 -0.0014689660271776663 0 0.00028942508493604632 -0.0018515741493126067 0 -0.00031736121250293512 -0.0020649962012449898 0 1.6646558226582675e-05 -0.0014689660271776663 0 -0.00063922813845726262 -0.0012768645552579195 0 1.6646558226582675e-05 -0.0014689660271776663 0 0.00028942508493604632 -0.0018515741493126067 0 0.00038411834907806314 -0.0015277645914802435 0 1.6646558226582675e-05 -0.0014689660271776663 0 -0.00063922813845726262 -0.0012768645552579195 0 0.00011075319078079377 -0.0010233501285740803 0 1.6646558226582675e-05 -0.0014689660271776663 0 0.00011075319078079377 -0.0010233501285740803 0 0.00039399248328944348 -0.001252216158684582 0 -0.00099277902124644932 -0.0021863627003967838 0 -0.00063922813845726262 -0.0012768645552579195 0 -0.0016280709699271916 -0.0013412104065893093 0 -0.00099277902124644932 -0.0021863627003967838 0 -0.00031736121250293512 -0.0020649962012449898 0 -0.00063922813845726262 -0.0012768645552579195 0 -0.00063922813845726262 -0.0012768645552579195 0 -0.0016280709699271916 -0.0013412104065893093 0 -0.0014135939363043839 -0.00048945795683345654 0 -0.00063922813845726262 -0.0012768645552579195 0 -0.0014135939363043839 -0.00048945795683345654 0 -0.000308688313633293 -0.00036415237151733097 0 -0.00063922813845726262 -0.0012768645552579195 0 0.00011075319078079377 -0.0010233501285740803 0 -0.000308688313633293 -0.00036415237151733097 0 -0.004261865650440822 -0.0018834470475927712 0 -0.0025400095254968138 -0.0020604204298539448 0 -0.0026673878765162149 -0.00061389485418968321 0 -0.0025400095254968138 -0.0020604204298539448 0 -0.0016280709699271916 -0.0013412104065893093 0 -0.0026673878765162149 -0.00061389485418968321 0 -0.00099277902124644932 -0.0021863627003967838 0 -0.0025400095254968138 -0.0020604204298539448 0 -0.0016280709699271916 -0.0013412104065893093 0 -0.00050882741167708001 -0.0032638084942589944 0 -0.0017245625299521145 -0.0035875493730529659 0 -0.00065568935425972745 -0.0031778922874225136 0 -0.0011370292683723293 -0.001844964310319916 0 -0.0011724250397156502 -0.0061661345815552252 0 -0.0016280709699271916 -0.0013412104065893093 0 -0.0014135939363043839 -0.00048945795683345654 0 -0.0026673878765162149 -0.00061389485418968321 0 -0.0011724250397156502 -0.0061661345815552252 0 -0.00027224154497699745 -0.0045861842433849798 0 0.00027017464007891563 -0.01154770244497896 0 -0.00030089396954499853 -0.011719963362215507 0 2.2116933877099312e-05 -0.011137038615271875 0 -0.0011724250397156502 -0.0061661345815552252 0 -0.00087653400292930143 -0.010285691843315046 0 0.00027017464007891563 -0.01154770244497896 0 2.2116933877099312e-05 -0.011137038615271875 0 0.0011916672559559138 -0.010386548942776861 0 0.0010630786427117097 -0.017375184084288082 0 0.0020926351050433588 -0.018330805354651775 0 0.001915840516199878 -0.016763046358720883 0 0.0010832238709458492 -0.014943100604479051 0 0.0013399308225581555 -0.012224644549287303 0 0.0020926351050433588 -0.018330805354651775 0 0.0035205002231469321 -0.017377459839309498 0 0.001915840516199878 -0.016763046358720883 0 -0.0011724250397156502 -0.0061661345815552252 0 0.0011192310125814973 -0.0085740751430804472 0 -0.00072743102624479145 -0.006236714095594586 0 9.7794297882325949e-05 -0.0060143014615637452 0 0.00015094398267608239 -0.0055017851184492074 0 0.00027017464007891563 -0.01154770244497896 0 0.0014882490639249516 -0.010496396323312736 0 0.0011916672559559138 -0.010386548942776861 0 0.0011192310125814973 -0.0085740751430804472 0 0.0013399308225581555 -0.012224644549287303 0 3.3615487873000993e-05 -0.011575794263910201 0 -8.7243818328802532e-07 -0.011253908907944305 0 -5.8286455125542536e-05 -0.012832497392364327 0 9.7588454897642581e-07 -0.014458407634140141 0 -8.7243818328802532e-07 -0.011253908907944305 0 -5.8286455125542536e-05 -0.012832497392364327 0 0.0013399308225581555 -0.012224644549287303 0 0.00096494986031509791 -0.015075046453758401 0 0.00019281892383055013 -0.0052679281586335645 0 0.00044491461786980656 -0.0051190047011977595 0 -0.00018078305496790298 -0.0048501948625199196 0 0.00071660410914627332 -0.0054179891422752964 0 0.00041519220313165423 -0.0056193305074970579 0 0.00041297503042903315 -0.005195363831830435 0 0.00041519220313165423 -0.0056193305074970579 0 0.00019281892383055013 -0.0052679281586335645 0 0.00041297503042903315 -0.005195363831830435 0 0.00071660410914627332 -0.0054179891422752964 0 0.00041519220313165423 -0.0056193305074970579 0 0.0010180943341601147 -0.0059339804071170893 0 0.00041519220313165423 -0.0056193305074970579 0 0.00019281892383055013 -0.0052679281586335645 0 -8.6283370854353723e-05 -0.005765231983754805 0 0.00019281892383055013 -0.0052679281586335645 0 0.00041297503042903315 -0.005195363831830435 0 0.00044491461786980656 -0.0051190047011977595 0 0.0004433692434988625 -0.0045586253522819373 0 0.00083874642407752117 -0.0039499971157445938 0 0.00071660410914627332 -0.0054179891422752964 0 0.00041297503042903315 -0.005195363831830435 0 0.0011169583456875592 -0.0048822520227522039 0 0.00041297503042903315 -0.005195363831830435 0 0.00044491461786980656 -0.0051190047011977595 0 0.00054128170939820978 -0.0051514207266563508 0 0.0002352508337882078 0.00056612697012328283 0 0.00083874642407752117 -0.0039499971157445938 0 -0.00027224154497699745 -0.0045861842433849798 0 0.00083874642407752117 -0.0039499971157445938 0 9.7794297882325949e-05 -0.0060143014615637452 0 0.00015094398267608239 -0.0055017851184492074 0 0.00091445434750969321 -0.0057824578788294029 0 0.0027829202319925514 -0.005446647867178041 0 0.0011169583456875592 -0.0048822520227522039 0 0.0010180943341601147 -0.0059339804071170893 0 -0.0011370292683723293 -0.001844964310319916 0 0.0002352508337882078 0.00056612697012328283 0 -0.00050882741167708001 -0.0032638084942589944 0 0.0007623054357713976 -0.0029434298073327246 0 0.00040805579930579689 -0.0028253444040234775 0 -0.00050882741167708001 -0.0032638084942589944 0 -0.00065568935425972745 -0.0031778922874225136 0 0.00040805579930579689 -0.0028253444040234775 0 0.0011192310125814973 -0.0085740751430804472 0 0.00083874642407752117 -0.0039499971157445938 0 0.00071660410914627332 -0.0054179891422752964 0 0.0011169583456875592 -0.0048822520227522039 0 0.0010180943341601147 -0.0059339804071170893 0 0.0011192310125814973 -0.0085740751430804472 0 0.00060005066579920199 -0.0082420831384436236 0 0.0013399308225581555 -0.012224644549287303 0 0.00060005066579920199 -0.0082420831384436236 0 0.00081017460964121412 -0.0099065637211900887 0 0.00067380091308089443 -0.009858158961126285 0 0.0014178020139593531 -0.0093344161169915084 0 -8.7243818328802532e-07 -0.011253908907944305 0 2.1123833915010868e-05 -0.0087599167942033571 0 9.8191473741921001e-07 -0.0080534400413908042 0 3.3615487873000993e-05 -0.011575794263910201 0 -8.7243818328802532e-07 -0.011253908907944305 0 2.1123833915010868e-05 -0.0087599167942033571 0 0.0027829202319925514 -0.005446647867178041 0 0.0010180943341601147 -0.0059339804071170893 0 0.0006404560305078563 -0.0072985883387925833 0 0.0006404560305078563 -0.0072985883387925833 0 0.00033864048826476908 -0.0062294796578410078 0 -5.4022977482041854e-05 -0.0065876375842589523 0 0.0006404560305078563 -0.0072985883387925833 0 2.4574900560545795e-06 -0.0080460764044980159 0 -5.4022977482041854e-05 -0.0065876375842589523 0 0.00060005066579920199 -0.0082420831384436236 0 9.198596014763535e-07 -0.0080510697326480422 0 0.0010180943341601147 -0.0059339804071170893 0 0.0006404560305078563 -0.0072985883387925833 0 0.00033864048826476908 -0.0062294796578410078 0 0.00041519220313165423 -0.0056193305074970579 0 0.0010180943341601147 -0.0059339804071170893 0 0.00033864048826476908 -0.0062294796578410078 0 0.00041519220313165423 -0.0056193305074970579 0 0.00033864048826476908 -0.0062294796578410078 0 -8.6283370854353723e-05 -0.005765231983754805 0 0.00033864048826476908 -0.0062294796578410078 0 -8.6283370854353723e-05 -0.005765231983754805 0 -5.4022977482041854e-05 -0.0065876375842589523 0 2.4574900560545795e-06 -0.0080460764044980159 0 -5.4022977482041854e-05 -0.0065876375842589523 0 -1.556996867407321e-06 -0.0047777226473568381 0 -8.6283370854353723e-05 -0.005765231983754805 0 -5.4022977482041854e-05 -0.0065876375842589523 0 -1.556996867407321e-06 -0.0047777226473568381 0 -8.6283370854353723e-05 -0.005765231983754805 0 -1.556996867407321e-06 -0.0047777226473568381 0 -0.00018078305496790298 -0.0048501948625199196 0 -1.556996867407321e-06 -0.0047777226473568381 0 -0.00018078305496790298 -0.0048501948625199196 0 -0.00013849014291151293 -0.0030417403810621599 0 0.00084139331457911456 0.0084375762299791005 0 0.0008044836677483238 0.0085224556900972675 0 0.00072752916774260581 0.0085443965047159488 0 0.0008044836677483238 0.0085224556900972675 0 0.00075240050902683746 0.0085856837980914976 0 0.00072752916774260581 0.0085443965047159488 0 0.00040937876416899247 0.0019770147088195881 0 0.00016023185571911698 0.0027401888338598793 0 0.00096154834241864249 0.0083274186763282118 0 0.00084139331457911456 0.0084375762299791005 0 0.00086069508721900727 0.0084568279568602734 0 0.00019281892383055013 -0.0052679281586335645 0 -8.6283370854353723e-05 -0.005765231983754805 0 -0.00018078305496790298 -0.0048501948625199196 0 0.0002352508337882078 0.00056612697012328283 0 0.00040937876416899247 0.0019770147088195881 0 0.00084139331457911456 0.0084375762299791005 0 0.00086069508721900727 0.0084568279568602734 0 0.0008044836677483238 0.0085224556900972675 0 0.00011075319078079377 -0.0010233501285740803 0 -0.000308688313633293 -0.00036415237151733097 0 0.00082934042584481853 -0.00097278577933128309 0 0.00096154834241864249 0.0083274186763282118 0 0.00086069508721900727 0.0084568279568602734 0 0.00083624930527472158 0.0085380553432172733 0 0.0002352508337882078 0.00056612697012328283 0 0.00076225518649191803 0.0046658113249170487 0 0.00011075319078079377 -0.0010233501285740803 0 0.00056992906182490289 -0.0011464778426629857 0 0.00082934042584481853 -0.00097278577933128309 0 0.00011075319078079377 -0.0010233501285740803 0 0.00056992906182490289 -0.0011464778426629857 0 0.00039399248328944348 -0.001252216158684582 0 0.00056992906182490289 -0.0011464778426629857 0 0.00039399248328944348 -0.001252216158684582 0 0.00056663186713765514 -0.0012666242767405687 0 0.00056992906182490289 -0.0011464778426629857 0 0.00081630331990338416 -0.0011714001482111239 0 0.00072867927506336161 -0.0012846876621103833 0 0.00056992906182490289 -0.0011464778426629857 0 0.00056663186713765514 -0.0012666242767405687 0 0.00072867927506336161 -0.0012846876621103833 0 0.00056992906182490289 -0.0011464778426629857 0 0.00082934042584481853 -0.00097278577933128309 0 0.00081630331990338416 -0.0011714001482111239 0 0.00086069508721900727 0.0084568279568602734 0 0.00083624930527472158 0.0085380553432172733 0 0.0008044836677483238 0.0085224556900972675 0 0.0011303406568847635 0.0045775187153348123 0 0.00097489551293558402 0.0076131457373742059 0 0.00092652448537122896 -0.0010664312476394047 0 0.00095553318329180909 -0.0011854785177670671 0 0.0012601059730410354 -0.0014708103314185295 0 0.00083624930527472158 0.0085380553432172733 0 0.0008044836677483238 0.0085224556900972675 0 0.00081806405017667669 0.0085637130468423639 0 0.0007634375549187306 0.0086035609973772343 0 0.00081806405017667669 0.0085637130468423639 0 0.0007139118102717346 0.0087007018338236854 0 0.0011303406568847635 0.0045775187153348123 0 0.0013550662809441423 0.0021537326002299766 0 0.0008044836677483238 0.0085224556900972675 0 0.0007634375549187306 0.0086035609973772343 0 0.00075240050902683746 0.0085856837980914976 0 0.0008044836677483238 0.0085224556900972675 0 0.0007634375549187306 0.0086035609973772343 0 0.00081806405017667669 0.0085637130468423639 0 0.00076225518649191803 0.0046658113249170487 0 0.0011303406568847635 0.0045775187153348123 0 0.00082934042584481853 -0.00097278577933128309 0 0.00092652448537122896 -0.0010664312476394047 0 0.00095553318329180909 -0.0011854785177670671 0 0.00082934042584481853 -0.00097278577933128309 0 0.00095553318329180909 -0.0011854785177670671 0 0.00081630331990338416 -0.0011714001482111239 0 0.00095553318329180909 -0.0011854785177670671 0 0.00081630331990338416 -0.0011714001482111239 0 0.00087333890028159502 -0.001304274943121109 0 0.00095553318329180909 -0.0011854785177670671 0 0.0010825603631058737 -0.0013636329560153516 0 0.0012601059730410354 -0.0014708103314185295 0 0.00087333890028159502 -0.001304274943121109 0 0.00079883926009810243 -0.0013991189008351239 0 0.00072867927506336161 -0.0012846876621103833 0 0.00081630331990338416 -0.0011714001482111239 0 0.00087333890028159502 -0.001304274943121109 0 0.00072867927506336161 -0.0012846876621103833 0 0.00095553318329180909 -0.0011854785177670671 0 0.00087333890028159502 -0.001304274943121109 0 0.00097273475282092512 -0.001356439205483329 0 0.00087333890028159502 -0.001304274943121109 0 0.00097273475282092512 -0.001356439205483329 0 0.00090335706939416829 -0.0014459513779507037 0 0.00097273475282092512 -0.001356439205483329 0 0.00090335706939416829 -0.0014459513779507037 0 0.0010210628172583032 -0.0015067372639819274 0 0.00087333890028159502 -0.001304274943121109 0 0.00090335706939416829 -0.0014459513779507037 0 0.00079883926009810243 -0.0013991189008351239 0 0.00090335706939416829 -0.0014459513779507037 0 0.00079883926009810243 -0.0013991189008351239 0 0.00079718768821362572 -0.0015314889754667934 0 0.00095553318329180909 -0.0011854785177670671 0 0.00097273475282092512 -0.001356439205483329 0 0.0010825603631058737 -0.0013636329560153516 0 0.00097273475282092512 -0.001356439205483329 0 0.0010542287026788406 -0.0013999209449938378 0 0.0010210628172583032 -0.0015067372639819274 0 0.00097273475282092512 -0.001356439205483329 0 0.0010825603631058737 -0.0013636329560153516 0 0.0010542287026788406 -0.0013999209449938378 0 0.0010542287026788406 -0.0013999209449938378 0 0.0010990223287843616 -0.0014553974366969613 0 0.0011403264778786803 -0.0014311318458694326 0 0.0010825603631058737 -0.0013636329560153516 0 0.0010542287026788406 -0.0013999209449938378 0 0.0011403264778786803 -0.0014311318458694326 0 0.00097208969704977184 -0.0016772030711890498 0 0.0010210628172583032 -0.0015067372639819274 0 0.0011603985546012755 -0.0014967928824340438 0 0.0010990223287843616 -0.0014553974366969613 0 0.0010210628172583032 -0.0015067372639819274 0 0.0011603985546012755 -0.0014967928824340438 0 0.0010542287026788406 -0.0013999209449938378 0 0.0010990223287843616 -0.0014553974366969613 0 0.0010210628172583032 -0.0015067372639819274 0 0.00090335706939416829 -0.0014459513779507037 0 0.00091532108529558144 -0.0015707106304758964 0 0.00079718768821362572 -0.0015314889754667934 0 0.00090335706939416829 -0.0014459513779507037 0 0.0010210628172583032 -0.0015067372639819274 0 0.00091532108529558144 -0.0015707106304758964 0 0.00097208969704977184 -0.0016772030711890498 0 0.0010210628172583032 -0.0015067372639819274 0 0.00091532108529558144 -0.0015707106304758964 0 0.00097208969704977184 -0.0016772030711890498 0 0.00091532108529558144 -0.0015707106304758964 0 0.0008126716626980329 -0.0016703565547835756 0 0.00091532108529558144 -0.0015707106304758964 0 0.0008126716626980329 -0.0016703565547835756 0 0.00079718768821362572 -0.0015314889754667934 0 0.0008126716626980329 -0.0016703565547835756 0 0.0007463334225122928 -0.0016201818343434963 0 0.00079718768821362572 -0.0015314889754667934 0 0.0007463334225122928 -0.0016201818343434963 0 0.00068107556616068187 -0.0015558045974981764 0 0.00066436649615055153 -0.0016934472179085903 0 0.0008126716626980329 -0.0016703565547835756 0 0.0007463334225122928 -0.0016201818343434963 0 0.00066436649615055153 -0.0016934472179085903 0 0.0007463334225122928 -0.0016201818343434963 0 0.00068107556616068187 -0.0015558045974981764 0 0.00079718768821362572 -0.0015314889754667934 0 0.00068107556616068187 -0.0015558045974981764 0 0.00079718768821362572 -0.0015314889754667934 0 0.0006846019892771737 -0.00143901515087682 0 0.00068107556616068187 -0.0015558045974981764 0 0.00054929354929288382 -0.0015481605194896315 0 0.00066436649615055153 -0.0016934472179085903 0 0.00054929354929288382 -0.0015481605194896315 0 0.00066436649615055153 -0.0016934472179085903 0 0.00050725203340858604 -0.0017003751533313141 0 0.00068107556616068187 -0.0015558045974981764 0 0.00054929354929288382 -0.0015481605194896315 0 0.0006846019892771737 -0.00143901515087682 0 0.00061695783712845933 -0.0018543685751656149 0 0.00066436649615055153 -0.0016934472179085903 0 0.00050725203340858604 -0.0017003751533313141 0 0.0004657621764899805 -0.0018504094331942016 0 0.00050725203340858604 -0.0017003751533313141 0 0.00028942508493604632 -0.0018515741493126067 0 0.00050725203340858604 -0.0017003751533313141 0 0.00028942508493604632 -0.0018515741493126067 0 0.00038411834907806314 -0.0015277645914802435 0 0.00054929354929288382 -0.0015481605194896315 0 0.00050725203340858604 -0.0017003751533313141 0 0.00038411834907806314 -0.0015277645914802435 0 0.00054929354929288382 -0.0015481605194896315 0 0.00038411834907806314 -0.0015277645914802435 0 0.00056310559901492029 -0.001382534323055865 0 1.6646558226582675e-05 -0.0014689660271776663 0 0.00038411834907806314 -0.0015277645914802435 0 0.00039399248328944348 -0.001252216158684582 0 0.00038411834907806314 -0.0015277645914802435 0 0.00039399248328944348 -0.001252216158684582 0 0.00056310559901492029 -0.001382534323055865 0 0.00039399248328944348 -0.001252216158684582 0 0.00056663186713765514 -0.0012666242767405687 0 0.00056310559901492029 -0.001382534323055865 0 0.00056663186713765514 -0.0012666242767405687 0 0.00072867927506336161 -0.0012846876621103833 0 0.00056310559901492029 -0.001382534323055865 0 0.00072867927506336161 -0.0012846876621103833 0 0.0006846019892771737 -0.00143901515087682 0 0.00056310559901492029 -0.001382534323055865 0 0.00079883926009810243 -0.0013991189008351239 0 0.00072867927506336161 -0.0012846876621103833 0 0.0006846019892771737 -0.00143901515087682 0 0.00079883926009810243 -0.0013991189008351239 0 0.00079718768821362572 -0.0015314889754667934 0 0.0006846019892771737 -0.00143901515087682 0 0.00054929354929288382 -0.0015481605194896315 0 0.0006846019892771737 -0.00143901515087682 0 0.00056310559901492029 -0.001382534323055865 0 0.0013363970244829528 0.0060336786049892312 0 0.0013342869186368745 0.0060020451799326861 0 0.0011999518756365896 0.0060804450983291663 0 0.0013550662809441423 0.0021537326002299766 0 0.00078237173271396396 0.001739421665811173 0 0.0013363970244829528 0.0060336786049892312 0 0.0011999518756365896 0.0060804450983291663 0 0.0011813121849849296 0.0061568553261064944 0 0.0010149533186435363 -0.0013439778394639741 0 0.0012601059730410354 -0.0014708103314185295 0 0.00059244677935696302 -0.0013662764059733721 0 0.0010149533186435363 -0.0013439778394639741 0 0.0011790806119435957 -0.001405781609621183 0 0.0012601059730410354 -0.0014708103314185295 0 0.001115536703531412 -0.0013222089600096278 0 0.0010149533186435363 -0.0013439778394639741 0 0.0011790806119435957 -0.001405781609621183 0 0.0011753276382356127 -0.0014358023264360313 0 0.0011790806119435957 -0.001405781609621183 0 0.0011603985546012755 -0.0014967928824340438 0 0.0011790806119435957 -0.001405781609621183 0 0.0012002333113353518 -0.0014518841899465922 0 0.0012601059730410354 -0.0014708103314185295 0 0.0011790806119435957 -0.001405781609621183 0 0.0012002333113353518 -0.0014518841899465922 0 0.0011603985546012755 -0.0014967928824340438 0 0.0012002333113353518 -0.0014518841899465922 0 0.0011603985546012755 -0.0014967928824340438 0 0.0011403264778786803 -0.0014311318458694326 0 0.0010990223287843616 -0.0014553974366969613 0 0.0011603985546012755 -0.0014967928824340438 0 0.0011403264778786803 -0.0014311318458694326 0 0.0010825603631058737 -0.0013636329560153516 0 0.0011403264778786803 -0.0014311318458694326 0 0.0012601059730410354 -0.0014708103314185295 0 0.0012002333113353518 -0.0014518841899465922 0 0.0011403264778786803 -0.0014311318458694326 0 0.0012601059730410354 -0.0014708103314185295 0 0.0014635388901624836 0.0059301421671911448 0 0.0013363970244829528 0.0060336786049892312 0 0.0013342869186368745 0.0060020451799326861 0 0.0007139118102717346 0.0087007018338236854 0 0.00072560044173140717 0.0086459055299106351 0 0.00067154215518231179 0.0087112058336529449 0 0.0007634375549187306 0.0086035609973772343 0 0.0007139118102717346 0.0087007018338236854 0 0.00072560044173140717 0.0086459055299106351 0 0.00075240050902683746 0.0085856837980914976 0 0.00071042972255255365 0.0086306985086039897 0 0.00072560044173140717 0.0086459055299106351 0 0.0007634375549187306 0.0086035609973772343 0 0.00075240050902683746 0.0085856837980914976 0 0.00072560044173140717 0.0086459055299106351 0 0.00071042972255255365 0.0086306985086039897 0 0.00072560044173140717 0.0086459055299106351 0 0.00067154215518231179 0.0087112058336529449 0 0.0007139118102717346 0.0087007018338236854 0 0.00067154215518231179 0.0087112058336529449 0 0.00060815035281079795 0.0088457420406148242 0 0.00067154215518231179 0.0087112058336529449 0 0.00059874087282310758 0.0087725625054404822 0 0.00060815035281079795 0.0088457420406148242 0 0.00071042972255255365 0.0086306985086039897 0 0.00067154215518231179 0.0087112058336529449 0 0.00066541171919440019 0.0086647465768766481 0 0.00097489551293558402 0.0076131457373742059 0 0.00092552497035567629 0.007467021874446862 0 0.00067154215518231179 0.0087112058336529449 0 0.00066541171919440019 0.0086647465768766481 0 0.00059874087282310758 0.0087725625054404822 0 0.00016023185571911698 0.0027401888338598793 0 0.00019398727337026879 0.0040751897556114006 0 0.00066541171919440019 0.0086647465768766481 0 0.00072752916774260581 0.0085443965047159488 0 0.00061974879602927206 0.0086386136721133839 0 0.00066541171919440019 0.0086647465768766481 0 0.00061974879602927206 0.0086386136721133839 0 0.00059874087282310758 0.0087725625054404822 0 0.00075240050902683746 0.0085856837980914976 0 0.00071042972255255365 0.0086306985086039897 0 0.00072752916774260581 0.0085443965047159488 0 0.00071042972255255365 0.0086306985086039897 0 0.00066541171919440019 0.0086647465768766481 0 0.00072752916774260581 0.0085443965047159488 0 -1.556996867407321e-06 -0.0047777226473568381 0 -0.00013849014291151293 -0.0030417403810621599 0 1.1315118651223369e-07 -0.0015053604415398228 0 -0.00013849014291151293 -0.0030417403810621599 0 1.1315118651223369e-07 -0.0015053604415398228 0 1.6764205212625251e-05 -0.00046572183307794994 0 1.6764205212625251e-05 -0.00046572183307794994 0 3.6943938492322459e-05 0.0024125896644405869 0 3.6771837596447856e-08 0.0017670533723801673 0 0.00019398727337026879 0.0040751897556114006 0 0.00014324192038189188 0.0055366164588759427 0 1.1315118651223369e-07 -0.0015053604415398228 0 1.6764205212625251e-05 -0.00046572183307794994 0 3.6771837596447856e-08 0.0017670533723801673 0 3.6943938492322459e-05 0.0024125896644405869 0 3.6771837596447856e-08 0.0017670533723801673 0 1.3771237259125958e-07 0.0050396953330584891 0 0.00050397793656838227 0.0087065516023224748 0 0.00052288535788265966 0.0088075239539086182 0 0.00038532846814934112 0.0089316142221427166 0 0.00061974879602927206 0.0086386136721133839 0 0.00052288535788265966 0.0088075239539086182 0 0.00059874087282310758 0.0087725625054404822 0 0.00061974879602927206 0.0086386136721133839 0 0.00050397793656838227 0.0087065516023224748 0 0.00052288535788265966 0.0088075239539086182 0 1.9280186518586276e-05 0.0053581856137693059 0 1.3771237259125958e-07 0.0050396953330584891 0 1.0836611739120982e-07 0.0083123258878544017 0 0.00050397793656838227 0.0087065516023224748 0 0.00039828737566686002 0.0087211375094775143 0 0.00038532846814934112 0.0089316142221427166 0 0.00014324192038189188 0.0055366164588759427 0 2.5843191337867164e-05 0.0069882947727074301 0 3.6943938492322459e-05 0.0024125896644405869 0 1.9280186518586276e-05 0.0053581856137693059 0 1.3771237259125958e-07 0.0050396953330584891 0 0.00038532846814934112 0.0089316142221427166 0 0.00018327228238463952 0.0090837989118637223 0 0.00013039391614647376 0.0090403080913209182 0 0.00039828737566686002 0.0087211375094775143 0 0.00038532846814934112 0.0089316142221427166 0 0.00013039391614647376 0.0090403080913209182 0 0.00038532846814934112 0.0089316142221427166 0 0.00033308906527198818 0.0091111803126288013 0 0.00018327228238463952 0.0090837989118637223 0 0.00038532846814934112 0.0089316142221427166 0 0.00033308906527198818 0.0091111803126288013 0 0.00048036695338003315 0.0089880896043359089 0 0.00099986426864216585 0.0062347010184095305 0 0.0010877814210619814 0.0061627419399854222 0 0.0010580457408721714 0.0062629563016476696 0 0.0013383551255519292 0.011069869683037076 0 0.00069879794764964736 0.0072575865312764195 0 0.0012775120713408132 0.014483506945159815 0 0.0012961313680723916 0.014499859706145037 0 0.0013420604527931031 0.014378440579697557 0 0.0013383551255519292 0.011069869683037076 0 0.00096949891022165386 0.011445089230590701 0 0.00059874087282310758 0.0087725625054404822 0 0.00048036695338003315 0.0089880896043359089 0 0.00060815035281079795 0.0088457420406148242 0 0.00052288535788265966 0.0088075239539086182 0 0.00038532846814934112 0.0089316142221427166 0 0.00048036695338003315 0.0089880896043359089 0 0.00052288535788265966 0.0088075239539086182 0 0.00059874087282310758 0.0087725625054404822 0 0.00048036695338003315 0.0089880896043359089 0 0.00069879794764964736 0.0072575865312764195 0 0.00092552497035567629 0.007467021874446862 0 0.0010877814210619814 0.0061627419399854222 0 0.0011813121849849296 0.0061568553261064944 0 0.0010580457408721714 0.0062629563016476696 0 0.0010877814210619814 0.0061627419399854222 0 0.0011999518756365896 0.0060804450983291663 0 0.0011813121849849296 0.0061568553261064944 0 0.00090590620466623594 -0.001172529606077491 0 0.00059244677935696302 -0.0013662764059733721 0 0.00058358037008097877 -0.00070932822196609281 0 0.00059244677935696302 -0.0013662764059733721 0 0.00058358037008097877 -0.00070932822196609281 0 -7.445796445205531e-05 -0.00050993524196109546 0 0.00058358037008097877 -0.00070932822196609281 0 0.0001392650836329802 -7.8941065026260813e-05 0 -7.445796445205531e-05 -0.00050993524196109546 0 0.00058358037008097877 -0.00070932822196609281 0 0.00080436414015965028 9.1984561446176096e-05 0 0.0001392650836329802 -7.8941065026260813e-05 0 0.0013794759445933786 -9.6252088182976681e-05 0 0.00058358037008097877 -0.00070932822196609281 0 0.00080436414015965028 9.1984561446176096e-05 0 0.0014208663491279885 0.00045548795841795716 0 0.00080436414015965028 9.1984561446176096e-05 0 0.00094541750701270129 0.00064349820974589529 0 0.00080436414015965028 9.1984561446176096e-05 0 0.0003866751116603877 0.00041897707752561333 0 0.00094541750701270129 0.00064349820974589529 0 0.0001392650836329802 -7.8941065026260813e-05 0 0.0003866751116603877 0.00041897707752561333 0 -0.00042525653432540266 0.00026416045682308429 0 0.00080436414015965028 9.1984561446176096e-05 0 0.0001392650836329802 -7.8941065026260813e-05 0 0.0003866751116603877 0.00041897707752561333 0 0.0003866751116603877 0.00041897707752561333 0 -0.00042525653432540266 0.00026416045682308429 0 0.00061592670157638416 0.0013285084969043115 0 0.00022562631152138999 0.0093398771027349854 0 0.00082065480343171979 0.0076663385225118497 0 0.00098205956544153775 0.014302937512210914 0 0.00096058906026560715 0.014446256854917247 0 0.00096576223609589522 0.014413420786768971 0 0.0003866751116603877 0.00041897707752561333 0 0.00094541750701270129 0.00064349820974589529 0 0.00061592670157638416 0.0013285084969043115 0 0.0011086751265321387 0.01449933407546675 0 0.0010671549388295688 0.014521273240418008 0 0.0010455916274610952 0.014457364180846293 0 0.0011086751265321387 0.01449933407546675 0 0.0010671549388295688 0.014521273240418008 0 0.0011610267278526743 0.014523242791252004 0 0.00022562631152138999 0.0093398771027349854 0 0.0020592172009474669 0.014936401323686026 0 0.0010671549388295688 0.014521273240418008 0 0.00096576223609589522 0.014413420786768971 0 0.0010455916274610952 0.014457364180846293 0 0.0001392650836329802 -7.8941065026260813e-05 0 -0.00042525653432540266 0.00026416045682308429 0 -7.445796445205531e-05 -0.00050993524196109546 0 0.0010671549388295688 0.014521273240418008 0 0.001169814972675488 0.014545186303815688 0 0.0011610267278526743 0.014523242791252004 0 0.00022562631152138999 0.0093398771027349854 0 0.00085264586152203033 0.0076051848507535267 0 0.00078237173271396396 0.001739421665811173 0 0.00085264586152203033 0.0076051848507535267 0 -0.00042525653432540266 0.00026416045682308429 0 -7.445796445205531e-05 -0.00050993524196109546 0 -0.0012772582300791993 -0.0005935670557697942 0 0.00059244677935696302 -0.0013662764059733721 0 -7.445796445205531e-05 -0.00050993524196109546 0 -0.0012772582300791993 -0.0005935670557697942 0 0.0012775120713408132 0.014483506945159815 0 0.0012353792760758195 0.014522888411343011 0 0.0012422166200143749 0.014493915933826623 0 0.0013383551255519292 0.011069869683037076 0 0.00085264586152203033 0.0076051848507535267 0 4.6508553104019504e-05 0.011718384503588686 0 0.00085264586152203033 0.0076051848507535267 0 0.0012353792760758195 0.014522888411343011 0 0.001169814972675488 0.014545186303815688 0 0.0011610267278526743 0.014523242791252004 0 0.0012353792760758195 0.014522888411343011 0 0.0012961313680723916 0.014499859706145037 0 0.0012534190899061457 0.01454825525305135 0 0.0012775120713408132 0.014483506945159815 0 0.0012353792760758195 0.014522888411343011 0 0.0012961313680723916 0.014499859706145037 0 0.0012961313680723916 0.014499859706145037 0 0.0012534190899061457 0.01454825525305135 0 0.0012336950796405569 0.01462270431603575 0 0.0012534190899061457 0.01454825525305135 0 0.0012284145486560656 0.014581747011291191 0 0.0012336950796405569 0.01462270431603575 0 0.0012534190899061457 0.01454825525305135 0 0.0012284145486560656 0.014581747011291191 0 0.0012130488934236129 0.014541662114178528 0 0.0012353792760758195 0.014522888411343011 0 0.0012534190899061457 0.01454825525305135 0 0.0012130488934236129 0.014541662114178528 0 0.0012284145486560656 0.014581747011291191 0 0.0012222695113678083 0.01464193853925151 0 0.0012336950796405569 0.01462270431603575 0 0.0012353792760758195 0.014522888411343011 0 0.0011610267278526743 0.014523242791252004 0 0.0012130488934236129 0.014541662114178528 0 0.0012284145486560656 0.014581747011291191 0 0.0012130488934236129 0.014541662114178528 0 0.0011679287142047732 0.014527833318105208 0 0.0011610267278526743 0.014523242791252004 0 0.0012130488934236129 0.014541662114178528 0 0.0011679287142047732 0.014527833318105208 0 0.0011086751265321387 0.01449933407546675 0 0.0011610267278526743 0.014523242791252004 0 0.0011679287142047732 0.014527833318105208 0 0.0011679287142047732 0.014527833318105208 0 0.0010986700025284954 0.014463024612254493 0 0.0011723840027734532 0.014540052732938267 0 0.0011679287142047732 0.014527833318105208 0 0.0010986700025284954 0.014463024612254493 0 0.0010879212729161876 0.014473519396484584 0 0.0011086751265321387 0.01449933407546675 0 0.0011679287142047732 0.014527833318105208 0 0.0010879212729161876 0.014473519396484584 0 0.0012284145486560656 0.014581747011291191 0 0.0012081696152647012 0.014587830366057408 0 0.0012222695113678083 0.01464193853925151 0 0.0012284145486560656 0.014581747011291191 0 0.0011679287142047732 0.014527833318105208 0 0.0012081696152647012 0.014587830366057408 0 0.0011679287142047732 0.014527833318105208 0 0.0012081696152647012 0.014587830366057408 0 0.0011723840027734532 0.014540052732938267 0 0.0012081696152647012 0.014587830366057408 0 0.0012365153038189068 0.014626720511865483 0 0.0012222695113678083 0.01464193853925151 0 0.0012081696152647012 0.014587830366057408 0 0.0011723840027734532 0.014540052732938267 0 0.0012365153038189068 0.014626720511865483 0 -0.00093582069669536727 0.014018632657284558 0 0.00049601462531446918 0.015436149879724116 0 0.0011723840027734532 0.014540052732938267 0 0.0011208690182606283 0.014456325903265685 0 0.0012363786142496338 0.014496333496195267 0 0.0011723840027734532 0.014540052732938267 0 0.0012365153038189068 0.014626720511865483 0 0.0012363786142496338 0.014496333496195267 0 0.0010986700025284954 0.014463024612254493 0 0.0011723840027734532 0.014540052732938267 0 0.0011208690182606283 0.014456325903265685 0 0.0010986700025284954 0.014463024612254493 0 0.0011208690182606283 0.014456325903265685 0 0.0010007241327889599 0.014364825509585606 0 -0.00093582069669536727 0.014018632657284558 0 -0.0014395915232407704 0.014680627021575082 0 -0.0028023561029031814 0.013943042755130534 0 -0.0033069010932496243 0.013902028147951257 0 -0.003123717235726194 0.01376102506805851 0 0.0010986700025284954 0.014463024612254493 0 0.0010007241327889599 0.014364825509585606 0 0.001009221995282988 0.014421525951183567 0 -0.0034824677970931427 0.013701827774986821 0 -0.0035222875074274302 0.013846132589646456 0 -0.0033069010932496243 0.013902028147951257 0 -0.00031225125234831183 0.0091618447637651281 0 -0.0014395915232407704 0.014680627021575082 0 0.00082955235538259304 0.014313678708786961 0 0.0010007241327889599 0.014364825509585606 0 0.001009221995282988 0.014421525951183567 0 0.00082955235538259304 0.014313678708786961 0 0.001009221995282988 0.014421525951183567 0 0.00096058906026560715 0.014446256854917247 0 0.0013704362124965649 0.0010986331928955159 0 0.00094541750701270129 0.00064349820974589529 0 0.00061592670157638416 0.0013285084969043115 0 0.001009221995282988 0.014421525951183567 0 0.00096058906026560715 0.014446256854917247 0 0.00096576223609589522 0.014413420786768971 0 0.001009221995282988 0.014421525951183567 0 0.0010455916274610952 0.014457364180846293 0 0.0010879212729161876 0.014473519396484584 0 0.001009221995282988 0.014421525951183567 0 0.00096576223609589522 0.014413420786768971 0 0.0010455916274610952 0.014457364180846293 0 0.0010986700025284954 0.014463024612254493 0 0.001009221995282988 0.014421525951183567 0 0.0010879212729161876 0.014473519396484584 0 0.0011086751265321387 0.01449933407546675 0 0.0010455916274610952 0.014457364180846293 0 0.0010879212729161876 0.014473519396484584 0 0.00091694964533466647 0.014980674324276957 0 0.0010635935030163042 0.01490495586640875 0 0.00096481987383519822 0.014906706965369722 0 0.0010844848378843139 0.015447531129808269 0 0.00090392274489097056 0.015564402288908758 0 0.0013316520071680494 0.015591567247397228 0 0.0015712037497873749 0.015939925823424201 0 0.0016464991491536743 0.015326646684205273 0 0.00091780243725057733 0.015183370169128099 0 0.0016464991491536743 0.015326646684205273 0 0.00091694964533466647 0.014980674324276957 0 0.00096481987383519822 0.014906706965369722 0 0.00087395575120355806 0.015054341633222813 0 0.00091694964533466647 0.014980674324276957 0 0.00082580122110911087 0.01531720161324979 0 0.00087395575120355806 0.015054341633222813 0 0.0010844848378843139 0.015447531129808269 0 0.00090392274489097056 0.015564402288908758 0 0.00082580122110911087 0.01531720161324979 0 0.00090392274489097056 0.015564402288908758 0 0.00082580122110911087 0.01531720161324979 0 0.0007848057557761736 0.015420280920046015 0 0.00091780243725057733 0.015183370169128099 0 0.00086447535598306092 0.015268000471560038 0 0.002106443042104248 0.016139733785671181 0 0.0021516282313646679 0.01659260730156176 0 0.001739785402094365 0.01678490771370807 0 0.002106443042104248 0.016139733785671181 0 0.0021516282313646679 0.01659260730156176 0 0.0025061231225560802 0.016601394902831565 0 0.002106443042104248 0.016139733785671181 0 0.0025061231225560802 0.016601394902831565 0 0.0026880187428877855 0.016282450737962716 0 0.0025061231225560802 0.016601394902831565 0 0.0027367184113792171 0.016532319881994478 0 0.0026880187428877855 0.016282450737962716 0 0.0025061231225560802 0.016601394902831565 0 0.0027367184113792171 0.016532319881994478 0 0.0027919350857703975 0.016740030020705905 0 0.0027367184113792171 0.016532319881994478 0 0.0029333949232401429 0.016496457239123928 0 0.0027919350857703975 0.016740030020705905 0 0.0024317298628025921 0.015701447704146356 0 0.0016464991491536743 0.015326646684205273 0 0.0027367184113792171 0.016532319881994478 0 0.0029333949232401429 0.016496457239123928 0 0.0026880187428877855 0.016282450737962716 0 0.0029333949232401429 0.016496457239123928 0 0.0031316813504528246 0.016619713165564633 0 0.0027919350857703975 0.016740030020705905 0 0.0010678174871930563 0.014501501612963198 0 0.0016464991491536743 0.015326646684205273 0 0.0013866727524978893 0.014572273094228537 0 0.0012365153038189068 0.014626720511865483 0 0.0015422395342825654 0.014676071385352879 0 0.0013866727524978893 0.014572273094228537 0 0.0012365153038189068 0.014626720511865483 0 0.0012363786142496338 0.014496333496195267 0 0.0024317298628025921 0.015701447704146356 0 0.00049601462531446918 0.015436149879724116 0 0.0012365153038189068 0.014626720511865483 0 0.0011755924963607893 0.014723998906153574 0 0.0010635935030163042 0.01490495586640875 0 0.0012365153038189068 0.014626720511865483 0 0.0011755924963607893 0.014723998906153574 0 0.0012222695113678083 0.01464193853925151 0 0.0010635935030163042 0.01490495586640875 0 0.0011051859803841524 0.014782187084261404 0 0.00096481987383519822 0.014906706965369722 0 0.0011755924963607893 0.014723998906153574 0 0.0010635935030163042 0.01490495586640875 0 0.0011051859803841524 0.014782187084261404 0 0.0011051859803841524 0.014782187084261404 0 0.0012336950796405569 0.01462270431603575 0 0.0011765061288607048 0.014592741262051182 0 0.0011051859803841524 0.014782187084261404 0 0.0011765061288607048 0.014592741262051182 0 0.00096731530522423852 0.014788401191898407 0 0.0011755924963607893 0.014723998906153574 0 0.0011051859803841524 0.014782187084261404 0 0.0012336950796405569 0.01462270431603575 0 0.0011755924963607893 0.014723998906153574 0 0.0012222695113678083 0.01464193853925151 0 0.0012336950796405569 0.01462270431603575 0 0.0012961313680723916 0.014499859706145037 0 0.0012336950796405569 0.01462270431603575 0 0.0011765061288607048 0.014592741262051182 0 0.0012961313680723916 0.014499859706145037 0 0.0011765061288607048 0.014592741262051182 0 0.0013420604527931031 0.014378440579697557 0 0.0011765061288607048 0.014592741262051182 0 0.00088744651574728588 0.014553005683742419 0 0.0010461523163504917 0.014301179345468587 0 0.0011765061288607048 0.014592741262051182 0 0.0013420604527931031 0.014378440579697557 0 0.0010461523163504917 0.014301179345468587 0 0.0011765061288607048 0.014592741262051182 0 0.00088744651574728588 0.014553005683742419 0 0.00096731530522423852 0.014788401191898407 0 0.00088744651574728588 0.014553005683742419 0 0.00075720837908647845 0.014782282372191152 0 0.00059162625487773344 0.014417374880580707 0 0.00088744651574728588 0.014553005683742419 0 0.00096731530522423852 0.014788401191898407 0 0.00075720837908647845 0.014782282372191152 0 0.00096731530522423852 0.014788401191898407 0 0.00087147560411955259 0.014948760669419385 0 0.00075720837908647845 0.014782282372191152 0 0.00096731530522423852 0.014788401191898407 0 0.00087147560411955259 0.014948760669419385 0 0.00096481987383519822 0.014906706965369722 0 0.00087147560411955259 0.014948760669419385 0 0.00096481987383519822 0.014906706965369722 0 0.00087395575120355806 0.015054341633222813 0 0.0011051859803841524 0.014782187084261404 0 0.00096731530522423852 0.014788401191898407 0 0.00096481987383519822 0.014906706965369722 0 0.00074889615308929578 0.015189737085889684 0 0.00082580122110911087 0.01531720161324979 0 0.00079320817621497013 0.01505578793904618 0 0.00074889615308929578 0.015189737085889684 0 0.00082580122110911087 0.01531720161324979 0 0.0007848057557761736 0.015420280920046015 0 0.00082580122110911087 0.01531720161324979 0 0.00087395575120355806 0.015054341633222813 0 0.00079320817621497013 0.01505578793904618 0 0.00087147560411955259 0.014948760669419385 0 0.00087395575120355806 0.015054341633222813 0 0.00079320817621497013 0.01505578793904618 0 0.00079320817621497013 0.01505578793904618 0 0.00057938106634468616 0.01487936720059794 0 0.00075720837908647845 0.014782282372191152 0 0.00087147560411955259 0.014948760669419385 0 0.00079320817621497013 0.01505578793904618 0 0.00075720837908647845 0.014782282372191152 0 0.00074889615308929578 0.015189737085889684 0 0.00079320817621497013 0.01505578793904618 0 0.00057938106634468616 0.01487936720059794 0 0.00074889615308929578 0.015189737085889684 0 0.00057938106634468616 0.01487936720059794 0 0.0007848057557761736 0.015420280920046015 0 0.00057938106634468616 0.01487936720059794 0 0.00028508872123961287 0.014734662771453919 0 0.0001385524765294858 0.014431131860602919 0 0.00057938106634468616 0.01487936720059794 0 0.00075720837908647845 0.014782282372191152 0 0.00050245140760476299 0.014574678821820496 0 0.00075720837908647845 0.014782282372191152 0 0.00059162625487773344 0.014417374880580707 0 0.00050245140760476299 0.014574678821820496 0 0.00059162625487773344 0.014417374880580707 0 0.00050245140760476299 0.014574678821820496 0 0.00036865705271813866 0.014326648461883766 0 0.00057938106634468616 0.01487936720059794 0 0.00050245140760476299 0.014574678821820496 0 0.0001385524765294858 0.014431131860602919 0 0.00050245140760476299 0.014574678821820496 0 0.00036865705271813866 0.014326648461883766 0 0.0001385524765294858 0.014431131860602919 0 0.0002827779737810417 0.013949192385887255 0 -3.9693473709532437e-05 0.013396693200744143 0 0.0001385524765294858 0.014431131860602919 0 0.00036865705271813866 0.014326648461883766 0 0.0002827779737810417 0.013949192385887255 0 0.0001385524765294858 0.014431131860602919 0 0.0002827779737810417 0.013949192385887255 0 0.000688028588482888 0.014158644130379712 0 0.0004193886158774193 0.013695885847737668 0 0.00059162625487773344 0.014417374880580707 0 0.00036865705271813866 0.014326648461883766 0 0.0002827779737810417 0.013949192385887255 0 0.00059162625487773344 0.014417374880580707 0 0.0002827779737810417 0.013949192385887255 0 0.000688028588482888 0.014158644130379712 0 0.00088744651574728588 0.014553005683742419 0 0.00059162625487773344 0.014417374880580707 0 0.000688028588482888 0.014158644130379712 0 0.00088744651574728588 0.014553005683742419 0 0.000688028588482888 0.014158644130379712 0 0.0010461523163504917 0.014301179345468587 0 0.000688028588482888 0.014158644130379712 0 0.00082861925063562711 0.013916176354950096 0 0.0010461523163504917 0.014301179345468587 0 0.000688028588482888 0.014158644130379712 0 0.00082861925063562711 0.013916176354950096 0 0.0004193886158774193 0.013695885847737668 0 0.00082861925063562711 0.013916176354950096 0 0.0004193886158774193 0.013695885847737668 0 0.00069605989899619732 0.013431707093080086 0 0.0004193886158774193 0.013695885847737668 0 0.00069605989899619732 0.013431707093080086 0 0.00010358954120386985 0.013218671308790014 0 0.0002827779737810417 0.013949192385887255 0 0.0004193886158774193 0.013695885847737668 0 -3.9693473709532437e-05 0.013396693200744143 0 0.0004193886158774193 0.013695885847737668 0 0.00010358954120386985 0.013218671308790014 0 -3.9693473709532437e-05 0.013396693200744143 0 0.0022227742740125638 0.014214046423930456 0 0.0013420604527931031 0.014378440579697557 0 0.0016844121010260685 0.013664677014414347 0 0.0013420604527931031 0.014378440579697557 0 0.0011748023618924986 0.013819599516130706 0 0.0016844121010260685 0.013664677014414347 0 0.0013383551255519292 0.011069869683037076 0 0.0014157332589058236 0.015020442431464956 0 0.0013420604527931031 0.014378440579697557 0 0.0010461523163504917 0.014301179345468587 0 0.0011748023618924986 0.013819599516130706 0 0.00082861925063562711 0.013916176354950096 0 0.0010461523163504917 0.014301179345468587 0 0.0011748023618924986 0.013819599516130706 0 0.00069605989899619732 0.013431707093080086 0 0.0011748023618924986 0.013819599516130706 0 0.0013573679810920678 0.013020723283707868 0 0.0011748023618924986 0.013819599516130706 0 0.0016844121010260685 0.013664677014414347 0 0.0013573679810920678 0.013020723283707868 0 0.00082861925063562711 0.013916176354950096 0 0.00069605989899619732 0.013431707093080086 0 0.0011748023618924986 0.013819599516130706 0 0.00096949891022165386 0.011445089230590701 0 0.00060460258364826447 0.011084847076337957 0 0.00018327228238463952 0.0090837989118637223 0 0.00013039391614647376 0.0090403080913209182 0 5.7602961141553494e-05 0.009152945804806847 0 0.00013039391614647376 0.0090403080913209182 0 5.7602961141553494e-05 0.009152945804806847 0 -4.7304244544618171e-05 0.0097813341283701626 0 0.00060460258364826447 0.011084847076337957 0 0.0002057045045201182 0.011151858046970678 0 -4.7304244544618171e-05 0.0097813341283701626 0 1.5507206639266738e-07 0.0083174685546112629 0 5.2490803244029563e-07 0.010984896197190694 0 5.7602961141553494e-05 0.009152945804806847 0 -4.7304244544618171e-05 0.0097813341283701626 0 0.00018556875223536956 0.011308469500361113 0 2.5843191337867164e-05 0.0069882947727074301 0 -4.2545734923821898e-07 0.0083123672843477825 0 0.00039828737566686002 0.0087211375094775143 0 0.00013039391614647376 0.0090403080913209182 0 1.5507206639266738e-07 0.0083174685546112629 0 0.00013039391614647376 0.0090403080913209182 0 -4.7304244544618171e-05 0.0097813341283701626 0 1.5507206639266738e-07 0.0083174685546112629 0 -3.1847740615932157e-05 0.013191317461491081 0 0.00010358954120386985 0.013218671308790014 0 -3.9693473709532437e-05 0.013396693200744143 0 -3.1847740615932157e-05 0.013191317461491081 0 6.6605844418591694e-05 0.013633959695683968 0 -3.9693473709532437e-05 0.013396693200744143 0 -3.1847740615932157e-05 0.013191317461491081 0 0.00010358954120386985 0.013218671308790014 0 0.0001794188201593854 0.012661428871355797 0 0.00069605989899619732 0.013431707093080086 0 0.00010358954120386985 0.013218671308790014 0 0.0001794188201593854 0.012661428871355797 0 0.0013573679810920678 0.013020723283707868 0 0.0001794188201593854 0.012661428871355797 0 0.00018556875223536956 0.011308469500361113 0 0.00069605989899619732 0.013431707093080086 0 0.0013573679810920678 0.013020723283707868 0 0.0001794188201593854 0.012661428871355797 0 0.0001794188201593854 0.012661428871355797 0 0.00018556875223536956 0.011308469500361113 0 -4.6629924704234696e-05 0.01252114696256283 0 -4.7304244544618171e-05 0.0097813341283701626 0 0.00018556875223536956 0.011308469500361113 0 5.2490803244029563e-07 0.010984896197190694 0 0.00018556875223536956 0.011308469500361113 0 5.2490803244029563e-07 0.010984896197190694 0 -4.6629924704234696e-05 0.01252114696256283 0 5.2490803244029563e-07 0.010984896197190694 0 -4.6629924704234696e-05 0.01252114696256283 0 -5.9567551175152021e-07 0.013659978099779892 0 -3.1847740615932157e-05 0.013191317461491081 0 0.0001794188201593854 0.012661428871355797 0 -4.6629924704234696e-05 0.01252114696256283 0 -3.1847740615932157e-05 0.013191317461491081 0 -4.6629924704234696e-05 0.01252114696256283 0 6.6605844418591694e-05 0.013633959695683968 0 -4.6629924704234696e-05 0.01252114696256283 0 6.6605844418591694e-05 0.013633959695683968 0 -5.9567551175152021e-07 0.013659978099779892 0 -5.9567551175152021e-07 0.013659978099779892 0 -0.00019706044289052532 0.014562510784762953 0 5.7972925412305638e-07 0.016327017159824649 0 6.6605844418591694e-05 0.013633959695683968 0 -5.9567551175152021e-07 0.013659978099779892 0 -0.00019706044289052532 0.014562510784762953 0 6.6605844418591694e-05 0.013633959695683968 0 -0.00019706044289052532 0.014562510784762953 0 2.8191996436974695e-06 0.014848102330787779 0 6.6605844418591694e-05 0.013633959695683968 0 2.8191996436974695e-06 0.014848102330787779 0 0.00091371657218036176 0.015823507725394228 0 0.0001422308006391349 0.013745141288663311 0 0.00040683839517174545 0.014641573730033971 0 -0.00019706044289052532 0.014562510784762953 0 2.8191996436974695e-06 0.014848102330787779 0 -0.00035301784725786517 0.014625573869986431 0 2.8191996436974695e-06 0.014848102330787779 0 -0.00035301784725786517 0.014625573869986431 0 -1.6768746226619721e-05 0.016061172964674051 0 0.00064498580417992951 0.019609345561320293 0 0.00011291554713364573 0.020129570361055921 0 -0.00017116736139610324 0.020236575507736658 0 -0.00019706044289052532 0.014562510784762953 0 -0.00035301784725786517 0.014625573869986431 0 5.7972925412305638e-07 0.016327017159824649 0 0.00064498580417992951 0.019609345561320293 0 2.7842078261920094e-06 0.01633682118588568 0 -0.00020331458582772017 0.019423134273843415 0 3.8470759308352653e-05 0.017179400368372851 0 9.4124133450761522e-08 0.016332028482214156 0 2.7842078261920094e-06 0.01633682118588568 0 -0.00020331458582772017 0.019423134273843415 0 -1.7153203758744984e-06 0.019580765683150692 0 -0.00020331458582772017 0.019423134273843415 0 -1.7153203758744984e-06 0.019580765683150692 0 -0.00032528875799657617 0.020572632973440596 0 -0.00020331458582772017 0.019423134273843415 0 -0.00032528875799657617 0.020572632973440596 0 -0.00022323211160843128 0.020321552984311354 0 -0.00032528875799657617 0.020572632973440596 0 -0.00022323211160843128 0.020321552984311354 0 -0.00034744644076593678 0.020827312348641894 0 0.00064498580417992951 0.019609345561320293 0 -0.00020331458582772017 0.019423134273843415 0 0.00011291554713364573 0.020129570361055921 0 -0.00020331458582772017 0.019423134273843415 0 -0.00022323211160843128 0.020321552984311354 0 0.00011291554713364573 0.020129570361055921 0 0.00011291554713364573 0.020129570361055921 0 0.00020485143023556422 0.020350517522129057 0 -0.00017116736139610324 0.020236575507736658 0 -0.00022323211160843128 0.020321552984311354 0 0.00011291554713364573 0.020129570361055921 0 0.00020485143023556422 0.020350517522129057 0 0.00020485143023556422 0.020350517522129057 0 0.00014606245906840728 0.019311894041739497 0 -0.00017116736139610324 0.020236575507736658 0 0.00020485143023556422 0.020350517522129057 0 -0.00026215744299792144 0.020762972260363458 0 -0.00012815816986648764 0.02089993760631001 0 -0.00022323211160843128 0.020321552984311354 0 0.00020485143023556422 0.020350517522129057 0 -0.00026215744299792144 0.020762972260363458 0 -0.00022323211160843128 0.020321552984311354 0 -0.00026215744299792144 0.020762972260363458 0 -0.00034744644076593678 0.020827312348641894 0 0.0007016893948662234 0.021808489555708601 0 0.0012889344725066699 0.019803125803348507 0 -0.00012815816986648764 0.02089993760631001 0 -0.00025721612714977882 0.021051655594757211 0 8.8953523285232583e-05 0.021181646409722955 0 -0.00026215744299792144 0.020762972260363458 0 -0.00012815816986648764 0.02089993760631001 0 -0.00023328155121691218 0.020946748168838736 0 -0.00012815816986648764 0.02089993760631001 0 -0.00023328155121691218 0.020946748168838736 0 -0.00025721612714977882 0.021051655594757211 0 0.00020485143023556422 0.020350517522129057 0 -0.00012815816986648764 0.02089993760631001 0 8.8953523285232583e-05 0.021181646409722955 0 0.00020485143023556422 0.020350517522129057 0 0.00014606245906840728 0.019311894041739497 0 0.00092733458603691163 0.018557263398989637 0 9.3894691706597036e-05 0.020394187026821629 0 0.0012889344725066699 0.019803125803348507 0 0.00014606245906840728 0.019311894041739497 0 -0.00068361749670891572 0.018412776419922755 0 0.00092733458603691163 0.018557263398989637 0 0.00014606245906840728 0.019311894041739497 0 -0.00017116736139610324 0.020236575507736658 0 -0.00068361749670891572 0.018412776419922755 0 -0.00036697796215891639 0.017596425604403738 0 -0.00087468219651498018 0.016232716669042056 0 -0.00068361749670891572 0.018412776419922755 0 -0.00045527810733710122 0.018148244647147236 0 -0.00065051028613978795 0.018363913435688026 0 -0.00014951220677875837 0.017113349062414511 0 -0.00036697796215891639 0.017596425604403738 0 -0.00087468219651498018 0.016232716669042056 0 -0.00014951220677875837 0.017113349062414511 0 -0.00036697796215891639 0.017596425604403738 0 4.977057573835372e-05 0.017827949996087122 0 -0.00036697796215891639 0.017596425604403738 0 -0.00032708656284851951 0.018142377117919068 0 -0.00068361749670891572 0.018412776419922755 0 -0.00036697796215891639 0.017596425604403738 0 4.977057573835372e-05 0.017827949996087122 0 -0.00032708656284851951 0.018142377117919068 0 0.0003564572352852717 0.016989500968384162 0 0.00091371657218036176 0.015823507725394228 0 0.00094007781587103479 0.018081121180153207 0 4.977057573835372e-05 0.017827949996087122 0 0.0003564572352852717 0.016989500968384162 0 0.00094007781587103479 0.018081121180153207 0 0.00040683839517174545 0.014641573730033971 0 0.00052519477232424144 0.016231033805002331 0 -0.00014951220677875837 0.017113349062414511 0 0.0003564572352852717 0.016989500968384162 0 -1.6768746226619721e-05 0.016061172964674051 0 -0.00014951220677875837 0.017113349062414511 0 4.977057573835372e-05 0.017827949996087122 0 0.0003564572352852717 0.016989500968384162 0 2.8191996436974695e-06 0.014848102330787779 0 -1.6768746226619721e-05 0.016061172964674051 0 0.00091371657218036176 0.015823507725394228 0 0.0003564572352852717 0.016989500968384162 0 -1.6768746226619721e-05 0.016061172964674051 0 0.00091371657218036176 0.015823507725394228 0 3.8470759308352653e-05 0.017179400368372851 0 -0.00045527810733710122 0.018148244647147236 0 -0.00035301784725786517 0.014625573869986431 0 -1.6768746226619721e-05 0.016061172964674051 0 -0.00087468219651498018 0.016232716669042056 0 -0.00014951220677875837 0.017113349062414511 0 -1.6768746226619721e-05 0.016061172964674051 0 -0.00087468219651498018 0.016232716669042056 0 9.2999524861317692e-05 0.026797336620817735 0 0.00077995609062687043 0.026145675228245641 0 0.00032645923686338169 0.027511930550516921 0 0.00077995609062687043 0.026145675228245641 0 0.0010698949877320156 0.027368485345817033 0 0.00032645923686338169 0.027511930550516921 0 -0.00011351588581532441 0.027731438710551604 0 0.00056659472818611472 0.025360426735884973 0 -0.00016483018164773573 0.027751287358207932 0 1.547769347786899e-06 0.026083038359674172 0 -1.4310159383160279e-06 0.028132248573044558 0 -0.0002178869018873604 0.02819996853686477 0 -0.00016483018164773573 0.027751287358207932 0 0.00047667221600000193 0.027497359103879626 0 -0.00016483018164773573 0.027751287358207932 0 1.547769347786899e-06 0.026083038359674172 0 0.00047667221600000193 0.027497359103879626 0 5.3613090098094198e-07 0.026080753132367879 0 0.00056659472818611472 0.025360426735884973 0 0.0014877305718618452 0.022925319778944936 0 5.6482800106345428e-05 0.024553232881539606 0 0.00034704472153259595 0.022719462200308793 0 1.4891827645853108e-06 0.026077427511168264 0 5.6482800106345428e-05 0.024553232881539606 0 -6.0849201742241134e-07 0.022830250493319396 0 1.4891827645853108e-06 0.026077427511168264 0 3.9461384128668449e-05 0.025451519453827884 0 5.6482800106345428e-05 0.024553232881539606 0 0.00056659472818611472 0.025360426735884973 0 0.00039915340910270648 0.024545790242883791 0 0.00034704472153259595 0.022719462200308793 0 7.7633998956793134e-05 0.022083390474331114 0 -9.9110050519233577e-05 0.022552426479371127 0 5.6482800106345428e-05 0.024553232881539606 0 0.00034704472153259595 0.022719462200308793 0 -9.9110050519233577e-05 0.022552426479371127 0 0.00056659472818611472 0.025360426735884973 0 0.00016381184012819876 0.024164881210138305 0 0.00034704472153259595 0.022719462200308793 0 0.00034568744703659162 0.021790793255781028 0 7.7633998956793134e-05 0.022083390474331114 0 0.0014877305718618452 0.022925319778944936 0 0.00034568744703659162 0.021790793255781028 0 0.00052779249888663764 0.02084261993523381 0 0.0014877305718618452 0.022925319778944936 0 0.00034704472153259595 0.022719462200308793 0 0.00034568744703659162 0.021790793255781028 0 0.00034568744703659162 0.021790793255781028 0 -0.00013637974006928681 0.021339443902614042 0 -5.0294652556432637e-06 0.021023590655202297 0 0.00034568744703659162 0.021790793255781028 0 -0.00013637974006928681 0.021339443902614042 0 7.7633998956793134e-05 0.022083390474331114 0 -0.00013637974006928681 0.021339443902614042 0 -0.00027416771194487558 0.021213256305455716 0 -0.00018341961840751445 0.021694479313359903 0 -0.00013637974006928681 0.021339443902614042 0 -0.00027416771194487558 0.021213256305455716 0 -0.00023566901650158185 0.021105148147966074 0 -0.00018341961840751445 0.021694479313359903 0 -9.9110050519233577e-05 0.022552426479371127 0 -0.00025087479240547945 0.021547800840926452 0 -0.00027416771194487558 0.021213256305455716 0 -0.00018341961840751445 0.021694479313359903 0 -0.00025087479240547945 0.021547800840926452 0 -0.00018341961840751445 0.021694479313359903 0 7.7633998956793134e-05 0.022083390474331114 0 -9.9110050519233577e-05 0.022552426479371127 0 -0.00013637974006928681 0.021339443902614042 0 -0.00018341961840751445 0.021694479313359903 0 7.7633998956793134e-05 0.022083390474331114 0 5.6482800106345428e-05 0.024553232881539606 0 -9.9110050519233577e-05 0.022552426479371127 0 -6.0849201742241134e-07 0.022830250493319396 0 -9.9110050519233577e-05 0.022552426479371127 0 -6.0849201742241134e-07 0.022830250493319396 0 -0.00025087479240547945 0.021547800840926452 0 -1.7153203758744984e-06 0.019580765683150692 0 -0.00032528875799657617 0.020572632973440596 0 -6.0849201742241134e-07 0.022830250493319396 0 -0.00032528875799657617 0.020572632973440596 0 -6.0849201742241134e-07 0.022830250493319396 0 -0.00025087479240547945 0.021547800840926452 0 -0.00032528875799657617 0.020572632973440596 0 -0.00025087479240547945 0.021547800840926452 0 -0.00034744644076593678 0.020827312348641894 0 -0.00027416771194487558 0.021213256305455716 0 -0.00025087479240547945 0.021547800840926452 0 -0.00034744644076593678 0.020827312348641894 0 -0.00026215744299792144 0.020762972260363458 0 -0.00034744644076593678 0.020827312348641894 0 -0.00028732162070471559 0.020979819554433021 0 -0.00027416771194487558 0.021213256305455716 0 -0.00034744644076593678 0.020827312348641894 0 -0.00028732162070471559 0.020979819554433021 0 -0.00027416771194487558 0.021213256305455716 0 -0.00028732162070471559 0.020979819554433021 0 -0.00023566901650158185 0.021105148147966074 0 -0.00028732162070471559 0.020979819554433021 0 -0.00023079020577613057 0.02105286542272149 0 -0.00021618025390468055 0.021130222876137014 0 -0.00026215744299792144 0.020762972260363458 0 -0.00023328155121691218 0.020946748168838736 0 -0.00023079020577613057 0.02105286542272149 0 -0.00026215744299792144 0.020762972260363458 0 -0.00028732162070471559 0.020979819554433021 0 -0.00023079020577613057 0.02105286542272149 0 0.0007016893948662234 0.021808489555708601 0 -0.00024450148070272979 0.021441961562495036 0 -0.00025721612714977882 0.021051655594757211 0 -0.00023079020577613057 0.02105286542272149 0 -0.00015439726172889693 0.021422558688522862 0 -0.00023328155121691218 0.020946748168838736 0 -0.00025721612714977882 0.021051655594757211 0 -0.00023079020577613057 0.02105286542272149 0 0.0013153174164733752 0.022364604427447254 0 -0.00015439726172889693 0.021422558688522862 0 0.00023570301382682733 0.022541952487019845 0 -0.0013239252948335069 0.024897296835392827 0 0.00030867897248655434 0.023308537572647298 0 -0.00015439726172889693 0.021422558688522862 0 -0.00052607450870033508 0.021392747202425889 0 0.00023570301382682733 0.022541952487019845 0 -0.00023079020577613057 0.02105286542272149 0 -0.00015439726172889693 0.021422558688522862 0 -0.00021618025390468055 0.021130222876137014 0 -0.00015439726172889693 0.021422558688522862 0 -0.00033711762262218808 0.021294733556420649 0 -0.00021618025390468055 0.021130222876137014 0 -0.00015439726172889693 0.021422558688522862 0 -0.00033711762262218808 0.021294733556420649 0 -0.00052607450870033508 0.021392747202425889 0 -0.0014240569339417977 0.0238053159327964 0 -0.00077365990568677503 0.024375256111169134 0 -0.0012712966318410796 0.024251449751561634 0 -0.00033711762262218808 0.021294733556420649 0 -0.00026709781711701359 0.021184322226877099 0 -0.00048251555110497945 0.021361506013884899 0 -0.00033711762262218808 0.021294733556420649 0 -0.00026709781711701359 0.021184322226877099 0 -0.00021618025390468055 0.021130222876137014 0 -0.00026709781711701359 0.021184322226877099 0 -0.00017669608498778369 0.021082033058194016 0 -0.00019017972607042634 0.021127925288262198 0 -0.00026709781711701359 0.021184322226877099 0 -0.00017669608498778369 0.021082033058194016 0 -0.00021618025390468055 0.021130222876137014 0 -0.00017669608498778369 0.021082033058194016 0 -5.0294652556432637e-06 0.021023590655202297 0 -0.00019017972607042634 0.021127925288262198 0 -0.00017669608498778369 0.021082033058194016 0 -0.00021618025390468055 0.021130222876137014 0 -0.00023566901650158185 0.021105148147966074 0 -0.00028732162070471559 0.020979819554433021 0 -0.00021618025390468055 0.021130222876137014 0 -0.00023566901650158185 0.021105148147966074 0 -0.00013637974006928681 0.021339443902614042 0 -0.00017669608498778369 0.021082033058194016 0 -0.00023566901650158185 0.021105148147966074 0 -0.00013637974006928681 0.021339443902614042 0 -0.00017669608498778369 0.021082033058194016 0 -5.0294652556432637e-06 0.021023590655202297 0 -0.0002019297502868077 0.021052992772945985 0 -0.00019017972607042634 0.021127925288262198 0 -0.00048251555110497945 0.021361506013884899 0 0.00034568744703659162 0.021790793255781028 0 -5.0294652556432637e-06 0.021023590655202297 0 0.00052779249888663764 0.02084261993523381 0 -5.0294652556432637e-06 0.021023590655202297 0 -0.0002019297502868077 0.021052992772945985 0 -0.00019017972607042634 0.021127925288262198 0 0.00032299048593392314 0.023077327528997344 0 0.00016381184012819876 0.024164881210138305 0 -0.0012679871060538295 0.026009201623865216 0 -0.000570074437469349 0.029716336634035025 0 -0.00069646422025867267 0.027828350951545247 0 -0.00085990794710224768 0.027168839165379297 0 -0.00020708344229164661 0.027429229699174336 0 -0.0020175501337697122 0.031376031396770053 0 -0.0020540145031787502 0.031220605961877708 0 -0.00088702770372408321 0.030908840384363652 0 0.00016381184012819876 0.024164881210138305 0 -0.0012679871060538295 0.026009201623865216 0 -0.00026709781711701359 0.021184322226877099 0 -0.00019017972607042634 0.021127925288262198 0 -0.00048251555110497945 0.021361506013884899 0 -0.001584997779391866 0.025281843731167774 0 -0.0014028757588124877 0.025352776168217808 0 -0.0014314615387982755 0.025234344382129268 0 -0.0013239252948335069 0.024897296835392827 0 -0.0012679871060538295 0.026009201623865216 0 -0.00033711762262218808 0.021294733556420649 0 -0.00052607450870033508 0.021392747202425889 0 -0.00048251555110497945 0.021361506013884899 0 -0.0012679871060538295 0.026009201623865216 0 -0.0018665885312831359 0.026030273087632009 0 -0.0014240569339417977 0.0238053159327964 0 -0.001756199347657539 0.023897301507685355 0 -0.0012712966318410796 0.024251449751561634 0 -0.0013239252948335069 0.024897296835392827 0 -0.0018665885312831359 0.026030273087632009 0 -0.0020175501337697122 0.031376031396770053 0 -0.0010184379607184929 0.031794845885120375 0 -0.00088702770372408321 0.030908840384363652 0 -0.0010184379607184929 0.031794845885120375 0 -0.00088702770372408321 0.030908840384363652 0 -0.00023389481881903968 0.031516804152858444 0 -0.00069646422025867267 0.027828350951545247 0 -0.00020708344229164661 0.027429229699174336 0 -0.00012725012598437265 0.027761673570349837 0 -0.00020708344229164661 0.027429229699174336 0 -0.00012725012598437265 0.027761673570349837 0 0.00044134896180375859 0.027708833480310689 0 0.00016381184012819876 0.024164881210138305 0 5.6255476641735611e-05 0.027648836319841556 0 -0.0038292911751816785 0.026241995539417879 0 -0.0020423864255737761 0.026444196474361484 0 -0.0026571388054708999 0.027957069629832826 0 -0.0038292911751816785 0.026241995539417879 0 -0.0023945653690672386 0.025280197987535509 0 -0.0020423864255737761 0.026444196474361484 0 -0.0038292911751816785 0.026241995539417879 0 -0.0035570951891941813 0.024712746880018122 0 -0.0023945653690672386 0.025280197987535509 0 -0.0017350090509910825 0.024020743371494006 0 -0.0035570951891941813 0.024712746880018122 0 -0.0023945653690672386 0.025280197987535509 0 -0.0018665885312831359 0.026030273087632009 0 -0.0025761161815368379 0.027478408482671992 0 -0.0017350090509910825 0.024020743371494006 0 -0.0023945653690672386 0.025280197987535509 0 -0.0015630416245452814 0.024732016703198498 0 -0.0018665885312831359 0.026030273087632009 0 -0.0019040441472740483 0.024484839382331841 0 -0.001756199347657539 0.023897301507685355 0 -0.0015630416245452814 0.024732016703198498 0 -0.0012712966318410796 0.024251449751561634 0 -0.0023945653690672386 0.025280197987535509 0 -0.0015630416245452814 0.024732016703198498 0 -0.0015939032358735852 0.025587056961713785 0 -0.0023945653690672386 0.025280197987535509 0 -0.0015939032358735852 0.025587056961713785 0 -0.0020423864255737761 0.026444196474361484 0 -0.0015939032358735852 0.025587056961713785 0 -0.0020423864255737761 0.026444196474361484 0 -0.00037342791520922287 0.026314364035500408 0 -0.0020423864255737761 0.026444196474361484 0 -0.00037342791520922287 0.026314364035500408 0 -0.001332395924054323 0.027278150380208446 0 -0.0015939032358735852 0.025587056961713785 0 -0.00037342791520922287 0.026314364035500408 0 -0.00093167702158746945 0.025150175801531355 0 -0.0015630416245452814 0.024732016703198498 0 -0.0015939032358735852 0.025587056961713785 0 -0.00093167702158746945 0.025150175801531355 0 -0.0014240569339417977 0.0238053159327964 0 -0.00077365990568677503 0.024375256111169134 0 0.00017192062874348232 0.024194658484418104 0 -0.0015630416245452814 0.024732016703198498 0 -0.00077365990568677503 0.024375256111169134 0 -0.0012712966318410796 0.024251449751561634 0 -0.0015630416245452814 0.024732016703198498 0 -0.00093167702158746945 0.025150175801531355 0 -0.00077365990568677503 0.024375256111169134 0 -0.00077365990568677503 0.024375256111169134 0 -0.00024475049537685825 0.025065221564776221 0 0.00017192062874348232 0.024194658484418104 0 -0.00093167702158746945 0.025150175801531355 0 -0.00077365990568677503 0.024375256111169134 0 -0.00024475049537685825 0.025065221564776221 0 -0.00037342791520922287 0.026314364035500408 0 -0.00093167702158746945 0.025150175801531355 0 -0.00024475049537685825 0.025065221564776221 0 -0.00024475049537685825 0.025065221564776221 0 0.00067550937452062071 0.025358717553291853 0 0.00017192062874348232 0.024194658484418104 0 0.00030867897248655434 0.023308537572647298 0 0.0020307733804853646 0.024208704444371922 0 0.00067550937452062071 0.025358717553291853 0 0.00017192062874348232 0.024194658484418104 0 0.0020865316668402388 0.024289069188113539 0 0.0013153174164733752 0.022364604427447254 0 0.00023570301382682733 0.022541952487019845 0 0.0020865316668402388 0.024289069188113539 0 0.00067550937452062071 0.025358717553291853 0 0.00062501179839773212 0.027294282548174346 0 0.0024265031001779584 0.026627127222797888 0 -0.00037342791520922287 0.026314364035500408 0 0.00067550937452062071 0.025358717553291853 0 0.00062501179839773212 0.027294282548174346 0 -0.00037342791520922287 0.026314364035500408 0 -0.00024475049537685825 0.025065221564776221 0 0.00067550937452062071 0.025358717553291853 0 0.00062501179839773212 0.027294282548174346 0 -0.00026891680272646159 0.028457115132136886 0 0.0008252738320634873 0.029151124608362205 0 3.3366114650265897e-05 0.029495945199248724 0 -0.00026891680272646159 0.028457115132136886 0 0.0008252738320634873 0.029151124608362205 0 3.3366114650265897e-05 0.029495945199248724 0 -0.00026891680272646159 0.028457115132136886 0 -0.00068726726455537227 0.029277496949384654 0 -0.00037342791520922287 0.026314364035500408 0 0.00062501179839773212 0.027294282548174346 0 -0.00026891680272646159 0.028457115132136886 0 -0.00037342791520922287 0.026314364035500408 0 -0.00026891680272646159 0.028457115132136886 0 -0.001332395924054323 0.027278150380208446 0 -0.00019630895857597317 0.028534398192967526 0 -0.0028128144763283789 0.027155900559311885 0 -0.0020423864255737761 0.026444196474361484 0 -0.001332395924054323 0.027278150380208446 0 -0.0026571388054708999 0.027957069629832826 0 -0.00026891680272646159 0.028457115132136886 0 -0.001332395924054323 0.027278150380208446 0 -0.0026571388054708999 0.027957069629832826 0 -0.00026891680272646159 0.028457115132136886 0 -0.0020416515405617857 0.027664257893344323 0 -0.00068726726455537227 0.029277496949384654 0 -0.0020416515405617857 0.027664257893344323 0 -0.00068726726455537227 0.029277496949384654 0 -0.0024520518154258516 0.029037567082447431 0 -0.00068726726455537227 0.029277496949384654 0 -0.0024520518154258516 0.029037567082447431 0 -0.0016223990062878765 0.030560134894909215 0 -0.0020416515405617857 0.027664257893344323 0 -0.0024520518154258516 0.029037567082447431 0 -0.0034494589151386475 0.028348095155125409 0 -0.0024520518154258516 0.029037567082447431 0 -0.004283876786843774 0.029736021351240049 0 -0.0016223990062878765 0.030560134894909215 0 -0.0024520518154258516 0.029037567082447431 0 -0.004283876786843774 0.029736021351240049 0 -0.0034494589151386475 0.028348095155125409 0 -0.0038292911751816785 0.026241995539417879 0 -0.0026571388054708999 0.027957069629832826 0 -0.0046831566240375056 0.027596197445140958 0 -0.0020416515405617857 0.027664257893344323 0 -0.0034494589151386475 0.028348095155125409 0 -0.0050588821964138754 0.027042952908971275 0 -0.0028128144763283789 0.027155900559311885 0 -0.0033501516760573455 0.033257487640350594 0 0.00082317612052055014 0.015511401120662419 0 0.00071627846938243178 0.015491761464546273 0 0.00077077521542323266 0.015440960539404422 0 0.00082317612052055014 0.015511401120662419 0 0.00071627846938243178 0.015491761464546273 0 0.00078352359203114562 0.015669210307402988 0 0.00071627846938243178 0.015491761464546273 0 0.00064130491937768031 0.015413349218624244 0 0.00053257248633247292 0.015589502177313941 0 0.00071627846938243178 0.015491761464546273 0 0.00078352359203114562 0.015669210307402988 0 0.00053257248633247292 0.015589502177313941 0 0.00082317612052055014 0.015511401120662419 0 0.00078352359203114562 0.015669210307402988 0 0.00087191486119936508 0.015583710088293503 0 0.00073284310738074173 0.014978830006572222 0 0.00051897337727022563 0.01614998800255996 0 0.00087191486119936508 0.015583710088293503 0 0.0007848057557761736 0.015420280920046015 0 0.00085253390838220631 0.015496247741936147 0 0.0007848057557761736 0.015420280920046015 0 0.00085253390838220631 0.015496247741936147 0 0.00087813262393207268 0.015494039973860533 0 0.00057938106634468616 0.01487936720059794 0 0.0007848057557761736 0.015420280920046015 0 0.00028508872123961287 0.014734662771453919 0 0.00082317612052055014 0.015511401120662419 0 0.00087191486119936508 0.015583710088293503 0 0.00085253390838220631 0.015496247741936147 0 0.00082317612052055014 0.015511401120662419 0 0.00085253390838220631 0.015496247741936147 0 0.00081944830624121107 0.015462870505984236 0 0.00051897337727022563 0.01614998800255996 0 -4.877127264274845e-05 0.016672794992411744 0 0.00081944830624121107 0.015462870505984236 0 0.00087813262393207268 0.015494039973860533 0 0.00073696059453747399 0.015338664571590929 0 0.00085253390838220631 0.015496247741936147 0 0.00081944830624121107 0.015462870505984236 0 0.00087813262393207268 0.015494039973860533 0 0.000851323026911281 0.018782852051230706 0 0.0001219775125746649 0.018234996849326925 0 -0.00072793702671213967 0.018258640519549858 0 0.000851323026911281 0.018782852051230706 0 0.00094007781587103479 0.018081121180153207 0 0.0001219775125746649 0.018234996849326925 0 0.00051897337727022563 0.01614998800255996 0 0.00052519477232424144 0.016231033805002331 0 4.977057573835372e-05 0.017827949996087122 0 0.00094007781587103479 0.018081121180153207 0 0.0001219775125746649 0.018234996849326925 0 4.977057573835372e-05 0.017827949996087122 0 0.0001219775125746649 0.018234996849326925 0 -0.00032708656284851951 0.018142377117919068 0 0.0001219775125746649 0.018234996849326925 0 -0.00032708656284851951 0.018142377117919068 0 -0.00072793702671213967 0.018258640519549858 0 -0.00032708656284851951 0.018142377117919068 0 -0.00072793702671213967 0.018258640519549858 0 -0.00068361749670891572 0.018412776419922755 0 0.00081944830624121107 0.015462870505984236 0 0.00077077521542323266 0.015440960539404422 0 0.00073696059453747399 0.015338664571590929 0 0.00082317612052055014 0.015511401120662419 0 0.00081944830624121107 0.015462870505984236 0 0.00077077521542323266 0.015440960539404422 0 0.00064130491937768031 0.015413349218624244 0 0.00073696059453747399 0.015338664571590929 0 0.00050510920562044234 0.01536360392730478 0 0.00071627846938243178 0.015491761464546273 0 0.00071758375230930994 0.015421497421437301 0 0.00064130491937768031 0.015413349218624244 0 0.00071627846938243178 0.015491761464546273 0 0.00077077521542323266 0.015440960539404422 0 0.00071758375230930994 0.015421497421437301 0 0.00071758375230930994 0.015421497421437301 0 0.00064130491937768031 0.015413349218624244 0 0.00073696059453747399 0.015338664571590929 0 0.00077077521542323266 0.015440960539404422 0 0.00071758375230930994 0.015421497421437301 0 0.00073696059453747399 0.015338664571590929 0 0.00031089895202713675 0.015218168561374455 0 0.00050510920562044234 0.01536360392730478 0 4.3202560787403829e-05 0.01572598875096454 0 -4.877127264274845e-05 0.016672794992411744 0 0.0012889344725066699 0.019803125803348507 0 -0.00072793702671213967 0.018258640519549858 0 -0.00068361749670891572 0.018412776419922755 0 0.00092733458603691163 0.018557263398989637 0 0.00073696059453747399 0.015338664571590929 0 0.00031089895202713675 0.015218168561374455 0 0.00050510920562044234 0.01536360392730478 0 0.00064130491937768031 0.015413349218624244 0 0.00050510920562044234 0.01536360392730478 0 0.00053257248633247292 0.015589502177313941 0 0.0013153174164733752 0.022364604427447254 0 0.0037140709819365584 0.023169470648705778 0 0.0020865316668402388 0.024289069188113539 0 0.0037140709819365584 0.023169470648705778 0 0.0020865316668402388 0.024289069188113539 0 0.0024265031001779584 0.026627127222797888 0 0.0012889344725066699 0.019803125803348507 0 0.0013373195358818756 0.021005713016663451 0 0.00067550937452062071 0.025358717553291853 0 0.0020865316668402388 0.024289069188113539 0 0.0024265031001779584 0.026627127222797888 0 4.3202560787403829e-05 0.01572598875096454 0 0.00053257248633247292 0.015589502177313941 0 0.00057496836214718727 0.016102253084837707 0 0.00050510920562044234 0.01536360392730478 0 4.3202560787403829e-05 0.01572598875096454 0 0.00053257248633247292 0.015589502177313941 0 0.00078352359203114562 0.015669210307402988 0 0.00053257248633247292 0.015589502177313941 0 0.00057496836214718727 0.016102253084837707 0 4.3202560787403829e-05 0.01572598875096454 0 0.00057496836214718727 0.016102253084837707 0 -0.00035110821283066291 0.016621348960867921 0 0.00062501179839773212 0.027294282548174346 0 0.0024265031001779584 0.026627127222797888 0 0.0008252738320634873 0.029151124608362205 0 0.0013373195358818756 0.021005713016663451 0 0.000170943110727335 0.022824749720496109 0 0.00057496836214718727 0.016102253084837707 0 -0.00035110821283066291 0.016621348960867921 0 0.00068939464532725362 0.01705817644585161 0 0.00057496836214718727 0.016102253084837707 0 0.0010964792149516236 0.016654687266943184 0 0.00068939464532725362 0.01705817644585161 0 0.00057496836214718727 0.016102253084837707 0 0.0010964792149516236 0.016654687266943184 0 0.0010423942523251734 0.015948845188530653 0 0.00078352359203114562 0.015669210307402988 0 0.00057496836214718727 0.016102253084837707 0 0.0010423942523251734 0.015948845188530653 0 0.00078352359203114562 0.015669210307402988 0 0.00087191486119936508 0.015583710088293503 0 0.0010423942523251734 0.015948845188530653 0 0.00087191486119936508 0.015583710088293503 0 0.0007848057557761736 0.015420280920046015 0 0.0010423942523251734 0.015948845188530653 0 0.0015712037497873749 0.015939925823424201 0 0.0010055255788806606 0.015905002002304085 0 0.00090392274489097056 0.015564402288908758 0 0.0007848057557761736 0.015420280920046015 0 0.0010423942523251734 0.015948845188530653 0 0.0010964792149516236 0.016654687266943184 0 0.0010423942523251734 0.015948845188530653 0 0.001739785402094365 0.01678490771370807 0 0.002106443042104248 0.016139733785671181 0 0.0010423942523251734 0.015948845188530653 0 0.001739785402094365 0.01678490771370807 0 0.0010964792149516236 0.016654687266943184 0 0.001739785402094365 0.01678490771370807 0 0.0013225182074094522 0.017187896422062258 0 0.001739785402094365 0.01678490771370807 0 0.0019108757042896527 0.01722366594798682 0 0.0013225182074094522 0.017187896422062258 0 0.0019108757042896527 0.01722366594798682 0 0.0010175197782954352 0.018092845273629816 0 0.0013225182074094522 0.017187896422062258 0 0.0010964792149516236 0.016654687266943184 0 0.0013225182074094522 0.017187896422062258 0 0.00068939464532725362 0.01705817644585161 0 0.0010175197782954352 0.018092845273629816 0 0.0013225182074094522 0.017187896422062258 0 0.00068939464532725362 0.01705817644585161 0 0.0010175197782954352 0.018092845273629816 0 0.00068939464532725362 0.01705817644585161 0 0.00019030869693195253 0.017821194868646091 0 -0.00035110821283066291 0.016621348960867921 0 0.00068939464532725362 0.01705817644585161 0 0.00019030869693195253 0.017821194868646091 0 -0.00035110821283066291 0.016621348960867921 0 0.00019030869693195253 0.017821194868646091 0 -0.00078059693349805646 0.018189021433208281 0 0.00019030869693195253 0.017821194868646091 0 0.00025577303250824538 0.019278702841503216 0 -0.00078059693349805646 0.018189021433208281 0 0.0010175197782954352 0.018092845273629816 0 0.00019030869693195253 0.017821194868646091 0 0.00025577303250824538 0.019278702841503216 0 0.00061772503792659043 0.018897691758067305 0 0.00025577303250824538 0.019278702841503216 0 0.00031438972249908409 0.01952729126972429 0 0.0010175197782954352 0.018092845273629816 0 0.00061772503792659043 0.018897691758067305 0 0.00025577303250824538 0.019278702841503216 0 0.00025577303250824538 0.019278702841503216 0 -5.669303906243442e-05 0.020252139127954729 0 0.00031438972249908409 0.01952729126972429 0 -5.669303906243442e-05 0.020252139127954729 0 0.00031438972249908409 0.01952729126972429 0 0.00013951205890106941 0.019810367229259974 0 0.00031438972249908409 0.01952729126972429 0 0.00091407433846622745 0.018657801379669704 0 0.00041386226087583735 0.019439228388437143 0 0.00061772503792659043 0.018897691758067305 0 0.00031438972249908409 0.01952729126972429 0 0.00091407433846622745 0.018657801379669704 0 0.00091407433846622745 0.018657801379669704 0 0.0016334231060443447 0.017762503105648243 0 0.001364078472411556 0.018525549646089073 0 0.0019108757042896527 0.01722366594798682 0 0.0010175197782954352 0.018092845273629816 0 0.0016334231060443447 0.017762503105648243 0 0.0010175197782954352 0.018092845273629816 0 0.00091407433846622745 0.018657801379669704 0 0.0016334231060443447 0.017762503105648243 0 0.0010175197782954352 0.018092845273629816 0 0.00061772503792659043 0.018897691758067305 0 0.00091407433846622745 0.018657801379669704 0 -0.0030685699400885714 0.034412307634857017 0 -0.0018050545841696516 0.035000124740653143 0 -0.002308875078940485 0.034768845003566654 0 -0.0030685699400885714 0.034412307634857017 0 -0.002308875078940485 0.034768845003566654 0 -0.0016784604707373203 0.035848835427237359 0 -0.0033368829702712264 0.035342255371190075 0 -0.0031940388821723401 0.034435494853089783 0 -0.004283876786843774 0.029736021351240049 0 -0.0030685699400885714 0.034412307634857017 0 -0.0016223990062878765 0.030560134894909215 0 -0.0030685699400885714 0.034412307634857017 0 -0.0016223990062878765 0.030560134894909215 0 -0.0014525407069420372 0.032552673717591664 0 -0.0016223990062878765 0.030560134894909215 0 -0.0014525407069420372 0.032552673717591664 0 0.00070516362295367906 0.030012357623269613 0 -0.00068726726455537227 0.029277496949384654 0 -0.0016223990062878765 0.030560134894909215 0 0.00070516362295367906 0.030012357623269613 0 -0.0030685699400885714 0.034412307634857017 0 -0.0014525407069420372 0.032552673717591664 0 -0.0018050545841696516 0.035000124740653143 0 -0.0014525407069420372 0.032552673717591664 0 0.00070516362295367906 0.030012357623269613 0 -0.0018050545841696516 0.035000124740653143 0 0.00066482554469653025 0.030031267902591311 0 0.0005562238508053667 0.029279799055983678 0 0.00071148909848423383 0.0253831431275315 0 0.00070516362295367906 0.030012357623269613 0 0.0031616923010490097 0.023675283645116545 0 0.00071148909848423383 0.0253831431275315 0 0.00070516362295367906 0.030012357623269613 0 -0.0015181239050866388 0.028556135992950291 0 3.3366114650265897e-05 0.029495945199248724 0 0.00070516362295367906 0.030012357623269613 0 -0.0015181239050866388 0.028556135992950291 0 3.3366114650265897e-05 0.029495945199248724 0 -0.00068726726455537227 0.029277496949384654 0 0.00070516362295367906 0.030012357623269613 0 0.000170943110727335 0.022824749720496109 0 -0.00097750974562378135 0.023193469917853139 0 3.3366114650265897e-05 0.029495945199248724 0 0.0008252738320634873 0.029151124608362205 0 -0.0015181239050866388 0.028556135992950291 0 0.00071148909848423383 0.0253831431275315 0 -0.0015181239050866388 0.028556135992950291 0 -0.00059883634879557819 0.021508841524277435 0 -0.00097750974562378135 0.023193469917853139 0 -0.00063976697386293956 0.02154298293470977 0 0.00025577303250824538 0.019278702841503216 0 -0.00078059693349805646 0.018189021433208281 0 -0.00059883634879557819 0.021508841524277435 0 0.00025577303250824538 0.019278702841503216 0 -5.669303906243442e-05 0.020252139127954729 0 -0.00059883634879557819 0.021508841524277435 0 -5.669303906243442e-05 0.020252139127954729 0 -0.00059883634879557819 0.021508841524277435 0 0.00036175405960171055 0.020256644945114814 0 0.0014859151831755491 0.021106172908070653 0 0.0014635670662441105 0.020584404108967339 0 0.00036175405960171055 0.020256644945114814 0 -0.00059883634879557819 0.021508841524277435 0 0.0014859151831755491 0.021106172908070653 0 0.00036175405960171055 0.020256644945114814 0 0.00071148909848423383 0.0253831431275315 0 0.0014859151831755491 0.021106172908070653 0 0.0031616923010490097 0.023675283645116545 0 0.00071148909848423383 0.0253831431275315 0 -0.00059883634879557819 0.021508841524277435 0 0.0014859151831755491 0.021106172908070653 0 0.0014859151831755491 0.021106172908070653 0 0.0026395834322528716 0.021004774093642271 0 0.0018976955469412258 0.020760309266960039 0 0.0014859151831755491 0.021106172908070653 0 0.0031616923010490097 0.023675283645116545 0 0.0026395834322528716 0.021004774093642271 0 0.0005562238508053667 0.029279799055983678 0 0.00048844919749808067 0.027828813091412809 0 -0.0023244622856049644 0.034013520451850063 0 -0.002308875078940485 0.034768845003566654 0 -0.0014376820962355434 0.033910963154452418 0 -0.0018050545841696516 0.035000124740653143 0 -0.0023244622856049644 0.034013520451850063 0 -0.002308875078940485 0.034768845003566654 0 0.0010853214290095111 0.021445156788188417 0 -0.0020527145686243631 0.025095570466722391 0 -0.00023605319144422122 0.021907550815958892 0 -0.0015694104934163172 0.023517496820475436 0 -0.0028703230728333289 0.02161671139323542 0 -0.00023605319144422122 0.021907550815958892 0 -0.0003494229220438569 0.023407622358949276 0 -0.0015694104934163172 0.023517496820475436 0 0.0026395834322528716 0.021004774093642271 0 0.0019678263683813369 0.020781283784000008 0 0.0022162130037666748 0.020841919437215362 0 0.00048844919749808067 0.027828813091412809 0 -0.0020527145686243631 0.025095570466722391 0 0.0026395834322528716 0.021004774093642271 0 0.0019678263683813369 0.020781283784000008 0 0.0018976955469412258 0.020760309266960039 0 0.0019678263683813369 0.020781283784000008 0 0.0018976955469412258 0.020760309266960039 0 0.0017789151590239373 0.020826502172662742 0 0.0018976955469412258 0.020760309266960039 0 0.0017789151590239373 0.020826502172662742 0 0.0014635670662441105 0.020584404108967339 0 0.0019678263683813369 0.020781283784000008 0 0.0017789151590239373 0.020826502172662742 0 0.0017841696857856817 0.021517869995294599 0 0.0010853214290095111 0.021445156788188417 0 0.0017481650559268381 0.021511681247484513 0 -0.00023605319144422122 0.021907550815958892 0 0.00044761208823577444 0.022433595387723691 0 0.0017841696857856817 0.021517869995294599 0 -0.00023605319144422122 0.021907550815958892 0 0.00044761208823577444 0.022433595387723691 0 -0.0003494229220438569 0.023407622358949276 0 0.00044761208823577444 0.022433595387723691 0 0.0014742668014416597 0.02201202467671123 0 0.00075045804001280987 0.023516795212300011 0 0.00044761208823577444 0.022433595387723691 0 0.0017841696857856817 0.021517869995294599 0 0.0014742668014416597 0.02201202467671123 0 0.0017841696857856817 0.021517869995294599 0 0.0021239306626662621 0.020945737712028414 0 0.001585311428161698 0.023384194271551646 0 0.00024280431455850297 0.019755681602213585 0 0.00030573951599897133 0.019745894518939915 0 0.00020721635360251468 0.019776443695951051 0 0.00024280431455850297 0.019755681602213585 0 0.00030573951599897133 0.019745894518939915 0 0.00024604540928239429 0.019812523019413643 0 0.0017789151590239373 0.020826502172662742 0 0.0017841696857856817 0.021517869995294599 0 0.0021239306626662621 0.020945737712028414 0 0.0021239306626662621 0.020945737712028414 0 0.0014635670662441105 0.020584404108967339 0 0.00036175405960171055 0.020256644945114814 0 0.0010391843197408066 0.020540473764947286 0 0.00049242935563057865 0.020366605455642627 0 0.0014859151831755491 0.021106172908070653 0 0.0018976955469412258 0.020760309266960039 0 0.0014635670662441105 0.020584404108967339 0 0.0017789151590239373 0.020826502172662742 0 0.0021239306626662621 0.020945737712028414 0 0.0014635670662441105 0.020584404108967339 0 0.00030573951599897133 0.019745894518939915 0 0.00036175405960171055 0.020256644945114814 0 0.00024604540928239429 0.019812523019413643 0 -5.669303906243442e-05 0.020252139127954729 0 0.00036175405960171055 0.020256644945114814 0 0.00013951205890106941 0.019810367229259974 0 0.00036175405960171055 0.020256644945114814 0 0.00024604540928239429 0.019812523019413643 0 0.00013951205890106941 0.019810367229259974 0 0.00024604540928239429 0.019812523019413643 0 0.00022252189195191255 0.019746591780575435 0 0.00013951205890106941 0.019810367229259974 0 0.00024280431455850297 0.019755681602213585 0 0.00022252189195191255 0.019746591780575435 0 0.00023062659688624228 0.019775764395827494 0 0.00024280431455850297 0.019755681602213585 0 0.00024604540928239429 0.019812523019413643 0 0.00022252189195191255 0.019746591780575435 0 0.00022252189195191255 0.019746591780575435 0 0.00023062659688624228 0.019775764395827494 0 0.00026579396903782232 0.019780113190351171 0 0.00024280431455850297 0.019755681602213585 0 0.00023062659688624228 0.019775764395827494 0 0.00021115025137199731 0.01980745544384609 0 0.00023062659688624228 0.019775764395827494 0 0.00021115025137199731 0.01980745544384609 0 0.0002365613838522526 0.019852350739104085 0 0.00023062659688624228 0.019775764395827494 0 0.0002365613838522526 0.019852350739104085 0 0.00026579396903782232 0.019780113190351171 0 0.0002365613838522526 0.019852350739104085 0 0.00020408513926769238 0.019928374695480387 0 0.00026543166156144695 0.01996437664823018 0 0.00021115025137199731 0.01980745544384609 0 0.0002365613838522526 0.019852350739104085 0 0.00018110542260166279 0.019873955464432998 0 0.0002365613838522526 0.019852350739104085 0 0.00020408513926769238 0.019928374695480387 0 0.00018110542260166279 0.019873955464432998 0 0.00018110542260166279 0.019873955464432998 0 0.00013290784026125471 0.019871144020941041 0 0.00017183608102943102 0.019831123328116873 0 0.00018110542260166279 0.019873955464432998 0 0.00013290784026125471 0.019871144020941041 0 0.00010967533547178595 0.01997149245202141 0 0.00020408513926769238 0.019928374695480387 0 0.00018110542260166279 0.019873955464432998 0 0.00010967533547178595 0.01997149245202141 0 8.7765051747274052e-05 0.019923016018513404 0 0.00013290784026125471 0.019871144020941041 0 0.00010967533547178595 0.01997149245202141 0 8.7765051747274052e-05 0.019923016018513404 0 1.3439341767553443e-05 0.019932830469181387 0 0.00010967533547178595 0.01997149245202141 0 8.7765051747274052e-05 0.019923016018513404 0 0.00013290784026125471 0.019871144020941041 0 8.3375730637731449e-05 0.019872695470959288 0 0.00013290784026125471 0.019871144020941041 0 8.3375730637731449e-05 0.019872695470959288 0 0.00012891245787760951 0.019834625472597244 0 0.00013290784026125471 0.019871144020941041 0 0.00012891245787760951 0.019834625472597244 0 0.00017183608102943102 0.019831123328116873 0 0.00030573951599897133 0.019745894518939915 0 0.00020721635360251468 0.019776443695951051 0 5.0816960674228043e-05 0.019813091159291984 0 0.0010391843197408066 0.020540473764947286 0 0.00096536149354039754 0.021107466673716303 0 0.00012891245787760951 0.019834625472597244 0 0.00018739694137565204 0.019794827105044065 0 5.0816960674228043e-05 0.019813091159291984 0 8.3375730637731449e-05 0.019872695470959288 0 0.00012891245787760951 0.019834625472597244 0 5.0816960674228043e-05 0.019813091159291984 0 0.00012891245787760951 0.019834625472597244 0 0.00017183608102943102 0.019831123328116873 0 0.00018739694137565204 0.019794827105044065 0 0.00021115025137199731 0.01980745544384609 0 0.00017183608102943102 0.019831123328116873 0 0.00018739694137565204 0.019794827105044065 0 0.00021115025137199731 0.01980745544384609 0 0.00018110542260166279 0.019873955464432998 0 0.00017183608102943102 0.019831123328116873 0 0.00024280431455850297 0.019755681602213585 0 0.00020721635360251468 0.019776443695951051 0 0.00018739694137565204 0.019794827105044065 0 0.00024280431455850297 0.019755681602213585 0 0.00021115025137199731 0.01980745544384609 0 0.00018739694137565204 0.019794827105044065 0 0.00020721635360251468 0.019776443695951051 0 0.00018739694137565204 0.019794827105044065 0 5.0816960674228043e-05 0.019813091159291984 0 0.0014742668014416597 0.02201202467671123 0 0.0010667523241870527 0.023707339931084159 0 0.001585311428161698 0.023384194271551646 0 0.0017841696857856817 0.021517869995294599 0 0.0014742668014416597 0.02201202467671123 0 0.001585311428161698 0.023384194271551646 0 0.0015300862581377076 0.022272610136200636 0 0.00077609767515179656 0.025046614794997892 0 0.0014742668014416597 0.02201202467671123 0 0.00075045804001280987 0.023516795212300011 0 0.0008250381224427847 0.025969603102420139 0 0.00044761208823577444 0.022433595387723691 0 0.00075045804001280987 0.023516795212300011 0 0.00037344864425415861 0.023849857170035769 0 0.00037344864425415861 0.023849857170035769 0 -0.00025840315429239937 0.02500662596043253 0 -0.0003494229220438569 0.023407622358949276 0 0.00044761208823577444 0.022433595387723691 0 0.00037344864425415861 0.023849857170035769 0 -0.0003494229220438569 0.023407622358949276 0 0.00075045804001280987 0.023516795212300011 0 0.00037344864425415861 0.023849857170035769 0 0.0008250381224427847 0.025969603102420139 0 0.0008250381224427847 0.025969603102420139 0 -0.00023468197046049385 0.026545024272698513 0 -0.00025840315429239937 0.02500662596043253 0 0.00037344864425415861 0.023849857170035769 0 0.0008250381224427847 0.025969603102420139 0 -0.00025840315429239937 0.02500662596043253 0 0.00077609767515179656 0.025046614794997892 0 -0.00021502950802057639 0.02513628790349012 0 0.0010667523241870527 0.023707339931084159 0 0.001585311428161698 0.023384194271551646 0 0.0004706152703648044 0.02532259417511077 0 5.0816960674228043e-05 0.019813091159291984 0 1.3439341767553443e-05 0.019932830469181387 0 -0.00013808974919732542 0.020001520184942872 0 0.0008250381224427847 0.025969603102420139 0 -0.00023468197046049385 0.026545024272698513 0 -0.00070564899055190495 0.028723426980598998 0 8.3375730637731449e-05 0.019872695470959288 0 5.0816960674228043e-05 0.019813091159291984 0 1.3439341767553443e-05 0.019932830469181387 0 0.00096536149354039754 0.021107466673716303 0 -0.00021502950802057639 0.02513628790349012 0 1.3439341767553443e-05 0.019932830469181387 0 -3.2696263453363366e-05 0.020005382889262843 0 0.00010967533547178595 0.01997149245202141 0 8.7765051747274052e-05 0.019923016018513404 0 8.3375730637731449e-05 0.019872695470959288 0 1.3439341767553443e-05 0.019932830469181387 0 -0.00023468197046049385 0.026545024272698513 0 -0.0011015620426691663 0.026051856093372901 0 -0.00085493919817971654 0.027270991728775285 0 -0.0011015620426691663 0.026051856093372901 0 -0.00085493919817971654 0.027270991728775285 0 -0.0018204387132063863 0.02739579457804265 0 -0.00023468197046049385 0.026545024272698513 0 -0.00085493919817971654 0.027270991728775285 0 -0.00070564899055190495 0.028723426980598998 0 -0.00085493919817971654 0.027270991728775285 0 -0.0013738789836273255 0.028099094588859334 0 -0.00070564899055190495 0.028723426980598998 0 -0.00085493919817971654 0.027270991728775285 0 -0.0013738789836273255 0.028099094588859334 0 -0.0018204387132063863 0.02739579457804265 0 -0.0013738789836273255 0.028099094588859334 0 -0.0018204387132063863 0.02739579457804265 0 -0.0024249341582787713 0.028614650472626943 0 -0.0018204387132063863 0.02739579457804265 0 -0.0028536344121112981 0.027636492857102585 0 -0.0024249341582787713 0.028614650472626943 0 -0.0018204387132063863 0.02739579457804265 0 -0.0021220471112200468 0.026492788308219394 0 -0.0028536344121112981 0.027636492857102585 0 -0.0011015620426691663 0.026051856093372901 0 -0.0018204387132063863 0.02739579457804265 0 -0.0021220471112200468 0.026492788308219394 0 -0.0011015620426691663 0.026051856093372901 0 -0.0020732925597722186 0.025181198396568603 0 -0.0010119886833672212 0.024478123276698852 0 -0.0011015620426691663 0.026051856093372901 0 -0.0021220471112200468 0.026492788308219394 0 -0.0020732925597722186 0.025181198396568603 0 -0.00023468197046049385 0.026545024272698513 0 -0.0011015620426691663 0.026051856093372901 0 -0.00025840315429239937 0.02500662596043253 0 -0.0011015620426691663 0.026051856093372901 0 -0.00025840315429239937 0.02500662596043253 0 -0.0010119886833672212 0.024478123276698852 0 -0.00025840315429239937 0.02500662596043253 0 -0.0010119886833672212 0.024478123276698852 0 -0.0003494229220438569 0.023407622358949276 0 -0.0010119886833672212 0.024478123276698852 0 -0.0003494229220438569 0.023407622358949276 0 -0.0015694104934163172 0.023517496820475436 0 -0.0020732925597722186 0.025181198396568603 0 -0.0015694104934163172 0.023517496820475436 0 -0.0029691217557027668 0.024533186006148767 0 -0.0020732925597722186 0.025181198396568603 0 -0.0010119886833672212 0.024478123276698852 0 -0.0015694104934163172 0.023517496820475436 0 0.0010273335742435944 0.019335655809753976 0 0.00084479970250622553 0.019088050531854892 0 0.00053888907723543275 0.019544214317679543 0 0.0010273335742435944 0.019335655809753976 0 0.001364078472411556 0.018525549646089073 0 0.0017292298732841948 0.01912352465886236 0 0.0010273335742435944 0.019335655809753976 0 0.001364078472411556 0.018525549646089073 0 0.00084479970250622553 0.019088050531854892 0 0.00091407433846622745 0.018657801379669704 0 0.00084479970250622553 0.019088050531854892 0 0.00041386226087583735 0.019439228388437143 0 0.00091407433846622745 0.018657801379669704 0 0.001364078472411556 0.018525549646089073 0 0.00084479970250622553 0.019088050531854892 0 0.00041386226087583735 0.019439228388437143 0 0.00013951205890106941 0.019810367229259974 0 0.00027937805449555097 0.019680603489197333 0 0.00031438972249908409 0.01952729126972429 0 0.00041386226087583735 0.019439228388437143 0 0.00013951205890106941 0.019810367229259974 0 0.00022252189195191255 0.019746591780575435 0 0.00013951205890106941 0.019810367229259974 0 0.00027937805449555097 0.019680603489197333 0 0.00022252189195191255 0.019746591780575435 0 0.00027937805449555097 0.019680603489197333 0 0.00026579396903782232 0.019780113190351171 0 0.00041386226087583735 0.019439228388437143 0 0.00027937805449555097 0.019680603489197333 0 0.00053888907723543275 0.019544214317679543 0 0.00084479970250622553 0.019088050531854892 0 0.00041386226087583735 0.019439228388437143 0 0.00053888907723543275 0.019544214317679543 0 0.00027937805449555097 0.019680603489197333 0 0.00053888907723543275 0.019544214317679543 0 0.00039675484451909623 0.019788826543544087 0 0.00053888907723543275 0.019544214317679543 0 0.00039675484451909623 0.019788826543544087 0 0.00064194369626121509 0.019798182884194125 0 0.00027937805449555097 0.019680603489197333 0 0.00039675484451909623 0.019788826543544087 0 0.00026579396903782232 0.019780113190351171 0 0.00039675484451909623 0.019788826543544087 0 0.00026579396903782232 0.019780113190351171 0 0.00031397292017895287 0.01989849707446736 0 0.0002365613838522526 0.019852350739104085 0 0.00026579396903782232 0.019780113190351171 0 0.00031397292017895287 0.01989849707446736 0 0.0002365613838522526 0.019852350739104085 0 0.00031397292017895287 0.01989849707446736 0 0.00026543166156144695 0.01996437664823018 0 0.00031397292017895287 0.01989849707446736 0 0.00036212890402592451 0.020017669641743646 0 0.00026543166156144695 0.01996437664823018 0 0.00039675484451909623 0.019788826543544087 0 0.00031397292017895287 0.01989849707446736 0 0.00047205130242107101 0.020024813145727256 0 0.00039675484451909623 0.019788826543544087 0 0.00064194369626121509 0.019798182884194125 0 0.00047205130242107101 0.020024813145727256 0 0.00064194369626121509 0.019798182884194125 0 0.00070917550673338088 0.020185241691369316 0 0.00047205130242107101 0.020024813145727256 0 0.0010273335742435944 0.019335655809753976 0 0.00053888907723543275 0.019544214317679543 0 0.00064194369626121509 0.019798182884194125 0 0.0010273335742435944 0.019335655809753976 0 0.001321679662218459 0.019745114760399668 0 0.0017292298732841948 0.01912352465886236 0 0.0010273335742435944 0.019335655809753976 0 0.00064194369626121509 0.019798182884194125 0 0.001321679662218459 0.019745114760399668 0 0.00064194369626121509 0.019798182884194125 0 0.001321679662218459 0.019745114760399668 0 0.00070917550673338088 0.020185241691369316 0 0.001321679662218459 0.019745114760399668 0 0.0020075961445313625 0.020329587613235597 0 0.0023736817420722998 0.019625135173697374 0 0.001321679662218459 0.019745114760399668 0 0.0020075961445313625 0.020329587613235597 0 0.00070917550673338088 0.020185241691369316 0 0.0020075961445313625 0.020329587613235597 0 0.0023736817420722998 0.019625135173697374 0 0.0031352197211309621 0.020088789004061632 0 0.0011575551650557928 0.021148694558420326 0 0.0004616753354825083 0.011796728892955938 0 0.0023736817420722998 0.019625135173697374 0 0.00257503849298005 0.018908118941689867 0 0.0030724362528485607 0.0192225543609169 0 0.001321679662218459 0.019745114760399668 0 0.0023736817420722998 0.019625135173697374 0 0.0017292298732841948 0.01912352465886236 0 0.0017292298732841948 0.01912352465886236 0 0.00257503849298005 0.018908118941689867 0 0.0020914770113681946 0.01796408086190162 0 0.00257503849298005 0.018908118941689867 0 0.0033282664261189967 0.018199386590312241 0 0.0030724362528485607 0.0192225543609169 0 0.0023736817420722998 0.019625135173697374 0 0.0017292298732841948 0.01912352465886236 0 0.00257503849298005 0.018908118941689867 0 0.00257503849298005 0.018908118941689867 0 0.0020914770113681946 0.01796408086190162 0 0.0033282664261189967 0.018199386590312241 0 0.001364078472411556 0.018525549646089073 0 0.0017292298732841948 0.01912352465886236 0 0.0020914770113681946 0.01796408086190162 0 0.00044359751873920199 0.0092088270818607501 0 0.00094422005423063188 0.0054827966961472768 0 -0.0010508919597832852 0.0066223251043656881 0 -0.0010508919597832852 0.0066223251043656881 0 -0.003102359098114643 0.0063719872862900082 0 -0.0024223799794197407 0.0093562380897951377 0 0.00044359751873920199 0.0092088270818607501 0 -0.0010508919597832852 0.0066223251043656881 0 -0.0024223799794197407 0.0093562380897951377 0 0.00044359751873920199 0.0092088270818607501 0 -0.0024223799794197407 0.0093562380897951377 0 -0.00048749406121752648 0.011954639663669673 0 0.00044359751873920199 0.0092088270818607501 0 0.0045608726740866933 0.0088706089213151929 0 0.00094422005423063188 0.0054827966961472768 0 0.00044359751873920199 0.0092088270818607501 0 0.0045608726740866933 0.0088706089213151929 0 0.0016971612490302042 0.012286664610410234 0 0.0045608726740866933 0.0088706089213151929 0 0.00094422005423063188 0.0054827966961472768 0 0.0039194966591913254 0.0025596889155701267 0 0.0037970719003328633 0.01358860508583104 0 0.0036476871706970066 0.010257932999167024 0 0.00094422005423063188 0.0054827966961472768 0 0.00035390388585789521 0.0025141228713801271 0 0.0039194966591913254 0.0025596889155701267 0 0.00094422005423063188 0.0054827966961472768 0 -0.0019425016008193807 0.0036978835729400972 0 0.00035390388585789521 0.0025141228713801271 0 0.00094422005423063188 0.0054827966961472768 0 -0.0010508919597832852 0.0066223251043656881 0 -0.0019425016008193807 0.0036978835729400972 0 -0.0010508919597832852 0.0066223251043656881 0 -0.0019425016008193807 0.0036978835729400972 0 -0.003102359098114643 0.0063719872862900082 0 -0.0019425016008193807 0.0036978835729400972 0 0.00035390388585789521 0.0025141228713801271 0 -0.0021413166223245364 0.00047783807969161557 0 0.00035390388585789521 0.0025141228713801271 0 -0.0021413166223245364 0.00047783807969161557 0 0.0012171896154397701 0.00033078686079038045 0 -0.0021413166223245364 0.00047783807969161557 0 0.0012171896154397701 0.00033078686079038045 0 -0.00068643362004726166 -0.0027177385358370248 0 0.0023736817420722998 0.019625135173697374 0 0.0030724362528485607 0.0192225543609169 0 0.0031352197211309621 0.020088789004061632 0 0.0036476871706970066 0.010257932999167024 0 0.0004616753354825083 0.011796728892955938 0 0.0039194966591913254 0.0025596889155701267 0 0.0012171896154397701 0.00033078686079038045 0 0.0028326225136352991 -0.0030947186792195142 0 0.00035390388585789521 0.0025141228713801271 0 0.0039194966591913254 0.0025596889155701267 0 0.0012171896154397701 0.00033078686079038045 0 -0.0023490834386738256 0.0058856973352401252 0 -0.00093511250873196583 0.0056794389235994168 0 -0.0020999261844024974 0.0072854317834445629 0 0.0012171896154397701 0.00033078686079038045 0 0.0028326225136352991 -0.0030947186792195142 0 -0.00068643362004726166 -0.0027177385358370248 0 0.0004616753354825083 0.011796728892955938 0 -0.0015364315452861144 0.0010227851891829775 0 0.0004616753354825083 0.011796728892955938 0 -0.0032349820890423941 0.0069593186228013113 0 -0.0047949505443730701 -0.0019381461718382214 0 -0.0048803277344557656 -0.0018751392736759142 0 -0.0051908083641470535 -0.0018046230363531614 0 -0.0047949505443730701 -0.0019381461718382214 0 -0.0047794324787798562 -0.0018514725794370238 0 -0.0046419855008116052 -0.0016833879697899438 0 -0.0015364315452861144 0.0010227851891829775 0 -0.0032349820890423941 0.0069593186228013113 0 -0.0015364315452861144 0.0010227851891829775 0 -0.00448954566697728 -0.0016298075785167261 0 -0.0021413166223245364 0.00047783807969161557 0 -0.00068643362004726166 -0.0027177385358370248 0 -0.0046419855008116052 -0.0016833879697899438 0 -0.0047949505443730701 -0.0019381461718382214 0 -0.0047934433622056193 -0.0019011666224004818 0 -0.0047794324787798562 -0.0018514725794370238 0 -0.0047949505443730701 -0.0019381461718382214 0 -0.0048129221747627831 -0.0019031465307942804 0 -0.0048803277344557656 -0.0018751392736759142 0 -0.0048803277344557656 -0.0018751392736759142 0 -0.0047872854484737274 -0.001879974540210096 0 -0.0048936257700341931 -0.0018461462786053084 0 -0.0048129221747627831 -0.0019031465307942804 0 -0.0048803277344557656 -0.0018751392736759142 0 -0.0047872854484737274 -0.001879974540210096 0 -0.0047872854484737274 -0.001879974540210096 0 -0.0049998243485529581 -0.0019753779845780822 0 -0.0047848365913796291 -0.0018499836201831129 0 -0.0047872854484737274 -0.001879974540210096 0 -0.0047794324787798562 -0.0018514725794370238 0 -0.0049998243485529581 -0.0019753779845780822 0 -0.0048129221747627831 -0.0019031465307942804 0 -0.0047872854484737274 -0.001879974540210096 0 -0.0047934433622056193 -0.0019011666224004818 0 -0.0047872854484737274 -0.001879974540210096 0 -0.0047934433622056193 -0.0019011666224004818 0 -0.0047794324787798562 -0.0018514725794370238 0 -0.0047949505443730701 -0.0019381461718382214 0 -0.0048129221747627831 -0.0019031465307942804 0 -0.0047934433622056193 -0.0019011666224004818 0 -0.0047794324787798562 -0.0018514725794370238 0 -0.0049998243485529581 -0.0019753779845780822 0 -0.0046419855008116052 -0.0016833879697899438 0 -0.0046419855008116052 -0.0016833879697899438 0 -0.0056936428642529093 -0.0021322713564372853 0 -0.0061926763775164593 -0.001599456489791388 0 -0.0049998243485529581 -0.0019753779845780822 0 -0.0046419855008116052 -0.0016833879697899438 0 -0.0056936428642529093 -0.0021322713564372853 0 -0.0056936428642529093 -0.0021322713564372853 0 -0.0061926763775164593 -0.001599456489791388 0 -0.0062185089983247746 -0.0023432571680271725 0 -0.0061926763775164593 -0.001599456489791388 0 -0.0072045985175609529 -0.0024628875263151646 0 -0.0062185089983247746 -0.0023432571680271725 0 -0.0061926763775164593 -0.001599456489791388 0 -0.0049359683430651759 0.0013488153264219502 0 -0.0077683122723335718 0.0029508934605174749 0 -0.0072559116508574021 -0.001721379611292799 0 -0.0085463088723139475 -0.0021311986002111312 0 -0.0061926763775164593 -0.001599456489791388 0 -0.0072045985175609529 -0.0024628875263151646 0 -0.0077683122723335718 0.0029508934605174749 0 -0.0019425016008193807 0.0036978835729400972 0 -0.0021413166223245364 0.00047783807969161557 0 -0.0049359683430651759 0.0013488153264219502 0 -0.0021413166223245364 0.00047783807969161557 0 -0.0046419855008116052 -0.0016833879697899438 0 -0.0049359683430651759 0.0013488153264219502 0 -0.0046419855008116052 -0.0016833879697899438 0 -0.0061926763775164593 -0.001599456489791388 0 -0.0049359683430651759 0.0013488153264219502 0 -0.0040323475036955353 -0.0045740642975535453 0 -0.0057772465071247265 -0.0026336082212855775 0 -0.004600987834075693 -0.0020502208182972387 0 -0.0040323475036955353 -0.0045740642975535453 0 -0.0057772465071247265 -0.0026336082212855775 0 -0.0072045985175609529 -0.0024628875263151646 0 -0.0057772465071247265 -0.0026336082212855775 0 -0.0072045985175609529 -0.0024628875263151646 0 -0.0062185089983247746 -0.0023432571680271725 0 -0.0040323475036955353 -0.0045740642975535453 0 -0.0072045985175609529 -0.0024628875263151646 0 -0.0054125848442249276 -0.0061450111038039166 0 -0.0040323475036955353 -0.0045740642975535453 0 -0.0036849411258785924 -0.006885910820600449 0 -0.0054125848442249276 -0.0061450111038039166 0 -0.0054125848442249276 -0.0061450111038039166 0 -0.0065317236261631488 -0.0083049787711414174 0 -0.0086171008679292067 -0.0055783515542981279 0 -0.0072045985175609529 -0.0024628875263151646 0 -0.0054125848442249276 -0.0061450111038039166 0 -0.0086171008679292067 -0.0055783515542981279 0 -0.0039863103360195645 0.0019395807567375361 0 -0.0048858498393126318 0.0010741549028818968 0 -0.0036849411258785924 -0.006885910820600449 0 -0.0036878114460995172 -0.0086089390747246825 0 -0.0054125848442249276 -0.0061450111038039166 0 -0.0036878114460995172 -0.0086089390747246825 0 -0.0054125848442249276 -0.0061450111038039166 0 -0.0065317236261631488 -0.0083049787711414174 0 -0.0057434597905147338 0.005132624246907227 0 -0.0040769406964025713 0.0040633415547492229 0 -0.0048226299597241267 0.0067459594362092078 0 -0.0040769406964025713 0.0040633415547492229 0 -0.0048226299597241267 0.0067459594362092078 0 -0.003102359098114643 0.0063719872862900082 0 -0.0019425016008193807 0.0036978835729400972 0 -0.0040769406964025713 0.0040633415547492229 0 -0.003102359098114643 0.0063719872862900082 0 -0.0019425016008193807 0.0036978835729400972 0 -0.0049359683430651759 0.0013488153264219502 0 -0.0040769406964025713 0.0040633415547492229 0 -0.0049359683430651759 0.0013488153264219502 0 -0.0057434597905147338 0.005132624246907227 0 -0.0040769406964025713 0.0040633415547492229 0 -0.0049359683430651759 0.0013488153264219502 0 -0.0057434597905147338 0.005132624246907227 0 -0.0077683122723335718 0.0029508934605174749 0 -0.0057434597905147338 0.005132624246907227 0 -0.0077683122723335718 0.0029508934605174749 0 -0.0064287288087976069 0.0086524712883956634 0 -0.0085463088723139475 -0.0021311986002111312 0 -0.0044580802104604153 0.0045280437455835626 0 -0.0048858498393126318 0.0010741549028818968 0 -0.0044580802104604153 0.0045280437455835626 0 -0.0065317236261631488 -0.0083049787711414174 0 -0.0086171008679292067 -0.0055783515542981279 0 -0.0097169254106869423 -0.0078823081498515281 0 -0.0029599017333372061 0.011134213353164439 0 -0.0012914432512959957 0.010824584239744707 0 -0.0020863614637773717 0.011812464825450231 0 -0.0044580802104604153 0.0045280437455835626 0 -0.0051943276508251172 0.0054470158047692204 0 -0.0064287288087976069 0.0086524712883956634 0 -0.0050705130333176711 0.0086900309910346273 0 -0.0048226299597241267 0.0067459594362092078 0 -0.0057434597905147338 0.005132624246907227 0 -0.0064287288087976069 0.0086524712883956634 0 -0.0048226299597241267 0.0067459594362092078 0 -0.0050705130333176711 0.0086900309910346273 0 -0.0048226299597241267 0.0067459594362092078 0 -0.0036681604258766115 0.0079736713263538067 0 -0.003102359098114643 0.0063719872862900082 0 -0.0036681604258766115 0.0079736713263538067 0 -0.0024223799794197407 0.0093562380897951377 0 -0.0048226299597241267 0.0067459594362092078 0 -0.003102359098114643 0.0063719872862900082 0 -0.0036681604258766115 0.0079736713263538067 0 -0.0050705130333176711 0.0086900309910346273 0 -0.0036681604258766115 0.0079736713263538067 0 -0.0024223799794197407 0.0093562380897951377 0 -0.0044580802104604153 0.0045280437455835626 0 -0.0015038016235681411 0.014114091410503566 0 -0.0050705130333176711 0.0086900309910346273 0 -0.0024223799794197407 0.0093562380897951377 0 -0.0032862824702877148 0.014029737610790875 0 -0.0063593079523144407 0.0088006084880643612 0 -0.0050705130333176711 0.0086900309910346273 0 -0.0032862824702877148 0.014029737610790875 0 -0.0012914432512959957 0.010824584239744707 0 -0.00042318897495820576 0.012370597098818424 0 -0.0020863614637773717 0.011812464825450231 0 -0.00042318897495820576 0.012370597098818424 0 -0.0020863614637773717 0.011812464825450231 0 -0.0021046094327546662 0.013102280355775601 0 -0.0015038016235681411 0.014114091410503566 0 -6.0329804912369901e-05 0.015304842191775348 0 -0.00042318897495820576 0.012370597098818424 0 -0.00090053976255122204 0.013930896581287202 0 0.00062407576470060696 0.014346758216296511 0 -0.00042318897495820576 0.012370597098818424 0 -0.0021046094327546662 0.013102280355775601 0 -0.00090053976255122204 0.013930896581287202 0 -0.0041175419224988583 0.011432270442490261 0 -0.0029599017333372061 0.011134213353164439 0 -0.0036881348386740083 0.012009045205256433 0 -0.0029599017333372061 0.011134213353164439 0 -0.0036881348386740083 0.012009045205256433 0 -0.0030918072349479845 0.012356452331691508 0 -0.0020863614637773717 0.011812464825450231 0 -0.0021046094327546662 0.013102280355775601 0 -0.0030918072349479845 0.012356452331691508 0 -0.0029599017333372061 0.011134213353164439 0 -0.0020863614637773717 0.011812464825450231 0 -0.0030918072349479845 0.012356452331691508 0 -0.0021046094327546662 0.013102280355775601 0 -0.0030918072349479845 0.012356452331691508 0 -0.0034775117405050153 0.013245088624590578 0 -0.0036881348386740083 0.012009045205256433 0 -0.0030918072349479845 0.012356452331691508 0 -0.0038834541198056551 0.012757623901460813 0 -0.0030918072349479845 0.012356452331691508 0 -0.0038834541198056551 0.012757623901460813 0 -0.0034775117405050153 0.013245088624590578 0 -0.0042019283643728433 0.01222800340276938 0 -0.0036881348386740083 0.012009045205256433 0 -0.0038834541198056551 0.012757623901460813 0 -0.0038834541198056551 0.012757623901460813 0 -0.0037922276422388264 0.013341309410883467 0 -0.0034775117405050153 0.013245088624590578 0 -0.0037922276422388264 0.013341309410883467 0 -0.0034775117405050153 0.013245088624590578 0 -0.0033196392916294863 0.013533408487766971 0 -0.0032897313619993608 0.013400640958586882 0 -0.0026613440854454744 0.014313246947310874 0 -0.0021046094327546662 0.013102280355775601 0 -0.0034775117405050153 0.013245088624590578 0 -0.001969677526221951 0.015235788000728162 0 -0.0034775117405050153 0.013245088624590578 0 -0.0033196392916294863 0.013533408487766971 0 -0.0028270514470030159 0.01348646483022177 0 -0.0033196392916294863 0.013533408487766971 0 -0.003123717235726194 0.01376102506805851 0 -0.0028270514470030159 0.01348646483022177 0 -0.0033069010932496243 0.013902028147951257 0 -0.0033196392916294863 0.013533408487766971 0 -0.003123717235726194 0.01376102506805851 0 -0.0043363451493917474 0.014263084774900604 0 -0.003086317844981441 0.013389423739310374 0 -0.0039454169230185472 0.013818096708127571 0 -0.0037922276422388264 0.013341309410883467 0 -0.0033196392916294863 0.013533408487766971 0 -0.0034824677970931427 0.013701827774986821 0 -0.0033069010932496243 0.013902028147951257 0 -0.0033196392916294863 0.013533408487766971 0 -0.00090053976255122204 0.013930896581287202 0 -0.00033935416621943252 0.015411154934426201 0 0.00062407576470060696 0.014346758216296511 0 -0.00090053976255122204 0.013930896581287202 0 -0.00033935416621943252 0.015411154934426201 0 -0.001969677526221951 0.015235788000728162 0 -0.0021046094327546662 0.013102280355775601 0 -0.00090053976255122204 0.013930896581287202 0 -0.001969677526221951 0.015235788000728162 0 -0.0028023561029031814 0.013943042755130534 0 -0.003123717235726194 0.01376102506805851 0 -0.0028270514470030159 0.01348646483022177 0 -0.0028023561029031814 0.013943042755130534 0 -0.0028270514470030159 0.01348646483022177 0 -0.0021353287672906912 0.013853957936960029 0 -0.00033935416621943252 0.015411154934426201 0 -0.001969677526221951 0.015235788000728162 0 0.0002575219509413918 0.017206116682195342 0 -0.00033935416621943252 0.015411154934426201 0 0.0002575219509413918 0.017206116682195342 0 0.000415474766127071 0.016058441087478986 0 -0.0026613440854454744 0.014313246947310874 0 0.00049601462531446918 0.015436149879724116 0 0.00049601462531446918 0.015436149879724116 0 0.002459491731182132 0.017099721877323656 0 0.0002575219509413918 0.017206116682195342 0 0.0011793934446909606 0.017051230132837793 0 0.000415474766127071 0.016058441087478986 0 0.0002575219509413918 0.017206116682195342 0 0.0011793934446909606 0.017051230132837793 0 0.0017074862592776116 0.017266445488263241 0 0.0011793934446909606 0.017051230132837793 0 0.000415474766127071 0.016058441087478986 0 0.00062407576470060696 0.014346758216296511 0 0.0011793934446909606 0.017051230132837793 0 -0.00038831815725741896 0.016832964121624973 0 0.0013242193180050105 0.016970899532938559 0 0.0010615168252226725 0.016952291410919373 0 -6.0329804912369901e-05 0.015304842191775348 0 -0.00033935416621943252 0.015411154934426201 0 0.000415474766127071 0.016058441087478986 0 0.00062407576470060696 0.014346758216296511 0 -0.00038831815725741896 0.016832964121624973 0 0.0018420062387823617 0.016469410548937635 0 0.0013242193180050105 0.016970899532938559 0 0.0018420062387823617 0.016469410548937635 0 0.0013242193180050105 0.016970899532938559 0 0.0019902191194117219 0.01692410276803118 0 0.0013242193180050105 0.016970899532938559 0 0.0017074862592776116 0.017266445488263241 0 0.0019902191194117219 0.01692410276803118 0 0.0011793934446909606 0.017051230132837793 0 0.0013242193180050105 0.016970899532938559 0 0.0017074862592776116 0.017266445488263241 0 0.0025061231225560802 0.016601394902831565 0 0.0027919350857703975 0.016740030020705905 0 0.0022833214764133919 0.016941049749420258 0 0.002459491731182132 0.017099721877323656 0 0.0021806564302965037 0.016946536304253228 0 0.0017074862592776116 0.017266445488263241 0 0.0022833214764133919 0.016941049749420258 0 0.0019902191194117219 0.01692410276803118 0 0.0021516282313646679 0.01659260730156176 0 0.0025061231225560802 0.016601394902831565 0 0.0022833214764133919 0.016941049749420258 0 0.001739785402094365 0.01678490771370807 0 0.0019108757042896527 0.01722366594798682 0 0.0022833214764133919 0.016941049749420258 0 0.0021516282313646679 0.01659260730156176 0 0.001739785402094365 0.01678490771370807 0 0.0022833214764133919 0.016941049749420258 0 0.0019108757042896527 0.01722366594798682 0 0.0022833214764133919 0.016941049749420258 0 0.0024353883399722697 0.016732558546654282 0 0.0018420062387823617 0.016469410548937635 0 0.0024353883399722697 0.016732558546654282 0 0.0019902191194117219 0.01692410276803118 0 0.0022833214764133919 0.016941049749420258 0 0.0024353883399722697 0.016732558546654282 0 0.0019902191194117219 0.01692410276803118 0 0.0024353883399722697 0.016732558546654282 0 0.0023652899467630031 0.016790975103994014 0 0.0032906099268255541 0.01574708322881024 0 0.0018420062387823617 0.016469410548937635 0 0.0024353883399722697 0.016732558546654282 0 0.0032906099268255541 0.01574708322881024 0 0.0019108757042896527 0.01722366594798682 0 0.0016334231060443447 0.017762503105648243 0 0.0023652899467630031 0.016790975103994014 0 0.0019108757042896527 0.01722366594798682 0 0.0024353883399722697 0.016732558546654282 0 0.0023652899467630031 0.016790975103994014 0 0.0016334231060443447 0.017762503105648243 0 0.001364078472411556 0.018525549646089073 0 0.0020914770113681946 0.01796408086190162 0 0.0016334231060443447 0.017762503105648243 0 0.0020914770113681946 0.01796408086190162 0 0.0023652899467630031 0.016790975103994014 0 0.0020914770113681946 0.01796408086190162 0 0.0023652899467630031 0.016790975103994014 0 0.0032906099268255541 0.01574708322881024 0 0.0020914770113681946 0.01796408086190162 0 0.0033282664261189967 0.018199386590312241 0 0.0032906099268255541 0.01574708322881024 0 0.0037970719003328633 0.01358860508583104 0 0.0034756574914653511 0.015340569989576367 0 0.0032906099268255541 0.01574708322881024 0 0.0016971612490302042 0.012286664610410234 0 0.00064582581642057214 0.014755491118066648 0 0.0045608726740866933 0.0088706089213151929 0 0.0032906099268255541 0.01574708322881024 0 0.0016971612490302042 0.012286664610410234 0 0.00044359751873920199 0.0092088270818607501 0 0.0016971612490302042 0.012286664610410234 0 -0.00048749406121752648 0.011954639663669673 0 -0.0024223799794197407 0.0093562380897951377 0 -0.0032862824702877148 0.014029737610790875 0 -0.00048749406121752648 0.011954639663669673 0 -0.0032862824702877148 0.014029737610790875 0 -0.00048749406121752648 0.011954639663669673 0 0.00064582581642057214 0.014755491118066648 0 0.0016971612490302042 0.012286664610410234 0 -0.00048749406121752648 0.011954639663669673 0 0.00064582581642057214 0.014755491118066648 0 -0.00038831815725741896 0.016832964121624973 0 0.0018420062387823617 0.016469410548937635 0 0.00064582581642057214 0.014755491118066648 0 -0.0032862824702877148 0.014029737610790875 0 -0.00038831815725741896 0.016832964121624973 0 0.00064582581642057214 0.014755491118066648 0 0.0018420062387823617 0.016469410548937635 0 0.0032906099268255541 0.01574708322881024 0 0.00064582581642057214 0.014755491118066648 0 -4.1428189450703156e-07 0.054997865228804441 0 -0.00013288638080890427 0.054276318595547865 0 -8.2523212365720301e-05 0.054516316944346326 0 -3.4128540851636518e-07 0.054483287650331676 0 -0.00013288638080890427 0.054276318595547865 0 0.00061291285496432662 0.053910868651200726 0 -3.4128540851636518e-07 0.054483287650331676 0 -0.00013288638080890427 0.054276318595547865 0 -8.2523212365720301e-05 0.054516316944346326 0 -0.00013288638080890427 0.054276318595547865 0 -0.00036693464407177228 0.053772398292328404 0 0.00012073243363493256 0.052709125980023495 0 -0.00013288638080890427 0.054276318595547865 0 0.00012073243363493256 0.052709125980023495 0 0.00061291285496432662 0.053910868651200726 0 -4.1428189450703156e-07 0.054997865228804441 0 -0.00013288638080890427 0.054276318595547865 0 -0.00036693464407177228 0.053772398292328404 0 -4.1428189450703156e-07 0.054997865228804441 0 -0.00036693464407177228 0.053772398292328404 0 -5.7007010507678675e-07 0.054994159549263358 0 -0.00036693464407177228 0.053772398292328404 0 -5.7007010507678675e-07 0.054994159549263358 0 -0.00030202441822047883 0.052096108118220991 0 -5.7007010507678675e-07 0.054994159549263358 0 -0.00030202441822047883 0.052096108118220991 0 -2.430901361942896e-06 0.050709992395687957 0 -0.00030202441822047883 0.052096108118220991 0 -2.430901361942896e-06 0.050709992395687957 0 4.4103499396203491e-06 0.050136218673124296 0 -0.00030202441822047883 0.052096108118220991 0 0.00012073243363493256 0.052709125980023495 0 4.4103499396203491e-06 0.050136218673124296 0 -0.00036693464407177228 0.053772398292328404 0 -0.00030202441822047883 0.052096108118220991 0 0.00012073243363493256 0.052709125980023495 0 0.00012073243363493256 0.052709125980023495 0 4.4103499396203491e-06 0.050136218673124296 0 0.0017366501382289341 0.051379786921860258 0 0.00012073243363493256 0.052709125980023495 0 0.0017366501382289341 0.051379786921860258 0 0.0019879488669355631 0.052906506458943355 0 4.4103499396203491e-06 0.050136218673124296 0 0.0014160260276040169 0.049330054724479808 0 0.0017366501382289341 0.051379786921860258 0 -2.430901361942896e-06 0.050709992395687957 0 4.4103499396203491e-06 0.050136218673124296 0 5.9744586528510628e-06 0.044703118624784953 0 4.4103499396203491e-06 0.050136218673124296 0 5.9744586528510628e-06 0.044703118624784953 0 0.0014160260276040169 0.049330054724479808 0 1.4780616325135243e-06 0.041586785752746207 0 -0.00022861047788108466 0.042813857597819333 0 0.001075604521532365 0.042848305034403081 0 2.6298381117220428e-07 0.044693850093326853 0 0.0013651175531839905 0.045455479486582816 0 -9.669225916578815e-07 0.044688761458263074 0 1.4780616325135243e-06 0.041586785752746207 0 -0.00022861047788108466 0.042813857597819333 0 5.9744586528510628e-06 0.044703118624784953 0 0.0014160260276040169 0.049330054724479808 0 0.0032245896478304207 0.048136005087910098 0 0.0014160260276040169 0.049330054724479808 0 0.0032245896478304207 0.048136005087910098 0 0.0028461904382080065 0.050187642388894026 0 0.0013651175531839905 0.045455479486582816 0 0.002669277734930268 0.047399400082828801 0 -0.00022861047788108466 0.042813857597819333 0 0.00096977186105796855 0.044196205618909974 0 0.001075604521532365 0.042848305034403081 0 0.0032245896478304207 0.048136005087910098 0 0.0028461904382080065 0.050187642388894026 0 0.004233304996939702 0.05005643035430199 0 0.0028461904382080065 0.050187642388894026 0 0.0033145003740270777 0.051504421168994882 0 0.004233304996939702 0.05005643035430199 0 0.0014160260276040169 0.049330054724479808 0 0.0028461904382080065 0.050187642388894026 0 0.0017366501382289341 0.051379786921860258 0 0.0028461904382080065 0.050187642388894026 0 0.0017366501382289341 0.051379786921860258 0 0.0033145003740270777 0.051504421168994882 0 0.0017366501382289341 0.051379786921860258 0 0.0033145003740270777 0.051504421168994882 0 0.0019879488669355631 0.052906506458943355 0 0.0033145003740270777 0.051504421168994882 0 0.0019879488669355631 0.052906506458943355 0 0.0037452810697788156 0.052945469675990613 0 0.0041513983357976741 0.043264461907260611 0 0.0050181625303629815 0.043225149300347217 0 0.0050619905507801504 0.042876062025132305 0 0.0019879488669355631 0.052906506458943355 0 0.0020956681067854084 0.054051996740576286 0 0.0037452810697788156 0.052945469675990613 0 0.0031228077635093044 0.048638605188266647 0 0.0044836807436985935 0.048019044829225713 0 0.0019879488669355631 0.052906506458943355 0 0.00061291285496432662 0.053910868651200726 0 0.0020956681067854084 0.054051996740576286 0 0.00012073243363493256 0.052709125980023495 0 0.0019879488669355631 0.052906506458943355 0 0.00061291285496432662 0.053910868651200726 0 0.00061291285496432662 0.053910868651200726 0 0.0008464850002314106 0.054561125791262328 0 0.0020956681067854084 0.054051996740576286 0 -3.4128540851636518e-07 0.054483287650331676 0 0.00061291285496432662 0.053910868651200726 0 0.0008464850002314106 0.054561125791262328 0 0.0027673361959988148 0.044560051877751493 0 0.0042334650275716521 0.044440666646715303 0 0.0036921819241499758 0.045614587733732524 0 0.0027673361959988148 0.044560051877751493 0 0.0042334650275716521 0.044440666646715303 0 0.0041513983357976741 0.043264461907260611 0 0.0042334650275716521 0.044440666646715303 0 0.0050079099854694227 0.043883390455092021 0 0.0046108152246573933 0.045002187977405246 0 0.0042334650275716521 0.044440666646715303 0 0.0041513983357976741 0.043264461907260611 0 0.0050079099854694227 0.043883390455092021 0 0.0041513983357976741 0.043264461907260611 0 0.0050079099854694227 0.043883390455092021 0 0.0050181625303629815 0.043225149300347217 0 0.001823101261138311 0.04954605669724451 0 0.0031228077635093044 0.048638605188266647 0 0.0054787572111300864 0.043293466517253409 0 0.0057944088411692202 0.043261087799340341 0 0.0056303930484392223 0.043104458146561657 0 0.0054787572111300864 0.043293466517253409 0 0.0057944088411692202 0.043261087799340341 0 0.0055838389838713158 0.043654709707401027 0 0.0054787572111300864 0.043293466517253409 0 0.0050079099854694227 0.043883390455092021 0 0.0050181625303629815 0.043225149300347217 0 0.0054787572111300864 0.043293466517253409 0 0.0050079099854694227 0.043883390455092021 0 0.0055838389838713158 0.043654709707401027 0 0.0050079099854694227 0.043883390455092021 0 0.0055838389838713158 0.043654709707401027 0 0.0052797020323454534 0.044344196777026272 0 0.0050079099854694227 0.043883390455092021 0 0.0052797020323454534 0.044344196777026272 0 0.0046108152246573933 0.045002187977405246 0 0.0055838389838713158 0.043654709707401027 0 0.0060507253972665234 0.043236912519129173 0 0.0056931002030503391 0.044134406905770016 0 0.0057944088411692202 0.043261087799340341 0 0.0055838389838713158 0.043654709707401027 0 0.0060507253972665234 0.043236912519129173 0 0.0060507253972665234 0.043236912519129173 0 0.005999565690178562 0.043041065681168424 0 0.0062948522243583896 0.042604330903852607 0 0.0057944088411692202 0.043261087799340341 0 0.0060507253972665234 0.043236912519129173 0 0.005999565690178562 0.043041065681168424 0 0.0062948522243583896 0.042604330903852607 0 0.0053868061624686211 0.042835200429826081 0 0.0052115358193785813 0.041741659960977402 0 0.005999565690178562 0.043041065681168424 0 0.0062948522243583896 0.042604330903852607 0 0.0053868061624686211 0.042835200429826081 0 0.005999565690178562 0.043041065681168424 0 0.0055378832314956425 0.043017036702822843 0 0.0056194611736412872 0.043072881568042891 0 0.0053868061624686211 0.042835200429826081 0 0.0055163689979393733 0.043723830086210516 0 0.0044034540339003654 0.043479825841071719 0 0.005999565690178562 0.043041065681168424 0 0.0053868061624686211 0.042835200429826081 0 0.0055163689979393733 0.043723830086210516 0 0.0059108723117822165 0.043068440135179929 0 0.0054177620766062019 0.043427628615123323 0 0.0057944088411692202 0.043261087799340341 0 0.005999565690178562 0.043041065681168424 0 0.0056303930484392223 0.043104458146561657 0 0.005999565690178562 0.043041065681168424 0 0.0056303930484392223 0.043104458146561657 0 0.0056194611736412872 0.043072881568042891 0 0.0056303930484392223 0.043104458146561657 0 0.0054905006040512532 0.043061680200528571 0 0.0054365004582516748 0.043030784356590669 0 0.0056303930484392223 0.043104458146561657 0 0.0054905006040512532 0.043061680200528571 0 0.0056194611736412872 0.043072881568042891 0 0.0054905006040512532 0.043061680200528571 0 0.0056194611736412872 0.043072881568042891 0 0.005464271285231667 0.043070429672890979 0 0.0055378832314956425 0.043017036702822843 0 0.0054239472137199533 0.043049656656876475 0 0.0053135522625748412 0.043040575226929396 0 0.0055378832314956425 0.043017036702822843 0 0.0054239472137199533 0.043049656656876475 0 0.0054895414654420405 0.043060487129342274 0 0.0054177620766062019 0.043427628615123323 0 0.0035573947287015732 0.041941804243296528 0 0.0054239472137199533 0.043049656656876475 0 0.0054895414654420405 0.043060487129342274 0 0.0054082756897557193 0.043065886785848204 0 0.0055378832314956425 0.043017036702822843 0 0.0054895414654420405 0.043060487129342274 0 0.0056194611736412872 0.043072881568042891 0 0.0054895414654420405 0.043060487129342274 0 0.0056194611736412872 0.043072881568042891 0 0.005464271285231667 0.043070429672890979 0 0.0054905006040512532 0.043061680200528571 0 0.005464271285231667 0.043070429672890979 0 0.0053908440627236974 0.043071224617508216 0 0.005464271285231667 0.043070429672890979 0 0.0054082756897557193 0.043065886785848204 0 0.0053871210629937794 0.043075574719438077 0 0.0054895414654420405 0.043060487129342274 0 0.005464271285231667 0.043070429672890979 0 0.0054082756897557193 0.043065886785848204 0 0.0054082756897557193 0.043065886785848204 0 0.0053270947309815948 0.043077441339997358 0 0.0053591319520062686 0.043053630337010332 0 0.0054082756897557193 0.043065886785848204 0 0.0053270947309815948 0.043077441339997358 0 0.0053871210629937794 0.043075574719438077 0 0.0054239472137199533 0.043049656656876475 0 0.0054082756897557193 0.043065886785848204 0 0.0053591319520062686 0.043053630337010332 0 0.0053270947309815948 0.043077441339997358 0 0.0053871210629937794 0.043075574719438077 0 0.005331576506536353 0.043084434955414502 0 0.005464271285231667 0.043070429672890979 0 0.0053871210629937794 0.043075574719438077 0 0.0053908440627236974 0.043071224617508216 0 0.0053871210629937794 0.043075574719438077 0 0.005331576506536353 0.043084434955414502 0 0.0053908440627236974 0.043071224617508216 0 0.005331576506536353 0.043084434955414502 0 0.0053908440627236974 0.043071224617508216 0 0.0052974877124997589 0.043087930607390863 0 0.0053908440627236974 0.043071224617508216 0 0.0052974877124997589 0.043087930607390863 0 0.0053595575010267141 0.043053230032019101 0 0.0053270947309815948 0.043077441339997358 0 0.005331576506536353 0.043084434955414502 0 0.0052466743900868073 0.043096416082837846 0 0.005331576506536353 0.043084434955414502 0 0.0052974877124997589 0.043087930607390863 0 0.0052466743900868073 0.043096416082837846 0 0.0054905006040512532 0.043061680200528571 0 0.0054365004582516748 0.043030784356590669 0 0.0053595575010267141 0.043053230032019101 0 0.0054905006040512532 0.043061680200528571 0 0.0053908440627236974 0.043071224617508216 0 0.0053595575010267141 0.043053230032019101 0 0.0053595575010267141 0.043053230032019101 0 0.0052854956572215249 0.043083705079224002 0 0.0052672613162399635 0.043074487191284351 0 0.0052974877124997589 0.043087930607390863 0 0.0053595575010267141 0.043053230032019101 0 0.0052854956572215249 0.043083705079224002 0 0.0054365004582516748 0.043030784356590669 0 0.0053595575010267141 0.043053230032019101 0 0.005335772613070648 0.043017319086177432 0 0.0053595575010267141 0.043053230032019101 0 0.005335772613070648 0.043017319086177432 0 0.0052672613162399635 0.043074487191284351 0 0.0054365004582516748 0.043030784356590669 0 0.005335772613070648 0.043017319086177432 0 0.0053218384678564712 0.042975272777404504 0 0.0054365004582516748 0.043030784356590669 0 0.0053218384678564712 0.042975272777404504 0 0.0053526348314950692 0.04306229711353924 0 0.0056303930484392223 0.043104458146561657 0 0.0054365004582516748 0.043030784356590669 0 0.0053526348314950692 0.04306229711353924 0 0.0054787572111300864 0.043293466517253409 0 0.0056303930484392223 0.043104458146561657 0 0.0053526348314950692 0.04306229711353924 0 0.0054787572111300864 0.043293466517253409 0 0.0053526348314950692 0.04306229711353924 0 0.0050181625303629815 0.043225149300347217 0 0.0053526348314950692 0.04306229711353924 0 0.0050181625303629815 0.043225149300347217 0 0.0050619905507801504 0.042876062025132305 0 0.0053218384678564712 0.042975272777404504 0 0.0053526348314950692 0.04306229711353924 0 0.0050619905507801504 0.042876062025132305 0 0.0053218384678564712 0.042975272777404504 0 0.0050619905507801504 0.042876062025132305 0 0.0053296440811912097 0.042990727779324715 0 0.0044836807436985935 0.048019044829225713 0 0.0045979354942206835 0.046383033296361675 0 0.0033145003740270777 0.051504421168994882 0 0.0037452810697788156 0.052945469675990613 0 0.0053609708534784594 0.051322094849190848 0 0.0053218384678564712 0.042975272777404504 0 0.0053265901894403965 0.043017447812399814 0 0.0053296440811912097 0.042990727779324715 0 0.005335772613070648 0.043017319086177432 0 0.0053218384678564712 0.042975272777404504 0 0.0053265901894403965 0.043017447812399814 0 0.005335772613070648 0.043017319086177432 0 0.0053265901894403965 0.043017447812399814 0 0.0052275507617712304 0.04310104784689215 0 0.0042819822341580559 0.044372880899841219 0 0.0045979354942206835 0.046383033296361675 0 0.0053265901894403965 0.043017447812399814 0 0.0052843222875093888 0.043117969838950054 0 0.0052275507617712304 0.04310104784689215 0 0.0054956654598210765 0.043165151667665137 0 0.0052843222875093888 0.043117969838950054 0 0.0051456710773944885 0.043206384597127195 0 0.0053265901894403965 0.043017447812399814 0 0.0054956654598210765 0.043165151667665137 0 0.0052843222875093888 0.043117969838950054 0 0.0054956654598210765 0.043165151667665137 0 0.004692067430660308 0.043370797487231556 0 0.0051456710773944885 0.043206384597127195 0 0.0026953781114568255 0.045922689040306698 0 0.0025508763251005408 0.04371894121748815 0 0.004692067430660308 0.043370797487231556 0 0.0045979354942206835 0.046383033296361675 0 0.0046672083372308838 0.042766197486685135 0 0.0026953781114568255 0.045922689040306698 0 0.00096977186105796855 0.044196205618909974 0 0.0025508763251005408 0.04371894121748815 0 0.0045979354942206835 0.046383033296361675 0 0.002669277734930268 0.047399400082828801 0 0.0033145003740270777 0.051504421168994882 0 0.0053609708534784594 0.051322094849190848 0 0.004233304996939702 0.05005643035430199 0 0.00096977186105796855 0.044196205618909974 0 0.001075604521532365 0.042848305034403081 0 0.0025508763251005408 0.04371894121748815 0 0.0025508763251005408 0.04371894121748815 0 0.0030614997850873572 0.042002610125853317 0 0.004692067430660308 0.043370797487231556 0 0.001075604521532365 0.042848305034403081 0 0.0025508763251005408 0.04371894121748815 0 0.0030614997850873572 0.042002610125853317 0 3.9145400761878934e-07 0.041580936633566074 0 2.8004429293658261e-07 0.038731112783682936 0 8.3561236122826554e-05 0.037898673792973375 0 1.4780616325135243e-06 0.041586785752746207 0 0.001075604521532365 0.042848305034403081 0 0.0030614997850873572 0.042002610125853317 0 -1.8784350058762805e-08 0.041581135061640212 0 0.0014191127869720207 0.039955275383248341 0 -1.9868268042094322e-07 0.035882338881128961 0 -4.6265877059509083e-05 0.034793285532436789 0 -0.0002368430400789373 0.0338865871269 0 8.3561236122826554e-05 0.037898673792973375 0 -1.9868268042094322e-07 0.035882338881128961 0 -4.6265877059509083e-05 0.034793285532436789 0 2.8004429293658261e-07 0.038731112783682936 0 8.3561236122826554e-05 0.037898673792973375 0 -1.9868268042094322e-07 0.035882338881128961 0 0.0014191127869720207 0.039955275383248341 0 0.0023942594465699951 0.038809160519859005 0 0.004692067430660308 0.043370797487231556 0 0.0052401443742510889 0.042987216135319674 0 0.0050378487778153644 0.043271668217478958 0 0.0030614997850873572 0.042002610125853317 0 0.004692067430660308 0.043370797487231556 0 0.0052401443742510889 0.042987216135319674 0 0.0052401443742510889 0.042987216135319674 0 0.0051836274020180271 0.043162006909013804 0 0.0050378487778153644 0.043271668217478958 0 0.0050378487778153644 0.043271668217478958 0 0.0051389462121603337 0.043180814580323038 0 0.0051191764970932351 0.043185939555489605 0 0.0051836274020180271 0.043162006909013804 0 0.0050378487778153644 0.043271668217478958 0 0.0051389462121603337 0.043180814580323038 0 0.0051836274020180271 0.043162006909013804 0 0.0051389462121603337 0.043180814580323038 0 0.0052007796431592047 0.04312869790958853 0 0.004692067430660308 0.043370797487231556 0 0.0050235608815311214 0.043246855133147223 0 0.0051456710773944885 0.043206384597127195 0 0.004692067430660308 0.043370797487231556 0 0.0050378487778153644 0.043271668217478958 0 0.0050235608815311214 0.043246855133147223 0 0.0050378487778153644 0.043271668217478958 0 0.0051191764970932351 0.043185939555489605 0 0.0050235608815311214 0.043246855133147223 0 0.0051191764970932351 0.043185939555489605 0 0.0050235608815311214 0.043246855133147223 0 0.0051349284155232221 0.043171992998354204 0 0.0050235608815311214 0.043246855133147223 0 0.0051456710773944885 0.043206384597127195 0 0.0051349284155232221 0.043171992998354204 0 0.0051456710773944885 0.043206384597127195 0 0.0052275507617712304 0.04310104784689215 0 0.0051349284155232221 0.043171992998354204 0 0.0052843222875093888 0.043117969838950054 0 0.0051456710773944885 0.043206384597127195 0 0.0052275507617712304 0.04310104784689215 0 0.0052275507617712304 0.04310104784689215 0 0.0051349284155232221 0.043171992998354204 0 0.0051908633780246389 0.043127820820380788 0 0.0052275507617712304 0.04310104784689215 0 0.0051908633780246389 0.043127820820380788 0 0.0052672613162399635 0.043074487191284351 0 0.0051191764970932351 0.043185939555489605 0 0.0051908633780246389 0.043127820820380788 0 0.0052136952607739831 0.043120992444383659 0 0.0051191764970932351 0.043185939555489605 0 0.0051349284155232221 0.043171992998354204 0 0.0051908633780246389 0.043127820820380788 0 0.0051908633780246389 0.043127820820380788 0 0.0052672613162399635 0.043074487191284351 0 0.0052136952607739831 0.043120992444383659 0 0.0052854956572215249 0.043083705079224002 0 0.0052672613162399635 0.043074487191284351 0 0.0052136952607739831 0.043120992444383659 0 0.005335772613070648 0.043017319086177432 0 0.0052275507617712304 0.04310104784689215 0 0.0052672613162399635 0.043074487191284351 0 0.0051389462121603337 0.043180814580323038 0 0.0052007796431592047 0.04312869790958853 0 0.0052136952607739831 0.043120992444383659 0 0.0051389462121603337 0.043180814580323038 0 0.0051191764970932351 0.043185939555489605 0 0.0052136952607739831 0.043120992444383659 0 0.0052974877124997589 0.043087930607390863 0 0.0052136952607739831 0.043120992444383659 0 0.0052419334088704443 0.04311164027413434 0 0.0052974877124997589 0.043087930607390863 0 0.0052854956572215249 0.043083705079224002 0 0.0052136952607739831 0.043120992444383659 0 0.0052007796431592047 0.04312869790958853 0 0.0052136952607739831 0.043120992444383659 0 0.0052419334088704443 0.04311164027413434 0 0.0052466743900868073 0.043096416082837846 0 0.0052007796431592047 0.04312869790958853 0 0.0052419334088704443 0.04311164027413434 0 0.0052974877124997589 0.043087930607390863 0 0.0052466743900868073 0.043096416082837846 0 0.0052419334088704443 0.04311164027413434 0 0.0052466743900868073 0.043096416082837846 0 0.0052007796431592047 0.04312869790958853 0 0.0051800186224037299 0.043072925436833061 0 0.0052466743900868073 0.043096416082837846 0 0.0051989693313735253 0.04306035201438338 0 0.0051800186224037299 0.043072925436833061 0 0.0051399790654711513 0.04304779050610192 0 0.0051540202628884329 0.042921537348483231 0 0.0051849687093604071 0.043013901901262031 0 0.005181597193208317 0.043039114061516691 0 0.0051346434794944003 0.043021168681538484 0 0.0051849687093604071 0.043013901901262031 0 0.0053000414174486244 0.042718883482626493 0 0.0051851832127561264 0.043070282051770069 0 0.0051989693313735253 0.04306035201438338 0 0.0051800186224037299 0.043072925436833061 0 0.005181597193208317 0.043039114061516691 0 0.0051989693313735253 0.04306035201438338 0 0.0051849687093604071 0.043013901901262031 0 0.005181597193208317 0.043039114061516691 0 0.0051989693313735253 0.04306035201438338 0 0.0051849687093604071 0.043013901901262031 0 0.0051851832127561264 0.043070282051770069 0 0.0026342192501991315 0.038976187890129653 0 0.00235159759680617 0.034506924928083785 0 0.0051800186224037299 0.043072925436833061 0 0.0050290718898271525 0.042984380792281132 0 0.0051406136666161655 0.043136348224103581 0 0.0050290718898271525 0.042984380792281132 0 0.0051406136666161655 0.043136348224103581 0 0.0048116801939153313 0.04300297799405943 0 0.0051836274020180271 0.043162006909013804 0 0.0051800186224037299 0.043072925436833061 0 0.0051406136666161655 0.043136348224103581 0 0.0051836274020180271 0.043162006909013804 0 0.0052007796431592047 0.04312869790958853 0 0.0051800186224037299 0.043072925436833061 0 -0.00033901642964979321 0.033560551923337463 0 -0.00014789971015556223 0.032546676446095928 0 -0.0002368430400789373 0.0338865871269 0 -4.6265877059509083e-05 0.034793285532436789 0 -0.00033901642964979321 0.033560551923337463 0 -0.0002368430400789373 0.0338865871269 0 0.0052401443742510889 0.042987216135319674 0 0.0051836274020180271 0.043162006909013804 0 0.0051406136666161655 0.043136348224103581 0 0.0023942594465699951 0.038809160519859005 0 0.0026342192501991315 0.038976187890129653 0 -0.00033901642964979321 0.033560551923337463 0 -0.00014789971015556223 0.032546676446095928 0 0.00084423926111617663 0.032932416160210309 0 -0.00014789971015556223 0.032546676446095928 0 -1.511545071799879e-06 0.033032360985966326 0 2.6631091666320653e-06 0.030187649465935162 0 -1.9868268042094322e-07 0.035882338881128961 0 -1.511545071799879e-06 0.033032360985966326 0 -0.0002368430400789373 0.0338865871269 0 -0.00014789971015556223 0.032546676446095928 0 -1.511545071799879e-06 0.033032360985966326 0 -0.0002368430400789373 0.0338865871269 0 -0.00022632451082327674 0.028276585326433755 0 -1.4310159383160279e-06 0.028132248573044558 0 1.3511868189625256e-06 0.030179454968941741 0 -0.00016483018164773573 0.027751287358207932 0 -0.00022632451082327674 0.028276585326433755 0 -1.4310159383160279e-06 0.028132248573044558 0 -0.00022632451082327674 0.028276585326433755 0 1.3511868189625256e-06 0.030179454968941741 0 0.00024175408298708379 0.028246397280736725 0 3.6563713404774822e-07 0.030183916640905344 0 0.00033919280283060868 0.029920054379355479 0 -0.00014789971015556223 0.032546676446095928 0 2.6631091666320653e-06 0.030187649465935162 0 0.00084423926111617663 0.032932416160210309 0 0.00033919280283060868 0.029920054379355479 0 0.00235159759680617 0.034506924928083785 0 -0.00033901642964979321 0.033560551923337463 0 0.00084423926111617663 0.032932416160210309 0 0.0009836356261193036 0.033967459509304333 0 0.00024175408298708379 0.028246397280736725 0 -0.00016112867890164071 0.02806059513495256 0 0.00014718118014192473 0.027918407388379272 0 -0.00022632451082327674 0.028276585326433755 0 0.00024175408298708379 0.028246397280736725 0 -0.00016112867890164071 0.02806059513495256 0 -0.0002178869018873604 0.02819996853686477 0 -0.00022632451082327674 0.028276585326433755 0 -0.00016112867890164071 0.02806059513495256 0 -0.0002178869018873604 0.02819996853686477 0 -0.00016483018164773573 0.027751287358207932 0 -0.00022632451082327674 0.028276585326433755 0 -0.00011351588581532441 0.027731438710551604 0 0.00035746830736089889 0.027698558140587085 0 -0.000570074437469349 0.029716336634035025 0 0.00033927252593855817 0.031233927179903583 0 0.00032645923686338169 0.027511930550516921 0 -0.00023656981268350153 0.027118156964080414 0 -0.00041582583803689643 0.027669152714574985 0 9.2999524861317692e-05 0.026797336620817735 0 0.00032645923686338169 0.027511930550516921 0 -0.00023656981268350153 0.027118156964080414 0 5.6255476641735611e-05 0.027648836319841556 0 0.00033927252593855817 0.031233927179903583 0 -0.00016112867890164071 0.02806059513495256 0 5.1652778532279239e-05 0.027884426961235706 0 0.00014718118014192473 0.027918407388379272 0 -0.00023656981268350153 0.027118156964080414 0 -0.00041582583803689643 0.027669152714574985 0 -0.00064217193001774833 0.027594000264934537 0 0.00035746830736089889 0.027698558140587085 0 0.0015076249928505389 0.032401315103685956 0 0.00096201524352378792 0.033939608295353134 0 0.0017616539235142375 0.034239554189425446 0 0.0022204832812759761 0.033752069023316171 0 0.00033927252593855817 0.031233927179903583 0 0.0024180782076399527 0.036911131133934225 0 0.00033927252593855817 0.031233927179903583 0 0.0015076249928505389 0.032401315103685956 0 0.0051540202628884329 0.042921537348483231 0 0.0040533029812192924 0.040002576628638493 0 0.0050290718898271525 0.042984380792281132 0 0.0048244070825621864 0.04294708273797327 0 0.0048116801939153313 0.04300297799405943 0 0.0015076249928505389 0.032401315103685956 0 0.00235159759680617 0.034506924928083785 0 0.0020472685837342858 0.033937371859033096 0 0.0022875243249092245 0.03368234364763649 0 0.0024159632633146281 0.034072722648670069 0 0.0024180782076399527 0.036911131133934225 0 0.00235159759680617 0.034506924928083785 0 0.0015076249928505389 0.032401315103685956 0 0.0024180782076399527 0.036911131133934225 0 0.0024180782076399527 0.036911131133934225 0 0.0040533029812192924 0.040002576628638493 0 0.004787096799422243 0.04294395311306367 0 0.0048244070825621864 0.04294708273797327 0 0.0048116801939153313 0.04300297799405943 0 0.0028046337443428412 0.037794094341899606 0 0.0028758408454708025 0.03884517735529977 0 0.002747118978137523 0.038652485457101454 0 0.0024180782076399527 0.036911131133934225 0 0.0037904451894893742 0.041276762477911039 0 0.0051849132372132926 0.043636223239838706 0 0.0040533029812192924 0.040002576628638493 0 0.0051849687093604071 0.043013901901262031 0 0.0053000414174486244 0.042718883482626493 0 0.00528003333368333 0.042733453541211115 0 0.0028046337443428412 0.037794094341899606 0 0.002747118978137523 0.038652485457101454 0 0.002091675768175654 0.038610354909040086 0 0.0024180782076399527 0.036911131133934225 0 0.00016152489086291905 0.034134652082449382 0 -0.0010184379607184929 0.031794845885120375 0 -1.0977849156148033e-05 0.032202646353648189 0 -0.00023389481881903968 0.031516804152858444 0 0.00041420453943949681 0.032145426296988772 0 -0.00023389481881903968 0.031516804152858444 0 0.00028377066089439642 0.03058666653388779 0 -1.0977849156148033e-05 0.032202646353648189 0 0.00041420453943949681 0.032145426296988772 0 -0.00023389481881903968 0.031516804152858444 0 -0.0038292911751816785 0.026241995539417879 0 -0.0035570951891941813 0.024712746880018122 0 -0.0053438980996178996 0.025406848071104448 0 -0.00088702770372408321 0.030908840384363652 0 -0.00023389481881903968 0.031516804152858444 0 0.00028377066089439642 0.03058666653388779 0 -0.0025761161815368379 0.027478408482671992 0 0.00016152489086291905 0.034134652082449382 0 -0.0038292911751816785 0.026241995539417879 0 -0.005290921911176619 0.025910913930379881 0 -0.0053438980996178996 0.025406848071104448 0 -0.0013115068966169988 0.03544546926921284 0 -0.0011922081920048833 0.036764650901077452 0 -0.00082470661308871795 0.036825520838289466 0 -0.00097635637733996987 0.035017949881422247 0 -0.0033501516760573455 0.033257487640350594 0 -0.0038292911751816785 0.026241995539417879 0 -0.005290921911176619 0.025910913930379881 0 -0.0046831566240375056 0.027596197445140958 0 -0.00097635637733996987 0.035017949881422247 0 -0.00059846064694845974 0.041053393095099713 0 0.0015632887924718246 0.044438419191177789 0 0.0028184397406403167 0.045225643048318269 0 0.0021311781072094003 0.043912223691952461 0 0.0015632887924718246 0.044438419191177789 0 0.0010631761260440676 0.045169690653604253 0 0.0028184397406403167 0.045225643048318269 0 0.0015632887924718246 0.044438419191177789 0 0.0010631761260440676 0.045169690653604253 0 0.00088174599376082208 0.043654048069029956 0 0.0024244618262063669 0.038833959611419416 0 0.0028279230957186118 0.038871886966903517 0 0.0021259577005100809 0.039149584512574942 0 0.0010631761260440676 0.045169690653604253 0 0.0012338179634527708 0.045603600245577754 0 0.0028184397406403167 0.045225643048318269 0 0.0011327843144230973 0.036577609519216001 0 0.0023127317530372521 0.042571648705895353 0 0.0024244618262063669 0.038833959611419416 0 0.002747118978137523 0.038652485457101454 0 0.002091675768175654 0.038610354909040086 0 0.0024244618262063669 0.038833959611419416 0 0.0028279230957186118 0.038871886966903517 0 0.002747118978137523 0.038652485457101454 0 -0.00097635637733996987 0.035017949881422247 0 0.00016152489086291905 0.034134652082449382 0 -0.00092463902742376996 0.035232738724474057 0 -0.00082303455872983426 0.035486080149501817 0 -0.00088837875183262686 0.035506251369756124 0 -0.00097635637733996987 0.035017949881422247 0 0.0011327843144230973 0.036577609519216001 0 0.0028234353949213673 0.038860639515958674 0 0.0028758408454708025 0.03884517735529977 0 0.002747118978137523 0.038652485457101454 0 0.0011327843144230973 0.036577609519216001 0 0.0020751669964233135 0.038376706501161449 0 0.0011327843144230973 0.036577609519216001 0 0.00016152489086291905 0.034134652082449382 0 0.002091675768175654 0.038610354909040086 0 0.0014282974227655071 0.039427774939340729 0 0.0021259577005100809 0.039149584512574942 0 0.0051989693313735253 0.04306035201438338 0 0.0051851832127561264 0.043070282051770069 0 0.005253356400620429 0.043076870044373737 0 0.0024244618262063669 0.038833959611419416 0 0.002091675768175654 0.038610354909040086 0 0.0021259577005100809 0.039149584512574942 0 0.0052466743900868073 0.043096416082837846 0 0.0051989693313735253 0.04306035201438338 0 0.005253356400620429 0.043076870044373737 0 0.0053270947309815948 0.043077441339997358 0 0.005253356400620429 0.043076870044373737 0 0.0053135522625748412 0.043040575226929396 0 0.0037904451894893742 0.041276762477911039 0 0.0035573947287015732 0.041941804243296528 0 0.0051851832127561264 0.043070282051770069 0 0.005253356400620429 0.043076870044373737 0 0.0053135522625748412 0.043040575226929396 0 0.0053270947309815948 0.043077441339997358 0 0.0052466743900868073 0.043096416082837846 0 0.005253356400620429 0.043076870044373737 0 0.0035573947287015732 0.041941804243296528 0 0.0023127317530372521 0.042571648705895353 0 0.0053270947309815948 0.043077441339997358 0 0.0053591319520062686 0.043053630337010332 0 0.0053135522625748412 0.043040575226929396 0 0.0045432758625663103 0.044796150117300905 0 0.0033988758865714313 0.044228191893941303 0 0.0044034540339003654 0.043479825841071719 0 0.0054239472137199533 0.043049656656876475 0 0.0053591319520062686 0.043053630337010332 0 0.0053135522625748412 0.043040575226929396 0 0.0045432758625663103 0.044796150117300905 0 0.0028184397406403167 0.045225643048318269 0 0.0033988758865714313 0.044228191893941303 0 0.0028184397406403167 0.045225643048318269 0 0.0033988758865714313 0.044228191893941303 0 0.0021311781072094003 0.043912223691952461 0 0.0030589610530101152 0.042997079776586539 0 0.0017071981410910124 0.041939890680344268 0 0.0015527193838859568 0.044103793488378944 0 0.00310674765241827 0.044191050328811987 0 0.0020427869138165775 0.043953040914578169 0 0.0033988758865714313 0.044228191893941303 0 0.0030589610530101152 0.042997079776586539 0 0.0015527193838859568 0.044103793488378944 0 0.0055163689979393733 0.043723830086210516 0 0.0045432758625663103 0.044796150117300905 0 0.0044034540339003654 0.043479825841071719 0 0.0033988758865714313 0.044228191893941303 0 0.0030589610530101152 0.042997079776586539 0 0.0044034540339003654 0.043479825841071719 0 0.0030589610530101152 0.042997079776586539 0 0.0044034540339003654 0.043479825841071719 0 0.0041539701403310062 0.042310745845159273 0 0.0053868061624686211 0.042835200429826081 0 0.0044034540339003654 0.043479825841071719 0 0.0041539701403310062 0.042310745845159273 0 0.0041539701403310062 0.042310745845159273 0 0.0035143695504364536 0.040865823067176822 0 0.0052115358193785813 0.041741659960977402 0 0.0053868061624686211 0.042835200429826081 0 0.0041539701403310062 0.042310745845159273 0 0.0052115358193785813 0.041741659960977402 0 0.0030589610530101152 0.042997079776586539 0 0.0029052922910226819 0.041730727614756498 0 0.0017071981410910124 0.041939890680344268 0 0.0030589610530101152 0.042997079776586539 0 0.0041539701403310062 0.042310745845159273 0 0.0029052922910226819 0.041730727614756498 0 0.0029052922910226819 0.041730727614756498 0 0.002012166003829613 0.040273197055277016 0 0.0035143695504364536 0.040865823067176822 0 0.0041539701403310062 0.042310745845159273 0 0.0029052922910226819 0.041730727614756498 0 0.0035143695504364536 0.040865823067176822 0 0.0029052922910226819 0.041730727614756498 0 0.0017071981410910124 0.041939890680344268 0 0.002012166003829613 0.040273197055277016 0 0.0017071981410910124 0.041939890680344268 0 0.00045654620264161015 0.040321995943404319 0 0.002012166003829613 0.040273197055277016 0 0.0017071981410910124 0.041939890680344268 0 0.00033879632497636454 0.042244816777383218 0 0.00045654620264161015 0.040321995943404319 0 0.00033879632497636454 0.042244816777383218 0 0.00045654620264161015 0.040321995943404319 0 -0.00096013416505988088 0.040893028880182244 0 -0.0033368829702712264 0.035342255371190075 0 -0.0033501516760573455 0.033257487640350594 0 -0.0027748417846009833 0.04005350066340195 0 -0.00096013416505988088 0.040893028880182244 0 -0.0014795797101687051 0.043466849442314479 0 0.00045654620264161015 0.040321995943404319 0 -0.00096013416505988088 0.040893028880182244 0 -0.0010307716956517636 0.038400944148602782 0 -0.004283876786843774 0.029736021351240049 0 -0.0034494589151386475 0.028348095155125409 0 -0.0050588821964138754 0.027042952908971275 0 -0.0027748417846009833 0.04005350066340195 0 -0.00096013416505988088 0.040893028880182244 0 -0.0010307716956517636 0.038400944148602782 0 0.00033879632497636454 0.042244816777383218 0 -0.00096013416505988088 0.040893028880182244 0 -0.00064341757310176675 0.043808801733141833 0 -0.0008589437594919456 0.042097796769624628 0 -0.00059846064694845974 0.041053393095099713 0 -0.00096013416505988088 0.040893028880182244 0 -0.00069862303555262659 0.04359820975257752 0 -0.0014795797101687051 0.043466849442314479 0 -0.00059846064694845974 0.041053393095099713 0 -0.0033501516760573455 0.033257487640350594 0 -0.00059846064694845974 0.041053393095099713 0 0.0020427869138165775 0.043953040914578169 0 0.00033879632497636454 0.042244816777383218 0 -0.00064341757310176675 0.043808801733141833 0 0.0015527193838859568 0.044103793488378944 0 0.0015632887924718246 0.044438419191177789 0 0.00088174599376082208 0.043654048069029956 0 0.0021311781072094003 0.043912223691952461 0 0.0017071981410910124 0.041939890680344268 0 0.00033879632497636454 0.042244816777383218 0 0.0015527193838859568 0.044103793488378944 0 0.00047710933220397242 0.037913694529465462 0 0.001962404081343851 0.035800945779866908 0 -0.0012366526724325421 0.035039278174786519 0 -0.002308875078940485 0.034768845003566654 0 -0.0016784604707373203 0.035848835427237359 0 -0.0012366526724325421 0.035039278174786519 0 -0.0030685699400885714 0.034412307634857017 0 -0.0016784604707373203 0.035848835427237359 0 -0.0010307716956517636 0.038400944148602782 0 -0.0016784604707373203 0.035848835427237359 0 0.00047710933220397242 0.037913694529465462 0 -0.0012366526724325421 0.035039278174786519 0 -0.0016784604707373203 0.035848835427237359 0 -0.0010307716956517636 0.038400944148602782 0 0.00047710933220397242 0.037913694529465462 0 -0.0027748417846009833 0.04005350066340195 0 -0.0030685699400885714 0.034412307634857017 0 -0.0010307716956517636 0.038400944148602782 0 0.00045654620264161015 0.040321995943404319 0 0.00047710933220397242 0.037913694529465462 0 0.002012166003829613 0.040273197055277016 0 0.00045654620264161015 0.040321995943404319 0 -0.0010307716956517636 0.038400944148602782 0 0.00047710933220397242 0.037913694529465462 0 0.00047710933220397242 0.037913694529465462 0 0.002012166003829613 0.040273197055277016 0 0.0027794101479988033 0.03874590749178318 0 0.002012166003829613 0.040273197055277016 0 0.0035143695504364536 0.040865823067176822 0 0.0027794101479988033 0.03874590749178318 0 0.0035143695504364536 0.040865823067176822 0 0.0052115358193785813 0.041741659960977402 0 0.0043302374897565415 0.039645762358973158 0 0.0035143695504364536 0.040865823067176822 0 0.0043302374897565415 0.039645762358973158 0 0.0027794101479988033 0.03874590749178318 0 0.0052115358193785813 0.041741659960977402 0 0.0043302374897565415 0.039645762358973158 0 0.005628827317337411 0.040709715206845541 0 0.0040649122387467623 0.037727721457167705 0 0.0052842026441371681 0.036027650978323257 0 0.0062909320312215409 0.038370108702522006 0 0.0043302374897565415 0.039645762358973158 0 0.0040649122387467623 0.037727721457167705 0 0.0062909320312215409 0.038370108702522006 0 0.0043302374897565415 0.039645762358973158 0 0.0040649122387467623 0.037727721457167705 0 0.0027794101479988033 0.03874590749178318 0 0.0040649122387467623 0.037727721457167705 0 0.0027794101479988033 0.03874590749178318 0 0.001962404081343851 0.035800945779866908 0 0.00047710933220397242 0.037913694529465462 0 0.0027794101479988033 0.03874590749178318 0 0.001962404081343851 0.035800945779866908 0 0.00084425069835224664 0.034913893189876519 0 0.0039272726794272036 0.039593461018564258 0 0.0040649122387467623 0.037727721457167705 0 0.001962404081343851 0.035800945779866908 0 0.0052842026441371681 0.036027650978323257 0 3.2466188488836298e-05 0.034999122100657608 0 0.0014087308449181378 0.034942559886843805 0 0.00089845572772417903 0.033981650253188236 0 0.0015795107422077426 0.042523421833097326 0 0.00018689565486500854 0.039872056676285239 0 0.0029611213305638516 0.040487686348767801 0 0.0039272726794272036 0.039593461018564258 0 0.00056800261461430082 0.037116568810433889 0 3.2466188488836298e-05 0.034999122100657608 0 0.00089845572772417903 0.033981650253188236 0 -0.00031946341977724272 0.033926498327334062 0 -0.00031946341977724272 0.033926498327334062 0 -0.0012366526724325421 0.035039278174786519 0 -0.0014376820962355434 0.033910963154452418 0 0.00084425069835224664 0.034913893189876519 0 -0.0011202869618114966 0.035244778371618012 0 3.2466188488836298e-05 0.034999122100657608 0 -0.00031946341977724272 0.033926498327334062 0 -0.0012366526724325421 0.035039278174786519 0 -0.002308875078940485 0.034768845003566654 0 -0.0012366526724325421 0.035039278174786519 0 -0.0014376820962355434 0.033910963154452418 0 -0.0023244622856049644 0.034013520451850063 0 -0.0014376820962355434 0.033910963154452418 0 -0.0017344781627917181 0.03261021423534563 0 -0.0014376820962355434 0.033910963154452418 0 -0.00068229470374695791 0.032817801670293918 0 -0.0017344781627917181 0.03261021423534563 0 -0.00031946341977724272 0.033926498327334062 0 -0.0014376820962355434 0.033910963154452418 0 -0.00068229470374695791 0.032817801670293918 0 -0.0050956497147525278 0.025584593969185949 0 -0.0049527365691161814 0.025432490607411855 0 -0.0047610072779766628 0.025662678834074231 0 -0.0050956497147525278 0.025584593969185949 0 -0.0047610072779766628 0.025662678834074231 0 -0.0051430786643487034 0.025760197692877816 0 -0.0050956497147525278 0.025584593969185949 0 -0.0051430786643487034 0.025760197692877816 0 -0.0051946051375646616 0.025656570504939247 0 -0.0047610072779766628 0.025662678834074231 0 -0.0043784922108751137 0.025419993425724246 0 -0.0045604824292011775 0.026259294198744169 0 -0.0015694104934163172 0.023517496820475436 0 -0.0028703230728333289 0.02161671139323542 0 -0.0029691217557027668 0.024533186006148767 0 -0.0030800968667745094 0.029126253166638416 0 -0.0020527145686243631 0.025095570466722391 0 -0.0049527365691161814 0.025432490607411855 0 -0.0047610072779766628 0.025662678834074231 0 -0.0043784922108751137 0.025419993425724246 0 -0.0020527145686243631 0.025095570466722391 0 -0.0049363691601893465 0.025567784183348451 0 -0.0028703230728333289 0.02161671139323542 0 -0.0029691217557027668 0.024533186006148767 0 -0.0045604824292011775 0.026259294198744169 0 -0.0020732925597722186 0.025181198396568603 0 -0.0029691217557027668 0.024533186006148767 0 -0.0030813468595476822 0.026313711227524569 0 -0.0021220471112200468 0.026492788308219394 0 -0.0020732925597722186 0.025181198396568603 0 -0.0030813468595476822 0.026313711227524569 0 -0.0029691217557027668 0.024533186006148767 0 -0.0045604824292011775 0.026259294198744169 0 -0.0030813468595476822 0.026313711227524569 0 -0.0051430786643487034 0.025760197692877816 0 -0.0054391165187115537 0.026360374787038596 0 -0.0052880981550645642 0.025567065301931709 0 -0.0043341867294541085 0.029271224262242483 0 -0.0044291245621334747 0.029049631976369911 0 -0.0047610072779766628 0.025662678834074231 0 -0.0049583249928266872 0.025965718076326121 0 -0.0051430786643487034 0.025760197692877816 0 -0.0047610072779766628 0.025662678834074231 0 -0.0049583249928266872 0.025965718076326121 0 -0.0045604824292011775 0.026259294198744169 0 -0.0049583249928266872 0.025965718076326121 0 -0.0051430786643487034 0.025760197692877816 0 -0.0054391165187115537 0.026360374787038596 0 -0.0049583249928266872 0.025965718076326121 0 -0.0054391165187115537 0.026360374787038596 0 -0.0045604824292011775 0.026259294198744169 0 -0.0043341867294541085 0.029271224262242483 0 -0.0039164316290094163 0.029553021664756159 0 -0.0054391165187115537 0.026360374787038596 0 -0.0045604824292011775 0.026259294198744169 0 -0.0038552013289803754 0.027353694435476878 0 -0.0054391165187115537 0.026360374787038596 0 -0.0038552013289803754 0.027353694435476878 0 -0.0037827041469345834 0.029568825983950123 0 -0.0028483491199866673 0.03153957663425512 0 -0.0027241342460191565 0.030668787142060019 0 -0.0037827041469345834 0.029568825983950123 0 -0.0035774279000153546 0.03184942629259116 0 -0.0028483491199866673 0.03153957663425512 0 -0.0037827041469345834 0.029568825983950123 0 -0.0028536344121112981 0.027636492857102585 0 -0.0038552013289803754 0.027353694435476878 0 -0.0037827041469345834 0.029568825983950123 0 -0.0028536344121112981 0.027636492857102585 0 -0.0024249341582787713 0.028614650472626943 0 -0.0037827041469345834 0.029568825983950123 0 -0.0028536344121112981 0.027636492857102585 0 -0.0030813468595476822 0.026313711227524569 0 -0.0038552013289803754 0.027353694435476878 0 -0.0021220471112200468 0.026492788308219394 0 -0.0028536344121112981 0.027636492857102585 0 -0.0030813468595476822 0.026313711227524569 0 -0.0045604824292011775 0.026259294198744169 0 -0.0030813468595476822 0.026313711227524569 0 -0.0038552013289803754 0.027353694435476878 0 -0.0018932777325193126 0.032040291300669578 0 -0.0020140453937150743 0.031154880219727777 0 -0.0023515712001612767 0.031653543027293389 0 -0.0018932777325193126 0.032040291300669578 0 -0.0020140453937150743 0.031154880219727777 0 -0.0012428189473250087 0.031686950702018109 0 -0.0018932777325193126 0.032040291300669578 0 -0.0013556413865659432 0.032219111439161362 0 -0.0012428189473250087 0.031686950702018109 0 -0.0020140453937150743 0.031154880219727777 0 -0.0012428189473250087 0.031686950702018109 0 -0.0016115164894312892 0.030791842573856223 0 -0.0020140453937150743 0.031154880219727777 0 -0.0023515712001612767 0.031653543027293389 0 -0.0027241342460191565 0.030668787142060019 0 -0.0028483491199866673 0.03153957663425512 0 -0.0023515712001612767 0.031653543027293389 0 -0.0027241342460191565 0.030668787142060019 0 -0.0028483491199866673 0.03153957663425512 0 -0.0023515712001612767 0.031653543027293389 0 -0.0026190966465190861 0.032357728623445089 0 -0.0035774279000153546 0.03184942629259116 0 -0.0030101253785577171 0.03230477042828752 0 -0.0029862353080456249 0.033455315229816734 0 -0.0023515712001612767 0.031653543027293389 0 -0.0026190966465190861 0.032357728623445089 0 -0.002177640507109896 0.032511082058999677 0 -0.0028483491199866673 0.03153957663425512 0 -0.0026190966465190861 0.032357728623445089 0 -0.0030101253785577171 0.03230477042828752 0 -0.0035774279000153546 0.03184942629259116 0 -0.0028483491199866673 0.03153957663425512 0 -0.0030101253785577171 0.03230477042828752 0 -0.0026190966465190861 0.032357728623445089 0 -0.0030101253785577171 0.03230477042828752 0 -0.0029862353080456249 0.033455315229816734 0 -0.0026190966465190861 0.032357728623445089 0 -0.002294136781088604 0.033099625416691342 0 -0.0029862353080456249 0.033455315229816734 0 -0.0026190966465190861 0.032357728623445089 0 -0.002294136781088604 0.033099625416691342 0 -0.002177640507109896 0.032511082058999677 0 -0.002294136781088604 0.033099625416691342 0 -0.002177640507109896 0.032511082058999677 0 -0.0015430849372994105 0.032970401865176913 0 -0.0018932777325193126 0.032040291300669578 0 -0.002177640507109896 0.032511082058999677 0 -0.0015430849372994105 0.032970401865176913 0 -0.0018932777325193126 0.032040291300669578 0 -0.0023515712001612767 0.031653543027293389 0 -0.002177640507109896 0.032511082058999677 0 -0.0013556413865659432 0.032219111439161362 0 -0.0015430849372994105 0.032970401865176913 0 -0.00095492824956743645 0.032607025924656377 0 -0.0018932777325193126 0.032040291300669578 0 -0.0013556413865659432 0.032219111439161362 0 -0.0015430849372994105 0.032970401865176913 0 -0.0019851337808192847 0.03419412302578536 0 -0.0010191305241066273 0.034929053707997031 0 -0.00091873943479667383 0.033901716246553769 0 -0.0015430849372994105 0.032970401865176913 0 -0.0019851337808192847 0.03419412302578536 0 -0.00091873943479667383 0.033901716246553769 0 -0.002294136781088604 0.033099625416691342 0 -0.0015430849372994105 0.032970401865176913 0 -0.0019851337808192847 0.03419412302578536 0 -0.0050956497147525278 0.025584593969185949 0 -0.0049527365691161814 0.025432490607411855 0 -0.00527392120202177 0.025509075238474524 0 -0.0058693624713966591 0.0264899757014673 0 -0.0044291245621334747 0.029049631976369911 0 -0.002294136781088604 0.033099625416691342 0 -0.0019851337808192847 0.03419412302578536 0 -0.0029862353080456249 0.033455315229816734 0 -0.0044291245621334747 0.029049631976369911 0 -0.0018747522743002758 0.032624650264626756 0 -0.0011718608120856323 0.03335647547521868 0 -0.0050965329856628187 0.030920591768316481 0 -0.0031993749709797671 0.03463513656556428 0 -0.0016834895219357395 0.033710024703250886 0 -0.0044291245621334747 0.029049631976369911 0 -0.0050956497147525278 0.025584593969185949 0 -0.0051946051375646616 0.025656570504939247 0 -0.00527392120202177 0.025509075238474524 0 -0.0030800968667745094 0.029126253166638416 0 -0.0018747522743002758 0.032624650264626756 0 0.00089845572772417903 0.033981650253188236 0 -0.00031946341977724272 0.033926498327334062 0 0.00040009920825295948 0.033029464733280743 0 -0.00031946341977724272 0.033926498327334062 0 -0.00068229470374695791 0.032817801670293918 0 0.00040009920825295948 0.033029464733280743 0 -0.0011718608120856323 0.03335647547521868 0 -0.0031993749709797671 0.03463513656556428 0 0.002751355544171513 0.035804738596565459 0 0.00056800261461430082 0.037116568810433889 0 -0.0018747522743002758 0.032624650264626756 0 -0.0018747522743002758 0.032624650264626756 0 0.001717188923679634 0.039215358276751662 0 0.00018689565486500854 0.039872056676285239 0 -0.0012143395958495889 0.037152160272698347 0 0.0023080557693548952 0.037874320810721999 0 -0.0016834895219357395 0.033710024703250886 0 0.001717188923679634 0.039215358276751662 0 0.001717188923679634 0.039215358276751662 0 0.0054851038754731843 0.04405030833437306 0 -0.0010191305241066273 0.034929053707997031 0 -5.1769606163547151e-05 0.034599099376081015 0 -0.00091873943479667383 0.033901716246553769 0 -0.0010191305241066273 0.034929053707997031 0 -5.1769606163547151e-05 0.034599099376081015 0 0.00071476529758564245 0.035459407251749113 0 0.0036276182905609048 0.046568562163306543 0 0.0047138179633141224 0.047074627137287155 0 0.0045288872105762922 0.047286999715074718 0 0.001717188923679634 0.039215358276751662 0 0.0026441411234858544 0.041556345040875506 0 -5.1769606163547151e-05 0.034599099376081015 0 0.00065393057952064821 0.034631097719726681 0 0.00071476529758564245 0.035459407251749113 0 -5.1769606163547151e-05 0.034599099376081015 0 -0.00016075181838225586 0.033456884000020969 0 0.00037987837965471337 0.033852571398949732 0 0.00065393057952064821 0.034631097719726681 0 0.00037987837965471337 0.033852571398949732 0 0.00093797060271096143 0.034149695446768977 0 -5.1769606163547151e-05 0.034599099376081015 0 0.00065393057952064821 0.034631097719726681 0 0.00037987837965471337 0.033852571398949732 0 0.00037987837965471337 0.033852571398949732 0 0.0006926107843152451 0.033322483169530841 0 0.00093797060271096143 0.034149695446768977 0 -5.1769606163547151e-05 0.034599099376081015 0 -0.00016075181838225586 0.033456884000020969 0 -0.00091873943479667383 0.033901716246553769 0 -0.00016075181838225586 0.033456884000020969 0 -0.00091873943479667383 0.033901716246553769 0 -0.00075161659026498824 0.033247600814224634 0 -0.0015430849372994105 0.032970401865176913 0 -0.00091873943479667383 0.033901716246553769 0 -0.00075161659026498824 0.033247600814224634 0 -0.0015430849372994105 0.032970401865176913 0 -0.00095492824956743645 0.032607025924656377 0 -0.00075161659026498824 0.033247600814224634 0 -0.0013556413865659432 0.032219111439161362 0 -0.00095492824956743645 0.032607025924656377 0 -0.00077766589531692485 0.032036007760919701 0 -0.00095492824956743645 0.032607025924656377 0 -0.00075161659026498824 0.033247600814224634 0 -0.00026740205716912211 0.032498355747870189 0 -0.00095492824956743645 0.032607025924656377 0 -0.00026740205716912211 0.032498355747870189 0 -0.00077766589531692485 0.032036007760919701 0 -0.00016075181838225586 0.033456884000020969 0 -0.00075161659026498824 0.033247600814224634 0 -0.00026740205716912211 0.032498355747870189 0 -0.00016075181838225586 0.033456884000020969 0 0.00037987837965471337 0.033852571398949732 0 0.00020084557883911499 0.032975114597892083 0 -0.00016075181838225586 0.033456884000020969 0 0.00020084557883911499 0.032975114597892083 0 -0.00026740205716912211 0.032498355747870189 0 0.00037987837965471337 0.033852571398949732 0 0.00020084557883911499 0.032975114597892083 0 0.0006926107843152451 0.033322483169530841 0 0.00020084557883911499 0.032975114597892083 0 0.00057726702387767709 0.032481257563895347 0 0.0006926107843152451 0.033322483169530841 0 0.00020084557883911499 0.032975114597892083 0 0.00057726702387767709 0.032481257563895347 0 -0.00026740205716912211 0.032498355747870189 0 0.00057726702387767709 0.032481257563895347 0 -0.00026740205716912211 0.032498355747870189 0 0.00011189945949497826 0.03190447945311143 0 -0.00026740205716912211 0.032498355747870189 0 0.00011189945949497826 0.03190447945311143 0 -0.00048022776174518625 0.0316585061475083 0 0.00057726702387767709 0.032481257563895347 0 0.00060535521580513322 0.031721812738990496 0 0.00011189945949497826 0.03190447945311143 0 0.00060535521580513322 0.031721812738990496 0 0.00011189945949497826 0.03190447945311143 0 3.9375112051564928e-05 0.031281076868907708 0 0.00011189945949497826 0.03190447945311143 0 -0.00048022776174518625 0.0316585061475083 0 3.9375112051564928e-05 0.031281076868907708 0 -0.00048022776174518625 0.0316585061475083 0 -0.0012428189473250087 0.031686950702018109 0 -0.000929136314477676 0.031031058592374084 0 -0.0013556413865659432 0.032219111439161362 0 -0.0012428189473250087 0.031686950702018109 0 -0.00077766589531692485 0.032036007760919701 0 -0.00048022776174518625 0.0316585061475083 0 -0.0012428189473250087 0.031686950702018109 0 -0.00077766589531692485 0.032036007760919701 0 -0.00026740205716912211 0.032498355747870189 0 -0.00048022776174518625 0.0316585061475083 0 -0.00077766589531692485 0.032036007760919701 0 0.0017605498322391926 0.032574224441709758 0 0.0019484913856129399 0.032093736856770284 0 0.0014711003643086379 0.03195663537071395 0 0.0017605498322391926 0.032574224441709758 0 0.0024395068477691337 0.032624771876801205 0 0.0019484913856129399 0.032093736856770284 0 0.0024395068477691337 0.032624771876801205 0 0.0024133503640708718 0.031957995283004394 0 0.0029805500536085662 0.032084703191413697 0 0.0024395068477691337 0.032624771876801205 0 0.0024133503640708718 0.031957995283004394 0 0.0019484913856129399 0.032093736856770284 0 0.0024133503640708718 0.031957995283004394 0 0.0019747379911022695 0.03168094818167029 0 0.0024990834539969668 0.03136501308770983 0 0.0024133503640708718 0.031957995283004394 0 0.0029805500536085662 0.032084703191413697 0 0.0024990834539969668 0.03136501308770983 0 0.0019747379911022695 0.03168094818167029 0 0.0019484913856129399 0.032093736856770284 0 0.0014711003643086379 0.03195663537071395 0 0.0019747379911022695 0.03168094818167029 0 0.0014711003643086379 0.03195663537071395 0 0.0015336143131154478 0.031483668890466512 0 0.0024133503640708718 0.031957995283004394 0 0.0019747379911022695 0.03168094818167029 0 0.0019484913856129399 0.032093736856770284 0 0.0014711003643086379 0.03195663537071395 0 0.0010163007920643637 0.032071010302129777 0 0.0010750479143411178 0.031393212065586644 0 0.0014711003643086379 0.03195663537071395 0 0.0010750479143411178 0.031393212065586644 0 0.0015336143131154478 0.031483668890466512 0 0.00060535521580513322 0.031721812738990496 0 0.0010163007920643637 0.032071010302129777 0 0.0010750479143411178 0.031393212065586644 0 0.00057726702387767709 0.032481257563895347 0 0.0010163007920643637 0.032071010302129777 0 0.0011927682878810492 0.032538343239502311 0 0.00057726702387767709 0.032481257563895347 0 0.00060535521580513322 0.031721812738990496 0 0.0010163007920643637 0.032071010302129777 0 0.0014711003643086379 0.03195663537071395 0 0.0010163007920643637 0.032071010302129777 0 0.0011927682878810492 0.032538343239502311 0 0.0017605498322391926 0.032574224441709758 0 0.0014711003643086379 0.03195663537071395 0 0.0011927682878810492 0.032538343239502311 0 0.0017605498322391926 0.032574224441709758 0 0.0011927682878810492 0.032538343239502311 0 0.0014802630095026653 0.03313507710416716 0 0.0011927682878810492 0.032538343239502311 0 0.0010258374005250009 0.032997288635553824 0 0.0014802630095026653 0.03313507710416716 0 0.00057726702387767709 0.032481257563895347 0 0.0011927682878810492 0.032538343239502311 0 0.0010258374005250009 0.032997288635553824 0 0.00057726702387767709 0.032481257563895347 0 0.0010258374005250009 0.032997288635553824 0 0.0006926107843152451 0.033322483169530841 0 0.0010258374005250009 0.032997288635553824 0 0.0006926107843152451 0.033322483169530841 0 0.001179925321114087 0.033613389203483356 0 0.0014802630095026653 0.03313507710416716 0 0.0017195294586482422 0.033882859372257192 0 0.001179925321114087 0.033613389203483356 0 0.0010258374005250009 0.032997288635553824 0 0.0014802630095026653 0.03313507710416716 0 0.001179925321114087 0.033613389203483356 0 0.0014802630095026653 0.03313507710416716 0 0.0020363836746645145 0.033109415829216692 0 0.0017195294586482422 0.033882859372257192 0 0.0020363836746645145 0.033109415829216692 0 0.0024933056476977721 0.033637067705715777 0 0.0017195294586482422 0.033882859372257192 0 0.0017605498322391926 0.032574224441709758 0 0.0024395068477691337 0.032624771876801205 0 0.0020363836746645145 0.033109415829216692 0 0.0017605498322391926 0.032574224441709758 0 0.0014802630095026653 0.03313507710416716 0 0.0020363836746645145 0.033109415829216692 0 0.0024395068477691337 0.032624771876801205 0 0.0020363836746645145 0.033109415829216692 0 0.0024933056476977721 0.033637067705715777 0 0.0024933056476977721 0.033637067705715777 0 0.0017195294586482422 0.033882859372257192 0 0.0024636870818934876 0.034714664456265136 0 0.0024933056476977721 0.033637067705715777 0 0.0024636870818934876 0.034714664456265136 0 0.0031659008258067087 0.034248914999583407 0 0.0017195294586482422 0.033882859372257192 0 0.0024636870818934876 0.034714664456265136 0 0.0014596137964745771 0.034852845414288777 0 0.0006926107843152451 0.033322483169530841 0 0.001179925321114087 0.033613389203483356 0 0.00093797060271096143 0.034149695446768977 0 0.0017195294586482422 0.033882859372257192 0 0.001179925321114087 0.033613389203483356 0 0.00093797060271096143 0.034149695446768977 0 0.0017195294586482422 0.033882859372257192 0 0.00093797060271096143 0.034149695446768977 0 0.0014596137964745771 0.034852845414288777 0 0.00065393057952064821 0.034631097719726681 0 0.00093797060271096143 0.034149695446768977 0 0.0014596137964745771 0.034852845414288777 0 0.0014596137964745771 0.034852845414288777 0 0.00071476529758564245 0.035459407251749113 0 0.0024961325297665456 0.036030464456785816 0 0.0026441411234858544 0.041556345040875506 0 0.0035303211075844603 0.041168905700411429 0 0.00065393057952064821 0.034631097719726681 0 0.0014596137964745771 0.034852845414288777 0 0.00071476529758564245 0.035459407251749113 0 0.0024636870818934876 0.034714664456265136 0 0.0014596137964745771 0.034852845414288777 0 0.0024961325297665456 0.036030464456785816 0 0.0046569621886469034 0.047595610077889178 0 0.0047057841146999234 0.047455314929292627 0 0.0047923360624981017 0.047330699621506343 0 0.0047057841146999234 0.047455314929292627 0 0.0049092770895275218 0.047257304089382675 0 0.0047923360624981017 0.047330699621506343 0 0.0047057841146999234 0.047455314929292627 0 0.0048842328473153087 0.046887593128334883 0 0.0045669928181845286 0.047272052801690279 0 0.0047057841146999234 0.047455314929292627 0 0.0049092770895275218 0.047257304089382675 0 0.0048842328473153087 0.046887593128334883 0 0.0059401403262910003 0.044896611565911321 0 0.0061250667597417255 0.044794457956265195 0 0.0055362253436660371 0.045823712851657761 0 0.0061250667597417255 0.044794457956265195 0 0.0049092770895275218 0.047257304089382675 0 0.0048842328473153087 0.046887593128334883 0 0.0049487520106250068 0.047286443980348654 0 0.0048842328473153087 0.046887593128334883 0 0.004791696350100314 0.046540912970298651 0 0.0053341806415351878 0.046016461534929165 0 0.0048842328473153087 0.046887593128334883 0 0.0053341806415351878 0.046016461534929165 0 0.0052251499374611375 0.046797109467752965 0 0.0048842328473153087 0.046887593128334883 0 0.004791696350100314 0.046540912970298651 0 0.0045669928181845286 0.047272052801690279 0 0.0053341806415351878 0.046016461534929165 0 0.0052251499374611375 0.046797109467752965 0 0.0065204814818489226 0.046223773593831924 0 0.0053341806415351878 0.046016461534929165 0 0.0065204814818489226 0.046223773593831924 0 0.0057779141458535388 0.045010512829795339 0 0.0061250667597417255 0.044794457956265195 0 0.0062116277604823489 0.044618259946308934 0 0.0048697557772084859 0.047298706574364031 0 0.0047923360624981017 0.047330699621506343 0 0.0045288872105762922 0.047286999715074718 0 0.0086402659229433843 0.04191730322813577 0 0.0055248098500293736 0.039932429225678669 0 0.0051598953443344336 0.042206808855411108 0 0.0047138179633141224 0.047074627137287155 0 0.0047923360624981017 0.047330699621506343 0 0.0045288872105762922 0.047286999715074718 0 0.0047138179633141224 0.047074627137287155 0 0.0046569621886469034 0.047595610077889178 0 0.0047923360624981017 0.047330699621506343 0 0.0061250667597417255 0.044794457956265195 0 0.0054851038754731843 0.04405030833437306 0 0.0049092770895275218 0.047257304089382675 0 0.0048697557772084859 0.047298706574364031 0 0.0047923360624981017 0.047330699621506343 0 0.0055248098500293736 0.039932429225678669 0 0.0029611213305638516 0.040487686348767801 0 0.0051598953443344336 0.042206808855411108 0 0.0023080557693548952 0.037874320810721999 0 0.0055248098500293736 0.039932429225678669 0 0.0029611213305638516 0.040487686348767801 0 0.00018689565486500854 0.039872056676285239 0 0.0023080557693548952 0.037874320810721999 0 0.0029611213305638516 0.040487686348767801 0 0.0015795107422077426 0.042523421833097326 0 0.0029611213305638516 0.040487686348767801 0 0.0051598953443344336 0.042206808855411108 0 0.0039272726794272036 0.039593461018564258 0 0.0062116277604823489 0.044618259946308934 0 0.0087663779851997956 0.045908837637756085 0 0.0065204814818489226 0.046223773593831924 0 0.0081082700259553254 0.044580992816028051 0 0.0039272726794272036 0.039593461018564258 0 0.0072389782405123306 0.041889171208087252 0 0.0065204814818489226 0.046223773593831924 0 0.0065346808174843998 0.044485254558736989 0 0.0081082700259553254 0.044580992816028051 0 0.0065204814818489226 0.046223773593831924 0 0.0065346808174843998 0.044485254558736989 0 0.0057779141458535388 0.045010512829795339 0 0.0065346808174843998 0.044485254558736989 0 0.0062595263965913341 0.043340611116295384 0 0.0057779141458535388 0.045010512829795339 0 0.0065346808174843998 0.044485254558736989 0 0.0081082700259553254 0.044580992816028051 0 0.0068771526465899024 0.042263087790082442 0 0.0072389782405123306 0.041889171208087252 0 0.0069378943121887011 0.041878190081689075 0 0.0062909320312215409 0.038370108702522006 0 0.005628827317337411 0.040709715206845541 0 0.0068771526465899024 0.042263087790082442 0 0.0043302374897565415 0.039645762358973158 0 0.0062909320312215409 0.038370108702522006 0 0.005628827317337411 0.040709715206845541 0 0.0052115358193785813 0.041741659960977402 0 0.005628827317337411 0.040709715206845541 0 0.0068771526465899024 0.042263087790082442 0 0.0062948522243583896 0.042604330903852607 0 0.0052115358193785813 0.041741659960977402 0 0.0068771526465899024 0.042263087790082442 0 0.0065346808174843998 0.044485254558736989 0 0.0068771526465899024 0.042263087790082442 0 0.0062595263965913341 0.043340611116295384 0 0.0062948522243583896 0.042604330903852607 0 0.0068771526465899024 0.042263087790082442 0 0.0062595263965913341 0.043340611116295384 0 0.0060507253972665234 0.043236912519129173 0 0.0062948522243583896 0.042604330903852607 0 0.0062595263965913341 0.043340611116295384 0 0.0060507253972665234 0.043236912519129173 0 0.0062595263965913341 0.043340611116295384 0 0.0056931002030503391 0.044134406905770016 0 0.0055838389838713158 0.043654709707401027 0 0.0056931002030503391 0.044134406905770016 0 0.0052797020323454534 0.044344196777026272 0 0.0062595263965913341 0.043340611116295384 0 0.0056931002030503391 0.044134406905770016 0 0.0057779141458535388 0.045010512829795339 0 0.0056931002030503391 0.044134406905770016 0 0.0052797020323454534 0.044344196777026272 0 0.0049211946833759134 0.045741796319960643 0 0.0052797020323454534 0.044344196777026272 0 0.0049211946833759134 0.045741796319960643 0 0.0046108152246573933 0.045002187977405246 0 0.004791696350100314 0.046540912970298651 0 0.0049211946833759134 0.045741796319960643 0 0.0044305306687522968 0.046979770863608931 0 0.004791696350100314 0.046540912970298651 0 0.0053341806415351878 0.046016461534929165 0 0.0049211946833759134 0.045741796319960643 0 0.0056931002030503391 0.044134406905770016 0 0.0049211946833759134 0.045741796319960643 0 0.0057779141458535388 0.045010512829795339 0 0.0053341806415351878 0.046016461534929165 0 0.0049211946833759134 0.045741796319960643 0 0.0057779141458535388 0.045010512829795339 0 0.003590968630086986 0.047682369427934218 0 0.0036921819241499758 0.045614587733732524 0 0.0028358516220077352 0.046795707056577623 0 0.003590968630086986 0.047682369427934218 0 0.004227458099717884 0.046227762226576971 0 0.0036921819241499758 0.045614587733732524 0 0.003590968630086986 0.047682369427934218 0 0.004227458099717884 0.046227762226576971 0 0.0044305306687522968 0.046979770863608931 0 0.0049211946833759134 0.045741796319960643 0 0.004227458099717884 0.046227762226576971 0 0.0044305306687522968 0.046979770863608931 0 0.0049211946833759134 0.045741796319960643 0 0.004227458099717884 0.046227762226576971 0 0.0046108152246573933 0.045002187977405246 0 0.0042334650275716521 0.044440666646715303 0 0.0046108152246573933 0.045002187977405246 0 0.0036921819241499758 0.045614587733732524 0 0.004227458099717884 0.046227762226576971 0 0.0046108152246573933 0.045002187977405246 0 0.0036921819241499758 0.045614587733732524 0 0.0027673361959988148 0.044560051877751493 0 0.0028358516220077352 0.046795707056577623 0 0.0010157382958053704 0.047143178752508758 0 0.0027673361959988148 0.044560051877751493 0 0.0036921819241499758 0.045614587733732524 0 0.0028358516220077352 0.046795707056577623 0 0.001823101261138311 0.04954605669724451 0 0.00055116949056452998 0.050810672978053154 0 -3.4128540851636518e-07 0.054483287650331676 0 0.0008464850002314106 0.054561125791262328 0 -0.00014751458763716778 0.05447796732180641 0 0.0010157382958053704 0.047143178752508758 0 0.0008294758948508181 0.050259339454500306 0 0.0026847988991671283 0.049141074620757404 0 0.003590968630086986 0.047682369427934218 0 0.0028358516220077352 0.046795707056577623 0 0.0026847988991671283 0.049141074620757404 0 0.0028358516220077352 0.046795707056577623 0 0.0010157382958053704 0.047143178752508758 0 0.0026847988991671283 0.049141074620757404 0 0.0026847988991671283 0.049141074620757404 0 0.0030451895291563383 0.049052188380047157 0 0.0026460191346202632 0.049655950454729626 0 0.003590968630086986 0.047682369427934218 0 0.0026847988991671283 0.049141074620757404 0 0.003291761505476555 0.048537488423728653 0 0.0026847988991671283 0.049141074620757404 0 0.0030451895291563383 0.049052188380047157 0 0.003291761505476555 0.048537488423728653 0 0.0026847988991671283 0.049141074620757404 0 0.0026460191346202632 0.049655950454729626 0 0.0023043960087371492 0.050842006678456585 0 0.0008294758948508181 0.050259339454500306 0 0.0026847988991671283 0.049141074620757404 0 -0.00013985383730020292 0.053136202086466897 0 0.0026320322075886809 0.049542301560855428 0 0.001063316136720636 0.051863152327603072 0 0.0037870435986708164 0.050930212399978886 0 0.0021993426271598197 0.050791967889028955 0 0.0026460191346202632 0.049655950454729626 0 0.0023211639271714514 0.050985199478656595 0 0.0023043960087371492 0.050842006678456585 0 0.0031635915139990082 0.052250855711970128 0 0.0044524127915717181 0.051639580146172419 0 0.0040485959138536346 0.05341555080618695 0 0.0031635915139990082 0.052250855711970128 0 0.0044524127915717181 0.051639580146172419 0 0.0023211639271714514 0.050985199478656595 0 0.0037870435986708164 0.050930212399978886 0 0.0039052252581600029 0.047718360284515399 0 0.0039052252581600029 0.047718360284515399 0 0.0019598300912941707 0.054546615437689593 0 0.005382690672777306 0.052252540435528745 0 0.0044524127915717181 0.051639580146172419 0 0.0040485959138536346 0.05341555080618695 0 0.005382690672777306 0.052252540435528745 0 0.0065058844822295653 0.052093167646015702 0 0.0040485959138536346 0.05341555080618695 0 0.0030451895291563383 0.049052188380047157 0 0.0026460191346202632 0.049655950454729626 0 0.0034588036986869862 0.049147319245142707 0 0.005382690672777306 0.052252540435528745 0 0.0044524127915717181 0.051639580146172419 0 0.0065058844822295653 0.052093167646015702 0 0.0035943628127082816 0.048955853927732489 0 0.0034517142417273207 0.048742040551585424 0 0.0043266104675084493 0.047860965066369276 0 0.0041447742362521372 0.046790336091869493 0 0.0039052252581600029 0.047718360284515399 0 0.0044216317021796838 0.03657517335387625 0 0.0045291602078074162 0.036524194957664305 0 0.0035855828703105761 0.035503993675672939 0 0.0041447742362521372 0.046790336091869493 0 0.0039374473185682492 0.048076250456841094 0 0.0035943628127082816 0.048955853927732489 0 0.003548777275299347 0.048978174195677432 0 0.0034517142417273207 0.048742040551585424 0 0.0030451895291563383 0.049052188380047157 0 0.0034588036986869862 0.049147319245142707 0 0.0034517142417273207 0.048742040551585424 0 0.0039052252581600029 0.047718360284515399 0 0.0037858591086679261 0.048733666320385553 0 0.0034517142417273207 0.048742040551585424 0 0.0039070517010647149 0.047881813561460339 0 0.0043266104675084493 0.047860965066369276 0 0.003590968630086986 0.047682369427934218 0 0.0039070517010647149 0.047881813561460339 0 0.0044305306687522968 0.046979770863608931 0 0.0034517142417273207 0.048742040551585424 0 0.003291761505476555 0.048537488423728653 0 0.0039070517010647149 0.047881813561460339 0 0.0030451895291563383 0.049052188380047157 0 0.0034517142417273207 0.048742040551585424 0 0.003291761505476555 0.048537488423728653 0 0.003590968630086986 0.047682369427934218 0 0.003291761505476555 0.048537488423728653 0 0.0039070517010647149 0.047881813561460339 0 0.004791696350100314 0.046540912970298651 0 0.0044305306687522968 0.046979770863608931 0 0.0045669928181845286 0.047272052801690279 0 0.0039070517010647149 0.047881813561460339 0 0.0044305306687522968 0.046979770863608931 0 0.0043266104675084493 0.047860965066369276 0 0.0044305306687522968 0.046979770863608931 0 0.0045669928181845286 0.047272052801690279 0 0.0043266104675084493 0.047860965066369276 0 0.0047057841146999234 0.047455314929292627 0 0.0045669928181845286 0.047272052801690279 0 0.0043266104675084493 0.047860965066369276 0 0.0046569621886469034 0.047595610077889178 0 0.0041823433876269937 0.047968924178664746 0 0.0043266104675084493 0.047860965066369276 0 0.0024961325297665456 0.036030464456785816 0 0.0044216317021796838 0.03657517335387625 0 0.0035855828703105761 0.035503993675672939 0 0.0046569621886469034 0.047595610077889178 0 0.0047057841146999234 0.047455314929292627 0 0.0043266104675084493 0.047860965066369276 0 0.0035303211075844603 0.041168905700411429 0 0.0041447742362521372 0.046790336091869493 0 0.0024636870818934876 0.034714664456265136 0 0.0035855828703105761 0.035503993675672939 0 0.0031659008258067087 0.034248914999583407 0 0.0024636870818934876 0.034714664456265136 0 0.0024961325297665456 0.036030464456785816 0 0.0035855828703105761 0.035503993675672939 0 0.00069599547841190518 0.053809516584342139 0 0.00066505809157776246 0.054168087417003144 0 0.00057565133489878735 0.054055441926991077 0 0.0045291602078074162 0.036524194957664305 0 0.0035855828703105761 0.035503993675672939 0 0.0041494547685401659 0.034394786667841716 0 0.0039052252581600029 0.047718360284515399 0 0.0021820465304934816 0.043918976203282292 0 0.00066505809157776246 0.054168087417003144 0 0.00053615805654389154 0.054317310131086066 0 0.00057565133489878735 0.054055441926991077 0 0.0041494547685401659 0.034394786667841716 0 0.0031659008258067087 0.034248914999583407 0 0.0031527510737842232 0.033230966272171258 0 0.0035855828703105761 0.035503993675672939 0 0.0041494547685401659 0.034394786667841716 0 0.0031659008258067087 0.034248914999583407 0 0.0024933056476977721 0.033637067705715777 0 0.0031659008258067087 0.034248914999583407 0 0.0031527510737842232 0.033230966272171258 0 0.0041494547685401659 0.034394786667841716 0 0.0031527510737842232 0.033230966272171258 0 0.0037176926174118368 0.032453795971961207 0 0.0024395068477691337 0.032624771876801205 0 0.0024933056476977721 0.033637067705715777 0 0.0031527510737842232 0.033230966272171258 0 0.00053785953400421825 0.054382987044322151 0 0.00049002769539454639 0.054416298789586037 0 0.00053615805654389154 0.054317310131086066 0 0.0021820465304934816 0.043918976203282292 0 0.0022472263126229988 0.042449221028267578 0 0.00066505809157776246 0.054168087417003144 0 0.00053785953400421825 0.054382987044322151 0 0.00053615805654389154 0.054317310131086066 0 0.00053785953400421825 0.054382987044322151 0 0.00049798938859096009 0.054431506847265179 0 0.00051556019932330404 0.054357064865555124 0 0.00053785953400421825 0.054382987044322151 0 0.00049798938859096009 0.054431506847265179 0 0.00049002769539454639 0.054416298789586037 0 0.0031527510737842232 0.033230966272171258 0 0.0037176926174118368 0.032453795971961207 0 0.0029805500536085662 0.032084703191413697 0 0.0024395068477691337 0.032624771876801205 0 0.0031527510737842232 0.033230966272171258 0 0.0029805500536085662 0.032084703191413697 0 0.0037176926174118368 0.032453795971961207 0 0.0029805500536085662 0.032084703191413697 0 0.0030767702623598291 0.031489811508474387 0 0.00037918986691166343 0.054524280630241395 0 0.00025828117458993118 0.054596237901902031 0 0.0002530406837688336 0.054712928060896851 0 0.00037918986691166343 0.054524280630241395 0 0.00049798938859096009 0.054431506847265179 0 0.00038952037742039135 0.054563984713105411 0 0.00037918986691166343 0.054524280630241395 0 0.00049798938859096009 0.054431506847265179 0 0.00049002769539454639 0.054416298789586037 0 0.00049002769539454639 0.054416298789586037 0 0.00053615805654389154 0.054317310131086066 0 0.00040998548265650257 0.054353647629108569 0 0.00037918986691166343 0.054524280630241395 0 0.00049002769539454639 0.054416298789586037 0 0.00040998548265650257 0.054353647629108569 0 0.00037918986691166343 0.054524280630241395 0 0.00040998548265650257 0.054353647629108569 0 0.00025828117458993118 0.054596237901902031 0 0.00040998548265650257 0.054353647629108569 0 0.00039303885140932473 0.054081207509161164 0 0.00018908214180854218 0.054415499326740162 0 0.00053615805654389154 0.054317310131086066 0 0.00040998548265650257 0.054353647629108569 0 0.00057565133489878735 0.054055441926991077 0 0.00069599547841190518 0.053809516584342139 0 0.00057565133489878735 0.054055441926991077 0 0.00039303885140932473 0.054081207509161164 0 0.00040998548265650257 0.054353647629108569 0 0.00057565133489878735 0.054055441926991077 0 0.00039303885140932473 0.054081207509161164 0 0.0031635915139990082 0.052250855711970128 0 0.0040485959138536346 0.05341555080618695 0 0.0023102506123316474 0.053105126895333567 0 0.0040485959138536346 0.05341555080618695 0 0.0023102506123316474 0.053105126895333567 0 0.0015710453926374376 0.05455238059148574 0 0.0019598300912941707 0.054546615437689593 0 0.00099879123313880097 0.054329680410783114 0 0.0023102506123316474 0.053105126895333567 0 0.0015710453926374376 0.05455238059148574 0 0.00029909272469699554 0.053046178395703913 0 0.0015710453926374376 0.05455238059148574 0 0.00011566607503606394 0.054419574875017217 0 0.00029909272469699554 0.053046178395703913 0 0.00018908214180854218 0.054415499326740162 0 0.00016537718629477588 0.054678034844207787 0 0.00014585148979430457 0.054852829366930131 0 0.00099879123313880097 0.054329680410783114 0 0.00016411145574857941 0.054868247530321747 0 0.0015710453926374376 0.05455238059148574 0 0.00014585148979430457 0.054852829366930131 0 0.00011566607503606394 0.054419574875017217 0 0.00040998548265650257 0.054353647629108569 0 0.00018908214180854218 0.054415499326740162 0 0.00025828117458993118 0.054596237901902031 0 0.00018908214180854218 0.054415499326740162 0 0.00025828117458993118 0.054596237901902031 0 0.00016537718629477588 0.054678034844207787 0 0.00016537718629477588 0.054678034844207787 0 0.00012890193854507936 0.054793930091872257 0 0.00014585148979430457 0.054852829366930131 0 0.00025828117458993118 0.054596237901902031 0 0.00016537718629477588 0.054678034844207787 0 0.00012890193854507936 0.054793930091872257 0 0.00025828117458993118 0.054596237901902031 0 0.00012890193854507936 0.054793930091872257 0 0.0002530406837688336 0.054712928060896851 0 0.00012890193854507936 0.054793930091872257 0 -1.6628236676127974e-07 0.05499834791583319 0 6.0776054746295261e-05 0.054896237513244281 0 0.00012890193854507936 0.054793930091872257 0 -1.6628236676127974e-07 0.05499834791583319 0 0.00014585148979430457 0.054852829366930131 0 -1.6628236676127974e-07 0.05499834791583319 0 0.00014585148979430457 0.054852829366930131 0 0.00011566607503606394 0.054419574875017217 0 0.00011566607503606394 0.054419574875017217 0 -3.4761126301374139e-05 0.054868811740099797 0 0.00029909272469699554 0.053046178395703913 0 -1.6628236676127974e-07 0.05499834791583319 0 0.00011566607503606394 0.054419574875017217 0 -3.4761126301374139e-05 0.054868811740099797 0 -4.1428189450703156e-07 0.054997865228804441 0 -1.6628236676127974e-07 0.05499834791583319 0 -3.4761126301374139e-05 0.054868811740099797 0 -4.1428189450703156e-07 0.054997865228804441 0 -3.4761126301374139e-05 0.054868811740099797 0 -1.02275700344377e-05 0.05428782555993069 0 -3.4761126301374139e-05 0.054868811740099797 0 -0.00017812664721528356 0.054171871663947865 0 -1.02275700344377e-05 0.05428782555993069 0 -4.9548413463574149e-05 0.054670155843251973 0 0.00011321497710901522 0.053633691563059457 0 0.00011321497710901522 0.053633691563059457 0 0.001063316136720636 0.051863152327603072 0 0.00029909272469699554 0.053046178395703913 0 0.002369739721055684 0.052160837831139784 0 0.0023211639271714514 0.050985199478656595 0 0.00029909272469699554 0.053046178395703913 0 0.0023211639271714514 0.050985199478656595 0 0.0023043960087371492 0.050842006678456585 0 0.0023102506123316474 0.053105126895333567 0 0.00029909272469699554 0.053046178395703913 0 0.002369739721055684 0.052160837831139784 0 0.0031635915139990082 0.052250855711970128 0 0.0023102506123316474 0.053105126895333567 0 0.002369739721055684 0.052160837831139784 0 0.0031635915139990082 0.052250855711970128 0 0.002369739721055684 0.052160837831139784 0 0.0023211639271714514 0.050985199478656595 0 0.0008294758948508181 0.050259339454500306 0 -0.00013985383730020292 0.053136202086466897 0 -0.00045603299580667658 0.052979830436025305 0 -0.00017812664721528356 0.054171871663947865 0 -0.00013985383730020292 0.053136202086466897 0 -0.00045603299580667658 0.052979830436025305 0 -0.00017812664721528356 0.054171871663947865 0 -0.00045603299580667658 0.052979830436025305 0 -1.02275700344377e-05 0.05428782555993069 0 -0.00045603299580667658 0.052979830436025305 0 -0.0001432890894452335 0.054240437574343832 0 -1.02275700344377e-05 0.05428782555993069 0 -0.0001432890894452335 0.054240437574343832 0 -8.2523212365720301e-05 0.054516316944346326 0 -1.02275700344377e-05 0.05428782555993069 0 -0.00014751458763716778 0.05447796732180641 0 -0.00045603299580667658 0.052979830436025305 0 -0.0001432890894452335 0.054240437574343832 0 0.00055116949056452998 0.050810672978053154 0 -0.00036526356390775307 0.052668589596190252 0 0.0010157382958053704 0.047143178752508758 0 0.0008294758948508181 0.050259339454500306 0 -0.00045603299580667658 0.052979830436025305 0 -3.4128540851636518e-07 0.054483287650331676 0 -0.0001432890894452335 0.054240437574343832 0 -8.2523212365720301e-05 0.054516316944346326 0 -3.4128540851636518e-07 0.054483287650331676 0 -0.00014751458763716778 0.05447796732180641 0 -0.0001432890894452335 0.054240437574343832 0 -4.1428189450703156e-07 0.054997865228804441 0 -8.2523212365720301e-05 0.054516316944346326 0 -1.02275700344377e-05 0.05428782555993069 0 9.356606328693811e-06 0.054995747443154171 0 -3.0528294149403842e-08 0.054999909392095495 0 1.2503487468551703e-07 0.055000137318293466 0 -2.9942949253959348e-05 0.054867983296606478 0 -4.1134702434877587e-05 0.054856107136182775 0 -4.1463484651947175e-05 0.054840327637667503 0 -2.9942949253959348e-05 0.054867983296606478 0 -4.1134702434877587e-05 0.054856107136182775 0 -2.6631309859303288e-05 0.054906839617750877 0 -3.587666479899602e-06 0.054932472391495013 0 7.9769511874360149e-10 0.054999960424893642 0 -2.9942949253959348e-05 0.054867983296606478 0 -1.1198403170248094e-07 0.054999849154975529 0 -2.6631309859303288e-05 0.054906839617750877 0 -1.1198403170248094e-07 0.054999849154975529 0 8.7062150416774704e-08 0.054999879170323535 0 -2.6631309859303288e-05 0.054906839617750877 0 8.7062150416774704e-08 0.054999879170323535 0 -2.6631309859303288e-05 0.054906839617750877 0 -4.3558228360054077e-05 0.054786983230760603 0 -4.1134702434877587e-05 0.054856107136182775 0 -2.6631309859303288e-05 0.054906839617750877 0 -6.9069900831357099e-05 0.054817121533552504 0 -6.9069900831357099e-05 0.054817121533552504 0 -0.00010233563687164241 0.054774622326427901 0 -8.0489379440722652e-05 0.054803486952328048 0 -4.1134702434877587e-05 0.054856107136182775 0 -6.9069900831357099e-05 0.054817121533552504 0 -8.0489379440722652e-05 0.054803486952328048 0 -8.0489379440722652e-05 0.054803486952328048 0 -0.0001431406149656966 0.054744184654589315 0 -0.00014003567004422854 0.054737625740658935 0 -0.00010233563687164241 0.054774622326427901 0 -8.0489379440722652e-05 0.054803486952328048 0 -0.00014003567004422854 0.054737625740658935 0 -8.0489379440722652e-05 0.054803486952328048 0 -8.4774749226562151e-05 0.054797674051386129 0 -0.0001431406149656966 0.054744184654589315 0 -4.1134702434877587e-05 0.054856107136182775 0 -8.0489379440722652e-05 0.054803486952328048 0 -4.1463484651947175e-05 0.054840327637667503 0 -8.0489379440722652e-05 0.054803486952328048 0 -4.1463484651947175e-05 0.054840327637667503 0 -8.4774749226562151e-05 0.054797674051386129 0 -4.1463484651947175e-05 0.054840327637667503 0 -3.7839154573961786e-05 0.054835415247285496 0 -8.4774749226562151e-05 0.054797674051386129 0 -4.1463484651947175e-05 0.054840327637667503 0 -3.7839154573961786e-05 0.054835415247285496 0 -3.1309893830826772e-05 0.054851895192738712 0 -3.7839154573961786e-05 0.054835415247285496 0 -1.8241077002634321e-05 0.05486538181571516 0 -3.1309893830826772e-05 0.054851895192738712 0 -3.7839154573961786e-05 0.054835415247285496 0 -8.4774749226562151e-05 0.054797674051386129 0 -7.6237917968222102e-05 0.054812291132209034 0 -8.4774749226562151e-05 0.054797674051386129 0 -7.6237917968222102e-05 0.054812291132209034 0 -0.00012309592739996556 0.054767135479974943 0 -7.6237917968222102e-05 0.054812291132209034 0 -0.00012121267001666792 0.054802109726612161 0 -0.00012309592739996556 0.054767135479974943 0 1.1382932496889849e-05 0.054888886133911699 0 7.1244642678553019e-05 0.054920779861692463 0 0.00016472954625667194 0.054931960525662578 0 -7.6237917968222102e-05 0.054812291132209034 0 1.1382932496889849e-05 0.054888886133911699 0 -0.00012121267001666792 0.054802109726612161 0 1.6241022953623322e-05 0.054913565329908091 0 2.9480914850530051e-05 0.054756709133966561 0 9.7580566434147194e-06 0.054930010583884338 0 5.6292934857385503e-05 0.054922517399939495 0 -3.7839154573961786e-05 0.054835415247285496 0 -7.6237917968222102e-05 0.054812291132209034 0 1.1382932496889849e-05 0.054888886133911699 0 1.1382932496889849e-05 0.054888886133911699 0 -1.8241077002634321e-05 0.05486538181571516 0 7.1244642678553019e-05 0.054920779861692463 0 -3.7839154573961786e-05 0.054835415247285496 0 1.1382932496889849e-05 0.054888886133911699 0 -1.8241077002634321e-05 0.05486538181571516 0 3.259700840213279e-05 0.054986520295419831 0 2.8484557890384836e-05 0.054972422372548811 0 7.1244642678553019e-05 0.054920779861692463 0 9.356606328693811e-06 0.054995747443154171 0 3.259700840213279e-05 0.054986520295419831 0 2.8484557890384836e-05 0.054972422372548811 0 -2.9942949253959348e-05 0.054867983296606478 0 -4.1463484651947175e-05 0.054840327637667503 0 -3.1309893830826772e-05 0.054851895192738712 0 -3.587666479899602e-06 0.054932472391495013 0 9.7580566434147194e-06 0.054930010583884338 0 -2.9942949253959348e-05 0.054867983296606478 0 -1.8241077002634321e-05 0.05486538181571516 0 -3.1309893830826772e-05 0.054851895192738712 0 -1.6628236676127974e-07 0.05499834791583319 0 1.2503487468551703e-07 0.055000137318293466 0 6.0776054746295261e-05 0.054896237513244281 0 9.356606328693811e-06 0.054995747443154171 0 2.8484557890384836e-05 0.054972422372548811 0 1.2503487468551703e-07 0.055000137318293466 0 2.8484557890384836e-05 0.054972422372548811 0 5.5743744014779309e-05 0.054930461707618491 0 7.1244642678553019e-05 0.054920779861692463 0 2.8484557890384836e-05 0.054972422372548811 0 5.5743744014779309e-05 0.054930461707618491 0 1.2503487468551703e-07 0.055000137318293466 0 5.5743744014779309e-05 0.054930461707618491 0 1.2503487468551703e-07 0.055000137318293466 0 6.0776054746295261e-05 0.054896237513244281 0 0.00012890193854507936 0.054793930091872257 0 0.00012406900720896092 0.054858805369864524 0 0.0002530406837688336 0.054712928060896851 0 0.00012890193854507936 0.054793930091872257 0 6.0776054746295261e-05 0.054896237513244281 0 0.00012406900720896092 0.054858805369864524 0 5.5743744014779309e-05 0.054930461707618491 0 6.0776054746295261e-05 0.054896237513244281 0 0.00012406900720896092 0.054858805369864524 0 0.00012406900720896092 0.054858805369864524 0 0.00021722414781842419 0.054809315106482841 0 0.0002530406837688336 0.054712928060896851 0 0.00012406900720896092 0.054858805369864524 0 0.000154688115426047 0.054871237051391956 0 0.00021722414781842419 0.054809315106482841 0 0.00012406900720896092 0.054858805369864524 0 7.1244642678553019e-05 0.054920779861692463 0 0.000154688115426047 0.054871237051391956 0 5.5743744014779309e-05 0.054930461707618491 0 0.00012406900720896092 0.054858805369864524 0 7.1244642678553019e-05 0.054920779861692463 0 7.1244642678553019e-05 0.054920779861692463 0 0.000154688115426047 0.054871237051391956 0 0.00016472954625667194 0.054931960525662578 0 0.00022033372607611158 0.054850574669356195 0 0.0002903460395685183 0.054855598557879921 0 0.00016472954625667194 0.054931960525662578 0 0.000154688115426047 0.054871237051391956 0 0.00022033372607611158 0.054850574669356195 0 0.00016472954625667194 0.054931960525662578 0 0.00022033372607611158 0.054850574669356195 0 0.0002903460395685183 0.054855598557879921 0 0.00027324616640779238 0.054796112157066319 0 0.00027324616640779238 0.054796112157066319 0 0.00021722414781842419 0.054809315106482841 0 0.00026798312015593106 0.05475117818488081 0 0.00027324616640779238 0.054796112157066319 0 0.00026798312015593106 0.05475117818488081 0 0.00031135542918875819 0.054733055307280169 0 0.00022033372607611158 0.054850574669356195 0 0.00027324616640779238 0.054796112157066319 0 0.00021722414781842419 0.054809315106482841 0 0.000154688115426047 0.054871237051391956 0 0.00022033372607611158 0.054850574669356195 0 0.00021722414781842419 0.054809315106482841 0 0.00021722414781842419 0.054809315106482841 0 0.00026798312015593106 0.05475117818488081 0 0.0002530406837688336 0.054712928060896851 0 0.00026798312015593106 0.05475117818488081 0 0.00028800291358061511 0.054706582867103642 0 0.0002530406837688336 0.054712928060896851 0 0.00026798312015593106 0.05475117818488081 0 0.00028800291358061511 0.054706582867103642 0 0.00031135542918875819 0.054733055307280169 0 0.00047576283876360232 0.054507747046518715 0 0.00049632188621936252 0.054440406762366313 0 0.00038952037742039135 0.054563984713105411 0 0.00049798938859096009 0.054431506847265179 0 0.00049632188621936252 0.054440406762366313 0 0.00038952037742039135 0.054563984713105411 0 0.00037918986691166343 0.054524280630241395 0 0.00038952037742039135 0.054563984713105411 0 0.0002530406837688336 0.054712928060896851 0 0.00047576283876360232 0.054507747046518715 0 0.00038952037742039135 0.054563984713105411 0 0.0002530406837688336 0.054712928060896851 0 0.00032138027514652478 0.055474137485498926 0 0.00023654518392249256 0.054491956283735224 0 0.0022472263126229988 0.042449221028267578 0 0.00090045316835734169 0.047156705513639978 0 0.0037176926174118368 0.032453795971961207 0 0.0030767702623598291 0.031489811508474387 0 0.0033381193389225667 0.030595888310315261 0 0.0028347061894422182 0.030913852747418778 0 0.0030767702623598291 0.031489811508474387 0 0.0033381193389225667 0.030595888310315261 0 0.0028347061894422182 0.030913852747418778 0 0.002546576475882334 0.030582877370182816 0 0.002455969888754289 0.030868228418837886 0 0.0029805500536085662 0.032084703191413697 0 0.0030767702623598291 0.031489811508474387 0 0.0024990834539969668 0.03136501308770983 0 0.0028347061894422182 0.030913852747418778 0 0.0030767702623598291 0.031489811508474387 0 0.0024990834539969668 0.03136501308770983 0 0.0013048197038528935 0.056361212368691349 0 0.00090045316835734169 0.047156705513639978 0 0.00047576283876360232 0.054507747046518715 0 0.00049632188621936252 0.054440406762366313 0 0.00053945035890179968 0.054376302275462286 0 0.00053785953400421825 0.054382987044322151 0 0.00051556019932330404 0.054357064865555124 0 0.00038002527751401132 0.05412888738007892 0 0.0010858469200844632 0.056172729122529907 0 0.00090045316835734169 0.047156705513639978 0 0.00049632188621936252 0.054440406762366313 0 0.00051556019932330404 0.054357064865555124 0 0.0005120582525203445 0.054233221166221215 0 0.00049798938859096009 0.054431506847265179 0 0.00049632188621936252 0.054440406762366313 0 0.00051556019932330404 0.054357064865555124 0 0.00028800291358061511 0.054706582867103642 0 0.00036467412771357908 0.054655315446230202 0 0.00031135542918875819 0.054733055307280169 0 0.00036467412771357908 0.054655315446230202 0 0.00034385635554276702 0.054715883021576733 0 0.00031135542918875819 0.054733055307280169 0 0.00032138027514652478 0.055474137485498926 0 0.0013383813195888457 0.047766657696149101 0 0.00047576283876360232 0.054507747046518715 0 0.00054437493195958039 0.054364377783891936 0 0.00053945035890179968 0.054376302275462286 0 0.0027144560711793975 0.04194794449046936 0 0.0014862996450017312 0.041667675946733262 0 -7.2440989257312356e-05 0.037739940149479879 0 0.00036467412771357908 0.054655315446230202 0 0.00036903734429676906 0.054721320528603123 0 0.00034385635554276702 0.054715883021576733 0 0.0013383813195888457 0.047766657696149101 0 0.00045096171263833582 0.051191974238360395 0 0.0013383813195888457 0.047766657696149101 0 0.00048471667820775108 0.038268562351421155 0 0.0019971777450385158 0.044286534944726064 0 0.0025864415120911521 0.045173714708299298 0 0.00021756222621069856 0.04388682683720474 0 0.00090045316835734169 0.047156705513639978 0 0.0010270033000516572 0.040674368179256785 0 0.0013383813195888457 0.047766657696149101 0 0.00090045316835734169 0.047156705513639978 0 0.0028347061894422182 0.030913852747418778 0 0.0033381193389225667 0.030595888310315261 0 0.0029065093699917801 0.030611228342499137 0 0.0028347061894422182 0.030913852747418778 0 0.0029065093699917801 0.030611228342499137 0 0.002546576475882334 0.030582877370182816 0 0.0029065093699917801 0.030611228342499137 0 0.0028902061813321474 0.030312282487436649 0 0.002546576475882334 0.030582877370182816 0 0.0033381193389225667 0.030595888310315261 0 0.0029065093699917801 0.030611228342499137 0 0.0028902061813321474 0.030312282487436649 0 0.0013383813195888457 0.047766657696149101 0 0.0010270033000516572 0.040674368179256785 0 0.00036844992859011671 0.045916582565862951 0 0.00038453548453550729 0.046350667164074995 0 0.00065557131298441147 0.046335881113459924 0 0.00036903734429676906 0.054721320528603123 0 0.00034385635554276702 0.054715883021576733 0 0.00033017780668841769 0.054784165986082947 0 0.00038453548453550729 0.046350667164074995 0 0.00044093395833908562 0.046891631203319267 0 0.00065557131298441147 0.046335881113459924 0 0.00034385635554276702 0.054715883021576733 0 0.00031135542918875819 0.054733055307280169 0 0.00033017780668841769 0.054784165986082947 0 0.00027324616640779238 0.054796112157066319 0 0.00031135542918875819 0.054733055307280169 0 0.00033017780668841769 0.054784165986082947 0 -0.00014478040714682757 0.05469556809402034 0 -0.00011876369400081267 0.05461012104965831 0 -0.00013474407253756207 0.054664120636035485 0 0.0002903460395685183 0.054855598557879921 0 0.00033017780668841769 0.054784165986082947 0 0.00037496677813670737 0.054764432394615939 0 0.00010765691851330793 0.055542070627118779 0 -0.00030948803511026459 0.049257444037011038 0 0.0002903460395685183 0.054855598557879921 0 0.00027324616640779238 0.054796112157066319 0 0.00033017780668841769 0.054784165986082947 0 -0.00030948803511026459 0.049257444037011038 0 0.00048471667820775108 0.038268562351421155 0 0.00036903734429676906 0.054721320528603123 0 0.00033017780668841769 0.054784165986082947 0 0.00037496677813670737 0.054764432394615939 0 0.00045096171263833582 0.051191974238360395 0 -0.00030948803511026459 0.049257444037011038 0 0.00060267479810244631 0.052467094674934669 0 0.00013252899679762307 0.053607912301239145 0 0.00076580994032865511 0.053605691376158233 0 -0.00011876369400081267 0.05461012104965831 0 -0.00014123842167214619 0.054670616537519243 0 -0.00013474407253756207 0.054664120636035485 0 -0.00030948803511026459 0.049257444037011038 0 -0.00020705305748755227 0.054831674918687637 0 -0.00030948803511026459 0.049257444037011038 0 -0.00032242725240387457 0.047575712949979802 0 0.00076580994032865511 0.053605691376158233 0 0.00037465199321262156 0.054165819496198135 0 0.00077556633934650716 0.054504189970893277 0 0.00037465199321262156 0.054165819496198135 0 -7.1827422880177587e-05 0.054572757178179297 0 0.00077556633934650716 0.054504189970893277 0 0.00013252899679762307 0.053607912301239145 0 0.00037465199321262156 0.054165819496198135 0 -7.1827422880177587e-05 0.054572757178179297 0 -0.00032242725240387457 0.047575712949979802 0 -0.0010363293501624751 0.049231381403044609 0 0.00013252899679762307 0.053607912301239145 0 0.00076580994032865511 0.053605691376158233 0 0.00037465199321262156 0.054165819496198135 0 -0.00020705305748755227 0.054831674918687637 0 1.7292768883091151e-05 0.054269443728135455 0 -0.00014123842167214619 0.054670616537519243 0 -0.00011901396225067762 0.054655792820851361 0 -7.1827422880177587e-05 0.054572757178179297 0 -0.00011901396225067762 0.054655792820851361 0 -0.00017470550835891905 0.054695733575266928 0 -7.1827422880177587e-05 0.054572757178179297 0 -0.00011901396225067762 0.054655792820851361 0 -0.00013199556508756622 0.054675759434919882 0 -0.00014908790973918763 0.054719165407994701 0 -0.00014123842167214619 0.054670616537519243 0 -0.00011901396225067762 0.054655792820851361 0 -0.00013199556508756622 0.054675759434919882 0 -0.00014123842167214619 0.054670616537519243 0 -0.00013199556508756622 0.054675759434919882 0 -0.00013474407253756207 0.054664120636035485 0 -0.00014478040714682757 0.05469556809402034 0 -0.00013199556508756622 0.054675759434919882 0 -0.00013474407253756207 0.054664120636035485 0 -0.00014478040714682757 0.05469556809402034 0 -0.00013199556508756622 0.054675759434919882 0 -0.00014908790973918763 0.054719165407994701 0 -0.00014478040714682757 0.05469556809402034 0 -0.00012121267001666792 0.054802109726612161 0 -0.00014908790973918763 0.054719165407994701 0 -0.00012121267001666792 0.054802109726612161 0 -0.00012309592739996556 0.054767135479974943 0 -0.00014908790973918763 0.054719165407994701 0 0.00010765691851330793 0.055542070627118779 0 2.9480914850530051e-05 0.054756709133966561 0 -0.00012309592739996556 0.054767135479974943 0 -0.00014908790973918763 0.054719165407994701 0 -0.0001431406149656966 0.054744184654589315 0 -8.4774749226562151e-05 0.054797674051386129 0 -0.00012309592739996556 0.054767135479974943 0 -0.0001431406149656966 0.054744184654589315 0 -0.00011901396225067762 0.054655792820851361 0 -0.00014908790973918763 0.054719165407994701 0 -0.00017470550835891905 0.054695733575266928 0 -0.00014908790973918763 0.054719165407994701 0 -0.00017470550835891905 0.054695733575266928 0 -0.0001431406149656966 0.054744184654589315 0 -0.00017470550835891905 0.054695733575266928 0 -0.0001431406149656966 0.054744184654589315 0 -0.00020883976768843658 0.054723104462469599 0 -0.00022155157360877306 0.054570674145505066 0 8.2322640922523698e-06 0.055392200847620428 0 -0.00019993357646365948 0.054701343331638418 0 -0.0001431406149656966 0.054744184654589315 0 -0.00022237085755556977 0.054702685670601582 0 -0.00019993357646365948 0.054701343331638418 0 -0.0001431406149656966 0.054744184654589315 0 -0.00017676108574501105 0.054708464504543176 0 -0.0001431406149656966 0.054744184654589315 0 -0.00014003567004422854 0.054737625740658935 0 -0.00017676108574501105 0.054708464504543176 0 -0.00014003567004422854 0.054737625740658935 0 -0.00017676108574501105 0.054708464504543176 0 -0.00019257064898040461 0.05467945190255534 0 -0.00017676108574501105 0.054708464504543176 0 -0.00021830920169420523 0.054675794793232868 0 -0.00019257064898040461 0.05467945190255534 0 -0.00019993357646365948 0.054701343331638418 0 -0.00017676108574501105 0.054708464504543176 0 -0.00021830920169420523 0.054675794793232868 0 -0.00021830920169420523 0.054675794793232868 0 -0.00024118971663996403 0.05463814263123324 0 -0.00019257064898040461 0.05467945190255534 0 -0.00019993357646365948 0.054701343331638418 0 -0.00021830920169420523 0.054675794793232868 0 -0.00023637843128358023 0.054677446717886789 0 -0.00021830920169420523 0.054675794793232868 0 -0.00025817008721117237 0.054652505563126834 0 -0.00023637843128358023 0.054677446717886789 0 -0.00021830920169420523 0.054675794793232868 0 -0.00025817008721117237 0.054652505563126834 0 -0.00024118971663996403 0.05463814263123324 0 -0.00025817008721117237 0.054652505563126834 0 -0.00028275580147111564 0.054639531823062609 0 -0.00029968312529533479 0.054618284423057627 0 -0.00025817008721117237 0.054652505563126834 0 -0.00029968312529533479 0.054618284423057627 0 -0.00024118971663996403 0.05463814263123324 0 8.2322640922523698e-06 0.055392200847620428 0 -0.0010363293501624751 0.049231381403044609 0 -7.1827422880177587e-05 0.054572757178179297 0 -0.00020883976768843658 0.054723104462469599 0 0.00077556633934650716 0.054504189970893277 0 -0.00022237085755556977 0.054702685670601582 0 -0.00023637843128358023 0.054677446717886789 0 -0.00028275580147111564 0.054639531823062609 0 -0.00025817008721117237 0.054652505563126834 0 -0.00023637843128358023 0.054677446717886789 0 -0.00028275580147111564 0.054639531823062609 0 -0.00017470550835891905 0.054695733575266928 0 -7.1827422880177587e-05 0.054572757178179297 0 -0.00020883976768843658 0.054723104462469599 0 -0.00019993357646365948 0.054701343331638418 0 -0.00022237085755556977 0.054702685670601582 0 -0.00023637843128358023 0.054677446717886789 0 -0.0019023625082729867 0.044435979493772121 0 -0.0016247288585387429 0.04360288435287675 0 -0.0024794267857892582 0.043751432410163653 0 -0.0019023625082729867 0.044435979493772121 0 -0.0026316220177928632 0.044513799370004728 0 -0.0024794267857892582 0.043751432410163653 0 -0.0033665699180970947 0.043928386614069975 0 -0.0026316220177928632 0.044513799370004728 0 -0.0031953014738718257 0.045355488440427486 0 -0.0033665699180970947 0.043928386614069975 0 -0.0026316220177928632 0.044513799370004728 0 -0.0024794267857892582 0.043751432410163653 0 -0.0010363293501624751 0.049231381403044609 0 -0.0019131850276691449 0.049801547503926111 0 -0.0026316220177928632 0.044513799370004728 0 -0.0031953014738718257 0.045355488440427486 0 -0.0022157377675648252 0.045118767349676514 0 -0.0019023625082729867 0.044435979493772121 0 -0.0026316220177928632 0.044513799370004728 0 -0.0022157377675648252 0.045118767349676514 0 -0.0019023625082729867 0.044435979493772121 0 -0.0022157377675648252 0.045118767349676514 0 -0.0016299653037840107 0.044838193394971401 0 -0.0012410684549015343 0.044936268736121797 0 -0.0016299653037840107 0.044838193394971401 0 -0.00099463800124359545 0.04480781243671305 0 -0.0012410684549015343 0.044936268736121797 0 -0.00099463800124359545 0.04480781243671305 0 -0.0011780903159756399 0.045000051342593134 0 -0.0012410684549015343 0.044936268736121797 0 -0.0016299653037840107 0.044838193394971401 0 -0.0015514962582032447 0.045571583955216363 0 -0.0019023625082729867 0.044435979493772121 0 -0.0016299653037840107 0.044838193394971401 0 -0.00099463800124359545 0.04480781243671305 0 -0.0022157377675648252 0.045118767349676514 0 -0.0016299653037840107 0.044838193394971401 0 -0.0015514962582032447 0.045571583955216363 0 -0.0011985116682777912 0.045005330258428927 0 -0.0010843777289573288 0.045446070993233757 0 -0.0034939307106733935 0.038810513666799794 0 -0.0021035945239104271 0.042960062738845228 0 -0.0034939307106733935 0.038810513666799794 0 -0.0043846325818178936 0.034985587468664633 0 -0.0049723785970794427 0.03218863681211432 0 -0.0046038391128606073 0.032282033112175618 0 -0.0042253875577052281 0.033443454646952808 0 -0.0049723785970794427 0.03218863681211432 0 -0.0045948244390467243 0.031640566856802978 0 -0.0054712770961450477 0.031267226749188845 0 -0.0049723785970794427 0.03218863681211432 0 -0.0046038391128606073 0.032282033112175618 0 -0.0045948244390467243 0.031640566856802978 0 -0.0034939307106733935 0.038810513666799794 0 -0.0021143837598550032 0.03629541818843849 0 -0.0019023625082729867 0.044435979493772121 0 -0.00099463800124359545 0.04480781243671305 0 -0.0016247288585387429 0.04360288435287675 0 -5.3896889835569521e-05 0.027158245352244991 0 -0.0011826937002204871 0.027291143305653916 0 -0.00037918725048885949 0.028023928246941485 0 -0.0021143837598550032 0.03629541818843849 0 -0.0028468738595313426 0.0284968107181298 0 -0.0045948244390467243 0.031640566856802978 0 -0.0054712770961450477 0.031267226749188845 0 -0.0046216441433060427 0.031062958415965965 0 -0.0011601418834471262 0.027964974735888326 0 -0.00083337977583252494 0.02856142435896681 0 -0.0016212375955643162 0.028192632977928254 0 -0.0011826937002204871 0.027291143305653916 0 -0.0011601418834471262 0.027964974735888326 0 -0.00037918725048885949 0.028023928246941485 0 -0.0011601418834471262 0.027964974735888326 0 -0.00037918725048885949 0.028023928246941485 0 -0.00083337977583252494 0.02856142435896681 0 -5.3896889835569521e-05 0.027158245352244991 0 -0.00037918725048885949 0.028023928246941485 0 0.00054491984660572578 0.027976252547037797 0 -0.00037918725048885949 0.028023928246941485 0 0.00054491984660572578 0.027976252547037797 0 0.00029679989968485395 0.02845742961408286 0 -0.00043479887332088346 0.035126368616820912 0 0.00048615920975075063 0.034748242623501596 0 -0.0014483831801344348 0.042370306752168907 0 -0.0013755798596987033 0.042369896440933176 0 -0.0013767070866412283 0.042473479759122156 0 0.00054491984660572578 0.027976252547037797 0 0.0011134468108441136 0.028849475163135001 0 0.00029679989968485395 0.02845742961408286 0 -0.0015221774226116735 0.042252844571673942 0 -0.0014483831801344348 0.042370306752168907 0 -0.0014133727823174491 0.042293778769820226 0 -0.0021143837598550032 0.03629541818843849 0 -0.002091388860912975 0.043050680573075872 0 -0.0021143837598550032 0.03629541818843849 0 -0.00043479887332088346 0.035126368616820912 0 -0.0014483831801344348 0.042370306752168907 0 -0.0014133727823174491 0.042293778769820226 0 -0.0013755798596987033 0.042369896440933176 0 -0.0010363293501624751 0.049231381403044609 0 -0.002091388860912975 0.043050680573075872 0 -0.0013201598631231912 0.042339500607431406 0 -0.0014133727823174491 0.042293778769820226 0 -0.0013755798596987033 0.042369896440933176 0 -0.001300570937504026 0.042415125182616503 0 -0.0013201598631231912 0.042339500607431406 0 -0.0013755798596987033 0.042369896440933176 0 -0.0012747075813062468 0.042514576864598336 0 -0.001300570937504026 0.042415125182616503 0 -0.0013767070866412283 0.042473479759122156 0 -0.001300570937504026 0.042415125182616503 0 -0.0013755798596987033 0.042369896440933176 0 -0.0013767070866412283 0.042473479759122156 0 0.00048615920975075063 0.034748242623501596 0 0.00048471667820775108 0.038268562351421155 0 -0.00030948803511026459 0.049257444037011038 0 0.00048615920975075063 0.034748242623501596 0 -0.00095055889950639418 0.041733804311038888 0 0.0014880621938061721 0.041354984310512856 0 2.7765048095118172e-05 0.039174189147154717 0 0.0014567416248421306 0.028890193647961134 0 0.00041370849354991821 0.029660503856691226 0 -0.00011904645322751102 0.028963597422660366 0 0.00048615920975075063 0.034748242623501596 0 0.0004440615336639591 0.027681193273642817 0 0.0014567416248421306 0.028890193647961134 0 0.00041370849354991821 0.029660503856691226 0 0.0014491630847154639 0.029703433822362076 0 0.0011134468108441136 0.028849475163135001 0 0.00029679989968485395 0.02845742961408286 0 -0.00011904645322751102 0.028963597422660366 0 0.00043832040585519902 0.028820529490401897 0 0.0013738207778487513 0.033883201862975464 0 0.00041370849354991821 0.029660503856691226 0 0.0014491630847154639 0.029703433822362076 0 0.0015027254856576566 0.030045614535665493 0 0.00041370849354991821 0.029660503856691226 0 0.0015027254856576566 0.030045614535665493 0 0.0019305346355071691 0.03076033594053024 0 0.00054355566893287235 0.028981673147175358 0 0.0010537007555280519 0.029508999502090436 0 0.0021095800566673655 0.029787960518134662 0 0.00054355566893287235 0.028981673147175358 0 0.0010537007555280519 0.029508999502090436 0 0.00034797533719711755 0.029557973043313798 0 0.0014567416248421306 0.028890193647961134 0 0.0014491630847154639 0.029703433822362076 0 0.0022359459879928217 0.030042894058247508 0 0.0014491630847154639 0.029703433822362076 0 0.0015027254856576566 0.030045614535665493 0 0.0022359459879928217 0.030042894058247508 0 0.0015027254856576566 0.030045614535665493 0 0.0022359459879928217 0.030042894058247508 0 0.0019305346355071691 0.03076033594053024 0 0.00048471667820775108 0.038268562351421155 0 0.0013738207778487513 0.033883201862975464 0 0.0014862996450017312 0.041667675946733262 0 -7.2440989257312356e-05 0.037739940149479879 0 -0.0010671032741199542 0.040073077859204706 0 0.0010270033000516572 0.040674368179256785 0 0.0020400483309653155 0.032761774069860902 0 0.0022963724234918012 0.036834061015954059 0 0.00068072940486311084 0.035806553409104123 0 0.00043186085270677081 0.036391251503228209 0 0.0010270033000516572 0.040674368179256785 0 0.0013738207778487513 0.033883201862975464 0 0.0013738207778487513 0.033883201862975464 0 0.0020400483309653155 0.032761774069860902 0 0.0028902061813321474 0.030312282487436649 0 0.0023174576156448357 0.030375892274316845 0 0.0020416468540823234 0.0300706217512808 0 0.0028902061813321474 0.030312282487436649 0 0.0023174576156448357 0.030375892274316845 0 0.002546576475882334 0.030582877370182816 0 0.0023174576156448357 0.030375892274316845 0 0.0019293304690368293 0.030302451561985633 0 0.0020416468540823234 0.0300706217512808 0 0.0023174576156448357 0.030375892274316845 0 0.0021680179424831757 0.030613330993945077 0 0.0019293304690368293 0.030302451561985633 0 0.0021680179424831757 0.030613330993945077 0 0.002546576475882334 0.030582877370182816 0 0.002455969888754289 0.030868228418837886 0 0.0023174576156448357 0.030375892274316845 0 0.0021680179424831757 0.030613330993945077 0 0.002546576475882334 0.030582877370182816 0 0.0019293304690368293 0.030302451561985633 0 0.0015347371178695646 0.03029614593603697 0 0.0017248243970731496 0.030660569182660555 0 0.0021680179424831757 0.030613330993945077 0 0.0019293304690368293 0.030302451561985633 0 0.0017248243970731496 0.030660569182660555 0 0.0023020444894935542 0.031757144814951031 0 0.0020400483309653155 0.032761774069860902 0 0.0019293304690368293 0.030302451561985633 0 0.0015347371178695646 0.03029614593603697 0 0.0016440237339036194 0.029976962546129381 0 0.0021095800566673655 0.029787960518134662 0 0.0016440237339036194 0.029976962546129381 0 0.0014817596225539587 0.029828758755885122 0 0.0010537007555280519 0.029508999502090436 0 0.0021095800566673655 0.029787960518134662 0 0.0014817596225539587 0.029828758755885122 0 0.0019293304690368293 0.030302451561985633 0 0.0016440237339036194 0.029976962546129381 0 0.0020321991514001886 0.030053640099621453 0 0.0021095800566673655 0.029787960518134662 0 0.0016440237339036194 0.029976962546129381 0 0.0019988993639418252 0.030058907391470668 0 0.001628785365939183 0.032005031976341879 0 0.0020400483309653155 0.032761774069860902 0 0.0010537007555280519 0.029508999502090436 0 0.0014817596225539587 0.029828758755885122 0 0.0011285112296308389 0.030031257703969808 0 0.0016440237339036194 0.029976962546129381 0 0.0014817596225539587 0.029828758755885122 0 0.0011285112296308389 0.030031257703969808 0 0.0015347371178695646 0.03029614593603697 0 0.0016440237339036194 0.029976962546129381 0 0.0011285112296308389 0.030031257703969808 0 0.0010537007555280519 0.029508999502090436 0 0.0011285112296308389 0.030031257703969808 0 0.00054555256884778868 0.029956682521272079 0 0.0010537007555280519 0.029508999502090436 0 0.00054555256884778868 0.029956682521272079 0 0.00034797533719711755 0.029557973043313798 0 0.0011285112296308389 0.030031257703969808 0 0.00054555256884778868 0.029956682521272079 0 0.00079345735382166849 0.030445416633440209 0 0.0015347371178695646 0.03029614593603697 0 0.0011285112296308389 0.030031257703969808 0 0.0012654787921985685 0.030509647454587091 0 0.0011285112296308389 0.030031257703969808 0 0.00079345735382166849 0.030445416633440209 0 0.0012654787921985685 0.030509647454587091 0 0.0015347371178695646 0.03029614593603697 0 0.0012654787921985685 0.030509647454587091 0 0.0017248243970731496 0.030660569182660555 0 0.0012654787921985685 0.030509647454587091 0 0.0014475087027077365 0.030791301953904778 0 0.0017248243970731496 0.030660569182660555 0 0.00079345735382166849 0.030445416633440209 0 0.0012654787921985685 0.030509647454587091 0 0.0010993792916957569 0.030860132518200641 0 0.0012654787921985685 0.030509647454587091 0 0.0014475087027077365 0.030791301953904778 0 0.0010993792916957569 0.030860132518200641 0 0.0014475087027077365 0.030791301953904778 0 0.0010993792916957569 0.030860132518200641 0 0.0015305961425810994 0.031097441224686134 0 0.00079345735382166849 0.030445416633440209 0 0.0010993792916957569 0.030860132518200641 0 0.00062976716950350589 0.030905038572299873 0 0.0010993792916957569 0.030860132518200641 0 0.00062976716950350589 0.030905038572299873 0 0.0010750479143411178 0.031393212065586644 0 0.00062976716950350589 0.030905038572299873 0 0.0010750479143411178 0.031393212065586644 0 0.00061174391259332371 0.031289419599850557 0 0.00060535521580513322 0.031721812738990496 0 0.0010750479143411178 0.031393212065586644 0 0.00061174391259332371 0.031289419599850557 0 0.0010993792916957569 0.030860132518200641 0 0.0015305961425810994 0.031097441224686134 0 0.0010750479143411178 0.031393212065586644 0 0.0015305961425810994 0.031097441224686134 0 0.0010750479143411178 0.031393212065586644 0 0.0015336143131154478 0.031483668890466512 0 0.0019747379911022695 0.03168094818167029 0 0.0015336143131154478 0.031483668890466512 0 0.0019083128642315512 0.031252201563324596 0 0.0015305961425810994 0.031097441224686134 0 0.0015336143131154478 0.031483668890466512 0 0.0019083128642315512 0.031252201563324596 0 0.0019083128642315512 0.031252201563324596 0 0.0024990834539969668 0.03136501308770983 0 0.0021105420844455048 0.030927461549600462 0 0.0019747379911022695 0.03168094818167029 0 0.0019083128642315512 0.031252201563324596 0 0.0024990834539969668 0.03136501308770983 0 0.0028347061894422182 0.030913852747418778 0 0.0024990834539969668 0.03136501308770983 0 0.002455969888754289 0.030868228418837886 0 0.0024990834539969668 0.03136501308770983 0 0.0021105420844455048 0.030927461549600462 0 0.002455969888754289 0.030868228418837886 0 0.0021680179424831757 0.030613330993945077 0 0.0021105420844455048 0.030927461549600462 0 0.002455969888754289 0.030868228418837886 0 0.0021680179424831757 0.030613330993945077 0 0.0021105420844455048 0.030927461549600462 0 0.0017248243970731496 0.030660569182660555 0 0.0021105420844455048 0.030927461549600462 0 0.0017248243970731496 0.030660569182660555 0 0.0017960427260770362 0.030949346675675688 0 0.0014475087027077365 0.030791301953904778 0 0.0017248243970731496 0.030660569182660555 0 0.0017960427260770362 0.030949346675675688 0 0.0014475087027077365 0.030791301953904778 0 0.0015305961425810994 0.031097441224686134 0 0.0017960427260770362 0.030949346675675688 0 0.0015305961425810994 0.031097441224686134 0 0.0019083128642315512 0.031252201563324596 0 0.0017960427260770362 0.030949346675675688 0 0.0019083128642315512 0.031252201563324596 0 0.0021105420844455048 0.030927461549600462 0 0.0017960427260770362 0.030949346675675688 0 -0.00042073904937471704 0.030692129105055421 0 -0.0011152679010973095 0.030434461218969727 0 -0.000929136314477676 0.031031058592374084 0 -0.0011152679010973095 0.030434461218969727 0 -0.000929136314477676 0.031031058592374084 0 -0.0016115164894312892 0.030791842573856223 0 -0.0012428189473250087 0.031686950702018109 0 -0.000929136314477676 0.031031058592374084 0 -0.0016115164894312892 0.030791842573856223 0 -0.00048022776174518625 0.0316585061475083 0 -0.000929136314477676 0.031031058592374084 0 -0.00044825285673638366 0.03116248603865459 0 -0.00042073904937471704 0.030692129105055421 0 -0.000929136314477676 0.031031058592374084 0 -0.00044825285673638366 0.03116248603865459 0 -0.00048022776174518625 0.0316585061475083 0 -0.00044825285673638366 0.03116248603865459 0 3.9375112051564928e-05 0.031281076868907708 0 -0.00042073904937471704 0.030692129105055421 0 -0.00044825285673638366 0.03116248603865459 0 3.9375112051564928e-05 0.031281076868907708 0 0.00061174391259332371 0.031289419599850557 0 3.9375112051564928e-05 0.031281076868907708 0 0.00017283232881987385 0.030857459795922373 0 0.00060535521580513322 0.031721812738990496 0 0.00061174391259332371 0.031289419599850557 0 3.9375112051564928e-05 0.031281076868907708 0 0.00062976716950350589 0.030905038572299873 0 0.00061174391259332371 0.031289419599850557 0 0.00017283232881987385 0.030857459795922373 0 0.00079345735382166849 0.030445416633440209 0 0.00062976716950350589 0.030905038572299873 0 0.00012209032000840315 0.030408591198045457 0 0.00062976716950350589 0.030905038572299873 0 0.00017283232881987385 0.030857459795922373 0 0.00012209032000840315 0.030408591198045457 0 -0.00042073904937471704 0.030692129105055421 0 3.9375112051564928e-05 0.031281076868907708 0 0.00017283232881987385 0.030857459795922373 0 -0.00042073904937471704 0.030692129105055421 0 0.00017283232881987385 0.030857459795922373 0 0.00012209032000840315 0.030408591198045457 0 0.00012209032000840315 0.030408591198045457 0 -7.0000425229456011e-06 0.029902138485697321 0 -0.0005431093887161225 0.030103137116069476 0 -0.00042073904937471704 0.030692129105055421 0 0.00012209032000840315 0.030408591198045457 0 -0.0005431093887161225 0.030103137116069476 0 0.00054555256884778868 0.029956682521272079 0 0.00079345735382166849 0.030445416633440209 0 0.00012209032000840315 0.030408591198045457 0 0.00054555256884778868 0.029956682521272079 0 0.00012209032000840315 0.030408591198045457 0 -7.0000425229456011e-06 0.029902138485697321 0 0.00054555256884778868 0.029956682521272079 0 -7.0000425229456011e-06 0.029902138485697321 0 0.00034797533719711755 0.029557973043313798 0 -7.0000425229456011e-06 0.029902138485697321 0 -0.0005431093887161225 0.030103137116069476 0 -0.00034441007395057496 0.029437909080620991 0 -0.0005431093887161225 0.030103137116069476 0 -0.0013303657214445766 0.029781571353108247 0 -0.00034441007395057496 0.029437909080620991 0 -0.00042073904937471704 0.030692129105055421 0 -0.0011152679010973095 0.030434461218969727 0 -0.0005431093887161225 0.030103137116069476 0 -0.0011152679010973095 0.030434461218969727 0 -0.0005431093887161225 0.030103137116069476 0 -0.0013303657214445766 0.029781571353108247 0 -0.0013303657214445766 0.029781571353108247 0 -0.0011918694784849207 0.029141256171157041 0 -0.00034441007395057496 0.029437909080620991 0 -0.0011918694784849207 0.029141256171157041 0 -0.00034441007395057496 0.029437909080620991 0 -0.0004733520428443179 0.029035088889803294 0 0.00054355566893287235 0.028981673147175358 0 -0.00034441007395057496 0.029437909080620991 0 -0.0004733520428443179 0.029035088889803294 0 0.00054355566893287235 0.028981673147175358 0 0.00034797533719711755 0.029557973043313798 0 -0.00034441007395057496 0.029437909080620991 0 -7.0000425229456011e-06 0.029902138485697321 0 0.00034797533719711755 0.029557973043313798 0 -0.00034441007395057496 0.029437909080620991 0 0.00041370849354991821 0.029660503856691226 0 -0.00011904645322751102 0.028963597422660366 0 -0.00083337977583252494 0.02856142435896681 0 0.00054355566893287235 0.028981673147175358 0 -0.0004733520428443179 0.029035088889803294 0 -0.00083337977583252494 0.02856142435896681 0 -0.00037918725048885949 0.028023928246941485 0 0.00029679989968485395 0.02845742961408286 0 -0.00011904645322751102 0.028963597422660366 0 -0.00037918725048885949 0.028023928246941485 0 -0.00011904645322751102 0.028963597422660366 0 -0.00083337977583252494 0.02856142435896681 0 0.00043832040585519902 0.028820529490401897 0 -0.00066938155649652901 0.028765373363816672 0 -0.0011918694784849207 0.029141256171157041 0 -0.00083337977583252494 0.02856142435896681 0 -0.0017921417719437985 0.028668622001916336 0 -0.0011918694784849207 0.029141256171157041 0 -0.0004733520428443179 0.029035088889803294 0 -0.00083337977583252494 0.02856142435896681 0 -0.00083337977583252494 0.02856142435896681 0 -0.0017921417719437985 0.028668622001916336 0 -0.0016212375955643162 0.028192632977928254 0 -0.0017921417719437985 0.028668622001916336 0 -0.0025085198700142502 0.028025441516030848 0 -0.0016212375955643162 0.028192632977928254 0 -0.0017921417719437985 0.028668622001916336 0 -0.0024772927159277887 0.028799488375599199 0 -0.0025085198700142502 0.028025441516030848 0 -0.0024772927159277887 0.028799488375599199 0 -0.0032011348714199727 0.028319959641618316 0 -0.0025085198700142502 0.028025441516030848 0 -0.0017921417719437985 0.028668622001916336 0 -0.0024772927159277887 0.028799488375599199 0 -0.002035833038709375 0.029316483004741638 0 -0.0024772927159277887 0.028799488375599199 0 -0.002035833038709375 0.029316483004741638 0 -0.0029965695571523847 0.02966076347486326 0 -0.002035833038709375 0.029316483004741638 0 -0.002297793473038962 0.029868549435484462 0 -0.0029965695571523847 0.02966076347486326 0 -0.0011918694784849207 0.029141256171157041 0 -0.0017921417719437985 0.028668622001916336 0 -0.002035833038709375 0.029316483004741638 0 -0.0013303657214445766 0.029781571353108247 0 -0.0011918694784849207 0.029141256171157041 0 -0.002035833038709375 0.029316483004741638 0 -0.0013303657214445766 0.029781571353108247 0 -0.0017439289287342504 0.030243203514178436 0 -0.002297793473038962 0.029868549435484462 0 -0.0013303657214445766 0.029781571353108247 0 -0.002035833038709375 0.029316483004741638 0 -0.002297793473038962 0.029868549435484462 0 -0.0011152679010973095 0.030434461218969727 0 -0.0013303657214445766 0.029781571353108247 0 -0.0017439289287342504 0.030243203514178436 0 -0.0017439289287342504 0.030243203514178436 0 -0.002297793473038962 0.029868549435484462 0 -0.002299848210345146 0.030364401036656972 0 -0.002297793473038962 0.029868549435484462 0 -0.0030642877085088195 0.029892657479235706 0 -0.0029965695571523847 0.02966076347486326 0 -0.002297793473038962 0.029868549435484462 0 -0.002299848210345146 0.030364401036656972 0 -0.0030642877085088195 0.029892657479235706 0 -0.002299848210345146 0.030364401036656972 0 -0.0027241342460191565 0.030668787142060019 0 -0.0030642877085088195 0.029892657479235706 0 -0.0020140453937150743 0.031154880219727777 0 -0.002299848210345146 0.030364401036656972 0 -0.0027241342460191565 0.030668787142060019 0 -0.0020140453937150743 0.031154880219727777 0 -0.002299848210345146 0.030364401036656972 0 -0.0016115164894312892 0.030791842573856223 0 -0.0011152679010973095 0.030434461218969727 0 -0.0017439289287342504 0.030243203514178436 0 -0.0016115164894312892 0.030791842573856223 0 -0.0017439289287342504 0.030243203514178436 0 -0.002299848210345146 0.030364401036656972 0 -0.0016115164894312892 0.030791842573856223 0 -0.0025687800633366468 0.029537074839765448 0 -0.0037827041469345834 0.029568825983950123 0 -0.0030601260980477963 0.029829438254773143 0 -0.0025687800633366468 0.029537074839765448 0 -0.0024249341582787713 0.028614650472626943 0 -0.0037827041469345834 0.029568825983950123 0 -0.0037827041469345834 0.029568825983950123 0 -0.0030642877085088195 0.029892657479235706 0 -0.0030601260980477963 0.029829438254773143 0 -0.0027241342460191565 0.030668787142060019 0 -0.0037827041469345834 0.029568825983950123 0 -0.0030642877085088195 0.029892657479235706 0 -0.0030642877085088195 0.029892657479235706 0 -0.0030601260980477963 0.029829438254773143 0 -0.0029965695571523847 0.02966076347486326 0 -0.0025687800633366468 0.029537074839765448 0 -0.0030601260980477963 0.029829438254773143 0 -0.0025287369285484722 0.029923829730736227 0 -0.0030601260980477963 0.029829438254773143 0 -0.0028447391574440433 0.029895186179474498 0 -0.0025287369285484722 0.029923829730736227 0 -0.0030601260980477963 0.029829438254773143 0 -0.0029965695571523847 0.02966076347486326 0 -0.0028447391574440433 0.029895186179474498 0 -0.0031291985902079196 0.030642140402410024 0 -0.0022805007857097295 0.026673413261229538 0 -0.0029965695571523847 0.02966076347486326 0 -0.0029710139373004822 0.029893679268408697 0 -0.0028447391574440433 0.029895186179474498 0 -0.0024772927159277887 0.028799488375599199 0 -0.0029965695571523847 0.02966076347486326 0 -0.0032011348714199727 0.028319959641618316 0 -0.0012649523862934015 0.020908423909705376 0 -0.0010599402596736906 0.020849199734287581 0 -0.0010907876276142656 0.020987078382278056 0 -0.0015836870616312549 0.023128463102044212 0 -0.00078408934752176123 0.020024969332402841 0 -0.0022805007857097295 0.026673413261229538 0 -0.0015836870616312549 0.023128463102044212 0 -0.0023023506927122507 0.024700490175229729 0 -0.0014477408810519977 0.020276079297051809 0 -0.0010907876276142656 0.020987078382278056 0 -0.0013001807611697314 0.021157263784451635 0 -0.00070581627043155167 0.0209921601156111 0 -0.00089360026185578134 0.020418805246994434 0 -0.0010907876276142656 0.020987078382278056 0 -0.00070581627043155167 0.0209921601156111 0 -0.0026303188676510768 0.020729559341439184 0 -0.0029228629187138663 0.020597844494864934 0 -0.0028502576954205815 0.021018374166795004 0 -0.0026303188676510768 0.020729559341439184 0 -0.0029228629187138663 0.020597844494864934 0 -0.0024003134162964008 0.020445479491909693 0 -0.0030926602753028102 0.031111344207572628 0 -0.0035701693976071124 0.031372876662215214 0 -0.0027058222221980951 0.031432244033954115 0 -0.0030926602753028102 0.031111344207572628 0 -0.0028482334348349857 0.030625526241847448 0 -0.0037610356457164025 0.030848928095867222 0 -0.0030926602753028102 0.031111344207572628 0 -0.0028482334348349857 0.030625526241847448 0 -0.0027058222221980951 0.031432244033954115 0 -0.0023023506927122507 0.024700490175229729 0 -0.0034346269946852401 0.02737959493547883 0 -0.0022805007857097295 0.026673413261229538 0 -0.0023023506927122507 0.024700490175229729 0 -0.0028216938322853879 0.02812109638579436 0 -0.002927627025146361 0.027567154899457876 0 -0.0025733136630037498 0.027771037434381821 0 -0.0012649523862934015 0.020908423909705376 0 -0.0010907876276142656 0.020987078382278056 0 -0.0013001807611697314 0.021157263784451635 0 -0.0028216938322853879 0.02812109638579436 0 -0.0025733136630037498 0.027771037434381821 0 -0.0023612477340689969 0.02792857022362899 0 -0.0022805007857097295 0.026673413261229538 0 -0.0026240928740672883 0.028032953279869526 0 -0.002927627025146361 0.027567154899457876 0 -0.0025733136630037498 0.027771037434381821 0 -0.0021730527035473735 0.027452257877135317 0 -0.0026240928740672883 0.028032953279869526 0 -0.0018563559218855077 0.027737289774122372 0 -0.0023612477340689969 0.02792857022362899 0 -0.0018263072218163091 0.027746937181540716 0 -0.0021730527035473735 0.027452257877135317 0 -0.0025733136630037498 0.027771037434381821 0 -0.0023612477340689969 0.02792857022362899 0 -0.0021730527035473735 0.027452257877135317 0 -0.0025085198700142502 0.028025441516030848 0 -0.0016212375955643162 0.028192632977928254 0 -0.0018263072218163091 0.027746937181540716 0 -0.0011601418834471262 0.027964974735888326 0 -0.0016212375955643162 0.028192632977928254 0 -0.0018263072218163091 0.027746937181540716 0 -0.0011826937002204871 0.027291143305653916 0 -0.0011601418834471262 0.027964974735888326 0 -0.0018263072218163091 0.027746937181540716 0 -0.0011826937002204871 0.027291143305653916 0 -0.0018263072218163091 0.027746937181540716 0 -0.0021730527035473735 0.027452257877135317 0 -0.0028468738595313426 0.0284968107181298 0 -0.0031766985001792677 0.029623422114764483 0 -0.0046216441433060427 0.031062958415965965 0 -0.0037610356457164025 0.030848928095867222 0 -0.0041321746605225869 0.031427546304423515 0 -0.0045948244390467243 0.031640566856802978 0 -0.0046216441433060427 0.031062958415965965 0 -0.0041321746605225869 0.031427546304423515 0 -0.0023023506927122507 0.024700490175229729 0 -0.0031766985001792677 0.029623422114764483 0 -0.0030926602753028102 0.031111344207572628 0 -0.0037610356457164025 0.030848928095867222 0 -0.0035701693976071124 0.031372876662215214 0 -0.0037610356457164025 0.030848928095867222 0 -0.0035701693976071124 0.031372876662215214 0 -0.0041321746605225869 0.031427546304423515 0 -0.0035701693976071124 0.031372876662215214 0 -0.0038891779875271995 0.03171633150615976 0 -0.0041321746605225869 0.031427546304423515 0 -0.0036198992483380669 0.031855444511156523 0 -0.0038891779875271995 0.03171633150615976 0 -0.0039733048580315811 0.031979470622820944 0 -0.0035701693976071124 0.031372876662215214 0 -0.0036198992483380669 0.031855444511156523 0 -0.0038891779875271995 0.03171633150615976 0 -0.0035701693976071124 0.031372876662215214 0 -0.0036198992483380669 0.031855444511156523 0 -0.0032726304346524953 0.031839895171749566 0 -0.0045948244390467243 0.031640566856802978 0 -0.0041321746605225869 0.031427546304423515 0 -0.0042007049009143219 0.031829831621464487 0 -0.0038891779875271995 0.03171633150615976 0 -0.0041321746605225869 0.031427546304423515 0 -0.0042007049009143219 0.031829831621464487 0 -0.0038891779875271995 0.03171633150615976 0 -0.0042007049009143219 0.031829831621464487 0 -0.0039733048580315811 0.031979470622820944 0 -0.0046038391128606073 0.032282033112175618 0 -0.0045948244390467243 0.031640566856802978 0 -0.0042007049009143219 0.031829831621464487 0 -0.0046038391128606073 0.032282033112175618 0 -0.0037856135012833926 0.032663772782180522 0 -0.003069603908263802 0.032634307761492766 0 -0.0046038391128606073 0.032282033112175618 0 -0.0039733048580315811 0.031979470622820944 0 -0.003592321160026838 0.032231525540095299 0 -0.0048943984927815338 0.032069080837320491 0 -0.0025977376034177239 0.03314065766732438 0 -0.0046038391128606073 0.032282033112175618 0 -0.0042007049009143219 0.031829831621464487 0 -0.0039733048580315811 0.031979470622820944 0 -0.0046038391128606073 0.032282033112175618 0 -0.0037856135012833926 0.032663772782180522 0 -0.0042253875577052281 0.033443454646952808 0 -0.0036198992483380669 0.031855444511156523 0 -0.003592321160026838 0.032231525540095299 0 -0.0032726304346524953 0.031839895171749566 0 -0.0036198992483380669 0.031855444511156523 0 -0.0039733048580315811 0.031979470622820944 0 -0.003592321160026838 0.032231525540095299 0 -0.0037856135012833926 0.032663772782180522 0 -0.003069603908263802 0.032634307761492766 0 -0.0034094150174138428 0.033566573429824081 0 -0.003592321160026838 0.032231525540095299 0 -0.0028452458197759855 0.032071896162700918 0 -0.0032726304346524953 0.031839895171749566 0 -0.003069603908263802 0.032634307761492766 0 -0.0012511360984289212 0.033013269716281615 0 -0.0022433415011762648 0.033333425133360899 0 -0.0025977376034177239 0.03314065766732438 0 -0.0048895455483628702 0.027781659414744517 0 -0.003592321160026838 0.032231525540095299 0 -0.0028134898026211368 0.032263648802209777 0 -0.0028452458197759855 0.032071896162700918 0 -0.0047753437772460067 0.026810591004436442 0 -0.0062671497615784822 0.022669185210306364 0 -0.0048895455483628702 0.027781659414744517 0 -0.0047753437772460067 0.026810591004436442 0 -0.0086868405800561675 0.022163161492699007 0 -0.0087702114815424639 0.021744592443370112 0 -0.0079767553229075673 0.021894068161387042 0 -0.0087702114815424639 0.021744592443370112 0 -0.0073623845076367456 0.021206873003350942 0 -0.0079767553229075673 0.021894068161387042 0 -0.0086868405800561675 0.022163161492699007 0 -0.0079767553229075673 0.021894068161387042 0 -0.0074606252571312636 0.022378409155250259 0 -0.004339898574541045 0.024682056047121904 0 -0.0043622989952642847 0.024503267718253629 0 -0.0041384905755512359 0.024490326236168185 0 -0.0034346269946852401 0.02737959493547883 0 -0.0032350277719387375 0.022339972137660362 0 -0.0026303188676510768 0.020729559341439184 0 -0.0028502576954205815 0.021018374166795004 0 -0.0023333411781330865 0.021035488975557775 0 -0.0047753437772460067 0.026810591004436442 0 -0.0034346269946852401 0.02737959493547883 0 -0.0031347450888200312 0.031988157694250459 0 -0.0034346269946852401 0.02737959493547883 0 -0.0028452458197759855 0.032071896162700918 0 -0.0029298878807670417 0.031481075599108559 0 -0.0032726304346524953 0.031839895171749566 0 -0.0035701693976071124 0.031372876662215214 0 -0.0029298878807670417 0.031481075599108559 0 -0.0032726304346524953 0.031839895171749566 0 -0.0010658098545084586 0.034994138184966217 0 -0.002448937558142174 0.034141196760009845 0 -0.0020403740101219382 0.035795704866699307 0 -0.0017049849903349704 0.034475803073198932 0 -0.0016336026547091583 0.033627362564846018 0 -0.002448937558142174 0.034141196760009845 0 -0.00096167858085361726 0.034939949864624523 0 -0.0024161357053989348 0.034128443815510848 0 -0.0010658098545084586 0.034994138184966217 0 -0.00087719639398985215 0.036113899560061058 0 -0.0020403740101219382 0.035795704866699307 0 -0.0017049849903349704 0.034475803073198932 0 -0.0011515455098364256 0.034007602781677054 0 -0.0010280222902113391 0.0348645180685037 0 -0.004988435070205864 0.028144227267960946 0 -0.0024540489289770957 0.032392386655775478 0 -0.00096167858085361726 0.034939949864624523 0 -0.0024540489289770957 0.032392386655775478 0 -0.0010658098545084586 0.034994138184966217 0 -0.00087719639398985215 0.036113899560061058 0 0.00022223228435148363 0.03583556728970045 0 -0.0087159155309096421 0.023315206187075849 0 -0.0085265308898513047 0.024557638422445158 0 -0.0078451179375363233 0.02414172602046815 0 -0.0081465267267695849 0.024551599319918009 0 -0.0085265308898513047 0.024557638422445158 0 -0.0078451179375363233 0.02414172602046815 0 -0.0017049849903349704 0.034475803073198932 0 -0.0011515455098364256 0.034007602781677054 0 -0.0016336026547091583 0.033627362564846018 0 -0.0048895455483628702 0.027781659414744517 0 -0.004988435070205864 0.028144227267960946 0 -0.0088875313188439536 0.022201922580095696 0 -0.0081691315137776346 0.022797351297837363 0 -0.0074606252571312636 0.022378409155250259 0 -0.0012511360984289212 0.033013269716281615 0 -0.0011515455098364256 0.034007602781677054 0 -0.0016336026547091583 0.033627362564846018 0 -0.0048895455483628702 0.027781659414744517 0 -0.0092834766372540487 0.02146026403173831 0 -0.0087159155309096421 0.023315206187075849 0 -0.0081691315137776346 0.022797351297837363 0 -0.0076030969581813322 0.023303752046628243 0 -0.0088875313188439536 0.022201922580095696 0 -0.0087159155309096421 0.023315206187075849 0 -0.0081691315137776346 0.022797351297837363 0 -0.0012511360984289212 0.033013269716281615 0 -0.0016336026547091583 0.033627362564846018 0 -0.0022433415011762648 0.033333425133360899 0 -0.0016336026547091583 0.033627362564846018 0 -0.0022433415011762648 0.033333425133360899 0 -0.002448937558142174 0.034141196760009845 0 -0.003069603908263802 0.032634307761492766 0 -0.0022433415011762648 0.033333425133360899 0 -0.0027928082264363557 0.033410023281999428 0 -0.003069603908263802 0.032634307761492766 0 -0.0027928082264363557 0.033410023281999428 0 -0.0034094150174138428 0.033566573429824081 0 -0.0022433415011762648 0.033333425133360899 0 -0.0027928082264363557 0.033410023281999428 0 -0.002448937558142174 0.034141196760009845 0 -0.0027928082264363557 0.033410023281999428 0 -0.0034094150174138428 0.033566573429824081 0 -0.002448937558142174 0.034141196760009845 0 -0.0034094150174138428 0.033566573429824081 0 -0.0045596883756454168 0.033746116075297129 0 -0.0037969532279576229 0.03525590769441856 0 -0.0037856135012833926 0.032663772782180522 0 -0.0034094150174138428 0.033566573429824081 0 -0.0045596883756454168 0.033746116075297129 0 -0.0036876379925304542 0.032449702593598084 0 -0.0043846325818178936 0.034985587468664633 0 -0.0047352039854891281 0.034408143968444133 0 -0.0037650813504917272 0.035834951259657903 0 -0.0056109373763900501 0.036055809014785646 0 -0.0043846325818178936 0.034985587468664633 0 -0.0038305925630391347 0.035429975826051147 0 -0.0034094150174138428 0.033566573429824081 0 -0.0037969532279576229 0.03525590769441856 0 -0.002448937558142174 0.034141196760009845 0 -0.0037969532279576229 0.03525590769441856 0 -0.002448937558142174 0.034141196760009845 0 -0.0020403740101219382 0.035795704866699307 0 -0.0037650813504917272 0.035834951259657903 0 -0.0027230597850306363 0.037201697419522173 0 -0.0042434284482095776 0.037130293879303229 0 -0.0037969532279576229 0.03525590769441856 0 -0.0027230597850306363 0.037201697419522173 0 -0.0020403740101219382 0.035795704866699307 0 -0.0038305925630391347 0.035429975826051147 0 -0.002763753750372743 0.037126608772950764 0 -0.0037650813504917272 0.035834951259657903 0 -0.0042434284482095776 0.037130293879303229 0 -0.0056109373763900501 0.036055809014785646 0 -0.0042434284482095776 0.037130293879303229 0 -0.0054018968089714582 0.038196587695148096 0 -0.0056109373763900501 0.036055809014785646 0 -0.0037712647545370026 0.038228770192633009 0 -0.0043743222240511222 0.03932894189368346 0 -0.0054018968089714582 0.038196587695148096 0 -0.0042434284482095776 0.037130293879303229 0 -0.0037712647545370026 0.038228770192633009 0 -0.0054018968089714582 0.038196587695148096 0 -0.0017144154879345083 0.045268446331626168 0 -0.0029906307605864525 0.045010638686291633 0 -0.0031451910921926249 0.043787578654785102 0 -0.0035065427109770403 0.041850236136514223 0 -0.0039304739908199464 0.041557800921219391 0 -0.0027230597850306363 0.037201697419522173 0 -0.0042434284482095776 0.037130293879303229 0 -0.0037712647545370026 0.038228770192633009 0 -0.0027230597850306363 0.037201697419522173 0 -0.0026328845297452674 0.038939676106725031 0 -0.001879172200448812 0.038014650803399767 0 -0.0037712647545370026 0.038228770192633009 0 -0.0026328845297452674 0.038939676106725031 0 -0.0043743222240511222 0.03932894189368346 0 -0.0027230597850306363 0.037201697419522173 0 -0.0037712647545370026 0.038228770192633009 0 -0.0026328845297452674 0.038939676106725031 0 -0.0026328845297452674 0.038939676106725031 0 -0.0016137938338413732 0.038851183376430315 0 -0.001879172200448812 0.038014650803399767 0 -0.0016137938338413732 0.038851183376430315 0 -0.0010900007479589628 0.038264772278050883 0 -0.00095600412417672445 0.039292228394874715 0 -0.0016137938338413732 0.038851183376430315 0 -0.0010900007479589628 0.038264772278050883 0 -0.001879172200448812 0.038014650803399767 0 -0.0010900007479589628 0.038264772278050883 0 -0.0003008090193772874 0.038820504122303083 0 -0.00095600412417672445 0.039292228394874715 0 -0.0010900007479589628 0.038264772278050883 0 -0.001879172200448812 0.038014650803399767 0 -0.0012813814166946194 0.037096213040161426 0 -0.0010900007479589628 0.038264772278050883 0 -0.0012813814166946194 0.037096213040161426 0 -0.00033746523614243076 0.037687598715970966 0 -0.0027230597850306363 0.037201697419522173 0 -0.001879172200448812 0.038014650803399767 0 -0.0012813814166946194 0.037096213040161426 0 -0.0027230597850306363 0.037201697419522173 0 -0.0012813814166946194 0.037096213040161426 0 -0.0020403740101219382 0.035795704866699307 0 -0.0012813814166946194 0.037096213040161426 0 -0.00087719639398985215 0.036113899560061058 0 -0.00017847865460754786 0.036767280678122877 0 -0.0012813814166946194 0.037096213040161426 0 -0.00087719639398985215 0.036113899560061058 0 -0.0020403740101219382 0.035795704866699307 0 0.00022223228435148363 0.03583556728970045 0 -0.00017847865460754786 0.036767280678122877 0 0.0005039353208662709 0.037463692318819193 0 -0.0024540489289770957 0.032392386655775478 0 0.00061844137981043068 0.038342430566714394 0 0.00080844057226944852 0.035581016373603024 0 0.0005039353208662709 0.037463692318819193 0 0.00094126190500003388 0.037869627863696527 0 0.00080844057226944852 0.035581016373603024 0 2.1458847309831635e-05 0.035086711335224278 0 0.0005039353208662709 0.037463692318819193 0 -0.0081218456144786025 0.024827988712952054 0 -0.0081465267267695849 0.024551599319918009 0 -0.0085265308898513047 0.024557638422445158 0 -0.0043180183997617418 0.031062544781554447 0 -0.0024540489289770957 0.032392386655775478 0 -0.0043180183997617418 0.031062544781554447 0 -0.0048293536824458435 0.028765429365414923 0 -0.00087719639398985215 0.036113899560061058 0 0.00022223228435148363 0.03583556728970045 0 -0.00017847865460754786 0.036767280678122877 0 -0.00017847865460754786 0.036767280678122877 0 7.0060148890912041e-05 0.037497696075125549 0 -0.00033746523614243076 0.037687598715970966 0 -0.0012813814166946194 0.037096213040161426 0 -0.00017847865460754786 0.036767280678122877 0 -0.00033746523614243076 0.037687598715970966 0 -0.00017847865460754786 0.036767280678122877 0 0.0005039353208662709 0.037463692318819193 0 7.0060148890912041e-05 0.037497696075125549 0 0.00030788976356531329 0.038124696262224735 0 0.00094126190500003388 0.037869627863696527 0 0.0010096050908377837 0.039556517793809989 0 0.0005039353208662709 0.037463692318819193 0 7.0060148890912041e-05 0.037497696075125549 0 0.00030788976356531329 0.038124696262224735 0 0.0005039353208662709 0.037463692318819193 0 0.00030788976356531329 0.038124696262224735 0 0.00094126190500003388 0.037869627863696527 0 7.0060148890912041e-05 0.037497696075125549 0 0.00030788976356531329 0.038124696262224735 0 -0.00033746523614243076 0.037687598715970966 0 0.00030788976356531329 0.038124696262224735 0 -0.00033746523614243076 0.037687598715970966 0 -0.0003008090193772874 0.038820504122303083 0 -0.0010900007479589628 0.038264772278050883 0 -0.00033746523614243076 0.037687598715970966 0 -0.0003008090193772874 0.038820504122303083 0 0.00030788976356531329 0.038124696262224735 0 -0.0003008090193772874 0.038820504122303083 0 0.0010096050908377837 0.039556517793809989 0 -0.0026082053435746277 0.045073031799473112 0 -0.0021821193912868763 0.045450347599542973 0 -0.0018476032698430129 0.044864846424852285 0 -0.0003008090193772874 0.038820504122303083 0 -0.00084902007873630819 0.040002209793399024 0 0.0010096050908377837 0.039556517793809989 0 -0.0006135572279909366 0.044781827476419039 0 -0.0013994517208591102 0.040982269880810898 0 -0.0003008090193772874 0.038820504122303083 0 -0.00095600412417672445 0.039292228394874715 0 -0.00084902007873630819 0.040002209793399024 0 -0.0006135572279909366 0.044781827476419039 0 -0.0011176698465250189 0.047649822009518339 0 -0.0026328845297452674 0.038939676106725031 0 -0.0008513424292761031 0.039959988916986267 0 -0.0032642488018375482 0.040528562234669385 0 -0.0026328845297452674 0.038939676106725031 0 -0.0016137938338413732 0.038851183376430315 0 -0.0008513424292761031 0.039959988916986267 0 -0.0016137938338413732 0.038851183376430315 0 -0.00095600412417672445 0.039292228394874715 0 -0.0008513424292761031 0.039959988916986267 0 -0.0011175720022283055 0.040427586002243991 0 -0.0006135572279909366 0.044781827476419039 0 -0.00016746686379956132 0.051470995771028469 0 8.8999398012766577e-05 0.051187798536747542 0 -0.00034590144159540068 0.051074227673305578 0 -0.00016746686379956132 0.051470995771028469 0 8.8999398012766577e-05 0.051187798536747542 0 0.00026422693990015022 0.051350167424605242 0 -0.0026082053435746277 0.045073031799473112 0 -0.0021821193912868763 0.045450347599542973 0 -0.0024388756479505587 0.046103366237642343 0 -0.0006135572279909366 0.044781827476419039 0 -0.0014238812184601381 0.049311745973689647 0 -0.0021821193912868763 0.045450347599542973 0 -0.0018228733517934494 0.045741329248937715 0 -0.0018476032698430129 0.044864846424852285 0 -0.0021821193912868763 0.045450347599542973 0 -0.0024388756479505587 0.046103366237642343 0 -0.0018228733517934494 0.045741329248937715 0 -0.0024388756479505587 0.046103366237642343 0 -0.0018228733517934494 0.045741329248937715 0 -0.0018301871266132213 0.046524529481326286 0 -0.0024388756479505587 0.046103366237642343 0 -0.002166025190517925 0.047136351200674345 0 -0.0018301871266132213 0.046524529481326286 0 -0.0014238812184601381 0.049311745973689647 0 -0.0014386372137878824 0.04850364546977854 0 -0.00034590144159540068 0.051074227673305578 0 -2.0279131147197689e-05 0.050897357852804484 0 -0.00076353057035619479 0.050323450394356498 0 8.8999398012766577e-05 0.051187798536747542 0 -0.00034590144159540068 0.051074227673305578 0 -2.0279131147197689e-05 0.050897357852804484 0 0.00024061795261117654 0.050564747674723451 0 -0.00076353057035619479 0.050323450394356498 0 0.00011993205022302453 0.049585673099139568 0 -2.0279131147197689e-05 0.050897357852804484 0 0.00024061795261117654 0.050564747674723451 0 -0.00076353057035619479 0.050323450394356498 0 0.00068794947380140467 0.050647487686634275 0 0.00092018136189931353 0.050759266174976607 0 0.00092954218869508039 0.050460439381483133 0 0.0010181706325707337 0.051354939097184679 0 0.00087925180956364415 0.050469418383412713 0 0.00024061795261117654 0.050564747674723451 0 0.00068794947380140467 0.050647487686634275 0 0.00061828659443400517 0.050158181893109353 0 0.00068794947380140467 0.050647487686634275 0 0.00046022619323405354 0.051033802122428522 0 0.0007212541131073753 0.050928378027482284 0 -2.0279131147197689e-05 0.050897357852804484 0 0.00024061795261117654 0.050564747674723451 0 0.00046022619323405354 0.051033802122428522 0 8.8999398012766577e-05 0.051187798536747542 0 -2.0279131147197689e-05 0.050897357852804484 0 0.00046022619323405354 0.051033802122428522 0 0.00024061795261117654 0.050564747674723451 0 0.00068794947380140467 0.050647487686634275 0 0.00046022619323405354 0.051033802122428522 0 0.00046022619323405354 0.051033802122428522 0 0.0007212541131073753 0.050928378027482284 0 0.00068726847502428975 0.051179643639089875 0 0.0010181706325707337 0.051354939097184679 0 0.00031565247896530083 0.051324864872405562 0 0.0007212541131073753 0.050928378027482284 0 0.00084513662366515524 0.051091873021151347 0 0.00068726847502428975 0.051179643639089875 0 0.00092018136189931353 0.050759266174976607 0 0.00084513662366515524 0.051091873021151347 0 0.0010461051469081288 0.05135489960270774 0 0.00068794947380140467 0.050647487686634275 0 0.0007212541131073753 0.050928378027482284 0 0.00092018136189931353 0.050759266174976607 0 0.0007212541131073753 0.050928378027482284 0 0.00092018136189931353 0.050759266174976607 0 0.00084513662366515524 0.051091873021151347 0 0.00084513662366515524 0.051091873021151347 0 0.00080979995515116599 0.051286190849230619 0 0.0010461051469081288 0.05135489960270774 0 0.00084513662366515524 0.051091873021151347 0 0.00080979995515116599 0.051286190849230619 0 0.00068726847502428975 0.051179643639089875 0 0.00068726847502428975 0.051179643639089875 0 0.00070717004677766011 0.051377478416345296 0 0.00049026254457905003 0.05125873262973988 0 0.00080979995515116599 0.051286190849230619 0 0.00068726847502428975 0.051179643639089875 0 0.00070717004677766011 0.051377478416345296 0 0.00070717004677766011 0.051377478416345296 0 0.00076563045880507531 0.051428433843418622 0 0.00046280902899529288 0.051517978157802645 0 0.00080979995515116599 0.051286190849230619 0 0.00070717004677766011 0.051377478416345296 0 0.00076404697446607066 0.051426929137493485 0 -0.00046442574482044721 0.049444614272338858 0 -0.0011176698465250189 0.047649822009518339 0 -6.5094682378719001e-06 0.049941651630611768 0 -0.00046442574482044721 0.049444614272338858 0 0.00080979995515116599 0.051286190849230619 0 0.00076404697446607066 0.051426929137493485 0 0.0010461051469081288 0.05135489960270774 0 -0.00046442574482044721 0.049444614272338858 0 0.00031565247896530083 0.051324864872405562 0 8.8999398012766577e-05 0.051187798536747542 0 0.00046022619323405354 0.051033802122428522 0 0.00049026254457905003 0.05125873262973988 0 8.8999398012766577e-05 0.051187798536747542 0 0.00049026254457905003 0.05125873262973988 0 0.00046280902899529288 0.051517978157802645 0 0.00046022619323405354 0.051033802122428522 0 0.00068726847502428975 0.051179643639089875 0 0.00049026254457905003 0.05125873262973988 0 0.00070717004677766011 0.051377478416345296 0 0.00049026254457905003 0.05125873262973988 0 0.00046280902899529288 0.051517978157802645 0 0.00099488336951903279 0.052121060502847802 0 -0.0011176698465250189 0.047649822009518339 0 -0.0026328845297452674 0.038939676106725031 0 -0.0032642488018375482 0.040528562234669385 0 -0.0043743222240511222 0.03932894189368346 0 0.00019647824929467389 0.049803658949742542 0 -0.0012201588973926984 0.048501983976101476 0 -0.00090725129006553711 0.050075425303003906 0 -0.00046442574482044721 0.049444614272338858 0 -0.0018017432630352622 0.047840890022344346 0 -0.0016569802959070705 0.0470664681929625 0 -0.0017144154879345083 0.045268446331626168 0 -0.0033630519253530274 0.045479826136451677 0 -0.0016569802959070705 0.0470664681929625 0 -0.00029054448798148085 0.046730977808339604 0 -0.0017144154879345083 0.045268446331626168 0 -0.0011176698465250189 0.047649822009518339 0 -0.0035065427109770403 0.041850236136514223 0 -0.0017144154879345083 0.045268446331626168 0 -0.0029906307605864525 0.045010638686291633 0 -0.0033630519253530274 0.045479826136451677 0 -0.0029906307605864525 0.045010638686291633 0 -0.0033630519253530274 0.045479826136451677 0 -0.0031213170370071163 0.043863321962034289 0 7.7879813710449299e-05 0.053154869556806927 0 9.7268758757260897e-05 0.053201041716958865 0 0.00010151177219661497 0.05310863686690688 0 5.4938570204485985e-05 0.052461652361395321 0 -0.00065847892983339604 0.050308392046865942 0 -0.0018017432630352622 0.047840890022344346 0 0.00031565247896530083 0.051324864872405562 0 -0.00033426563452133796 0.049927546229945337 0 -0.00074722706775899031 0.051399164332719953 0 -0.00092140491771128621 0.049389854383277712 0 -0.0018017432630352622 0.047840890022344346 0 -0.00065847892983339604 0.050308392046865942 0 -0.00012187791808485608 0.053609874457028188 0 -0.00046414479606933067 0.051268749289300142 0 7.7879813710449299e-05 0.053154869556806927 0 6.8512859604169703e-05 0.053075220892142894 0 0.00010151177219661497 0.05310863686690688 0 7.7879813710449299e-05 0.053154869556806927 0 5.2067998153617277e-05 0.053173946343291874 0 6.8512859604169703e-05 0.053075220892142894 0 7.7879813710449299e-05 0.053154869556806927 0 5.2067998153617277e-05 0.053173946343291874 0 6.4191807118932218e-05 0.053188736747242678 0 5.2067998153617277e-05 0.053173946343291874 0 6.4191807118932218e-05 0.053188736747242678 0 4.4060361436394758e-05 0.053199400162852052 0 6.4191807118932218e-05 0.053188736747242678 0 5.5028040763181847e-05 0.053203504710762753 0 9.7268758757260897e-05 0.053201041716958865 0 2.6580414703772485e-05 0.053263718297316652 0 5.4938570204485985e-05 0.052461652361395321 0 5.5028040763181847e-05 0.053203504710762753 0 0.0001012223852400046 0.053184287159697134 0 0.00010271021986088947 0.053206188389976643 0 5.5028040763181847e-05 0.053203504710762753 0 0.00010271021986088947 0.053206188389976643 0 3.6188716462509308e-05 0.053205909541593474 0 0.0005962868525307796 0.052610038458911795 0 0.00091266826627791568 0.052666826439747801 0 6.4191807118932218e-05 0.053188736747242678 0 5.5028040763181847e-05 0.053203504710762753 0 4.4060361436394758e-05 0.053199400162852052 0 7.7879813710449299e-05 0.053154869556806927 0 6.4191807118932218e-05 0.053188736747242678 0 9.7268758757260897e-05 0.053201041716958865 0 -0.00033426563452133796 0.049927546229945337 0 -7.5420981469587669e-05 0.05123199790213321 0 -0.00074722706775899031 0.051399164332719953 0 0.00031565247896530083 0.051324864872405562 0 5.4938570204485985e-05 0.052461652361395321 0 0.0012782703988423337 0.052335820530936314 0 0.0011439081670596911 0.052185333648838601 0 0.001264731826329972 0.052098963068493154 0 5.4938570204485985e-05 0.052461652361395321 0 0.0005962868525307796 0.052610038458911795 0 0.0010447898935110474 0.052391515334242342 0 0.0012782703988423337 0.052335820530936314 0 0.0011439081670596911 0.052185333648838601 0 0.0011439081670596911 0.052185333648838601 0 0.0012583546219774161 0.051947248132780163 0 0.001264731826329972 0.052098963068493154 0 0.00089388389355919153 0.051699294924505111 0 0.0010447898935110474 0.052391515334242342 0 0.0011439081670596911 0.052185333648838601 0 0.00089388389355919153 0.051699294924505111 0 0.0011439081670596911 0.052185333648838601 0 0.0012583546219774161 0.051947248132780163 0 0.00089388389355919153 0.051699294924505111 0 0.0012408118667175702 0.05172998179946172 0 0.0012583546219774161 0.051947248132780163 0 0.0013764868963907786 0.051818185953119024 0 0.0012408118667175702 0.05172998179946172 0 0.0012583546219774161 0.051947248132780163 0 0.0013764868963907786 0.051818185953119024 0 0.0012583546219774161 0.051947248132780163 0 0.001282099305954761 0.052052449131818057 0 0.00072889708298267005 0.052243139706177499 0 0.0005962868525307796 0.052610038458911795 0 0.001282099305954761 0.052052449131818057 0 0.0015821285978531499 0.051874914424733624 0 0.0017411549978078979 0.052110106827779154 0 0.0013764868963907786 0.051818185953119024 0 0.001282099305954761 0.052052449131818057 0 0.0015821285978531499 0.051874914424733624 0 0.0013764868963907786 0.051818185953119024 0 0.0015821285978531499 0.051874914424733624 0 0.0013684949324229432 0.051438011936463551 0 0.0015821285978531499 0.051874914424733624 0 0.0013684949324229432 0.051438011936463551 0 0.0016319863996179416 0.051369480817490099 0 0.00089388389355919153 0.051699294924505111 0 0.0013684949324229432 0.051438011936463551 0 0.00092954218869508039 0.050460439381483133 0 0.00089388389355919153 0.051699294924505111 0 0.0012408118667175702 0.05172998179946172 0 0.0013684949324229432 0.051438011936463551 0 0.0013764868963907786 0.051818185953119024 0 0.0012408118667175702 0.05172998179946172 0 0.0013684949324229432 0.051438011936463551 0 0.0018668250316641363 0.052101055292715297 0 0.0018025542644328158 0.051943604411874011 0 0.0018140126771587759 0.051641440046017673 0 0.0015821285978531499 0.051874914424733624 0 0.0018025542644328158 0.051943604411874011 0 0.0016319863996179416 0.051369480817490099 0 0.0015821285978531499 0.051874914424733624 0 0.0018025542644328158 0.051943604411874011 0 0.0017411549978078979 0.052110106827779154 0 0.0018025542644328158 0.051943604411874011 0 0.0017411549978078979 0.052110106827779154 0 0.0018623897711871613 0.052295494691178772 0 0.0018668250316641363 0.052101055292715297 0 0.0018025542644328158 0.051943604411874011 0 0.0018623897711871613 0.052295494691178772 0 0.00091266826627791568 0.052666826439747801 0 0.00097961281216628554 0.052763287799419779 0 3.6188716462509308e-05 0.053205909541593474 0 2.1251802422249916e-05 0.053226036682395395 0 9.4772209091674388e-05 0.053221842731636153 0 3.6188716462509308e-05 0.053205909541593474 0 4.4060361436394758e-05 0.053199400162852052 0 2.1251802422249916e-05 0.053226036682395395 0 5.5028040763181847e-05 0.053203504710762753 0 3.6188716462509308e-05 0.053205909541593474 0 4.4060361436394758e-05 0.053199400162852052 0 5.2067998153617277e-05 0.053173946343291874 0 2.1251802422249916e-05 0.053226036682395395 0 4.1023246709796496e-05 0.053139386945094839 0 5.2067998153617277e-05 0.053173946343291874 0 4.4060361436394758e-05 0.053199400162852052 0 2.1251802422249916e-05 0.053226036682395395 0 4.3049620410314703e-05 0.05326971726593048 0 -0.00063918660608757935 0.053180180626703273 0 2.1251802422249916e-05 0.053226036682395395 0 2.3933203398981729e-05 0.053323976542712981 0 0.0001054203319984843 0.053305781666051301 0 2.1251802422249916e-05 0.053226036682395395 0 0.0001054203319984843 0.053305781666051301 0 9.4772209091674388e-05 0.053221842731636153 0 -0.00063918660608757935 0.053180180626703273 0 -9.4247449979875092e-05 0.053604743268031052 0 -0.00070147022956427681 0.054013552685573396 0 -0.00045512484206211849 0.054117434953864299 0 -0.00034857765685465859 0.053835968295070057 0 -0.00063918660608757935 0.053180180626703273 0 -0.00098439009707801872 0.052751404284122498 0 -0.00070147022956427681 0.054013552685573396 0 -0.00045512484206211849 0.054117434953864299 0 -0.00064896120078633502 0.054349951488731812 0 -0.0014150735989784456 0.051983270113365565 0 -0.0015076073090483475 0.051425932536150916 0 -0.0012788966506599732 0.051367742620092256 0 -0.00098439009707801872 0.052751404284122498 0 -0.0019939590141909835 0.049555612903538757 0 -0.0014150735989784456 0.051983270113365565 0 -0.0012788966506599732 0.051367742620092256 0 -0.00090497626664443715 0.051705376850812279 0 -0.0019939590141909835 0.049555612903538757 0 -0.0018717634236953826 0.048138738278101188 0 -0.0025673386046990727 0.047488705585770681 0 -0.001764356177391536 0.047706918593391948 0 -0.0018883768833728792 0.047320044922602847 0 -0.0025673386046990727 0.047488705585770681 0 -0.0017279623883871378 0.048269177248303388 0 -0.001764356177391536 0.047706918593391948 0 -0.0019939590141909835 0.049555612903538757 0 -0.00096996729577073404 0.050402628867712122 0 -0.00063918660608757935 0.053180180626703273 0 -0.00096996729577073404 0.050402628867712122 0 -2.5710620823479501e-05 0.053116152559445545 0 4.1023246709796496e-05 0.053139386945094839 0 4.737914896934029e-05 0.053064378116882541 0 2.1251802422249916e-05 0.053226036682395395 0 -2.5710620823479501e-05 0.053116152559445545 0 4.1023246709796496e-05 0.053139386945094839 0 5.2067998153617277e-05 0.053173946343291874 0 4.1023246709796496e-05 0.053139386945094839 0 8.8444936063036445e-05 0.053111307933049051 0 -0.00046414479606933067 0.051268749289300142 0 -0.00065847892983339604 0.050308392046865942 0 -0.00046414479606933067 0.051268749289300142 0 -0.0011868132473374902 0.046866480537287737 0 -0.00095738456655821216 0.049068444514317459 0 -0.0017810464894351516 0.048311290920352891 0 -0.0010215113531261138 0.048374229377859075 0 -0.00095738456655821216 0.049068444514317459 0 -0.00053861253268970696 0.048238032705125146 0 -0.0010215113531261138 0.048374229377859075 0 -0.00046414479606933067 0.051268749289300142 0 -0.00096996729577073404 0.050402628867712122 0 4.1023246709796496e-05 0.053139386945094839 0 8.8444936063036445e-05 0.053111307933049051 0 4.737914896934029e-05 0.053064378116882541 0 -0.0033630519253530274 0.045479826136451677 0 -0.0037799910735765128 0.043182717903773954 0 -0.0031213170370071163 0.043863321962034289 0 -0.0011646118903861403 0.048452376598391744 0 -0.0017752967564371802 0.047887408468781062 0 -0.0014889659362659811 0.046737284176869641 0 -0.0015149463762609602 0.049670400034963459 0 -0.0004304666793288498 0.050665335921471065 0 -0.00065576933720744811 0.048017736886208827 0 -0.0017752967564371802 0.047887408468781062 0 -0.0014889659362659811 0.046737284176869641 0 -0.0018967025926366033 0.046355326322995209 0 -0.00065847892983339604 0.050308392046865942 0 -0.0011868132473374902 0.046866480537287737 0 -0.0018017432630352622 0.047840890022344346 0 -0.0025164163529705062 0.044484600604924894 0 -0.0032002147494361835 0.044926257999779222 0 -0.0039304739908199464 0.041557800921219391 0 -0.0025164163529705062 0.044484600604924894 0 -0.0039304739908199464 0.041557800921219391 0 -0.0039304739908199464 0.041557800921219391 0 -0.0033296161163191155 0.040082049190584682 0 -0.0011868132473374902 0.046866480537287737 0 -0.001022115073260619 0.04642606353616683 0 -0.0032590674381260563 0.042545899931278379 0 -0.0030182023606696532 0.042794161729145047 0 -0.0031335479926755802 0.041742082313101454 0 -0.0012376234535658301 0.04585990489699783 0 -0.0012109939739755029 0.04581362238362207 0 -0.0012356650041337527 0.04571296160552836 0 -0.0032590674381260563 0.042545899931278379 0 -0.0033348574523565785 0.042126012429026354 0 -0.0031335479926755802 0.041742082313101454 0 -0.0025164163529705062 0.044484600604924894 0 -0.0018110718273440772 0.04456928981357218 0 -0.0019618656252154347 0.045346643926573303 0 -0.0018813418329628291 0.045419184043379988 0 -0.0019244627445329202 0.045503706166660905 0 -0.0025164163529705062 0.044484600604924894 0 -0.0011868132473374902 0.046866480537287737 0 -0.0011868132473374902 0.046866480537287737 0 -0.0018110718273440772 0.04456928981357218 0 -0.0018110718273440772 0.04456928981357218 0 -0.0033296161163191155 0.040082049190584682 0 -0.00073613292327196845 0.048054495652653906 0 -0.0013531394670297601 0.047417557273778485 0 -0.0008157189570199983 0.047041487646671112 0 -0.0012945594636747781 0.048050725728929891 0 -0.0017279623883871378 0.048269177248303388 0 -0.001764356177391536 0.047706918593391948 0 -0.0012945594636747781 0.048050725728929891 0 -0.0017810464894351516 0.048311290920352891 0 -0.0010215113531261138 0.048374229377859075 0 -0.0008911953541201901 0.049351049219144218 0 -0.00096996729577073404 0.050402628867712122 0 -0.00053861253268970696 0.048238032705125146 0 -0.0012945594636747781 0.048050725728929891 0 -0.0010215113531261138 0.048374229377859075 0 -0.00053861253268970696 0.048238032705125146 0 -0.0012945594636747781 0.048050725728929891 0 -0.0013531394670297601 0.047417557273778485 0 -0.0011868132473374902 0.046866480537287737 0 -0.00096024038577011194 0.047779731787713595 0 -0.0012945594636747781 0.048050725728929891 0 -0.0013531394670297601 0.047417557273778485 0 -0.001764356177391536 0.047706918593391948 0 -0.0013531394670297601 0.047417557273778485 0 -0.001764356177391536 0.047706918593391948 0 -0.0018883768833728792 0.047320044922602847 0 -0.0014986478487188264 0.046632783751174987 0 -0.0008157189570199983 0.047041487646671112 0 -0.00093033540182958839 0.045984545059468099 0 -0.001022115073260619 0.04642606353616683 0 -0.0010532817055217555 0.045592419394214941 0 -0.0013531394670297601 0.047417557273778485 0 -0.0014986478487188264 0.046632783751174987 0 -0.0018883768833728792 0.047320044922602847 0 -0.0013531394670297601 0.047417557273778485 0 -0.0014986478487188264 0.046632783751174987 0 -0.0008157189570199983 0.047041487646671112 0 -0.0043846325818178936 0.034985587468664633 0 -0.0033296161163191155 0.040082049190584682 0 -0.0032723855604131946 0.039076551870425566 0 -0.0034216689058122517 0.039379097350034593 0 -0.0034521261026271232 0.039071754813545745 0 -0.0012260590986417526 0.044405110158150171 0 -0.0013147944909782175 0.044573719204017405 0 -0.0011457386886169212 0.044973805698598456 0 -0.0013147944909782175 0.044573719204017405 0 -0.0012146655802200007 0.044969414161383364 0 -0.0011457386886169212 0.044973805698598456 0 -0.0012109939739755029 0.04581362238362207 0 -0.0012356650041337527 0.04571296160552836 0 -0.0012335025228166795 0.045570781964446062 0 -0.0018110718273440772 0.04456928981357218 0 -0.0010532817055217555 0.045592419394214941 0 -0.0033296161163191155 0.040082049190584682 0 -0.0021035945239104271 0.042960062738845228 0 -0.00099463800124359545 0.04480781243671305 0 -0.0012146655802200007 0.044969414161383364 0 -0.0011780903159756399 0.045000051342593134 0 -0.003482653730632365 0.038772651098551866 0 -0.0032723855604131946 0.039076551870425566 0 -0.0034521261026271232 0.039071754813545745 0 -0.0012146655802200007 0.044969414161383364 0 -0.0011457386886169212 0.044973805698598456 0 -0.0011780903159756399 0.045000051342593134 0 -0.0014986478487188264 0.046632783751174987 0 -0.0015514962582032447 0.045571583955216363 0 -0.0022576563554888556 0.046075537917341813 0 -0.0014986478487188264 0.046632783751174987 0 -0.00093033540182958839 0.045984545059468099 0 -0.0015514962582032447 0.045571583955216363 0 -0.0010532817055217555 0.045592419394214941 0 -0.0010843777289573288 0.045446070993233757 0 -0.0012410684549015343 0.044936268736121797 0 -0.00096498918948014184 0.04583553348369885 0 -0.0015514962582032447 0.045571583955216363 0 -0.00093033540182958839 0.045984545059468099 0 -0.00096498918948014184 0.04583553348369885 0 -0.0015514962582032447 0.045571583955216363 0 -0.0031953014738718257 0.045355488440427486 0 -0.0022157377675648252 0.045118767349676514 0 -0.0022576563554888556 0.046075537917341813 0 -0.0022157377675648252 0.045118767349676514 0 -0.0015514962582032447 0.045571583955216363 0 -0.0022576563554888556 0.046075537917341813 0 -0.0031953014738718257 0.045355488440427486 0 -0.0022576563554888556 0.046075537917341813 0 -0.0030020121077925371 0.046943158437766697 0 -0.00029968312529533479 0.054618284423057627 0 -0.00035320685499346026 0.054490620611734847 0 -0.00026785957090150691 0.054587236640162698 0 -0.0019131850276691449 0.049801547503926111 0 -0.0012934782001470817 0.051577275556735906 0 -0.0012934782001470817 0.051577275556735906 0 0.00039016724349828107 0.055257771589245767 0 -0.00027823612088157847 0.054579750402874667 0 -0.00026263610593702343 0.054592567367783555 0 -0.00026785957090150691 0.054587236640162698 0 -0.00028330576885428099 0.054566879956639287 0 -0.00027823612088157847 0.054579750402874667 0 -0.00026263610593702343 0.054592567367783555 0 -0.0019939590141909835 0.049555612903538757 0 -0.0012934782001470817 0.051577275556735906 0 -0.0011542531453529457 0.050961987448299204 0 -0.0015228430270440368 0.051042580501427688 0 -0.0010738902838555136 0.05145444556389224 0 -0.00098439009707801872 0.052751404284122498 0 -0.0012934782001470817 0.051577275556735906 0 -0.0024633669935105384 0.047451809185294763 0 -0.0030020121077925371 0.046943158437766697 0 -0.002249679862098385 0.046855605225099142 0 -0.0024633669935105384 0.047451809185294763 0 -0.0018883768833728792 0.047320044922602847 0 -0.002249679862098385 0.046855605225099142 0 -0.0014986478487188264 0.046632783751174987 0 -0.0018883768833728792 0.047320044922602847 0 -0.002249679862098385 0.046855605225099142 0 -0.0014986478487188264 0.046632783751174987 0 -0.0022576563554888556 0.046075537917341813 0 -0.002249679862098385 0.046855605225099142 0 -0.0022576563554888556 0.046075537917341813 0 -0.0030020121077925371 0.046943158437766697 0 -0.002249679862098385 0.046855605225099142 0 -0.00023368912621876055 0.054624734346615689 0 -0.00019060870740556201 0.0546598468253486 0 -0.00024124010792693737 0.054595887001409327 0 -0.00023368912621876055 0.054624734346615689 0 -0.00026263610593702343 0.054592567367783555 0 -0.00024124010792693737 0.054595887001409327 0 -0.00023368912621876055 0.054624734346615689 0 -0.00026263610593702343 0.054592567367783555 0 -0.00026785957090150691 0.054587236640162698 0 -0.00023368912621876055 0.054624734346615689 0 -0.00026785957090150691 0.054587236640162698 0 -0.00024118971663996403 0.05463814263123324 0 -0.00029968312529533479 0.054618284423057627 0 -0.00026785957090150691 0.054587236640162698 0 -0.00024118971663996403 0.05463814263123324 0 -0.00023368912621876055 0.054624734346615689 0 -0.00024118971663996403 0.05463814263123324 0 -0.00019257064898040461 0.05467945190255534 0 -0.00019257064898040461 0.05467945190255534 0 -0.0001403146745182978 0.054721481637899277 0 -0.00019060870740556201 0.0546598468253486 0 -0.00014003567004422854 0.054737625740658935 0 -0.00019257064898040461 0.05467945190255534 0 -0.0001403146745182978 0.054721481637899277 0 -0.0001403146745182978 0.054721481637899277 0 -0.00019060870740556201 0.0546598468253486 0 -0.00015741093810639936 0.054683987267904105 0 -0.00023368912621876055 0.054624734346615689 0 -0.00019257064898040461 0.05467945190255534 0 -0.00019060870740556201 0.0546598468253486 0 -0.00019060870740556201 0.0546598468253486 0 -0.00018916414066493309 0.054633981854636665 0 -0.00024124010792693737 0.054595887001409327 0 -0.00019060870740556201 0.0546598468253486 0 -0.00015741093810639936 0.054683987267904105 0 -0.00018916414066493309 0.054633981854636665 0 -0.00015741093810639936 0.054683987267904105 0 -0.00018916414066493309 0.054633981854636665 0 -0.00014215139194823735 0.054652278429939118 0 0.00071103134658579 0.053955308301597303 0 0.0003542136800019331 0.0541779991571835 0 0.00057010776899862989 0.053842748953556681 0 7.0542108614919877e-05 0.05437627798241508 0 0.0003757932247948819 0.054371712293281679 0 0.00071103134658579 0.053955308301597303 0 0.0003542136800019331 0.0541779991571835 0 0.00089999975936679109 0.05405844916892797 0 0.0003542136800019331 0.0541779991571835 0 0.00031117427290724156 0.053735714709947341 0 0.00057010776899862989 0.053842748953556681 0 0.0003542136800019331 0.0541779991571835 0 5.0055797997985231e-05 0.053955057495844401 0 0.00031117427290724156 0.053735714709947341 0 0.0003542136800019331 0.0541779991571835 0 5.0055797997985231e-05 0.053955057495844401 0 -0.00016150714174174472 0.05426410829672542 0 7.0542108614919877e-05 0.05437627798241508 0 -0.00012513026728480398 0.054643154442950564 0 -0.00045512484206211849 0.054117434953864299 0 -0.00064896120078633502 0.054349951488731812 0 -0.00016150714174174472 0.05426410829672542 0 -0.00098439009707801872 0.052751404284122498 0 -0.00012513026728480398 0.054643154442950564 0 -0.00028330576885428099 0.054566879956639287 0 -0.00026263610593702343 0.054592567367783555 0 -0.00024124010792693737 0.054595887001409327 0 -0.00045512484206211849 0.054117434953864299 0 -0.00016150714174174472 0.05426410829672542 0 -0.00034857765685465859 0.053835968295070057 0 5.0055797997985231e-05 0.053955057495844401 0 -0.00016150714174174472 0.05426410829672542 0 -0.00034857765685465859 0.053835968295070057 0 -9.4247449979875092e-05 0.053604743268031052 0 0.00011411594432712297 0.053488587171815732 0 0.0001054203319984843 0.053305781666051301 0 0.00018373382767300123 0.053339428484484995 0 9.4772209091674388e-05 0.053221842731636153 0 5.0055797997985231e-05 0.053955057495844401 0 1.5175464861433592e-05 0.053644114770447324 0 0.00031117427290724156 0.053735714709947341 0 5.0055797997985231e-05 0.053955057495844401 0 -0.00034857765685465859 0.053835968295070057 0 1.5175464861433592e-05 0.053644114770447324 0 0.00097961281216628554 0.052763287799419779 0 0.00098549649680510876 0.052935348009750707 0 0.00018373382767300123 0.053339428484484995 0 9.4772209091674388e-05 0.053221842731636153 0 0.00024229465721868241 0.053284761422512837 0 0.0018623897711871613 0.052295494691178772 0 0.0018017791994555971 0.052512918054816962 0 0.0016931976909277347 0.052575763804924659 0 0.0018668250316641363 0.052101055292715297 0 0.0018623897711871613 0.052295494691178772 0 0.0018017791994555971 0.052512918054816962 0 0.0014792954803949704 0.053020754933570967 0 0.001264015696017171 0.053198189153421289 0 0.0010501917178503493 0.05351548333984818 0 0.0014792954803949704 0.053020754933570967 0 0.0015547642682982264 0.052830645779035235 0 0.001264015696017171 0.053198189153421289 0 0.0018017791994555971 0.052512918054816962 0 0.0014792954803949704 0.053020754933570967 0 0.0015547642682982264 0.052830645779035235 0 0.0015547642682982264 0.052830645779035235 0 0.0013234458592104501 0.053023245324520539 0 0.0016931976909277347 0.052575763804924659 0 0.0018017791994555971 0.052512918054816962 0 0.0015547642682982264 0.052830645779035235 0 0.0016931976909277347 0.052575763804924659 0 0.0015547642682982264 0.052830645779035235 0 0.001264015696017171 0.053198189153421289 0 0.0013234458592104501 0.053023245324520539 0 0.001264015696017171 0.053198189153421289 0 0.0013234458592104501 0.053023245324520539 0 0.0010892962181873705 0.053300592197330215 0 0.0013234458592104501 0.053023245324520539 0 0.0012715586427708217 0.052918875125958789 0 0.0016931976909277347 0.052575763804924659 0 0.00069986845119458969 0.053417544373092117 0 0.00041861241411657741 0.05341459264351487 0 0.00061054892596492565 0.053611241642683792 0 0.0013234458592104501 0.053023245324520539 0 0.0012715586427708217 0.052918875125958789 0 0.0011715428816618705 0.053017440803013953 0 0.00069986845119458969 0.053417544373092117 0 0.00061054892596492565 0.053611241642683792 0 0.00087273995228223764 0.053597278575129359 0 0.00011411594432712297 0.053488587171815732 0 0.00039786332591487824 0.053403766997118643 0 0.0009773292965220351 0.053171304152686859 0 0.00098549649680510876 0.052935348009750707 0 0.00069986845119458969 0.053417544373092117 0 0.00024229465721868241 0.053284761422512837 0 0.00041861241411657741 0.05341459264351487 0 0.00018373382767300123 0.053339428484484995 0 0.00024229465721868241 0.053284761422512837 0 0.00041861241411657741 0.05341459264351487 0 1.5175464861433592e-05 0.053644114770447324 0 0.00041861241411657741 0.05341459264351487 0 0.00031117427290724156 0.053735714709947341 0 0.00041861241411657741 0.05341459264351487 0 0.00031117427290724156 0.053735714709947341 0 0.00061054892596492565 0.053611241642683792 0 0.00031117427290724156 0.053735714709947341 0 0.00061054892596492565 0.053611241642683792 0 0.00057010776899862989 0.053842748953556681 0 0.00071103134658579 0.053955308301597303 0 0.00057010776899862989 0.053842748953556681 0 0.00080918807526696233 0.053795012246970461 0 0.00061054892596492565 0.053611241642683792 0 0.00057010776899862989 0.053842748953556681 0 0.00080918807526696233 0.053795012246970461 0 0.00071103134658579 0.053955308301597303 0 0.00080918807526696233 0.053795012246970461 0 0.00085523899755018192 0.053955639913005567 0 0.00080918807526696233 0.053795012246970461 0 0.00098652304936508992 0.053855733888305383 0 0.00085523899755018192 0.053955639913005567 0 0.00080918807526696233 0.053795012246970461 0 0.00098652304936508992 0.053855733888305383 0 0.0010424307327479008 0.053704775332299295 0 0.00080918807526696233 0.053795012246970461 0 0.0010424307327479008 0.053704775332299295 0 0.00087273995228223764 0.053597278575129359 0 0.00061054892596492565 0.053611241642683792 0 0.00080918807526696233 0.053795012246970461 0 0.00087273995228223764 0.053597278575129359 0 0.00098652304936508992 0.053855733888305383 0 0.0013344997573226268 0.053752695769263871 0 0.00089508586387217659 0.054078097226459697 0 0.00098652304936508992 0.053855733888305383 0 0.0010424307327479008 0.053704775332299295 0 0.0013344997573226268 0.053752695769263871 0 0.0010424307327479008 0.053704775332299295 0 0.0012392365265098625 0.053498094925773572 0 0.0013344997573226268 0.053752695769263871 0 0.0010678141132170335 0.054147867187217258 0 0.00087730270830132834 0.05410443108041272 0 0.00073626187232043257 0.054513826782801436 0 0.00071731567653921273 0.054295051611608233 0 0.00089508586387217659 0.054078097226459697 0 0.0009167862337250615 0.053400965339458227 0 0.00073276090513562991 0.053637731557783258 0 0.00048704313614699932 0.053818126185858912 0 0.00077531032696874155 0.053018723048974536 0 0.0011715428816618705 0.053017440803013953 0 0.00066057214345885884 0.053104535154874975 0 0.0011715428816618705 0.053017440803013953 0 0.0009167862337250615 0.053400965339458227 0 0.00048704313614699932 0.053818126185858912 0 0.0011647263314946339 0.053079388844317441 0 0.00062966159122389482 0.053480713062657441 0 0.0010424307327479008 0.053704775332299295 0 0.0012392365265098625 0.053498094925773572 0 0.00087273995228223764 0.053597278575129359 0 0.0009773292965220351 0.053171304152686859 0 0.0010844723719896034 0.053144590946370314 0 0.00069986845119458969 0.053417544373092117 0 0.0012392365265098625 0.053498094925773572 0 0.00087273995228223764 0.053597278575129359 0 0.0012715586427708217 0.052918875125958789 0 0.00077531032696874155 0.053018723048974536 0 0.0011715428816618705 0.053017440803013953 0 0.0013234458592104501 0.053023245324520539 0 0.0011715428816618705 0.053017440803013953 0 0.0011138899183012613 0.053190856028265163 0 0.0011715428816618705 0.053017440803013953 0 0.0011138899183012613 0.053190856028265163 0 0.0009167862337250615 0.053400965339458227 0 0.0013234458592104501 0.053023245324520539 0 0.0010892962181873705 0.053300592197330215 0 0.0011138899183012613 0.053190856028265163 0 0.001264015696017171 0.053198189153421289 0 0.0010892962181873705 0.053300592197330215 0 0.001026386657919697 0.053457564537700994 0 0.001026386657919697 0.053457564537700994 0 0.00087557163865328272 0.053542706364668895 0 0.00084748169996781567 0.053676914871397426 0 0.0010892962181873705 0.053300592197330215 0 0.001026386657919697 0.053457564537700994 0 0.00087557163865328272 0.053542706364668895 0 0.0010892962181873705 0.053300592197330215 0 0.0011138899183012613 0.053190856028265163 0 0.0009167862337250615 0.053400965339458227 0 0.0010892962181873705 0.053300592197330215 0 0.0009167862337250615 0.053400965339458227 0 0.00087557163865328272 0.053542706364668895 0 0.0009167862337250615 0.053400965339458227 0 0.00087557163865328272 0.053542706364668895 0 0.00073276090513562991 0.053637731557783258 0 0.00087557163865328272 0.053542706364668895 0 0.00073276090513562991 0.053637731557783258 0 0.00069645765100718082 0.05380060779077428 0 0.00073276090513562991 0.053637731557783258 0 0.00057413044813174391 0.053878256990747025 0 0.00048704313614699932 0.053818126185858912 0 0.00073276090513562991 0.053637731557783258 0 0.00057413044813174391 0.053878256990747025 0 0.00069645765100718082 0.05380060779077428 0 0.00069645765100718082 0.05380060779077428 0 0.00063888835205830525 0.053980171838621381 0 0.00052328832101248049 0.054030927732144969 0 0.00057413044813174391 0.053878256990747025 0 0.00069645765100718082 0.05380060779077428 0 0.00052328832101248049 0.054030927732144969 0 0.00087557163865328272 0.053542706364668895 0 0.00069645765100718082 0.05380060779077428 0 0.00084748169996781567 0.053676914871397426 0 0.00084748169996781567 0.053676914871397426 0 0.00063888835205830525 0.053980171838621381 0 0.0010501917178503493 0.05351548333984818 0 0.00063888835205830525 0.053980171838621381 0 0.0010501917178503493 0.05351548333984818 0 0.00086955613032487107 0.053775702240316553 0 0.00069645765100718082 0.05380060779077428 0 0.00084748169996781567 0.053676914871397426 0 0.00063888835205830525 0.053980171838621381 0 0.001264015696017171 0.053198189153421289 0 0.001026386657919697 0.053457564537700994 0 0.0010501917178503493 0.05351548333984818 0 0.001026386657919697 0.053457564537700994 0 0.00084748169996781567 0.053676914871397426 0 0.0010501917178503493 0.05351548333984818 0 1.8663283639333983e-07 0.054999309481666939 0 0.00033193012787481352 0.054359093693298256 0 0.00030790090247769653 0.054484248231349237 0 0.00063888835205830525 0.053980171838621381 0 0.00033193012787481352 0.054359093693298256 0 0.00030790090247769653 0.054484248231349237 0 0.00063888835205830525 0.053980171838621381 0 0.00033193012787481352 0.054359093693298256 0 0.00052328832101248049 0.054030927732144969 0 0.00033193012787481352 0.054359093693298256 0 0.00052328832101248049 0.054030927732144969 0 0.00042381381565711991 0.054109022707006203 0 0.00057413044813174391 0.053878256990747025 0 0.00042381381565711991 0.054109022707006203 0 0.00048704313614699932 0.053818126185858912 0 0.00057413044813174391 0.053878256990747025 0 0.00052328832101248049 0.054030927732144969 0 0.00042381381565711991 0.054109022707006203 0 0.00042381381565711991 0.054109022707006203 0 0.00022519317199270705 0.054470817790505277 0 0.00048704313614699932 0.053818126185858912 0 0.00033193012787481352 0.054359093693298256 0 0.00042381381565711991 0.054109022707006203 0 0.00022519317199270705 0.054470817790505277 0 1.8663283639333983e-07 0.054999309481666939 0 0.00033193012787481352 0.054359093693298256 0 0.00022519317199270705 0.054470817790505277 0 1.8663283639333983e-07 0.054999309481666939 0 0.00022519317199270705 0.054470817790505277 0 1.0721819980064443e-07 0.054998705564181377 0 0.00022519317199270705 0.054470817790505277 0 1.0721819980064443e-07 0.054998705564181377 0 0.00048704313614699932 0.053818126185858912 0 0.00016429273855396261 0.053136711901361419 0 0.00029846897968830311 0.053040856101393169 0 0.00066057214345885884 0.053104535154874975 0 0.00010167875677473608 0.053961920948687653 0 0.00062966159122389482 0.053480713062657441 0 0.00010167875677473608 0.053961920948687653 0 0.00062915203914390601 0.054133747842610526 0 0.00019659888949417548 0.055025944797378906 0 -1.6340252737139208e-07 0.054999401890366027 0 1.3255108602697737e-07 0.055000455650344185 0 1.1560809270254563e-10 0.055000010524455918 0 9.4684905130308767e-06 0.054995335176064371 0 5.3045927055613249e-09 0.05499998344401355 0 0.00062915203914390601 0.054133747842610526 0 1.6582698973518487e-07 0.054999126600569347 0 0.00077531032696874155 0.053018723048974536 0 0.00029846897968830311 0.053040856101393169 0 0.00066057214345885884 0.053104535154874975 0 0.0010844723719896034 0.053144590946370314 0 0.00062915203914390601 0.054133747842610526 0 0.0012392365265098625 0.053498094925773572 0 0.001672001655069545 0.053548664328132253 0 0.0013344997573226268 0.053752695769263871 0 8.0687884866711095e-05 0.054796943951268114 0 0.00035156990936909672 0.054425322122070664 0 0.00062915203914390601 0.054133747842610526 0 0.0010678141132170335 0.054147867187217258 0 0.00043864453431516408 0.054575926185026165 0 8.2289302738336134e-05 0.054510660486640557 0 0.00071731567653921273 0.054295051611608233 0 0.00019659888949417548 0.055025944797378906 0 0.00073626187232043257 0.054513826782801436 0 0.00043864453431516408 0.054575926185026165 0 0.00073626187232043257 0.054513826782801436 0 0.00043864453431516408 0.054575926185026165 0 0.00071731567653921273 0.054295051611608233 0 0.00019659888949417548 0.055025944797378906 0 0.00043864453431516408 0.054575926185026165 0 8.2289302738336134e-05 0.054510660486640557 0 0.00019659888949417548 0.055025944797378906 0 -1.6340252737139208e-07 0.054999401890366027 0 8.2289302738336134e-05 0.054510660486640557 0 -4.6277348245553894e-10 0.05500000022385744 0 6.7499003932330384e-10 0.054999998450938177 0 1.116960363633075e-07 0.054999750723832723 0 2.0866024263841099e-08 0.054999889172482032 0 8.0687884866711095e-05 0.054796943951268114 0 2.4520635983149902e-08 0.054999553605881019 0 8.0687884866711095e-05 0.054796943951268114 0 0.00011151605289822723 0.054596901274639988 0 4.8944759869625878e-05 0.054658777272989539 0 8.5032805514864048e-05 0.054725111233266656 0 6.773832577516383e-07 0.055000459019846987 0 1.6086457555009453e-10 0.055000015223515747 0 7.1382388789846363e-06 0.055005748614403882 0 8.0687884866711095e-05 0.054796943951268114 0 4.231660839013959e-05 0.05486715446055393 0 3.063366391195026e-09 0.054999996856745059 0 6.773832577516383e-07 0.055000459019846987 0 1.6086457555009453e-10 0.055000015223515747 0 4.8944759869625878e-05 0.054658777272989539 0 8.5032805514864048e-05 0.054725111233266656 0 1.2966568671989262e-05 0.054692449300468543 0 7.1382388789846363e-06 0.055005748614403882 0 2.5342736350745893e-05 0.05493208444349678 0 3.6086254685051435e-06 0.054982008541850001 0 4.231660839013959e-05 0.05486715446055393 0 2.8134381487866391e-05 0.054926498333678443 0 1.6086457555009453e-10 0.055000015223515747 0 7.1382388789846363e-06 0.055005748614403882 0 3.6086254685051435e-06 0.054982008541850001 0 8.5032805514864048e-05 0.054725111233266656 0 -4.3178693820095803e-05 0.054759715873489309 0 1.2966568671989262e-05 0.054692449300468543 0 8.5032805514864048e-05 0.054725111233266656 0 -4.3178693820095803e-05 0.054759715873489309 0 2.5342736350745893e-05 0.05493208444349678 0 -4.3178693820095803e-05 0.054759715873489309 0 1.2966568671989262e-05 0.054692449300468543 0 -3.7033053171034696e-05 0.054635586547383902 0 0.00011151605289822723 0.054596901274639988 0 4.8944759869625878e-05 0.054658777272989539 0 -3.7033053171034696e-05 0.054635586547383902 0 4.8944759869625878e-05 0.054658777272989539 0 1.2966568671989262e-05 0.054692449300468543 0 -3.7033053171034696e-05 0.054635586547383902 0 -4.3178693820095803e-05 0.054759715873489309 0 -3.7033053171034696e-05 0.054635586547383902 0 -0.00014215139194823735 0.054652278429939118 0 0.00035156990936909672 0.054425322122070664 0 0.0003757932247948819 0.054371712293281679 0 0.00071731567653921273 0.054295051611608233 0 0.00089508586387217659 0.054078097226459697 0 0.00089999975936679109 0.05405844916892797 0 0.00085523899755018192 0.053955639913005567 0 0.00089508586387217659 0.054078097226459697 0 0.00089999975936679109 0.05405844916892797 0 0.00071103134658579 0.053955308301597303 0 0.00085523899755018192 0.053955639913005567 0 0.00089999975936679109 0.05405844916892797 0 0.00098652304936508992 0.053855733888305383 0 0.00085523899755018192 0.053955639913005567 0 0.00089508586387217659 0.054078097226459697 0 -0.00015741093810639936 0.054683987267904105 0 -0.00014215139194823735 0.054652278429939118 0 -0.0001165616220152344 0.054749098083226568 0 -4.3178693820095803e-05 0.054759715873489309 0 -0.00014215139194823735 0.054652278429939118 0 -0.0001165616220152344 0.054749098083226568 0 -0.00010777942242703716 0.054765069456046811 0 -3.2000305850711916e-05 0.054877781131784598 0 -4.3178693820095803e-05 0.054759715873489309 0 -0.0001165616220152344 0.054749098083226568 0 -1.1490459379543909e-05 0.054972518260383837 0 -0.0001165616220152344 0.054749098083226568 0 -9.7795765000765678e-05 0.054768045571752154 0 -4.3558228360054077e-05 0.054786983230760603 0 -0.0001403146745182978 0.054721481637899277 0 -0.0001165616220152344 0.054749098083226568 0 -9.7795765000765678e-05 0.054768045571752154 0 -0.0001403146745182978 0.054721481637899277 0 -0.00015741093810639936 0.054683987267904105 0 -0.0001165616220152344 0.054749098083226568 0 -0.00010233563687164241 0.054774622326427901 0 -0.0001403146745182978 0.054721481637899277 0 -9.7795765000765678e-05 0.054768045571752154 0 -0.00010233563687164241 0.054774622326427901 0 -0.00014003567004422854 0.054737625740658935 0 -0.0001403146745182978 0.054721481637899277 0 -6.9069900831357099e-05 0.054817121533552504 0 -0.00010233563687164241 0.054774622326427901 0 -9.7795765000765678e-05 0.054768045571752154 0 -6.9069900831357099e-05 0.054817121533552504 0 -9.7795765000765678e-05 0.054768045571752154 0 -4.3558228360054077e-05 0.054786983230760603 0 -2.6631309859303288e-05 0.054906839617750877 0 -6.9069900831357099e-05 0.054817121533552504 0 -4.3558228360054077e-05 0.054786983230760603 0 -1.1490459379543909e-05 0.054972518260383837 0 7.5034084611329868e-06 0.054980041494249725 0 2.5342736350745893e-05 0.05493208444349678 0 2.1900594648509609e-08 0.055000037752611107 0 -1.1490459379543909e-05 0.054972518260383837 0 7.5034084611329868e-06 0.054980041494249725 0 -1.5488897880621533e-08 0.054999953245883075 0 -3.2000305850711916e-05 0.054877781131784598 0 2.1900594648509609e-08 0.055000037752611107 0 7.5034084611329868e-06 0.054980041494249725 0 1.2766592311203321e-08 0.054999879082189736 0 1.6086457555009453e-10 0.055000015223515747 0 1.2766592311203321e-08 0.054999879082189736 0 3.6086254685051435e-06 0.054982008541850001 0 7.5034084611329868e-06 0.054980041494249725 0 2.5342736350745893e-05 0.05493208444349678 0 1.2766592311203321e-08 0.054999879082189736 0 2.5342736350745893e-05 0.05493208444349678 0 1.2766592311203321e-08 0.054999879082189736 0 3.6086254685051435e-06 0.054982008541850001 0 -4.3178693820095803e-05 0.054759715873489309 0 -1.1490459379543909e-05 0.054972518260383837 0 2.5342736350745893e-05 0.05493208444349678 0 0.00098521088388770525 0.019993144029433998 0 0.0007083744130409516 0.019934277404999364 0 0.00074818093825403695 0.020399240196713849 0 0.00098521088388770525 0.019993144029433998 0 0.0007083744130409516 0.019934277404999364 0 0.0008970406266719964 0.019832385036086256 0 0.00098521088388770525 0.019993144029433998 0 0.0011069944181105137 0.019785178451891837 0 0.001381488722743591 0.019945579602455594 0 0.00098521088388770525 0.019993144029433998 0 0.0011498441424708755 0.020337517486742073 0 0.0013991881288958974 0.020003405413489796 0 0.0015252570469414563 0.02022495479203849 0 6.256220783578923e-05 0.017559027815207455 0 0.00098521088388770525 0.019993144029433998 0 0.0011069944181105137 0.019785178451891837 0 0.0008970406266719964 0.019832385036086256 0 0.00032897673529448185 0.01945305119886568 0 0.00066678053364379426 0.019320025851146491 0 0.00050848106770722923 0.019296523790835067 0 0.0011069944181105137 0.019785178451891837 0 0.00073873899693154487 0.019637319222436469 0 0.0013161687016440627 0.019564660415980553 0 0.0011069944181105137 0.019785178451891837 0 0.001381488722743591 0.019945579602455594 0 0.0013161687016440627 0.019564660415980553 0 0.00088191523495329352 0.020195370961782505 0 -0.00069910236262054649 0.014468594556151069 0 0.0011069944181105137 0.019785178451891837 0 0.0008970406266719964 0.019832385036086256 0 0.00073873899693154487 0.019637319222436469 0 0.00032897673529448185 0.01945305119886568 0 0.00037999347011863501 0.019362667518877837 0 0.00050848106770722923 0.019296523790835067 0 0.0007083744130409516 0.019934277404999364 0 0.00073873899693154487 0.019637319222436469 0 0.00043926991835168804 0.01983581094597011 0 0.0007083744130409516 0.019934277404999364 0 0.0008970406266719964 0.019832385036086256 0 0.00073873899693154487 0.019637319222436469 0 0.00032897673529448185 0.01945305119886568 0 0.00028868058354549983 0.019381490175056956 0 0.00037999347011863501 0.019362667518877837 0 0.00088191523495329352 0.020195370961782505 0 -0.0001014040871197334 0.019520962973944733 0 0.00032897673529448185 0.01945305119886568 0 3.0901611838821972e-05 0.019702722584561537 0 0.00018860829568646055 0.01947377801190955 0 0.00073873899693154487 0.019637319222436469 0 0.00043926991835168804 0.01983581094597011 0 3.0901611838821972e-05 0.019702722584561537 0 0.00032897673529448185 0.01945305119886568 0 0.00028868058354549983 0.019381490175056956 0 0.00018860829568646055 0.01947377801190955 0 0.00043926991835168804 0.01983581094597011 0 3.0901611838821972e-05 0.019702722584561537 0 0.00014332458170842837 0.01995717496266371 0 -8.8301834749222565e-05 0.019675659228997749 0 3.0901611838821972e-05 0.019702722584561537 0 -1.906877333141035e-05 0.019566782551725833 0 3.0901611838821972e-05 0.019702722584561537 0 9.1553093525069846e-05 0.019484175871043535 0 0.00018860829568646055 0.01947377801190955 0 3.0901611838821972e-05 0.019702722584561537 0 -1.906877333141035e-05 0.019566782551725833 0 9.1553093525069846e-05 0.019484175871043535 0 -8.8301834749222565e-05 0.019675659228997749 0 3.0901611838821972e-05 0.019702722584561537 0 -0.00014827927137464191 0.019919112393854691 0 3.0901611838821972e-05 0.019702722584561537 0 0.00014332458170842837 0.01995717496266371 0 -0.00014827927137464191 0.019919112393854691 0 0.00014332458170842837 0.01995717496266371 0 1.0385759265693259e-05 0.020205146214952268 0 -0.00014827927137464191 0.019919112393854691 0 0.00014332458170842837 0.01995717496266371 0 1.0385759265693259e-05 0.020205146214952268 0 0.00040975901210540472 0.020124307576311909 0 0.0007083744130409516 0.019934277404999364 0 0.00040975901210540472 0.020124307576311909 0 0.00074818093825403695 0.020399240196713849 0 0.0007083744130409516 0.019934277404999364 0 0.00043926991835168804 0.01983581094597011 0 0.00040975901210540472 0.020124307576311909 0 0.00043926991835168804 0.01983581094597011 0 0.00014332458170842837 0.01995717496266371 0 0.00040975901210540472 0.020124307576311909 0 0.00028034531871776267 0.020624162100287047 0 0.00058330548001477088 0.021005080835264405 0 0.00074818093825403695 0.020399240196713849 0 0.00040975901210540472 0.020124307576311909 0 0.00028034531871776267 0.020624162100287047 0 0.00074818093825403695 0.020399240196713849 0 1.0385759265693259e-05 0.020205146214952268 0 0.00028034531871776267 0.020624162100287047 0 -0.00021422635234301325 0.020621297722304789 0 1.0385759265693259e-05 0.020205146214952268 0 0.00040975901210540472 0.020124307576311909 0 0.00028034531871776267 0.020624162100287047 0 0.00028034531871776267 0.020624162100287047 0 8.9798856548970745e-05 0.021112463317695358 0 -0.00021422635234301325 0.020621297722304789 0 8.9798856548970745e-05 0.021112463317695358 0 -0.00021422635234301325 0.020621297722304789 0 -0.0003937727598973785 0.021285405899654899 0 0.00028034531871776267 0.020624162100287047 0 8.9798856548970745e-05 0.021112463317695358 0 0.00058330548001477088 0.021005080835264405 0 0.00058330548001477088 0.021005080835264405 0 0.00074818093825403695 0.020399240196713849 0 0.0011219743134800615 0.020769776621258441 0 0.00074818093825403695 0.020399240196713849 0 0.0011498441424708755 0.020337517486742073 0 0.0011219743134800615 0.020769776621258441 0 0.00098521088388770525 0.019993144029433998 0 0.00074818093825403695 0.020399240196713849 0 0.0011498441424708755 0.020337517486742073 0 0.0011498441424708755 0.020337517486742073 0 0.0011219743134800615 0.020769776621258441 0 0.0014682931132111551 0.020365541049324257 0 0.0011648156668880819 0.020695902045900477 0 0.0018630595521777909 0.020226904853389998 0 0.0011219743134800615 0.020769776621258441 0 0.0020775161754684177 0.019915731421405999 0 0.0019241244883452843 0.020709908569539137 0 0.0011219743134800615 0.020769776621258441 0 0.0015894925233168233 0.02053277388915822 0 0.0014682931132111551 0.020365541049324257 0 0.0020775161754684177 0.019915731421405999 0 0.0019241244883452843 0.020709908569539137 0 0.0024092310147743766 0.02027956622001376 0 0.0019241244883452843 0.020709908569539137 0 0.0024092310147743766 0.02027956622001376 0 0.002411602418422185 0.020921946757058118 0 0.0024092310147743766 0.02027956622001376 0 0.002759504709136031 0.020144742920783089 0 0.0027876472314060756 0.020619445657520732 0 0.002759504709136031 0.020144742920783089 0 0.003159160125005151 0.020089846639132179 0 0.0027876472314060756 0.020619445657520732 0 0.003159160125005151 0.020089846639132179 0 0.0032286301609458033 0.020666140656211127 0 0.0027876472314060756 0.020619445657520732 0 0.002759504709136031 0.020144742920783089 0 0.0030928901430689747 0.019707315460364902 0 0.003159160125005151 0.020089846639132179 0 0.002759504709136031 0.020144742920783089 0 0.002737151909774142 0.019793844245428897 0 0.0030928901430689747 0.019707315460364902 0 0.0020775161754684177 0.019915731421405999 0 0.0024092310147743766 0.02027956622001376 0 0.002737151909774142 0.019793844245428897 0 0.0024092310147743766 0.02027956622001376 0 0.002759504709136031 0.020144742920783089 0 0.002737151909774142 0.019793844245428897 0 0.0015894925233168233 0.02053277388915822 0 0.0018028173709535333 0.020225959273424909 0 0.0025919589356383005 0.020149374465622701 0 0.0018028173709535333 0.020225959273424909 0 0.0020429602812960675 0.020015048004496865 0 0.0025919589356383005 0.020149374465622701 0 0.0020775161754684177 0.019915731421405999 0 0.002737151909774142 0.019793844245428897 0 0.0033981478385191931 0.018956794595635085 0 0.0018630595521777909 0.020226904853389998 0 0.0029948524670273999 0.019520120687384065 0 0.002737151909774142 0.019793844245428897 0 0.0030928901430689747 0.019707315460364902 0 0.0033981478385191931 0.018956794595635085 0 0.0023601838018233205 0.019886217113637288 0 0.0020429602812960675 0.020015048004496865 0 0.0025919589356383005 0.020149374465622701 0 0.0018028173709535333 0.020225959273424909 0 0.0020429602812960675 0.020015048004496865 0 0.0016802751708638009 0.019853772852030115 0 0.0018028173709535333 0.020225959273424909 0 0.0016802751708638009 0.019853772852030115 0 0.0014682931132111551 0.020365541049324257 0 0.0011498441424708755 0.020337517486742073 0 0.0014682931132111551 0.020365541049324257 0 0.0013991881288958974 0.020003405413489796 0 0.0016802751708638009 0.019853772852030115 0 0.0014682931132111551 0.020365541049324257 0 0.0012291686909699552 0.019386919654384605 0 0.0017111049139726263 0.021165543933793551 0 6.256220783578923e-05 0.017559027815207455 0 0.0015894925233168233 0.02053277388915822 0 0.0018028173709535333 0.020225959273424909 0 0.0014682931132111551 0.020365541049324257 0 0.0045885186971070654 0.01961000339400629 0 0.0039093370396826085 0.019551712735377931 0 0.0042860500891603861 0.019111992068957993 0 0.0040489643259354734 0.018898418605124579 0 0.0038371340442412459 0.018978964238181097 0 0.0048317466734651955 0.020086525943177006 0 0.0041728446580920437 0.019871458529283462 0 0.004375487690792503 0.02053974124482667 0 0.0042860500891603861 0.019111992068957993 0 0.0040489643259354734 0.018898418605124579 0 0.0042635076261083264 0.018685209513373307 0 0.0040489643259354734 0.018898418605124579 0 0.0038371340442412459 0.018978964238181097 0 0.0038709529339297308 0.018866320367296022 0 0.0039093370396826085 0.019551712735377931 0 0.003610986975893331 0.019508935221035931 0 0.0038367851584045461 0.019540308615363721 0 0.0034546867810513041 0.019523677946322777 0 0.0038709529339297308 0.018866320367296022 0 0.0039093370396826085 0.019551712735377931 0 0.0039430923092502942 0.019022866645130514 0 0.0040108760083061214 0.019780887932268589 0 0.003159160125005151 0.020089846639132179 0 0.0032286301609458033 0.020666140656211127 0 0.0030928901430689747 0.019707315460364902 0 0.003159160125005151 0.020089846639132179 0 0.0034546867810513041 0.019523677946322777 0 0.0040108760083061214 0.019780887932268589 0 0.003159160125005151 0.020089846639132179 0 0.0034546867810513041 0.019523677946322777 0 0.0030928901430689747 0.019707315460364902 0 0.0034546867810513041 0.019523677946322777 0 0.0033981478385191931 0.018956794595635085 0 0.0023601838018233205 0.019886217113637288 0 0.0025919589356383005 0.020149374465622701 0 0.002568364655851911 0.019771902232806657 0 0.0025919589356383005 0.020149374465622701 0 0.002568364655851911 0.019771902232806657 0 0.0029168666425770187 0.019671886110786598 0 0.0034546867810513041 0.019523677946322777 0 0.0033981478385191931 0.018956794595635085 0 0.0038709529339297308 0.018866320367296022 0 0.0029948524670273999 0.019520120687384065 0 0.0040427678592156362 0.019148525681729263 0 0.0025919589356383005 0.020149374465622701 0 0.0035601303428164917 0.019723767183356316 0 0.0029168666425770187 0.019671886110786598 0 0.0033981478385191931 0.018956794595635085 0 0.0038709529339297308 0.018866320367296022 0 0.0043028134433910712 0.018128675063033568 0 0.0040489643259354734 0.018898418605124579 0 0.0038709529339297308 0.018866320367296022 0 0.0042635076261083264 0.018685209513373307 0 0.0045434143401819546 0.018434876743311467 0 0.0043028134433910712 0.018128675063033568 0 0.0042635076261083264 0.018685209513373307 0 0.0038709529339297308 0.018866320367296022 0 0.0043028134433910712 0.018128675063033568 0 0.0042635076261083264 0.018685209513373307 0 0.0035601303428164917 0.019723767183356316 0 0.0034473287963511221 0.019360966347205199 0 0.0029168666425770187 0.019671886110786598 0 0.00090890114848299548 0.010962084565668065 0 0.00049304583131715575 0.011330575640295014 0 0.00055753701301230747 0.010818056603413626 0 0.00049304583131715575 0.011330575640295014 0 0.00020766656341874535 0.010752198929323718 0 0.00055753701301230747 0.010818056603413626 0 0.0018229425740699863 0.015268160462110993 0 0.00078036280980118969 0.015086376456059767 0 0.0034473287963511221 0.019360966347205199 0 0.0029168666425770187 0.019671886110786598 0 0.0023735666989945911 0.019402262747681955 0 0.00049304583131715575 0.011330575640295014 0 0.00020766656341874535 0.010752198929323718 0 -0.00072469491868576408 0.011284512021188312 0 0.002568364655851911 0.019771902232806657 0 0.0029168666425770187 0.019671886110786598 0 0.0023735666989945911 0.019402262747681955 0 0.0023601838018233205 0.019886217113637288 0 0.002568364655851911 0.019771902232806657 0 0.0023735666989945911 0.019402262747681955 0 3.1869709432822752e-05 0.010444876862409981 0 -0.00080612473640749279 0.010376224745072691 0 0.00048004541001398708 0.010065141140392572 0 -0.00032795528561421912 0.010714270113530659 0 3.1869709432822752e-05 0.010444876862409981 0 -0.00080612473640749279 0.010376224745072691 0 -0.00032795528561421912 0.010714270113530659 0 0.00020766656341874535 0.010752198929323718 0 -0.00072469491868576408 0.011284512021188312 0 -0.0016139297489561387 0.0091706419573528101 0 -0.00011693573284183438 0.0097301348352002714 0 -0.00032795528561421912 0.010714270113530659 0 -0.00072469491868576408 0.011284512021188312 0 -0.00080612473640749279 0.010376224745072691 0 -0.00032795528561421912 0.010714270113530659 0 0.00020766656341874535 0.010752198929323718 0 3.1869709432822752e-05 0.010444876862409981 0 0.00020766656341874535 0.010752198929323718 0 0.00034868511914871097 0.010567167067327767 0 3.1869709432822752e-05 0.010444876862409981 0 3.1869709432822752e-05 0.010444876862409981 0 0.0003836242742523217 0.010355132023635461 0 0.00048004541001398708 0.010065141140392572 0 0.00034868511914871097 0.010567167067327767 0 3.1869709432822752e-05 0.010444876862409981 0 0.0003836242742523217 0.010355132023635461 0 0.0003836242742523217 0.010355132023635461 0 0.00055034972186801718 0.010239666772675871 0 0.00058909328363951742 0.010480801115131264 0 0.00034868511914871097 0.010567167067327767 0 0.0003836242742523217 0.010355132023635461 0 0.00058909328363951742 0.010480801115131264 0 0.0003836242742523217 0.010355132023635461 0 0.00055034972186801718 0.010239666772675871 0 0.00048004541001398708 0.010065141140392572 0 0.0008486363891924369 0.010239292564631826 0 0.00055034972186801718 0.010239666772675871 0 0.00048004541001398708 0.010065141140392572 0 0.0008486363891924369 0.010239292564631826 0 0.00055034972186801718 0.010239666772675871 0 0.00058909328363951742 0.010480801115131264 0 0.00087292214100385913 0.01068030631476884 0 0.00058909328363951742 0.010480801115131264 0 0.00055753701301230747 0.010818056603413626 0 0.00034868511914871097 0.010567167067327767 0 0.00058909328363951742 0.010480801115131264 0 0.00055753701301230747 0.010818056603413626 0 0.00020766656341874535 0.010752198929323718 0 0.00034868511914871097 0.010567167067327767 0 0.00055753701301230747 0.010818056603413626 0 0.0016802751708638009 0.019853772852030115 0 0.0012291686909699552 0.019386919654384605 0 0.0023735666989945911 0.019402262747681955 0 6.256220783578923e-05 0.017559027815207455 0 0.00078036280980118969 0.015086376456059767 0 -0.0017952894126325798 0.011304273816201405 0 -0.00072469491868576408 0.011284512021188312 0 -0.0013196280722483614 0.01088323013733508 0 0.0020429602812960675 0.020015048004496865 0 0.0016802751708638009 0.019853772852030115 0 0.0023735666989945911 0.019402262747681955 0 0.0023601838018233205 0.019886217113637288 0 0.0020429602812960675 0.020015048004496865 0 0.0023735666989945911 0.019402262747681955 0 -0.00072469491868576408 0.011284512021188312 0 -0.0013196280722483614 0.01088323013733508 0 -0.00080612473640749279 0.010376224745072691 0 -0.0016139297489561387 0.0091706419573528101 0 -0.00069910236262054649 0.014468594556151069 0 6.256220783578923e-05 0.017559027815207455 0 -0.00069910236262054649 0.014468594556151069 0 -0.0013196280722483614 0.01088323013733508 0 -0.00080612473640749279 0.010376224745072691 0 -0.0019347640951096214 0.010573531959515528 0 -0.0017952894126325798 0.011304273816201405 0 -0.0013196280722483614 0.01088323013733508 0 -0.0019347640951096214 0.010573531959515528 0 -0.0017718405619345692 0.0091985695971470542 0 -0.0025168079769421117 0.0093199172079539289 0 -0.0021491679106283852 0.0090002826668432161 0 -0.0025168079769421117 0.0093199172079539289 0 -0.0021491679106283852 0.0090002826668432161 0 -0.0026062943101229346 0.0088670791512108459 0 -0.0021491679106283852 0.0090002826668432161 0 -0.0022433102108440121 0.0085902584446010434 0 -0.0026062943101229346 0.0088670791512108459 0 -0.0021491679106283852 0.0090002826668432161 0 -0.0022433102108440121 0.0085902584446010434 0 -0.0015035185693671957 0.0087121445394256064 0 -0.0017718405619345692 0.0091985695971470542 0 -0.0021491679106283852 0.0090002826668432161 0 -0.0015035185693671957 0.0087121445394256064 0 -0.0028426199840030936 0.0039560430352024818 0 -0.0030577893236864093 0.0036087174924042996 0 -0.004226614279912712 -0.0012283145631897207 0 -0.0046577789770464841 -0.00090012501787303974 0 -0.0038381508384651179 -0.00074713822513243868 0 -0.0026652973862994586 -0.00086952464791580563 0 -0.0028426199840030936 0.0039560430352024818 0 -0.0018449872637207518 -4.6418777126159463e-06 0 -0.0029970743477795965 0.00078155386708212468 0 -0.0034605441922142795 -0.00039065851787357421 0 -0.0028426199840030936 0.0039560430352024818 0 -0.0018514868052773462 0.0069082584192756182 0 -0.0029970743477795965 0.00078155386708212468 0 -0.0034605441922142795 -0.00039065851787357421 0 -0.0042701315934646454 0.00052923196326932229 0 -0.001015947073881977 0.0081023348528902282 0 -0.0022698397646426496 0.007839985858400669 0 -0.0020879005865502838 0.008820336125509181 0 -0.0028426199840030936 0.0039560430352024818 0 -0.00082162191792920013 0.014461624923897284 0 -0.00079277950147546756 0.0066126807199911319 0 -0.0030577893236864093 0.0036087174924042996 0 -0.00073760776788267285 0.0088483889596060791 0 -0.0010054825292393373 0.0091050582436621643 0 -0.0015035185693671957 0.0087121445394256064 0 -0.00079277950147546756 0.0066126807199911319 0 -0.00011693573284183438 0.0097301348352002714 0 -0.0017718405619345692 0.0091985695971470542 0 -0.0010054825292393373 0.0091050582436621643 0 -0.0015035185693671957 0.0087121445394256064 0 -0.004226614279912712 -0.0012283145631897207 0 -0.0038381508384651179 -0.00074713822513243868 0 -0.0036633061285585538 -0.0011796495218765789 0 -0.0038381508384651179 -0.00074713822513243868 0 -0.0036633061285585538 -0.0011796495218765789 0 -0.0032886293405662583 -0.0010074411536243224 0 -0.0028858992933308773 -0.00047003165556215294 0 -0.0038381508384651179 -0.00074713822513243868 0 -0.0032886293405662583 -0.0010074411536243224 0 -0.0036633061285585538 -0.0011796495218765789 0 -0.0032886293405662583 -0.0010074411536243224 0 -0.0031810007314069921 -0.0015053055018133532 0 -0.002829358832924208 -0.0011240141097180027 0 -0.0032886293405662583 -0.0010074411536243224 0 -0.0031810007314069921 -0.0015053055018133532 0 -0.0039027541977573166 -0.0019657959251879013 0 -0.0052609720655914299 -0.0022802786775530451 0 -0.0036661634285882075 -0.0032986419265537484 0 -0.0036633061285585538 -0.0011796495218765789 0 -0.0031810007314069921 -0.0015053055018133532 0 -0.0037754108240998828 -0.0015734289990700135 0 -0.0036012823744597353 -0.0017635267050525349 0 -0.0040780386916496802 -0.001519765462069737 0 -0.004226614279912712 -0.0012283145631897207 0 -0.0036633061285585538 -0.0011796495218765789 0 -0.0037754108240998828 -0.0015734289990700135 0 -0.0026652973862994586 -0.00086952464791580563 0 -0.0040780386916496802 -0.001519765462069737 0 -0.005995502191670843 -0.0019466604224006965 0 -0.0062185089983247746 -0.0023432571680271725 0 -0.0057318952485654381 -0.0022559046530156463 0 -0.0057772465071247265 -0.0026336082212855775 0 -0.0062185089983247746 -0.0023432571680271725 0 -0.0057318952485654381 -0.0022559046530156463 0 -0.0057772465071247265 -0.0026336082212855775 0 -0.0057318952485654381 -0.0022559046530156463 0 -0.004600987834075693 -0.0020502208182972387 0 -0.005995502191670843 -0.0019466604224006965 0 -0.0057318952485654381 -0.0022559046530156463 0 -0.004600987834075693 -0.0020502208182972387 0 -0.0040780386916496802 -0.001519765462069737 0 -0.0043732945232497749 -0.0027647722228950249 0 -0.0034605441922142795 -0.00039065851787357421 0 -0.0025961282998919108 -0.0011992594392769788 0 -0.0046937314425648888 -0.0018076977562332273 0 -0.0018449872637207518 -4.6418777126159463e-06 0 -0.0034605441922142795 -0.00039065851787357421 0 -0.0025961282998919108 -0.0011992594392769788 0 -0.0040780386916496802 -0.001519765462069737 0 -0.003975285481517668 -0.0017412991977941755 0 -0.0018449872637207518 -4.6418777126159463e-06 0 -0.00075742062710439052 -0.00072406542667849091 0 -0.0025961282998919108 -0.0011992594392769788 0 -0.0056936428642529093 -0.0021322713564372853 0 -0.0062185089983247746 -0.0023432571680271725 0 -0.0056779899474457066 -0.0024592814385611191 0 -0.005995502191670843 -0.0019466604224006965 0 -0.0062185089983247746 -0.0023432571680271725 0 -0.0056779899474457066 -0.0024592814385611191 0 -0.0056779899474457066 -0.0024592814385611191 0 -0.0047848365913796291 -0.0018499836201831129 0 -0.0046937314425648888 -0.0018076977562332273 0 -0.0049998243485529581 -0.0019753779845780822 0 -0.0056936428642529093 -0.0021322713564372853 0 -0.0056779899474457066 -0.0024592814385611191 0 -0.003975285481517668 -0.0017412991977941755 0 -0.0047645752628577582 -0.0018635698897979558 0 -0.0049998243485529581 -0.0019753779845780822 0 -0.0056779899474457066 -0.0024592814385611191 0 -0.0047848365913796291 -0.0018499836201831129 0 -0.0047872854484737274 -0.001879974540210096 0 -0.0047848365913796291 -0.0018499836201831129 0 -0.0048936257700341931 -0.0018461462786053084 0 -0.0048936257700341931 -0.0018461462786053084 0 -0.0048816143324400575 -0.0018057298620832206 0 -0.0051908083641470535 -0.0018046230363531614 0 -0.0048803277344557656 -0.0018751392736759142 0 -0.0048936257700341931 -0.0018461462786053084 0 -0.0051908083641470535 -0.0018046230363531614 0 -0.0047848365913796291 -0.0018499836201831129 0 -0.0048936257700341931 -0.0018461462786053084 0 -0.0048816143324400575 -0.0018057298620832206 0 -0.0047848365913796291 -0.0018499836201831129 0 -0.0048816143324400575 -0.0018057298620832206 0 -0.0046937314425648888 -0.0018076977562332273 0 -0.0046937314425648888 -0.0018076977562332273 0 -0.0045431201659032975 -0.00085721536146546719 0 -0.0049548954359531832 -0.0012487702033961638 0 -0.0048816143324400575 -0.0018057298620832206 0 -0.0050148978676374575 -0.001603195812038158 0 -0.0051908083641470535 -0.0018046230363531614 0 -0.0048816143324400575 -0.0018057298620832206 0 -0.0046937314425648888 -0.0018076977562332273 0 -0.0050148978676374575 -0.001603195812038158 0 -0.0046937314425648888 -0.0018076977562332273 0 -0.0050148978676374575 -0.001603195812038158 0 -0.0049548954359531832 -0.0012487702033961638 0 -4.5997065115326346e-05 0.019955532525173313 0 -6.5399279466244988e-05 0.019847295864789175 0 6.5440727149192066e-05 0.019882784013948097 0 -0.0050148978676374575 -0.001603195812038158 0 -0.0051908083641470535 -0.0018046230363531614 0 -0.0053188742041946581 -0.0015266685787486507 0 -0.0050148978676374575 -0.001603195812038158 0 -0.0053188742041946581 -0.0015266685787486507 0 -0.0049548954359531832 -0.0012487702033961638 0 -0.0032349820890423941 0.0069593186228013113 0 -0.0043309796452488019 0.0016203059576556898 0 -0.0053188742041946581 -0.0015266685787486507 0 -0.0053143039980425733 -0.00055361235285402246 0 -0.0068324092945203831 9.1698807877726551e-05 0 -0.0053143039980425733 -0.00055361235285402246 0 -0.0055303076965863207 0.00030949485901573355 0 -0.0068324092945203831 9.1698807877726551e-05 0 -0.0032349820890423941 0.0069593186228013113 0 -0.00208698069959775 0.013372546035288839 0 -0.0053925710922513087 -0.0019368048754364498 0 -0.0053188742041946581 -0.0015266685787486507 0 -0.0068324092945203831 9.1698807877726551e-05 0 -0.0053188742041946581 -0.0015266685787486507 0 -0.0053143039980425733 -0.00055361235285402246 0 -0.0049548954359531832 -0.0012487702033961638 0 -0.0053143039980425733 -0.00055361235285402246 0 -0.0048426761558787315 -7.9751735652539065e-05 0 -0.0055303076965863207 0.00030949485901573355 0 -0.0048741389668037552 -0.0028217688860523874 0 -0.0018514868052773462 0.0069082584192756182 0 -0.0045431201659032975 -0.00085721536146546719 0 -0.0048426761558787315 -7.9751735652539065e-05 0 -0.0041730727623583048 0.00062887592723462251 0 -0.0034605441922142795 -0.00039065851787357421 0 -0.0046937314425648888 -0.0018076977562332273 0 -0.0045431201659032975 -0.00085721536146546719 0 -0.0034605441922142795 -0.00039065851787357421 0 -0.0045431201659032975 -0.00085721536146546719 0 -0.0042701315934646454 0.00052923196326932229 0 -0.0053143039980425733 -0.00055361235285402246 0 -0.0045431201659032975 -0.00085721536146546719 0 -0.0049548954359531832 -0.0012487702033961638 0 -0.0053143039980425733 -0.00055361235285402246 0 -0.0045431201659032975 -0.00085721536146546719 0 -0.0048426761558787315 -7.9751735652539065e-05 0 -0.0018514868052773462 0.0069082584192756182 0 -0.0027875080411879825 0.0095730182615177441 0 0.00060859305865044251 0.018907086854864051 0 0.00038970483436813415 0.018903267640109297 0 0.00045348660710929514 0.019082106977737795 0 -0.0048426761558787315 -7.9751735652539065e-05 0 -0.0041730727623583048 0.00062887592723462251 0 -0.0055303076965863207 0.00030949485901573355 0 -0.0018514868052773462 0.0069082584192756182 0 -0.00082162191792920013 0.014461624923897284 0 0.00060859305865044251 0.018907086854864051 0 0.00045348660710929514 0.019082106977737795 0 0.00065025792043376177 0.019110020389692835 0 -0.0027875080411879825 0.0095730182615177441 0 -0.00208698069959775 0.013372546035288839 0 0.00038970483436813415 0.018903267640109297 0 0.00031286718682032845 0.019046797405427574 0 0.0001611565513151413 0.018868060098353151 0 0.00031286718682032845 0.019046797405427574 0 0.00045348660710929514 0.019082106977737795 0 0.0003298966433212334 0.019237191382789114 0 0.00031286718682032845 0.019046797405427574 0 0.0003298966433212334 0.019237191382789114 0 0.00021149659980149629 0.019121894935719211 0 0.00038970483436813415 0.018903267640109297 0 0.00031286718682032845 0.019046797405427574 0 0.00045348660710929514 0.019082106977737795 0 0.00045348660710929514 0.019082106977737795 0 0.00045116504785389577 0.019197614712856144 0 0.0003298966433212334 0.019237191382789114 0 0.0003298966433212334 0.019237191382789114 0 0.00028868058354549983 0.019381490175056956 0 0.00037999347011863501 0.019362667518877837 0 0.00045116504785389577 0.019197614712856144 0 0.0003298966433212334 0.019237191382789114 0 0.00037999347011863501 0.019362667518877837 0 -0.00069910236262054649 0.014468594556151069 0 -0.00082162191792920013 0.014461624923897284 0 0.00037999347011863501 0.019362667518877837 0 0.00050848106770722923 0.019296523790835067 0 0.00062518500310438903 0.019086994487741659 0 0.00066678053364379426 0.019320025851146491 0 0.00050848106770722923 0.019296523790835067 0 0.00062518500310438903 0.019086994487741659 0 0.00043598821251773182 0.0203575464553594 0 -0.00082162191792920013 0.014461624923897284 0 0.00045116504785389577 0.019197614712856144 0 0.00037999347011863501 0.019362667518877837 0 0.00065025792043376177 0.019110020389692835 0 0.00045348660710929514 0.019082106977737795 0 0.00045116504785389577 0.019197614712856144 0 0.00065025792043376177 0.019110020389692835 0 -1.906877333141035e-05 0.019566782551725833 0 6.1758663362987033e-05 0.019679433632873916 0 0.00018108140348632078 0.019707583738421665 0 0.00012534783826504068 0.0193525372658724 0 -0.00029957514715483921 0.019944796327683891 0 -1.906877333141035e-05 0.019566782551725833 0 9.1553093525069846e-05 0.019484175871043535 0 3.541676603141884e-05 0.019171529324548527 0 9.1553093525069846e-05 0.019484175871043535 0 0.00018860829568646055 0.01947377801190955 0 0.00020100106566590796 0.019334524327619951 0 0.00028868058354549983 0.019381490175056956 0 0.00018860829568646055 0.01947377801190955 0 0.00020100106566590796 0.019334524327619951 0 0.0003298966433212334 0.019237191382789114 0 0.00028868058354549983 0.019381490175056956 0 0.00020100106566590796 0.019334524327619951 0 0.0003298966433212334 0.019237191382789114 0 0.00020100106566590796 0.019334524327619951 0 0.00021149659980149629 0.019121894935719211 0 9.1553093525069846e-05 0.019484175871043535 0 0.00020100106566590796 0.019334524327619951 0 3.541676603141884e-05 0.019171529324548527 0 0.00020100106566590796 0.019334524327619951 0 0.00021149659980149629 0.019121894935719211 0 3.541676603141884e-05 0.019171529324548527 0 0.00021149659980149629 0.019121894935719211 0 3.541676603141884e-05 0.019171529324548527 0 0.0001611565513151413 0.018868060098353151 0 6.1758663362987033e-05 0.019679433632873916 0 0.00020233986692518041 0.019835506887365562 0 -1.4700219037541882e-05 0.019774922248397046 0 0.00031286718682032845 0.019046797405427574 0 0.00021149659980149629 0.019121894935719211 0 0.0001611565513151413 0.018868060098353151 0 -0.00029957514715483921 0.019944796327683891 0 -0.00208698069959775 0.013372546035288839 0 6.1758663362987033e-05 0.019679433632873916 0 0.00020233986692518041 0.019835506887365562 0 0.00018108140348632078 0.019707583738421665 0 0.00020233986692518041 0.019835506887365562 0 0.00033314790867476635 0.019979133563052951 0 0.00042381198781979158 0.019961369231766207 0 0.00020233986692518041 0.019835506887365562 0 6.5440727149192066e-05 0.019882784013948097 0 0.00033314790867476635 0.019979133563052951 0 0.0012991364364050913 0.020122344254505913 0 -0.00208698069959775 0.013372546035288839 0 -6.5399279466244988e-05 0.019847295864789175 0 5.9185051437789158e-05 0.01973381508558323 0 6.5440727149192066e-05 0.019882784013948097 0 0.00020233986692518041 0.019835506887365562 0 5.9185051437789158e-05 0.01973381508558323 0 6.5440727149192066e-05 0.019882784013948097 0 0.0001717739132679154 0.020085328535854135 0 -4.5997065115326346e-05 0.019955532525173313 0 6.5440727149192066e-05 0.019882784013948097 0 0.0001717739132679154 0.020085328535854135 0 0.00033314790867476635 0.019979133563052951 0 0.00070917550673338088 0.020185241691369316 0 0.0011575551650557928 0.021148694558420326 0 0.00078260187588977831 0.019973545200838078 0 0.0001717739132679154 0.020085328535854135 0 6.5440727149192066e-05 0.019882784013948097 0 0.00033314790867476635 0.019979133563052951 0 0.00033314790867476635 0.019979133563052951 0 0.00070917550673338088 0.020185241691369316 0 0.00042381198781979158 0.019961369231766207 0 0.00070917550673338088 0.020185241691369316 0 0.00042381198781979158 0.019961369231766207 0 0.00050382575015047392 0.020056641630602636 0 0.00020233986692518041 0.019835506887365562 0 0.00042381198781979158 0.019961369231766207 0 0.00018108140348632078 0.019707583738421665 0 0.00050382575015047392 0.020056641630602636 0 0.00041386204894995778 0.020062980500187476 0 0.00037217996934438632 0.019955070907806169 0 0.00042381198781979158 0.019961369231766207 0 0.00050382575015047392 0.020056641630602636 0 0.00037217996934438632 0.019955070907806169 0 0.00070917550673338088 0.020185241691369316 0 0.00050382575015047392 0.020056641630602636 0 0.00047205130242107101 0.020024813145727256 0 0.00050382575015047392 0.020056641630602636 0 0.00047205130242107101 0.020024813145727256 0 0.00041386204894995778 0.020062980500187476 0 0.00031397292017895287 0.01989849707446736 0 0.00047205130242107101 0.020024813145727256 0 0.00036212890402592451 0.020017669641743646 0 0.00047205130242107101 0.020024813145727256 0 0.00036212890402592451 0.020017669641743646 0 0.00041386204894995778 0.020062980500187476 0 0.00036212890402592451 0.020017669641743646 0 0.00026543166156144695 0.01996437664823018 0 0.00024266087932681049 0.020063406253577474 0 0.00033253652276451893 0.020074759092289455 0 0.0002976989864605885 0.020160439706056733 0 0.00024266087932681049 0.020063406253577474 0 0.00036212890402592451 0.020017669641743646 0 0.00033253652276451893 0.020074759092289455 0 0.00041386204894995778 0.020062980500187476 0 0.00036212890402592451 0.020017669641743646 0 0.00033253652276451893 0.020074759092289455 0 0.00024266087932681049 0.020063406253577474 0 0.00033253652276451893 0.020074759092289455 0 0.00041386204894995778 0.020062980500187476 0 0.0002976989864605885 0.020160439706056733 0 0.00041386204894995778 0.020062980500187476 0 0.00036230565652879969 0.020067462655350653 0 0.0002976989864605885 0.020160439706056733 0 0.00041386204894995778 0.020062980500187476 0 0.00036230565652879969 0.020067462655350653 0 0.00037217996934438632 0.019955070907806169 0 0.0002976989864605885 0.020160439706056733 0 0.00035950847077783531 0.020176556177891176 0 0.00021433393303053853 0.020431430538932163 0 0.00036230565652879969 0.020067462655350653 0 0.0002976989864605885 0.020160439706056733 0 0.00035950847077783531 0.020176556177891176 0 0.00036230565652879969 0.020067462655350653 0 0.00035950847077783531 0.020176556177891176 0 0.00022201822144258192 0.019924856871181527 0 -0.00014399424314898688 0.020057865685164423 0 0.00018090707347828133 0.019941844189719945 0 -0.0006239549825075995 0.019918414761159298 0 0.00022201822144258192 0.019924856871181527 0 0.00017744412301858226 0.020049555341648862 0 0.00022201822144258192 0.019924856871181527 0 0.00018108140348632078 0.019707583738421665 0 0.00017744412301858226 0.020049555341648862 0 -0.00014123391177915049 0.019649315634100214 0 0.00018108140348632078 0.019707583738421665 0 -0.00060885878586875992 0.01961601319316476 0 0.00011629591848591742 0.019725027406872302 0 -0.00022719929500506294 0.019863573040769529 0 -8.8301834749222565e-05 0.019675659228997749 0 -1.906877333141035e-05 0.019566782551725833 0 -0.00014123391177915049 0.019649315634100214 0 -1.906877333141035e-05 0.019566782551725833 0 -0.00014123391177915049 0.019649315634100214 0 0.00018108140348632078 0.019707583738421665 0 0.00022201822144258192 0.019924856871181527 0 0.00018108140348632078 0.019707583738421665 0 0.00037217996934438632 0.019955070907806169 0 0.00042381198781979158 0.019961369231766207 0 0.00018108140348632078 0.019707583738421665 0 0.00037217996934438632 0.019955070907806169 0 0.00036230565652879969 0.020067462655350653 0 0.00022201822144258192 0.019924856871181527 0 0.00037217996934438632 0.019955070907806169 0 -0.00031894298012305385 0.020265383100086205 0 -0.00011095371048609889 0.020103395683796384 0 -6.8295647331875748e-05 0.020201762566568318 0 -0.0025687800633366468 0.029537074839765448 0 -0.0025287369285484722 0.029923829730736227 0 -0.0015716235563151769 0.029314570871077066 0 -0.0025287369285484722 0.029923829730736227 0 -0.0011204864075723634 0.029096048852144056 0 -0.0015716235563151769 0.029314570871077066 0 -0.00031894298012305385 0.020265383100086205 0 -0.00013808974919732542 0.020001520184942872 0 -0.00011095371048609889 0.020103395683796384 0 -0.0014827333264393831 0.025384209888974038 0 -0.00021502950802057639 0.02513628790349012 0 -0.0025687800633366468 0.029537074839765448 0 -0.0018085671905253009 0.028919477080647262 0 -0.0015716235563151769 0.029314570871077066 0 -0.0025687800633366468 0.029537074839765448 0 -0.0024249341582787713 0.028614650472626943 0 -0.0018085671905253009 0.028919477080647262 0 -0.0013738789836273255 0.028099094588859334 0 -0.0024249341582787713 0.028614650472626943 0 -0.0018085671905253009 0.028919477080647262 0 -0.0013738789836273255 0.028099094588859334 0 -0.0018085671905253009 0.028919477080647262 0 -0.00070564899055190495 0.028723426980598998 0 -0.0018085671905253009 0.028919477080647262 0 -0.00070564899055190495 0.028723426980598998 0 -0.0015716235563151769 0.029314570871077066 0 -0.00021502950802057639 0.02513628790349012 0 -0.0016524718926297444 0.028484308347809788 0 -0.00011095371048609889 0.020103395683796384 0 -3.2696263453363366e-05 0.020005382889262843 0 -8.7645051651218623e-06 0.020072041424205201 0 -0.00013808974919732542 0.020001520184942872 0 -0.00011095371048609889 0.020103395683796384 0 -3.2696263453363366e-05 0.020005382889262843 0 1.3439341767553443e-05 0.019932830469181387 0 -0.00013808974919732542 0.020001520184942872 0 -3.2696263453363366e-05 0.020005382889262843 0 -3.2696263453363366e-05 0.020005382889262843 0 -8.7645051651218623e-06 0.020072041424205201 0 0.00010967533547178595 0.01997149245202141 0 -8.7645051651218623e-06 0.020072041424205201 0 -6.8295647331875748e-05 0.020201762566568318 0 9.7588846108399234e-05 0.020079795340480024 0 -6.8295647331875748e-05 0.020201762566568318 0 9.8910691663874707e-05 0.020157807539356747 0 -0.00011347484664226426 0.020449413699876157 0 -0.00031894298012305385 0.020265383100086205 0 -6.8295647331875748e-05 0.020201762566568318 0 -0.00011347484664226426 0.020449413699876157 0 -0.00011095371048609889 0.020103395683796384 0 -8.7645051651218623e-06 0.020072041424205201 0 -6.8295647331875748e-05 0.020201762566568318 0 9.8910691663874707e-05 0.020157807539356747 0 9.7588846108399234e-05 0.020079795340480024 0 0.00024266087932681049 0.020063406253577474 0 -6.8295647331875748e-05 0.020201762566568318 0 9.8910691663874707e-05 0.020157807539356747 0 9.7588846108399234e-05 0.020079795340480024 0 -8.7645051651218623e-06 0.020072041424205201 0 0.00010967533547178595 0.01997149245202141 0 9.7588846108399234e-05 0.020079795340480024 0 0.00020408513926769238 0.019928374695480387 0 0.00010967533547178595 0.01997149245202141 0 0.00019061529613520053 0.020001910877595893 0 0.00010967533547178595 0.01997149245202141 0 9.7588846108399234e-05 0.020079795340480024 0 0.00019061529613520053 0.020001910877595893 0 9.7588846108399234e-05 0.020079795340480024 0 0.00019061529613520053 0.020001910877595893 0 0.00024266087932681049 0.020063406253577474 0 0.00019061529613520053 0.020001910877595893 0 0.00026543166156144695 0.01996437664823018 0 0.00024266087932681049 0.020063406253577474 0 0.00020408513926769238 0.019928374695480387 0 0.00019061529613520053 0.020001910877595893 0 0.00026543166156144695 0.01996437664823018 0 0.0002976989864605885 0.020160439706056733 0 9.8910691663874707e-05 0.020157807539356747 0 0.00024266087932681049 0.020063406253577474 0 0.0002976989864605885 0.020160439706056733 0 9.8910691663874707e-05 0.020157807539356747 0 1.9106125628921775e-05 0.020350126153915724 0 0.0002976989864605885 0.020160439706056733 0 1.9106125628921775e-05 0.020350126153915724 0 0.00021433393303053853 0.020431430538932163 0 1.9106125628921775e-05 0.020350126153915724 0 -0.0001187068027571591 0.020716635625296034 0 0.00021433393303053853 0.020431430538932163 0 9.8910691663874707e-05 0.020157807539356747 0 1.9106125628921775e-05 0.020350126153915724 0 -0.00031736515693261123 0.020195909154105605 0 -7.6758502349776956e-05 0.020290329146388526 0 7.4103840172972893e-05 0.019959414805752137 0 1.9106125628921775e-05 0.020350126153915724 0 -0.00044433991602119512 0.020545890708156569 0 -0.0001187068027571591 0.020716635625296034 0 1.9106125628921775e-05 0.020350126153915724 0 -0.00031736515693261123 0.020195909154105605 0 -0.00044433991602119512 0.020545890708156569 0 -0.00089360026185578134 0.020418805246994434 0 -0.00044433991602119512 0.020545890708156569 0 -0.00070581627043155167 0.0209921601156111 0 -0.00089360026185578134 0.020418805246994434 0 -0.00031736515693261123 0.020195909154105605 0 -0.00044433991602119512 0.020545890708156569 0 -0.00050420509606834531 0.020692639306827083 0 -0.00031894298012305385 0.020265383100086205 0 -0.00011347484664226426 0.020449413699876157 0 -0.0015836870616312549 0.023128463102044212 0 7.4103840172972893e-05 0.019959414805752137 0 -0.0015836870616312549 0.023128463102044212 0 -0.0014827333264393831 0.025384209888974038 0 -0.0026303188676510768 0.020729559341439184 0 -0.0023666253906136684 0.020712260749700298 0 -0.0023333411781330865 0.021035488975557775 0 -0.0023666253906136684 0.020712260749700298 0 -0.0020990276226994509 0.020675707931996544 0 -0.0023333411781330865 0.021035488975557775 0 -0.0023666253906136684 0.020712260749700298 0 -0.0024003134162964008 0.020445479491909693 0 -0.0020990276226994509 0.020675707931996544 0 -0.0026303188676510768 0.020729559341439184 0 -0.0023666253906136684 0.020712260749700298 0 -0.0024003134162964008 0.020445479491909693 0 -0.0014477408810519977 0.020276079297051809 0 -0.0010354401486509274 0.020553444585383055 0 -0.0024003134162964008 0.020445479491909693 0 -0.0018684159735586126 0.020287368474910712 0 -0.0020990276226994509 0.020675707931996544 0 -0.00044433991602119512 0.020545890708156569 0 -0.00070581627043155167 0.0209921601156111 0 -0.0001187068027571591 0.020716635625296034 0 -0.0020990276226994509 0.020675707931996544 0 -0.001904669447371603 0.020836751083652922 0 -0.0023333411781330865 0.021035488975557775 0 -0.0018684159735586126 0.020287368474910712 0 -0.0020990276226994509 0.020675707931996544 0 -0.0016494010661236992 0.020579966799038604 0 -0.0020990276226994509 0.020675707931996544 0 -0.0016494010661236992 0.020579966799038604 0 -0.001904669447371603 0.020836751083652922 0 -0.0016494010661236992 0.020579966799038604 0 -0.001631691985422048 0.020820919935090453 0 -0.001904669447371603 0.020836751083652922 0 -0.0016494010661236992 0.020579966799038604 0 -0.0014345892497979738 0.020717242970317688 0 -0.001631691985422048 0.020820919935090453 0 -0.0018684159735586126 0.020287368474910712 0 -0.0016494010661236992 0.020579966799038604 0 -0.0013354179775396553 0.020122751578330895 0 -0.0010354401486509274 0.020553444585383055 0 -0.00055870207653015461 0.020270470207062154 0 -0.0016494010661236992 0.020579966799038604 0 -0.0013354179775396553 0.020122751578330895 0 -0.0012866231320757828 0.020521471619369201 0 -0.0013354179775396553 0.020122751578330895 0 -0.0012866231320757828 0.020521471619369201 0 -0.00095878272546682055 0.020334572446854306 0 -0.0016494010661236992 0.020579966799038604 0 -0.0012866231320757828 0.020521471619369201 0 -0.0014345892497979738 0.020717242970317688 0 -0.0012866231320757828 0.020521471619369201 0 -0.0012429330752099898 0.020699876011699678 0 -0.0010525954646337539 0.020594199561968046 0 -0.0012866231320757828 0.020521471619369201 0 -0.0014345892497979738 0.020717242970317688 0 -0.0012429330752099898 0.020699876011699678 0 -0.0012429330752099898 0.020699876011699678 0 -0.0013864033916905791 0.020917415960672644 0 -0.0010690482584627516 0.02071632512756659 0 -0.0015593505224188191 0.020695461702790952 0 -0.0010690482584627516 0.02071632512756659 0 -0.0013606306957394179 0.020797724325320899 0 -0.0011889548119136798 0.020717351505428517 0 -0.0012333264723976684 0.02075574811882968 0 -0.0027412114202633722 0.020851684066095715 0 -0.0024561067702114836 0.020841082410144901 0 -0.0015746241370189289 0.020866785514040382 0 -0.0013606306957394179 0.020797724325320899 0 -0.0013139047343194263 0.020801497081080651 0 -0.0014345892497979738 0.020717242970317688 0 -0.0012429330752099898 0.020699876011699678 0 -0.0013864033916905791 0.020917415960672644 0 -0.0014345892497979738 0.020717242970317688 0 -0.0013864033916905791 0.020917415960672644 0 -0.001631691985422048 0.020820919935090453 0 -0.0015593505224188191 0.020695461702790952 0 -0.0015746241370189289 0.020866785514040382 0 -0.0013606306957394179 0.020797724325320899 0 -0.0038178601549462379 0.021101261741255522 0 -0.0054010949499724327 0.021119460720082694 0 -0.003235648694781055 0.020647068861202822 0 -0.0052088952760622337 0.021269162380467704 0 -0.0024561067702114836 0.020841082410144901 0 -0.0038178601549462379 0.021101261741255522 0 -0.0044145327966244241 0.021519536075041271 0 -0.0054010949499724327 0.021119460720082694 0 -0.0038911541079028576 0.020854656232773133 0 -0.0048421170712768359 0.02139535790808433 0 -0.0023757887167516001 0.021075525475852216 0 -0.0038215896797044353 0.021601678852013341 0 -0.0044145327966244241 0.021519536075041271 0 -0.004236366135755034 0.022152444260841557 0 -0.0038178601549462379 0.021101261741255522 0 -0.0038215896797044353 0.021601678852013341 0 -0.0044145327966244241 0.021519536075041271 0 -0.0044145327966244241 0.021519536075041271 0 -0.0049569122084088934 0.02178534666190109 0 -0.004236366135755034 0.022152444260841557 0 -0.0054010949499724327 0.021119460720082694 0 -0.0049569122084088934 0.02178534666190109 0 -0.0055427544863706751 0.02201168506899084 0 -0.0044145327966244241 0.021519536075041271 0 -0.0054010949499724327 0.021119460720082694 0 -0.0049569122084088934 0.02178534666190109 0 -0.0054010949499724327 0.021119460720082694 0 -0.0062674466431839422 0.022000685287247006 0 -0.0055427544863706751 0.02201168506899084 0 -0.0038911541079028576 0.020854656232773133 0 -0.0048421170712768359 0.02139535790808433 0 -0.0053954125711863973 0.020650393854537846 0 -0.0013864033916905791 0.020917415960672644 0 -0.0018004888890177343 0.021069524121376651 0 -0.001631691985422048 0.020820919935090453 0 -0.0011889548119136798 0.020717351505428517 0 -0.0032742950090150326 0.021985310221230712 0 -0.0015593505224188191 0.020695461702790952 0 -0.0015746241370189289 0.020866785514040382 0 -0.0020259737620147845 0.020822763252588781 0 -0.0027412114202633722 0.020851684066095715 0 -0.0032742950090150326 0.021985310221230712 0 -0.0018004888890177343 0.021069524121376651 0 -0.001631691985422048 0.020820919935090453 0 -0.001904669447371603 0.020836751083652922 0 -0.0032742950090150326 0.021985310221230712 0 -0.0062671497615784822 0.022669185210306364 0 -0.0038674055925036329 0.024461093226666283 0 -0.0041236048112282759 0.024587638409880767 0 -0.0041384905755512359 0.024490326236168185 0 -0.0032742950090150326 0.021985310221230712 0 -0.0032350277719387375 0.022339972137660362 0 -0.0018004888890177343 0.021069524121376651 0 -0.001904669447371603 0.020836751083652922 0 -0.0023333411781330865 0.021035488975557775 0 -0.0053954125711863973 0.020650393854537846 0 -0.0073623845076367456 0.021206873003350942 0 -0.0072395711026695293 0.021645367674961023 0 -0.0048421170712768359 0.02139535790808433 0 -0.0053954125711863973 0.020650393854537846 0 -0.0072395711026695293 0.021645367674961023 0 -0.0054010949499724327 0.021119460720082694 0 -0.0062674466431839422 0.022000685287247006 0 -0.0072395711026695293 0.021645367674961023 0 -0.0052088952760622337 0.021269162380467704 0 -0.0070868422379329332 0.021607179427641614 0 -0.0062674466431839422 0.022000685287247006 0 -0.0072395711026695293 0.021645367674961023 0 -0.0069787147239108371 0.022146722076791026 0 -0.0073623845076367456 0.021206873003350942 0 -0.0072395711026695293 0.021645367674961023 0 -0.007537410232369565 0.021929793718995689 0 -0.004339898574541045 0.024682056047121904 0 -0.0041236048112282759 0.024587638409880767 0 -0.0041384905755512359 0.024490326236168185 0 -0.0072395711026695293 0.021645367674961023 0 -0.007537410232369565 0.021929793718995689 0 -0.0069787147239108371 0.022146722076791026 0 -0.0073623845076367456 0.021206873003350942 0 -0.0079767553229075673 0.021894068161387042 0 -0.007537410232369565 0.021929793718995689 0 -0.0079767553229075673 0.021894068161387042 0 -0.007537410232369565 0.021929793718995689 0 -0.0074606252571312636 0.022378409155250259 0 -0.00078040965600671849 0.020088028967147814 0 -0.00045503159550328259 0.02023209011590002 0 -0.00099812521805584041 0.020424644490981178 0 -0.00078040965600671849 0.020088028967147814 0 -0.00045503159550328259 0.02023209011590002 0 -0.00048953903874274327 0.019890630663697437 0 1.0385759265693259e-05 0.020205146214952268 0 -0.00045503159550328259 0.02023209011590002 0 -0.00014827927137464191 0.019919112393854691 0 -0.00045503159550328259 0.02023209011590002 0 -0.00014827927137464191 0.019919112393854691 0 -0.00048953903874274327 0.019890630663697437 0 -0.00014827927137464191 0.019919112393854691 0 -0.00024563060011352223 0.019743488062290888 0 -0.00048953903874274327 0.019890630663697437 0 -0.00014123391177915049 0.019649315634100214 0 -0.0003605725333255502 0.019707376564983756 0 -0.00060885878586875992 0.01961601319316476 0 -8.8301834749222565e-05 0.019675659228997749 0 -0.00014827927137464191 0.019919112393854691 0 -0.00024563060011352223 0.019743488062290888 0 -8.8301834749222565e-05 0.019675659228997749 0 -0.00014123391177915049 0.019649315634100214 0 -0.00024563060011352223 0.019743488062290888 0 -0.00024563060011352223 0.019743488062290888 0 -0.0003605725333255502 0.019707376564983756 0 -0.00048953903874274327 0.019890630663697437 0 -0.00014123391177915049 0.019649315634100214 0 -0.00024563060011352223 0.019743488062290888 0 -0.0003605725333255502 0.019707376564983756 0 -0.00078040965600671849 0.020088028967147814 0 -0.00060885878586875992 0.01961601319316476 0 -0.00048953903874274327 0.019890630663697437 0 -0.00078040965600671849 0.020088028967147814 0 -0.00060885878586875992 0.01961601319316476 0 -0.0012611523775951708 0.020259753718923829 0 -0.0003605725333255502 0.019707376564983756 0 -0.00060885878586875992 0.01961601319316476 0 -0.00048953903874274327 0.019890630663697437 0 -0.0006239549825075995 0.019918414761159298 0 0.00017744412301858226 0.020049555341648862 0 -0.00062577031035958991 0.020651367349823119 0 -0.00022719929500506294 0.019863573040769529 0 -0.0009226450956335081 0.020432803170299888 0 -0.0006239549825075995 0.019918414761159298 0 -0.0013354179775396553 0.020122751578330895 0 -0.00095878272546682055 0.020334572446854306 0 -0.0006239549825075995 0.019918414761159298 0 -0.00095878272546682055 0.020334572446854306 0 -0.00062577031035958991 0.020651367349823119 0 -0.00014399424314898688 0.020057865685164423 0 -0.00055870207653015461 0.020270470207062154 0 -0.0012866231320757828 0.020521471619369201 0 -0.00095878272546682055 0.020334572446854306 0 -0.0010525954646337539 0.020594199561968046 0 -0.00095878272546682055 0.020334572446854306 0 -0.0010525954646337539 0.020594199561968046 0 -0.00062577031035958991 0.020651367349823119 0 -0.0010525954646337539 0.020594199561968046 0 -0.00062577031035958991 0.020651367349823119 0 -0.0010690482584627516 0.02071632512756659 0 -0.0012429330752099898 0.020699876011699678 0 -0.0010525954646337539 0.020594199561968046 0 -0.0010690482584627516 0.02071632512756659 0 -0.00078040965600671849 0.020088028967147814 0 -0.0012611523775951708 0.020259753718923829 0 -0.00099812521805584041 0.020424644490981178 0 -0.0012611523775951708 0.020259753718923829 0 -0.001243062656871925 0.020599960112921121 0 -0.00099812521805584041 0.020424644490981178 0 -0.001243062656871925 0.020599960112921121 0 -0.0013139047343194263 0.020801497081080651 0 -0.0011467487802874778 0.020652219674075465 0 -0.001243062656871925 0.020599960112921121 0 -0.0011467487802874778 0.020652219674075465 0 -0.00099812521805584041 0.020424644490981178 0 -0.0031944885164885747 0.020621461771680085 0 -0.002898806636418204 0.020703773161337004 0 -0.0011467487802874778 0.020652219674075465 0 -0.0024561067702114836 0.020841082410144901 0 -0.0011401790887920944 0.020611881263627806 0 -0.001243062656871925 0.020599960112921121 0 -0.0013606306957394179 0.020797724325320899 0 -0.0013139047343194263 0.020801497081080651 0 -0.0012611523775951708 0.020259753718923829 0 -0.001243062656871925 0.020599960112921121 0 -0.0013606306957394179 0.020797724325320899 0 -0.0009226450956335081 0.020432803170299888 0 -0.0013144937802668077 0.020764217838292003 0 -0.00062577031035958991 0.020651367349823119 0 -0.0010690482584627516 0.02071632512756659 0 -0.0013606306957394179 0.020797724325320899 0 -0.0038178601549462379 0.021101261741255522 0 -0.0033289233106161857 0.020972340264896534 0 -0.0031617291521751872 0.021221164591394257 0 -0.0038178601549462379 0.021101261741255522 0 -0.003235648694781055 0.020647068861202822 0 -0.0033289233106161857 0.020972340264896534 0 -0.003235648694781055 0.020647068861202822 0 -0.0030977167964601452 0.020911961675920656 0 -0.0033289233106161857 0.020972340264896534 0 -0.0024561067702114836 0.020841082410144901 0 -0.0026958755949697275 0.020794274766132204 0 -0.003235648694781055 0.020647068861202822 0 -0.0030977167964601452 0.020911961675920656 0 -0.002898806636418204 0.020703773161337004 0 -0.0030977167964601452 0.020911961675920656 0 -0.0033289233106161857 0.020972340264896534 0 -0.0031617291521751872 0.021221164591394257 0 -0.0029019410347221981 0.02100907517606344 0 -0.0024515031630418451 0.02119662385313166 0 -0.0031617291521751872 0.021221164591394257 0 -0.0030977167964601452 0.020911961675920656 0 -0.0029019410347221981 0.02100907517606344 0 -0.0031617291521751872 0.021221164591394257 0 -0.0029019410347221981 0.02100907517606344 0 -0.002898806636418204 0.020703773161337004 0 -0.0024515031630418451 0.02119662385313166 0 -0.0030977167964601452 0.020911961675920656 0 -0.0029019410347221981 0.02100907517606344 0 -0.002898806636418204 0.020703773161337004 0 -0.0024515031630418451 0.02119662385313166 0 -0.0031617291521751872 0.021221164591394257 0 -0.0032629650105554259 0.021843644327691435 0 -0.0038215896797044353 0.021601678852013341 0 -0.0031617291521751872 0.021221164591394257 0 -0.0032629650105554259 0.021843644327691435 0 -0.0038178601549462379 0.021101261741255522 0 -0.0038215896797044353 0.021601678852013341 0 -0.0031617291521751872 0.021221164591394257 0 -0.002898806636418204 0.020703773161337004 0 -0.0024515031630418451 0.02119662385313166 0 -0.0011467487802874778 0.020652219674075465 0 -0.0024515031630418451 0.02119662385313166 0 -0.0016278216043016781 0.021537534327364504 0 -0.0011467487802874778 0.020652219674075465 0 -0.0024515031630418451 0.02119662385313166 0 -0.0016278216043016781 0.021537534327364504 0 -0.0024354503695721997 0.022167786754247503 0 -0.0009146881319806909 0.021418901503066325 0 -0.0011467487802874778 0.020652219674075465 0 -0.00069951746415145791 0.020709314455728062 0 -0.0016278216043016781 0.021537534327364504 0 -0.0009146881319806909 0.021418901503066325 0 -0.0011467487802874778 0.020652219674075465 0 -0.0011467487802874778 0.020652219674075465 0 -0.00069951746415145791 0.020709314455728062 0 -0.00099812521805584041 0.020424644490981178 0 -0.00045503159550328259 0.02023209011590002 0 -0.00069951746415145791 0.020709314455728062 0 -0.00099812521805584041 0.020424644490981178 0 -0.00045503159550328259 0.02023209011590002 0 -0.00069951746415145791 0.020709314455728062 0 -0.00021422635234301325 0.020621297722304789 0 1.0385759265693259e-05 0.020205146214952268 0 -0.00045503159550328259 0.02023209011590002 0 -0.00021422635234301325 0.020621297722304789 0 -0.00069951746415145791 0.020709314455728062 0 -0.00021422635234301325 0.020621297722304789 0 -0.0003937727598973785 0.021285405899654899 0 -0.0009146881319806909 0.021418901503066325 0 -0.00069951746415145791 0.020709314455728062 0 -0.0003937727598973785 0.021285405899654899 0 -0.0009146881319806909 0.021418901503066325 0 -0.0003937727598973785 0.021285405899654899 0 -0.00038648291951476208 0.021932508420361315 0 -0.00038648291951476208 0.021932508420361315 0 -0.00078693219857640701 0.02245592474044459 0 -0.00036654962877321002 0.022995914090591429 0 -0.00049494506002487006 0.023139892067577619 0 -0.0012079584394506051 0.02229897334923386 0 -0.00038648291951476208 0.021932508420361315 0 -0.00078693219857640701 0.02245592474044459 0 -0.0012696007049998101 0.022254881822049724 0 -0.00012783607142210783 0.02385832068015244 0 -0.0012696007049998101 0.022254881822049724 0 -0.0014701353318606392 0.023782210641774843 0 -0.0009146881319806909 0.021418901503066325 0 -0.00038648291951476208 0.021932508420361315 0 -0.0012696007049998101 0.022254881822049724 0 -0.0016278216043016781 0.021537534327364504 0 -0.0009146881319806909 0.021418901503066325 0 -0.0012696007049998101 0.022254881822049724 0 -0.0012696007049998101 0.022254881822049724 0 -0.0024354503695721997 0.022167786754247503 0 -0.0024397831471991414 0.023268326144335952 0 -0.0016278216043016781 0.021537534327364504 0 -0.0012696007049998101 0.022254881822049724 0 -0.0024354503695721997 0.022167786754247503 0 -0.0032629650105554259 0.021843644327691435 0 -0.00348470375052405 0.022831542743765972 0 -0.004236366135755034 0.022152444260841557 0 -0.0024354503695721997 0.022167786754247503 0 -0.0032629650105554259 0.021843644327691435 0 -0.00348470375052405 0.022831542743765972 0 -0.0024515031630418451 0.02119662385313166 0 -0.0024354503695721997 0.022167786754247503 0 -0.0032629650105554259 0.021843644327691435 0 -0.0024354503695721997 0.022167786754247503 0 -0.00348470375052405 0.022831542743765972 0 -0.0024397831471991414 0.023268326144335952 0 -0.00348470375052405 0.022831542743765972 0 -0.0024397831471991414 0.023268326144335952 0 -0.0035019109588870188 0.024091212727101134 0 -0.0024397831471991414 0.023268326144335952 0 -0.0023502975175678266 0.024631120009450853 0 -0.0035019109588870188 0.024091212727101134 0 -0.0012696007049998101 0.022254881822049724 0 -0.0014701353318606392 0.023782210641774843 0 -0.0024397831471991414 0.023268326144335952 0 -0.0014701353318606392 0.023782210641774843 0 -0.0024397831471991414 0.023268326144335952 0 -0.0023502975175678266 0.024631120009450853 0 -0.0023502975175678266 0.024631120009450853 0 -0.002043482342925256 0.025791709553511465 0 -0.0010773489528885475 0.024808010274239831 0 -0.0014701353318606392 0.023782210641774843 0 -0.0023502975175678266 0.024631120009450853 0 -0.0010773489528885475 0.024808010274239831 0 -0.0023502975175678266 0.024631120009450853 0 -0.0031576110149884604 0.025322572183276815 0 -0.002043482342925256 0.025791709553511465 0 -0.0035019109588870188 0.024091212727101134 0 -0.0031576110149884604 0.025322572183276815 0 -0.0044967018445136375 0.025181187422057955 0 -0.0023502975175678266 0.024631120009450853 0 -0.0035019109588870188 0.024091212727101134 0 -0.0031576110149884604 0.025322572183276815 0 -0.0031576110149884604 0.025322572183276815 0 -0.002043482342925256 0.025791709553511465 0 -0.0031748584229469158 0.026798545275214795 0 -0.0031576110149884604 0.025322572183276815 0 -0.0044967018445136375 0.025181187422057955 0 -0.0031748584229469158 0.026798545275214795 0 -0.002043482342925256 0.025791709553511465 0 -0.00096832877377455513 0.026109309626528434 0 -0.0014884138382989553 0.027062900795414801 0 -0.00096832877377455513 0.026109309626528434 0 0.00092451720844298501 0.025267843234362441 0 -0.0010773489528885475 0.024808010274239831 0 -0.002043482342925256 0.025791709553511465 0 -0.00096832877377455513 0.026109309626528434 0 -0.0010773489528885475 0.024808010274239831 0 -0.00096832877377455513 0.026109309626528434 0 0.00092451720844298501 0.025267843234362441 0 -0.0002382951021837946 0.026961196431851402 0 -0.00049494506002487006 0.023139892067577619 0 0.00035456165144929597 0.024119275055111938 0 -0.00012783607142210783 0.02385832068015244 0 0.00092451720844298501 0.025267843234362441 0 -0.0010773489528885475 0.024808010274239831 0 -0.00012783607142210783 0.02385832068015244 0 -0.0014701353318606392 0.023782210641774843 0 -0.0010773489528885475 0.024808010274239831 0 -0.0087159155309096421 0.023315206187075849 0 -0.0078451179375363233 0.02414172602046815 0 -0.0076030969581813322 0.023303752046628243 0 -0.0078451179375363233 0.02414172602046815 0 -0.0076030969581813322 0.023303752046628243 0 -0.0066027949456400189 0.024477819199343546 0 -0.0078451179375363233 0.02414172602046815 0 -0.0066027949456400189 0.024477819199343546 0 -0.0074031558336588891 0.024685646625507266 0 -0.0081465267267695849 0.024551599319918009 0 -0.0078451179375363233 0.02414172602046815 0 -0.0074031558336588891 0.024685646625507266 0 -0.0081691315137776346 0.022797351297837363 0 -0.0076030969581813322 0.023303752046628243 0 -0.0074606252571312636 0.022378409155250259 0 -0.007537410232369565 0.021929793718995689 0 -0.0074606252571312636 0.022378409155250259 0 -0.0069787147239108371 0.022146722076791026 0 -0.0074606252571312636 0.022378409155250259 0 -0.0067743273813932678 0.023094877920910938 0 -0.0069787147239108371 0.022146722076791026 0 -0.0076030969581813322 0.023303752046628243 0 -0.0074606252571312636 0.022378409155250259 0 -0.0067743273813932678 0.023094877920910938 0 -0.0062674466431839422 0.022000685287247006 0 -0.0067743273813932678 0.023094877920910938 0 -0.0069787147239108371 0.022146722076791026 0 -0.0062674466431839422 0.022000685287247006 0 -0.0067743273813932678 0.023094877920910938 0 -0.0059887453115125321 0.022810244193418934 0 -0.0067743273813932678 0.023094877920910938 0 -0.0058444892845824657 0.023730776556724006 0 -0.0059887453115125321 0.022810244193418934 0 -0.0076030969581813322 0.023303752046628243 0 -0.0067743273813932678 0.023094877920910938 0 -0.0066027949456400189 0.024477819199343546 0 -0.0067743273813932678 0.023094877920910938 0 -0.0058444892845824657 0.023730776556724006 0 -0.0069184788689742281 0.024230667031831167 0 -0.0067721043865663043 0.023447142716148311 0 -0.0067744476073754063 0.023811092046281769 0 -0.0058444892845824657 0.023730776556724006 0 -0.0046146780399202968 0.02326570469523179 0 -0.0044967018445136375 0.025181187422057955 0 -0.0058444892845824657 0.023730776556724006 0 -0.0059887453115125321 0.022810244193418934 0 -0.0046146780399202968 0.02326570469523179 0 -0.0059887453115125321 0.022810244193418934 0 -0.0050795705399027157 0.022341108663816361 0 -0.0046146780399202968 0.02326570469523179 0 -0.0059887453115125321 0.022810244193418934 0 -0.0055427544863706751 0.02201168506899084 0 -0.0050795705399027157 0.022341108663816361 0 -0.0062674466431839422 0.022000685287247006 0 -0.0059887453115125321 0.022810244193418934 0 -0.0055427544863706751 0.02201168506899084 0 -0.0049569122084088934 0.02178534666190109 0 -0.0055427544863706751 0.02201168506899084 0 -0.0050795705399027157 0.022341108663816361 0 -0.0050795705399027157 0.022341108663816361 0 -0.004236366135755034 0.022152444260841557 0 -0.0046146780399202968 0.02326570469523179 0 -0.0049569122084088934 0.02178534666190109 0 -0.0050795705399027157 0.022341108663816361 0 -0.004236366135755034 0.022152444260841557 0 -0.0038215896797044353 0.021601678852013341 0 -0.0032629650105554259 0.021843644327691435 0 -0.004236366135755034 0.022152444260841557 0 -0.00348470375052405 0.022831542743765972 0 -0.004236366135755034 0.022152444260841557 0 -0.0046146780399202968 0.02326570469523179 0 -0.00348470375052405 0.022831542743765972 0 -0.0035019109588870188 0.024091212727101134 0 -0.0046146780399202968 0.02326570469523179 0 -0.0035019109588870188 0.024091212727101134 0 -0.0046146780399202968 0.02326570469523179 0 -0.0044967018445136375 0.025181187422057955 0 -0.0046845671311972125 0.025158398710237898 0 -0.0032203145716821575 0.026854572222527445 0 -0.0048545137891892716 0.025178583617101954 0 -0.0059113539914005947 0.026440173358413796 0 -0.0033141704978650278 0.026856091558191166 0 -0.0048545137891892716 0.025178583617101954 0 -0.0059113539914005947 0.026440173358413796 0 -0.006070411448043986 0.024980098513631935 0 -0.0059113539914005947 0.026440173358413796 0 -0.006070411448043986 0.024980098513631935 0 -0.0069892191876672104 0.025413830128877452 0 -0.0058444892845824657 0.023730776556724006 0 -0.0048545137891892716 0.025178583617101954 0 -0.006070411448043986 0.024980098513631935 0 -0.0058000598986600732 0.023799645925715318 0 -0.0046845671311972125 0.025158398710237898 0 -0.0067744476073754063 0.023811092046281769 0 -0.0052780256095983072 0.028663102285112232 0 -0.0066027949456400189 0.024477819199343546 0 -0.0065330332808869306 0.025838312819508782 0 -0.0074031558336588891 0.024685646625507266 0 -0.0058444892845824657 0.023730776556724006 0 -0.006070411448043986 0.024980098513631935 0 -0.0069184788689742281 0.024230667031831167 0 -0.006070411448043986 0.024980098513631935 0 -0.0069184788689742281 0.024230667031831167 0 -0.0069892191876672104 0.025413830128877452 0 -0.0052780256095983072 0.028663102285112232 0 -0.0037693732500407333 0.033528806668390143 0 0.00038380090843121139 0.035774022248183657 0 -0.0010438478636824505 0.038433616516094067 0 0.0004466403180059975 0.0403380883307057 0 -0.0070843257973532631 0.025297002474038686 0 -0.0052780256095983072 0.028663102285112232 0 -0.0059113539914005947 0.026440173358413796 0 -0.0080401527815055253 0.02517289672276514 0 -0.0080215320137018639 0.02734917779617713 0 -0.0026903701171420769 0.037708573536695426 0 -0.0038843080101223304 0.0364590596640159 0 -0.0035747516767252823 0.040009218736309672 0 0.00038380090843121139 0.035774022248183657 0 -0.0026903701171420769 0.037708573536695426 0 -0.0038843080101223304 0.0364590596640159 0 -0.0014996991932416811 0.037482216464489876 0 -0.0013994517208591102 0.040982269880810898 0 0.00038380090843121139 0.035774022248183657 0 -0.0010438478636824505 0.038433616516094067 0 -0.0026903701171420769 0.037708573536695426 0 -0.0010438478636824505 0.038433616516094067 0 -0.0026903701171420769 0.037708573536695426 0 -0.0019098860415320707 0.039239714388017564 0 -0.0081336653151529003 0.024808660182288559 0 -0.0065330332808869306 0.025838312819508782 0 -0.0074031558336588891 0.024685646625507266 0 -0.0041315856901281344 0.032915562683220302 0 0.00038380090843121139 0.035774022248183657 0 -0.0038843080101223304 0.0364590596640159 0 -0.0043180183997617418 0.031062544781554447 0 -0.0014996991932416811 0.037482216464489876 0 -0.0043180183997617418 0.031062544781554447 0 -0.0052780256095983072 0.028663102285112232 0 -0.0081336653151529003 0.024808660182288559 0 -0.0081465267267695849 0.024551599319918009 0 -0.0074031558336588891 0.024685646625507266 0 -0.0027958437895270983 0.043956280917042047 0 -0.002297650794274264 0.042019147310024971 0 -0.003531535273837066 0.040037108152612196 0 -0.0023397517500072301 0.045079235763221683 0 -0.0013994517208591102 0.040982269880810898 0 -0.0014115904635693165 0.044618634821987427 0 -0.0017182006019021753 0.04325326588805882 0 -0.00054091639023774252 0.043053191080911525 0 -0.0027958437895270983 0.043956280917042047 0 -0.0014115904635693165 0.044618634821987427 0 -0.0017182006019021753 0.04325326588805882 0 -0.0017182006019021753 0.04325326588805882 0 -0.001344496477841332 0.041675752717542341 0 -0.00054091639023774252 0.043053191080911525 0 -0.0017182006019021753 0.04325326588805882 0 -0.002297650794274264 0.042019147310024971 0 -0.001344496477841332 0.041675752717542341 0 -0.0027958437895270983 0.043956280917042047 0 -0.0017182006019021753 0.04325326588805882 0 -0.002297650794274264 0.042019147310024971 0 -0.002297650794274264 0.042019147310024971 0 -0.0024334299624028618 0.040880250664656385 0 -0.003531535273837066 0.040037108152612196 0 -0.0026903701171420769 0.037708573536695426 0 -0.0035747516767252823 0.040009218736309672 0 -0.0031088090314776817 0.039898078299301275 0 -0.0026903701171420769 0.037708573536695426 0 -0.0031088090314776817 0.039898078299301275 0 -0.0019098860415320707 0.039239714388017564 0 -0.0013994517208591102 0.040982269880810898 0 -0.0016702777756965751 0.040978570823462609 0 -0.0031088090314776817 0.039898078299301275 0 -0.0019098860415320707 0.039239714388017564 0 -0.0022039237188995198 0.040070560492262139 0 -0.0024334299624028618 0.040880250664656385 0 -0.003531535273837066 0.040037108152612196 0 -0.0031088090314776817 0.039898078299301275 0 -0.0024334299624028618 0.040880250664656385 0 -0.0031088090314776817 0.039898078299301275 0 -0.0022039237188995198 0.040070560492262139 0 -0.0010438478636824505 0.038433616516094067 0 -0.0019098860415320707 0.039239714388017564 0 -0.0013738466562590414 0.040246079813744194 0 -0.0019098860415320707 0.039239714388017564 0 -0.0022039237188995198 0.040070560492262139 0 -0.0013738466562590414 0.040246079813744194 0 -0.0024334299624028618 0.040880250664656385 0 -0.0022039237188995198 0.040070560492262139 0 -0.0013738466562590414 0.040246079813744194 0 -0.0013738466562590414 0.040246079813744194 0 -0.001344496477841332 0.041675752717542341 0 0.0004466403180059975 0.0403380883307057 0 -0.0024334299624028618 0.040880250664656385 0 -0.0013738466562590414 0.040246079813744194 0 -0.001344496477841332 0.041675752717542341 0 -0.002297650794274264 0.042019147310024971 0 -0.0024334299624028618 0.040880250664656385 0 -0.001344496477841332 0.041675752717542341 0 -0.001344496477841332 0.041675752717542341 0 0.0004466403180059975 0.0403380883307057 0 -0.00054091639023774252 0.043053191080911525 0 -0.0010438478636824505 0.038433616516094067 0 -0.0013738466562590414 0.040246079813744194 0 0.0004466403180059975 0.0403380883307057 0 -0.0080215320137018639 0.02734917779617713 0 -0.0080799112481910237 0.029492706234408507 0 -0.0067102010491359269 0.028310487997298933 0 0.0004466403180059975 0.0403380883307057 0 -0.00054091639023774252 0.043053191080911525 0 0.00037312686551339646 0.04460657450076639 0 -0.0037693732500407333 0.033528806668390143 0 -0.0030001561609492035 0.040452992080132422 0 -0.0014115904635693165 0.044618634821987427 0 -0.00054091639023774252 0.043053191080911525 0 -3.9182215078039483e-05 0.044411951845562868 0 -0.00048176749367652866 0.043807555500168967 0 -0.0030001561609492035 0.040452992080132422 0 -0.0080799112481910237 0.029492706234408507 0 -0.0067102010491359269 0.028310487997298933 0 -0.0064756966204614526 0.029914744363508185 0 -0.0067102010491359269 0.028310487997298933 0 -0.0051130888080769699 0.028704418131226893 0 -0.0064756966204614526 0.029914744363508185 0 -0.0059113539914005947 0.026440173358413796 0 -0.0080215320137018639 0.02734917779617713 0 -0.0067102010491359269 0.028310487997298933 0 -0.0059113539914005947 0.026440173358413796 0 -0.0067102010491359269 0.028310487997298933 0 -0.0051130888080769699 0.028704418131226893 0 -0.0059113539914005947 0.026440173358413796 0 -0.0051130888080769699 0.028704418131226893 0 -0.0033141704978650278 0.026856091558191166 0 -0.0051130888080769699 0.028704418131226893 0 -0.0054264594855321559 0.0315944877308812 0 -0.0037980317594066486 0.030770277089453506 0 -0.0051130888080769699 0.028704418131226893 0 -0.0054264594855321559 0.0315944877308812 0 -0.0064756966204614526 0.029914744363508185 0 -0.0050472191464379828 0.028757080888826198 0 -0.0036245658076829029 0.030191045803575466 0 -0.0054264594855321559 0.0315944877308812 0 -0.0069749990814261288 0.031927104502463298 0 -0.0061150162081651614 0.034669635535234507 0 -0.0080799112481910237 0.029492706234408507 0 -0.0069749990814261288 0.031927104502463298 0 -0.0064756966204614526 0.029914744363508185 0 -0.0054264594855321559 0.0315944877308812 0 -0.0069749990814261288 0.031927104502463298 0 -0.0064756966204614526 0.029914744363508185 0 -0.0018817866465452896 0.04713046283451628 0 -0.0018355024648047719 0.0475671628030956 0 -0.0018374681865638359 0.047524412422213162 0 -3.9182215078039483e-05 0.044411951845562868 0 -0.00070639633696212289 0.046992054882243235 0 -0.0010114314281936931 0.045662638011194218 0 -0.0030001561609492035 0.040452992080132422 0 -0.0048225856459437333 0.039249345361711201 0 -0.0030001561609492035 0.040452992080132422 0 -0.0010521491963720892 0.048348521175264204 0 -0.0014115904635693165 0.044618634821987427 0 -3.9182215078039483e-05 0.044411951845562868 0 -0.0010114314281936931 0.045662638011194218 0 -0.0018355024648047719 0.0475671628030956 0 -0.0018374681865638359 0.047524412422213162 0 -0.0015205469565685976 0.047469759600137454 0 -0.002166025190517925 0.047136351200674345 0 -0.0018301871266132213 0.046524529481326286 0 -0.0013712322275814652 0.047572420947484678 0 -0.00070639633696212289 0.046992054882243235 0 -0.0018301871266132213 0.046524529481326286 0 -0.0013712322275814652 0.047572420947484678 0 -0.0014115904635693165 0.044618634821987427 0 -0.0018301871266132213 0.046524529481326286 0 -0.0010114314281936931 0.045662638011194218 0 -0.0027958437895270983 0.043956280917042047 0 -0.0014115904635693165 0.044618634821987427 0 -0.0018301871266132213 0.046524529481326286 0 -0.00070639633696212289 0.046992054882243235 0 -0.0018301871266132213 0.046524529481326286 0 -0.0010114314281936931 0.045662638011194218 0 -0.0023397517500072301 0.045079235763221683 0 -0.0019430233689879731 0.046231981757294781 0 -0.00042284655161413111 0.028133819501265575 0 -0.0018217477459940641 0.028447351563823359 0 -0.00043744840221663647 0.028973686315516698 0 -0.00042284655161413111 0.028133819501265575 0 -0.0014884138382989553 0.027062900795414801 0 -0.0018217477459940641 0.028447351563823359 0 -0.00042284655161413111 0.028133819501265575 0 0.00029677735439071742 0.02859565105911489 0 -0.00043744840221663647 0.028973686315516698 0 -0.00042284655161413111 0.028133819501265575 0 0.00029677735439071742 0.02859565105911489 0 0.00025332463765347145 0.027957156257575017 0 -0.00042284655161413111 0.028133819501265575 0 0.00082734104488944773 0.027387574667156477 0 -0.0002382951021837946 0.026961196431851402 0 -0.00031678821542053089 0.028106862387638199 0 0.0005204417527428462 0.027664622564147593 0 0.00092451720844298501 0.025267843234362441 0 0.00082734104488944773 0.027387574667156477 0 -0.0002382951021837946 0.026961196431851402 0 -0.00096832877377455513 0.026109309626528434 0 -0.0002382951021837946 0.026961196431851402 0 -0.0014884138382989553 0.027062900795414801 0 -0.00042284655161413111 0.028133819501265575 0 -0.0002382951021837946 0.026961196431851402 0 -0.0014884138382989553 0.027062900795414801 0 -0.002043482342925256 0.025791709553511465 0 -0.0014884138382989553 0.027062900795414801 0 -0.0031748584229469158 0.026798545275214795 0 -0.0014884138382989553 0.027062900795414801 0 -0.0031748584229469158 0.026798545275214795 0 -0.0018217477459940641 0.028447351563823359 0 -0.0032203145716821575 0.026854572222527445 0 -0.0018966582806725803 0.028366948201867248 0 -0.0051130888080769699 0.028704418131226893 0 -0.0032900445668581158 0.028537593827340394 0 -0.0033337636690284624 0.029747038575100439 0 -0.0051130888080769699 0.028704418131226893 0 -0.0033141704978650278 0.026856091558191166 0 -0.0032900445668581158 0.028537593827340394 0 -0.0033141704978650278 0.026856091558191166 0 -0.0032900445668581158 0.028537593827340394 0 -0.0018217477459940641 0.028447351563823359 0 -0.0032900445668581158 0.028537593827340394 0 -0.0018217477459940641 0.028447351563823359 0 -0.0019444715750256906 0.029418539488794464 0 -0.0032900445668581158 0.028537593827340394 0 -0.0019444715750256906 0.029418539488794464 0 -0.0033337636690284624 0.029747038575100439 0 -0.0036245658076829029 0.030191045803575466 0 -0.0019817429199842414 0.031820674447711424 0 -0.0054264594855321559 0.0315944877308812 0 -0.0037980317594066486 0.030770277089453506 0 -0.004007896573955394 0.033803287635037212 0 -0.0037980317594066486 0.030770277089453506 0 -0.0019795249236106835 0.032689813138359419 0 -0.004007896573955394 0.033803287635037212 0 -0.0019444715750256906 0.029418539488794464 0 -0.0033337636690284624 0.029747038575100439 0 -0.0021445659046490082 0.030741839832794146 0 -0.0019444715750256906 0.029418539488794464 0 -0.0021445659046490082 0.030741839832794146 0 -0.00061255590337012445 0.02973386501577115 0 -0.0021445659046490082 0.030741839832794146 0 -2.4198557426306188e-05 0.030455637103625432 0 -0.00061255590337012445 0.02973386501577115 0 -0.0021445659046490082 0.030741839832794146 0 -2.4198557426306188e-05 0.030455637103625432 0 0.00029945606013523634 0.031596766017793494 0 -0.0018217477459940641 0.028447351563823359 0 -0.0019444715750256906 0.029418539488794464 0 -0.00043744840221663647 0.028973686315516698 0 -0.0019444715750256906 0.029418539488794464 0 -0.00061255590337012445 0.02973386501577115 0 -0.00043744840221663647 0.028973686315516698 0 0.00029677735439071742 0.02859565105911489 0 -0.00043744840221663647 0.028973686315516698 0 0.00039670059128403469 0.029534728852033069 0 -0.00061255590337012445 0.02973386501577115 0 -0.00043744840221663647 0.028973686315516698 0 0.00039670059128403469 0.029534728852033069 0 -2.4198557426306188e-05 0.030455637103625432 0 0.00039670059128403469 0.029534728852033069 0 0.0003725349260583055 0.030591246333647414 0 -2.4198557426306188e-05 0.030455637103625432 0 -0.00061255590337012445 0.02973386501577115 0 0.00039670059128403469 0.029534728852033069 0 0.00039670059128403469 0.029534728852033069 0 0.0003725349260583055 0.030591246333647414 0 0.0006528680698011987 0.029994286044436543 0 -2.4198557426306188e-05 0.030455637103625432 0 0.0003725349260583055 0.030591246333647414 0 0.00029945606013523634 0.031596766017793494 0 0.00039670059128403469 0.029534728852033069 0 0.0006528680698011987 0.029994286044436543 0 0.0010071044710295383 0.029177179800103807 0 0.0006528680698011987 0.029994286044436543 0 0.0010071044710295383 0.029177179800103807 0 0.00086718665436021644 0.03012660901850912 0 0.0010071044710295383 0.029177179800103807 0 0.0012027252534326338 0.029501319482357402 0 0.00086718665436021644 0.03012660901850912 0 0.0010071044710295383 0.029177179800103807 0 0.0013426380349667608 0.028424860644943001 0 0.0012091223311268835 0.02844699160668435 0 0.0010071044710295383 0.029177179800103807 0 0.00077541280685534215 0.028802012965805746 0 0.0012091223311268835 0.02844699160668435 0 0.00039670059128403469 0.029534728852033069 0 0.0010071044710295383 0.029177179800103807 0 0.00077541280685534215 0.028802012965805746 0 0.00029677735439071742 0.02859565105911489 0 0.00039670059128403469 0.029534728852033069 0 0.00077541280685534215 0.028802012965805746 0 0.0013426380349667608 0.028424860644943001 0 0.0025721386827015518 0.028346357750956057 0 0.001728986881904162 0.029672731124704612 0 0.0025721386827015518 0.028346357750956057 0 0.0028789087806420765 0.029557113572761872 0 0.001728986881904162 0.029672731124704612 0 0.0012027252534326338 0.029501319482357402 0 0.0013426380349667608 0.028424860644943001 0 0.001728986881904162 0.029672731124704612 0 0.0010071044710295383 0.029177179800103807 0 0.0012027252534326338 0.029501319482357402 0 0.0013426380349667608 0.028424860644943001 0 0.0013083367902605829 0.028364646250081695 0 0.0003713736028335984 0.027412657203116135 0 0.0013426380349667608 0.028424860644943001 0 0.0025721386827015518 0.028346357750956057 0 0.002050948323722792 0.026524026696140224 0 0.0013426380349667608 0.028424860644943001 0 0.002050948323722792 0.026524026696140224 0 -0.00033876400655450826 0.026260170175891655 0 0.002050948323722792 0.026524026696140224 0 0.0011861465420804722 0.02485284573699301 0 -0.00033876400655450826 0.026260170175891655 0 0.0011861465420804722 0.02485284573699301 0 -0.00033876400655450826 0.026260170175891655 0 -0.00020093874952791972 0.024763191406634289 0 0.0011861465420804722 0.02485284573699301 0 -0.00020093874952791972 0.024763191406634289 0 0.00026703670798747324 0.023447344388412013 0 0.002050948323722792 0.026524026696140224 0 0.0011861465420804722 0.02485284573699301 0 0.0028886953389984024 0.024779965537906543 0 0.0011861465420804722 0.02485284573699301 0 0.002292366750654723 0.023610409586140781 0 0.0028886953389984024 0.024779965537906543 0 0.00029677735439071742 0.02859565105911489 0 0.00025332463765347145 0.027957156257575017 0 0.00068432817378837974 0.028302279674601635 0 0.00077541280685534215 0.028802012965805746 0 0.00068432817378837974 0.028302279674601635 0 0.0012091223311268835 0.02844699160668435 0 0.00029677735439071742 0.02859565105911489 0 0.00077541280685534215 0.028802012965805746 0 0.00068432817378837974 0.028302279674601635 0 -0.00033876400655450826 0.026260170175891655 0 -0.00020093874952791972 0.024763191406634289 0 -0.001631098833950784 0.024501219793485126 0 0.00068432817378837974 0.028302279674601635 0 0.0012091223311268835 0.02844699160668435 0 0.00077328467574128991 0.027722914078686805 0 0.0003713736028335984 0.027412657203116135 0 0.00029146913256704028 0.025594720555776756 0 0.00025332463765347145 0.027957156257575017 0 0.00068432817378837974 0.028302279674601635 0 0.00077328467574128991 0.027722914078686805 0 0.0005204417527428462 0.027664622564147593 0 0.00029146913256704028 0.025594720555776756 0 0.00035456165144929597 0.024119275055111938 0 0.00029146913256704028 0.025594720555776756 0 -0.00036654962877321002 0.022995914090591429 0 0.00012241354310823336 0.023656479950063546 0 0.00028646876075785711 0.022980341435188494 0 0.00092451720844298501 0.025267843234362441 0 0.00082734104488944773 0.027387574667156477 0 0.002013146354148451 0.026672826651138778 0 -0.00036654962877321002 0.022995914090591429 0 0.00028646876075785711 0.022980341435188494 0 0.00022870622147696471 0.021868263776714851 0 0.00028646876075785711 0.022980341435188494 0 0.0006030719606348405 0.022399546400177543 0 0.00096100893856503208 0.023181141166794875 0 0.00028646876075785711 0.022980341435188494 0 0.0006030719606348405 0.022399546400177543 0 0.00022870622147696471 0.021868263776714851 0 0.00029146913256704028 0.025594720555776756 0 0.00049912837269644125 0.023152996732824241 0 0.00012241354310823336 0.023656479950063546 0 0.00028646876075785711 0.022980341435188494 0 0.00096100893856503208 0.023181141166794875 0 -0.00020093874952791972 0.024763191406634289 0 -0.001631098833950784 0.024501219793485126 0 0.00026703670798747324 0.023447344388412013 0 0.0011861465420804722 0.02485284573699301 0 0.00026703670798747324 0.023447344388412013 0 0.002292366750654723 0.023610409586140781 0 0.00026703670798747324 0.023447344388412013 0 0.002292366750654723 0.023610409586140781 0 0.0019772912187657607 0.022643374847516561 0 0.002292366750654723 0.023610409586140781 0 0.0019772912187657607 0.022643374847516561 0 0.0025743947282621431 0.022636503055539558 0 0.0019772912187657607 0.022643374847516561 0 0.0012633236891280378 0.022182478462352481 0 0.0025743947282621431 0.022636503055539558 0 0.0010632915929805254 0.022084687528246449 0 0.0021968480575329016 0.022561706240170037 0 0.00096100893856503208 0.023181141166794875 0 0.0019772912187657607 0.022643374847516561 0 0.0012633236891280378 0.022182478462352481 0 0.00049912837269644125 0.023152996732824241 0 0.0019166023236919954 0.022704889035001723 0 0.0006030719606348405 0.022399546400177543 0 0.00096100893856503208 0.023181141166794875 0 0.0012633236891280378 0.022182478462352481 0 0.00087213538807826636 0.021965525830678501 0 0.00097728470529151912 0.021393455432366978 0 0.00022870622147696471 0.021868263776714851 0 0.00087213538807826636 0.021965525830678501 0 0.0014741744161006045 0.021731057455651927 0 0.00097728470529151912 0.021393455432366978 0 0.00087213538807826636 0.021965525830678501 0 0.0014741744161006045 0.021731057455651927 0 0.0018004569159435896 0.022436290894422391 0 0.0014741744161006045 0.021731057455651927 0 0.0015513606453709387 0.021236688446208921 0 0.0018550292816012575 0.021568052268418882 0 0.0014741744161006045 0.021731057455651927 0 0.0015513606453709387 0.021236688446208921 0 0.00097728470529151912 0.021393455432366978 0 0.0011219743134800615 0.020769776621258441 0 0.0019241244883452843 0.020709908569539137 0 0.0015513606453709387 0.021236688446208921 0 0.0011219743134800615 0.020769776621258441 0 0.0015513606453709387 0.021236688446208921 0 0.00097728470529151912 0.021393455432366978 0 0.00058330548001477088 0.021005080835264405 0 0.0011219743134800615 0.020769776621258441 0 0.00097728470529151912 0.021393455432366978 0 8.9798856548970745e-05 0.021112463317695358 0 0.00058330548001477088 0.021005080835264405 0 0.00022870622147696471 0.021868263776714851 0 0.00058330548001477088 0.021005080835264405 0 0.00097728470529151912 0.021393455432366978 0 0.00022870622147696471 0.021868263776714851 0 -0.00038648291951476208 0.021932508420361315 0 -0.00036654962877321002 0.022995914090591429 0 0.00022870622147696471 0.021868263776714851 0 8.9798856548970745e-05 0.021112463317695358 0 -0.00038648291951476208 0.021932508420361315 0 0.00022870622147696471 0.021868263776714851 0 8.9798856548970745e-05 0.021112463317695358 0 -0.0003937727598973785 0.021285405899654899 0 -0.00038648291951476208 0.021932508420361315 0 0.0006030719606348405 0.022399546400177543 0 0.0012633236891280378 0.022182478462352481 0 0.00022870622147696471 0.021868263776714851 0 0.0010632915929805254 0.022084687528246449 0 0.00027092827748152743 0.021861365907469225 0 0.0042424596211142977 0.021454716514720917 0 0.0039280687189844682 0.020853205821422905 0 0.0036910672904076208 0.021844509393064013 0 0.0037499542137221131 0.021113588127394355 0 0.0034505436733016813 0.022117402822474857 0 0.0035471220970938518 0.021289816657558466 0 0.0028995542683241827 0.021954356841610005 0 0.0031624533482808477 0.02242333014127899 0 0.0042424596211142977 0.021454716514720917 0 0.0048864558352134709 0.021294924183486681 0 0.004375487690792503 0.02053974124482667 0 0.0048317466734651955 0.020086525943177006 0 0.0048864558352134709 0.021294924183486681 0 0.004375487690792503 0.02053974124482667 0 0.0041728446580920437 0.019871458529283462 0 0.004375487690792503 0.02053974124482667 0 0.0039280687189844682 0.020853205821422905 0 0.0040108760083061214 0.019780887932268589 0 0.0035471220970938518 0.021289816657558466 0 0.0032286301609458033 0.020666140656211127 0 0.0039093370396826085 0.019551712735377931 0 0.0037499542137221131 0.021113588127394355 0 0.0042424596211142977 0.021454716514720917 0 0.004375487690792503 0.02053974124482667 0 0.0039280687189844682 0.020853205821422905 0 0.0035471220970938518 0.021289816657558466 0 0.0032286301609458033 0.020666140656211127 0 0.002762854011921462 0.021422083847443915 0 0.0032286301609458033 0.020666140656211127 0 0.0027876472314060756 0.020619445657520732 0 0.002762854011921462 0.021422083847443915 0 0.0024092310147743766 0.02027956622001376 0 0.0027876472314060756 0.020619445657520732 0 0.002411602418422185 0.020921946757058118 0 0.0027876472314060756 0.020619445657520732 0 0.002411602418422185 0.020921946757058118 0 0.002762854011921462 0.021422083847443915 0 0.002411602418422185 0.020921946757058118 0 0.002762854011921462 0.021422083847443915 0 0.0021518996086989251 0.021293265725512739 0 0.0019241244883452843 0.020709908569539137 0 0.0015513606453709387 0.021236688446208921 0 0.0021518996086989251 0.021293265725512739 0 0.0019241244883452843 0.020709908569539137 0 0.002411602418422185 0.020921946757058118 0 0.0021518996086989251 0.021293265725512739 0 0.0015513606453709387 0.021236688446208921 0 0.0021518996086989251 0.021293265725512739 0 0.0018550292816012575 0.021568052268418882 0 0.0014741744161006045 0.021731057455651927 0 0.0019907672874098325 0.021977691260463891 0 0.0018004569159435896 0.022436290894422391 0 0.0014741744161006045 0.021731057455651927 0 0.0018550292816012575 0.021568052268418882 0 0.0019907672874098325 0.021977691260463891 0 0.0021518996086989251 0.021293265725512739 0 0.0018550292816012575 0.021568052268418882 0 0.0022287897445899562 0.021676703807635693 0 0.0018550292816012575 0.021568052268418882 0 0.0022287897445899562 0.021676703807635693 0 0.0019907672874098325 0.021977691260463891 0 0.0022287897445899562 0.021676703807635693 0 0.0019907672874098325 0.021977691260463891 0 0.0024451993146661698 0.022045504837344607 0 0.0019907672874098325 0.021977691260463891 0 0.0024451993146661698 0.022045504837344607 0 0.0022153172940246758 0.022251873426080704 0 0.0035471220970938518 0.021289816657558466 0 0.002762854011921462 0.021422083847443915 0 0.0028995542683241827 0.021954356841610005 0 0.002762854011921462 0.021422083847443915 0 0.0021518996086989251 0.021293265725512739 0 0.0022287897445899562 0.021676703807635693 0 0.002762854011921462 0.021422083847443915 0 0.0022287897445899562 0.021676703807635693 0 0.0024451993146661698 0.022045504837344607 0 0.002762854011921462 0.021422083847443915 0 0.0024451993146661698 0.022045504837344607 0 0.0028995542683241827 0.021954356841610005 0 0.0028995542683241827 0.021954356841610005 0 0.0026318110953765747 0.022550861103561075 0 0.0031624533482808477 0.02242333014127899 0 0.0026318110953765747 0.022550861103561075 0 0.0018004569159435896 0.022436290894422391 0 0.0030141662043020232 0.022974678978468912 0 0.0021968480575329016 0.022561706240170037 0 0.0033864650452752063 0.022910930738896031 0 0.0025743947282621431 0.022636503055539558 0 0.0030876687250974053 0.023309477838298502 0 0.003749013653458113 0.023154974425652664 0 0.0024451993146661698 0.022045504837344607 0 0.0026318110953765747 0.022550861103561075 0 0.0022153172940246758 0.022251873426080704 0 0.0024451993146661698 0.022045504837344607 0 0.0028995542683241827 0.021954356841610005 0 0.0026318110953765747 0.022550861103561075 0 0.0026318110953765747 0.022550861103561075 0 0.0030141662043020232 0.022974678978468912 0 0.0031624533482808477 0.02242333014127899 0 0.0026318110953765747 0.022550861103561075 0 0.0018004569159435896 0.022436290894422391 0 0.0022153172940246758 0.022251873426080704 0 0.0019907672874098325 0.021977691260463891 0 0.0018004569159435896 0.022436290894422391 0 0.0022153172940246758 0.022251873426080704 0 0.002292366750654723 0.023610409586140781 0 0.0025743947282621431 0.022636503055539558 0 0.0030876687250974053 0.023309477838298502 0 0.002292366750654723 0.023610409586140781 0 0.0030876687250974053 0.023309477838298502 0 0.0032166169508305595 0.023890349239206226 0 0.0030876687250974053 0.023309477838298502 0 0.003749013653458113 0.023154974425652664 0 0.003564537757934865 0.023456659265832191 0 0.0033864650452752063 0.022910930738896031 0 0.0035237974659969402 0.023233058623145803 0 0.0030876687250974053 0.023309477838298502 0 0.0032166169508305595 0.023890349239206226 0 0.003564537757934865 0.023456659265832191 0 0.003564537757934865 0.023456659265832191 0 0.0041237394472642269 0.023095786271779044 0 0.0039152578525009276 0.022606600838875453 0 0.0041237394472642269 0.023095786271779044 0 0.0039152578525009276 0.022606600838875453 0 0.0042973233324968439 0.022252543938997116 0 0.0035316886632401796 0.022458617415723074 0 0.003564537757934865 0.023456659265832191 0 0.0039152578525009276 0.022606600838875453 0 0.0042424596211142977 0.021454716514720917 0 0.0036910672904076208 0.021844509393064013 0 0.0042973233324968439 0.022252543938997116 0 0.0033864650452752063 0.022910930738896031 0 0.0034505436733016813 0.022117402822474857 0 0.0035316886632401796 0.022458617415723074 0 0.0039152578525009276 0.022606600838875453 0 0.0036910672904076208 0.021844509393064013 0 0.0039152578525009276 0.022606600838875453 0 0.0036910672904076208 0.021844509393064013 0 0.0042973233324968439 0.022252543938997116 0 0.0050668379856634409 0.02184742876035424 0 0.0048443344406595198 0.020627798707457776 0 0.0042973233324968439 0.022252543938997116 0 0.0042424596211142977 0.021454716514720917 0 0.0048864558352134709 0.021294924183486681 0 0.0042973233324968439 0.022252543938997116 0 0.004901321605928129 0.02104825553792489 0 0.0043127973070054742 0.02213153470713123 0 0.0050668379856634409 0.02184742876035424 0 0.0042973233324968439 0.022252543938997116 0 0.0046604030773979262 0.022667370808328903 0 0.0041237394472642269 0.023095786271779044 0 0.0042973233324968439 0.022252543938997116 0 0.0046604030773979262 0.022667370808328903 0 0.0041237394472642269 0.023095786271779044 0 0.0046604030773979262 0.022667370808328903 0 0.0046285091017779943 0.023506337991728618 0 0.005184560888828238 0.022487604843488936 0 0.0046604030773979262 0.022667370808328903 0 0.0046285091017779943 0.023506337991728618 0 0.0041237394472642269 0.023095786271779044 0 0.0046285091017779943 0.023506337991728618 0 0.003725735543767348 0.02383230614997155 0 0.0055357827789708856 0.024607423364085491 0 0.0042175421472371646 0.024623309178835418 0 0.003564537757934865 0.023456659265832191 0 0.0041237394472642269 0.023095786271779044 0 0.003725735543767348 0.02383230614997155 0 0.0065237434964170882 0.025724093900540014 0 0.0050510767032401413 0.026663188792038384 0 0.0048446029466442274 0.025376522062878295 0 0.0065237434964170882 0.025724093900540014 0 0.0050510767032401413 0.026663188792038384 0 0.0061078722798242118 0.02742616191622483 0 0.0078449851953091253 0.026711098752130614 0 0.0065237434964170882 0.025724093900540014 0 0.0061078722798242118 0.02742616191622483 0 0.002292366750654723 0.023610409586140781 0 0.0032166169508305595 0.023890349239206226 0 0.0028886953389984024 0.024779965537906543 0 0.0029038173797172298 0.024707329732840538 0 0.0042175421472371646 0.024623309178835418 0 0.0032166169508305595 0.023890349239206226 0 0.003564537757934865 0.023456659265832191 0 0.003725735543767348 0.02383230614997155 0 0.0032166169508305595 0.023890349239206226 0 0.0028886953389984024 0.024779965537906543 0 0.003725735543767348 0.02383230614997155 0 0.0028886953389984024 0.024779965537906543 0 0.0048446029466442274 0.025376522062878295 0 0.0036405061260143326 0.026673564572864718 0 0.0050510767032401413 0.026663188792038384 0 0.0048446029466442274 0.025376522062878295 0 0.0036405061260143326 0.026673564572864718 0 0.002050948323722792 0.026524026696140224 0 0.0028886953389984024 0.024779965537906543 0 0.0036405061260143326 0.026673564572864718 0 0.0025721386827015518 0.028346357750956057 0 0.0036405061260143326 0.026673564572864718 0 0.0039614403109896213 0.028274592025594125 0 0.0025721386827015518 0.028346357750956057 0 0.002050948323722792 0.026524026696140224 0 0.0036405061260143326 0.026673564572864718 0 0.0050510767032401413 0.026663188792038384 0 0.0036405061260143326 0.026673564572864718 0 0.0039614403109896213 0.028274592025594125 0 0.0039614403109896213 0.028274592025594125 0 0.0049063665982631878 0.028602446646425909 0 0.00436927020558077 0.029886406661537759 0 0.0025721386827015518 0.028346357750956057 0 0.0039614403109896213 0.028274592025594125 0 0.0028789087806420765 0.029557113572761872 0 0.0050510767032401413 0.026663188792038384 0 0.0039614403109896213 0.028274592025594125 0 0.0061078722798242118 0.02742616191622483 0 0.0040372743712605002 0.028233355502027005 0 0.0056795305062391291 0.027470260646515792 0 0.0039614403109896213 0.028274592025594125 0 0.0052781891796187695 0.027593650701613234 0 0.0049063665982631878 0.028602446646425909 0 0.0060428014060323193 0.027852751769053646 0 0.0052781891796187695 0.027593650701613234 0 0.0049063665982631878 0.028602446646425909 0 0.0060428014060323193 0.027852751769053646 0 0.0049063665982631878 0.028602446646425909 0 0.0056988091531624914 0.029022052179119691 0 0.0042841770944035754 0.02934018608711671 0 0.0034183992635295102 0.02993902024259967 0 0.0049063665982631878 0.028602446646425909 0 0.0056988091531624914 0.029022052179119691 0 0.00436927020558077 0.029886406661537759 0 0.0029219425769045938 0.029714485839848034 0 0.0028138280318432056 0.03005569243275857 0 0.0024834467237602282 0.029983182316281349 0 0.0028138280318432056 0.03005569243275857 0 0.0024834467237602282 0.029983182316281349 0 0.0026393971271348768 0.030444373282167297 0 0.0029219425769045938 0.029714485839848034 0 0.0028138280318432056 0.03005569243275857 0 0.0031522951963709588 0.029873020151304965 0 0.0039614403109896213 0.028274592025594125 0 0.0028789087806420765 0.029557113572761872 0 0.00436927020558077 0.029886406661537759 0 0.0034183992635295102 0.02993902024259967 0 0.0023738552185686742 0.030487167745034432 0 0.0024834467237602282 0.029983182316281349 0 0.0019487982955363925 0.030373518942004664 0 0.0021544079484296934 0.030726656245603747 0 0.0028789087806420765 0.029557113572761872 0 0.00436927020558077 0.029886406661537759 0 0.0027926014002565584 0.03062437135438199 0 0.0019487982955363925 0.030373518942004664 0 0.0021544079484296934 0.030726656245603747 0 0.0016414994674171274 0.031043491670920475 0 0.0015176812424560916 0.030796118223647341 0 0.0010496634953651228 0.031075297173125242 0 0.0015176812424560916 0.030796118223647341 0 0.002036521556330538 0.030501024699323441 0 0.00088141312876097503 0.030866992517690171 0 0.0010939071363411986 0.031004400250281023 0 0.0014304652406553833 0.030558524513466523 0 0.0024834467237602282 0.029983182316281349 0 0.0021544079484296934 0.030726656245603747 0 0.0026393971271348768 0.030444373282167297 0 0.0010939071363411986 0.031004400250281023 0 0.0013947324383532034 0.031161022471397334 0 0.00099120330342753545 0.031325985695222318 0 0.0010939071363411986 0.031004400250281023 0 0.00070194387181232048 0.031264393498980483 0 0.00099120330342753545 0.031325985695222318 0 0.00088141312876097503 0.030866992517690171 0 0.00070194387181232048 0.031264393498980483 0 0.00046148779023439155 0.031108230501968086 0 0.00088141312876097503 0.030866992517690171 0 0.0010939071363411986 0.031004400250281023 0 0.00070194387181232048 0.031264393498980483 0 0.0028138280318432056 0.03005569243275857 0 0.0026393971271348768 0.030444373282167297 0 0.0030264183944806455 0.030165448287386414 0 0.002036521556330538 0.030501024699323441 0 0.0026489483136712456 0.030192203307997854 0 0.0014304652406553833 0.030558524513466523 0 0.0018685291857031476 0.03079251927143822 0 0.0022578773744443966 0.030218377703769492 0 0.0010939071363411986 0.031004400250281023 0 0.0014304652406553833 0.030558524513466523 0 0.0013947324383532034 0.031161022471397334 0 0.0014304652406553833 0.030558524513466523 0 0.0018685291857031476 0.03079251927143822 0 0.0013947324383532034 0.031161022471397334 0 0.0018685291857031476 0.03079251927143822 0 0.0020849195833813417 0.031232924549966484 0 0.0013947324383532034 0.031161022471397334 0 0.0018685291857031476 0.03079251927143822 0 0.0022659726522304049 0.030745866901927089 0 0.0022578773744443966 0.030218377703769492 0 0.0018685291857031476 0.03079251927143822 0 0.0020849195833813417 0.031232924549966484 0 0.0022659726522304049 0.030745866901927089 0 0.0020849195833813417 0.031232924549966484 0 0.0014765871210639376 0.031558570195991696 0 0.0013947324383532034 0.031161022471397334 0 0.0022073355087126006 0.030679712169717141 0 0.0014876529062847945 0.031202320882244203 0 0.0023186897128839299 0.03011000825401746 0 0.0021823850658049993 0.030845989099910619 0 0.0014531985286553104 0.030862724619557341 0 0.0021823850658049993 0.030845989099910619 0 0.0018039739696552031 0.031340450836737685 0 0.0014531985286553104 0.030862724619557341 0 0.0021823850658049993 0.030845989099910619 0 0.0018039739696552031 0.031340450836737685 0 0.002471739088845223 0.031302019969918084 0 0.001246986515503477 0.03146016267948553 0 0.0014531985286553104 0.030862724619557341 0 0.0009757446191610413 0.03163813795566401 0 0.0014765871210639376 0.031558570195991696 0 0.0011250025651786978 0.031541321744918041 0 0.0009757446191610413 0.03163813795566401 0 0.0014876529062847945 0.031202320882244203 0 0.0010313679319941403 0.031579300929807291 0 0.001246986515503477 0.03146016267948553 0 0.0014703381168510977 0.031352846950186412 0 0.0013776948221213866 0.031721171708878684 0 0.001246986515503477 0.03146016267948553 0 0.0014703381168510977 0.031352846950186412 0 0.0014531985286553104 0.030862724619557341 0 0.0018039739696552031 0.031340450836737685 0 0.0014703381168510977 0.031352846950186412 0 0.0013776948221213866 0.031721171708878684 0 0.0018039739696552031 0.031340450836737685 0 0.0014703381168510977 0.031352846950186412 0 0.0014531985286553104 0.030862724619557341 0 0.0014765871210639376 0.031558570195991696 0 0.0011552837280119045 0.031436957409226772 0 0.0011250025651786978 0.031541321744918041 0 0.0014765871210639376 0.031558570195991696 0 0.0013947324383532034 0.031161022471397334 0 0.0011552837280119045 0.031436957409226772 0 0.0013947324383532034 0.031161022471397334 0 0.00099120330342753545 0.031325985695222318 0 0.0011552837280119045 0.031436957409226772 0 0.00099120330342753545 0.031325985695222318 0 0.0011552837280119045 0.031436957409226772 0 0.00094613351134976921 0.031543330719302126 0 0.00070194387181232048 0.031264393498980483 0 0.00099120330342753545 0.031325985695222318 0 0.00074667350457495723 0.031490236263373904 0 0.00099120330342753545 0.031325985695222318 0 0.00074667350457495723 0.031490236263373904 0 0.00094613351134976921 0.031543330719302126 0 0.00069361811552611083 0.031855390623001571 0 0.00083002214116504149 0.031986746104072705 0 0.00058279325389165614 0.031883710620920068 0 0.00074667350457495723 0.031490236263373904 0 0.00080476924776815202 0.031653726687038967 0 0.00052623648654605444 0.031649380521534494 0 0.00074667350457495723 0.031490236263373904 0 0.00080476924776815202 0.031653726687038967 0 0.00094613351134976921 0.031543330719302126 0 0.00086903909212141374 0.031716744756362963 0 -0.0010692908914366607 0.034505253782947415 0 0.00080476924776815202 0.031653726687038967 0 0.0009757446191610413 0.03163813795566401 0 0.00098675084664543496 0.031678837636918651 0 0.00080476924776815202 0.031653726687038967 0 0.00094613351134976921 0.031543330719302126 0 0.0009757446191610413 0.03163813795566401 0 0.0011250025651786978 0.031541321744918041 0 0.00094613351134976921 0.031543330719302126 0 0.0009757446191610413 0.03163813795566401 0 0.0011552837280119045 0.031436957409226772 0 0.0011250025651786978 0.031541321744918041 0 0.00094613351134976921 0.031543330719302126 0 0.0009757446191610413 0.03163813795566401 0 0.0010953499920183256 0.031598708538297077 0 0.00098675084664543496 0.031678837636918651 0 0.001246986515503477 0.03146016267948553 0 0.0009757446191610413 0.03163813795566401 0 0.0010953499920183256 0.031598708538297077 0 -0.0058148833241727926 0.042522209714314738 0 -0.0055449502714082534 0.041825708725607168 0 -0.0043940948580924689 0.042070931641061231 0 -0.0055449502714082534 0.041825708725607168 0 -0.00595409163559196 0.041348399027631065 0 -0.0055878215082831488 0.041117899784002307 0 -0.0058148833241727926 0.042522209714314738 0 -0.0055449502714082534 0.041825708725607168 0 -0.0064000547389519843 0.041588701415181673 0 -0.0055449502714082534 0.041825708725607168 0 -0.00595409163559196 0.041348399027631065 0 -0.0064000547389519843 0.041588701415181673 0 -0.0058148833241727926 0.042522209714314738 0 -0.0043940948580924689 0.042070931641061231 0 -0.0035952062764832713 0.042759900700700258 0 -0.0010692908914366607 0.034505253782947415 0 -0.0017895004381871982 0.0377288080866999 0 -0.0055449502714082534 0.041825708725607168 0 -0.0043940948580924689 0.042070931641061231 0 -0.004940791541990207 0.041283223485523469 0 -0.0043940948580924689 0.042070931641061231 0 -0.0041761718395088394 0.040771421983249546 0 -0.0031753817395059748 0.041644376167890559 0 -0.0043940948580924689 0.042070931641061231 0 -0.004940791541990207 0.041283223485523469 0 -0.0041761718395088394 0.040771421983249546 0 -0.004940791541990207 0.041283223485523469 0 -0.0041761718395088394 0.040771421983249546 0 -0.0051393140826820616 0.040638877935951757 0 -0.0041761718395088394 0.040771421983249546 0 -0.0051393140826820616 0.040638877935951757 0 -0.0052364961779006571 0.039695066575646767 0 -0.0062867124687359501 0.040857440776254784 0 -0.0055878215082831488 0.041117899784002307 0 -0.0057322521621226297 0.040372980830995796 0 -0.0062867124687359501 0.040857440776254784 0 -0.00595409163559196 0.041348399027631065 0 -0.0064000547389519843 0.041588701415181673 0 -0.0062867124687359501 0.040857440776254784 0 -0.00595409163559196 0.041348399027631065 0 -0.0055878215082831488 0.041117899784002307 0 -0.0055449502714082534 0.041825708725607168 0 -0.004940791541990207 0.041283223485523469 0 -0.0055878215082831488 0.041117899784002307 0 -0.004940791541990207 0.041283223485523469 0 -0.0055878215082831488 0.041117899784002307 0 -0.0051393140826820616 0.040638877935951757 0 -0.0055878215082831488 0.041117899784002307 0 -0.0057322521621226297 0.040372980830995796 0 -0.0051393140826820616 0.040638877935951757 0 -0.0057322521621226297 0.040372980830995796 0 -0.0051393140826820616 0.040638877935951757 0 -0.0052364961779006571 0.039695066575646767 0 -0.0062867124687359501 0.040857440776254784 0 -0.0057322521621226297 0.040372980830995796 0 -0.0063036610985405814 0.039866172112576967 0 -0.0062867124687359501 0.040857440776254784 0 -0.0069586217188522719 0.040476237873222638 0 -0.0063036610985405814 0.039866172112576967 0 -0.0062867124687359501 0.040857440776254784 0 -0.0071126029736580925 0.041131719542944215 0 -0.0064000547389519843 0.041588701415181673 0 -0.0062867124687359501 0.040857440776254784 0 -0.0069586217188522719 0.040476237873222638 0 -0.0071126029736580925 0.041131719542944215 0 -0.0071126029736580925 0.041131719542944215 0 -0.0076051603868422012 0.040854799763873705 0 -0.0076419329147323616 0.041538905986176017 0 -0.0069586217188522719 0.040476237873222638 0 -0.0071126029736580925 0.041131719542944215 0 -0.0076051603868422012 0.040854799763873705 0 -0.0069586217188522719 0.040476237873222638 0 -0.0076051603868422012 0.040854799763873705 0 -0.007811253344996957 0.040011007752301125 0 -0.007811253344996957 0.040011007752301125 0 -0.0084987132052481568 0.041098087829716287 0 -0.0085364328731380099 0.038611171291888478 0 -0.0017259869312943792 0.028438794795195711 0 -0.0017470559526431432 0.027819087904383571 0 -0.0020465064396996257 0.028248014768395828 0 -0.0076051603868422012 0.040854799763873705 0 -0.007811253344996957 0.040011007752301125 0 -0.0084987132052481568 0.041098087829716287 0 -0.0076051603868422012 0.040854799763873705 0 -0.0084987132052481568 0.041098087829716287 0 -0.0076419329147323616 0.041538905986176017 0 0.002363293005611198 0.030491089108015453 0 0.002388879168716418 0.030033238728939704 0 0.0019518608169701917 0.030260244267071468 0 -0.002142078854975484 0.035257566633454432 0 0.0035088834923470355 0.029645057710172406 0 0.0018039739696552031 0.031340450836737685 0 0.0016157140700255482 0.03210518689818459 0 0.002471739088845223 0.031302019969918084 0 -0.00069186605849254628 0.03401587247197202 0 -0.002142078854975484 0.035257566633454432 0 0.002388879168716418 0.030033238728939704 0 0.0019518608169701917 0.030260244267071468 0 0.0027715117439180825 0.029635460514881074 0 -0.00069186605849254628 0.03401587247197202 0 0.0013162153561873252 0.029655424422912878 0 0.002402351819562876 0.030344120364196328 0 0.002388879168716418 0.030033238728939704 0 0.002811013725850115 0.030138333372621319 0 0.00061073308871492725 0.031660678796887082 0 0.0013776948221213866 0.031721171708878684 0 0.0016157140700255482 0.03210518689818459 0 0.0018039739696552031 0.031340450836737685 0 0.0013776948221213866 0.031721171708878684 0 0.0016157140700255482 0.03210518689818459 0 -0.0058148833241727926 0.042522209714314738 0 -0.0064000547389519843 0.041588701415181673 0 -0.0076459810945672096 0.041584130202611716 0 -0.0010692908914366607 0.034505253782947415 0 -0.002142078854975484 0.035257566633454432 0 0.0010953499920183256 0.031598708538297077 0 0.00098675084664543496 0.031678837636918651 0 0.0013776948221213866 0.031721171708878684 0 -0.0010692908914366607 0.034505253782947415 0 0.0017022390499436459 0.032010627661906994 0 0.001246986515503477 0.03146016267948553 0 0.0010953499920183256 0.031598708538297077 0 0.0013776948221213866 0.031721171708878684 0 -0.0071126029736580925 0.041131719542944215 0 -0.0064000547389519843 0.041588701415181673 0 -0.0076459810945672096 0.041584130202611716 0 -0.0075157989221921098 0.040555200167511442 0 -0.002142078854975484 0.035257566633454432 0 0.00017178829416006941 0.042717647254869699 0 -0.00071747169084627137 0.042424803619594532 0 -0.00016741529039937357 0.043211345025502779 0 -0.00071747169084627137 0.042424803619594532 0 -0.0006739235260438787 0.043027102471864739 0 -0.0012913124135655284 0.042869812412729399 0 -0.0006739235260438787 0.043027102471864739 0 -0.00016741529039937357 0.043211345025502779 0 -0.00048622669455184229 0.043676947910156312 0 -0.00071747169084627137 0.042424803619594532 0 -0.0006739235260438787 0.043027102471864739 0 -0.00016741529039937357 0.043211345025502779 0 -0.0006739235260438787 0.043027102471864739 0 -0.0012913124135655284 0.042869812412729399 0 -0.00048622669455184229 0.043676947910156312 0 -0.00016741529039937357 0.043211345025502779 0 -8.5779023929663081e-05 0.04355031128839168 0 -0.00048622669455184229 0.043676947910156312 0 -0.00016741529039937357 0.043211345025502779 0 8.2862707353338467e-05 0.043508686047540823 0 -8.5779023929663081e-05 0.04355031128839168 0 0.00017178829416006941 0.042717647254869699 0 -0.00016741529039937357 0.043211345025502779 0 0.00019507342679535848 0.043199820813695701 0 -0.00016741529039937357 0.043211345025502779 0 8.2862707353338467e-05 0.043508686047540823 0 0.00019507342679535848 0.043199820813695701 0 8.2862707353338467e-05 0.043508686047540823 0 0.00019507342679535848 0.043199820813695701 0 0.00027934816563939191 0.04355969000239087 0 0.00019507342679535848 0.043199820813695701 0 0.00027934816563939191 0.04355969000239087 0 0.00042461545236223267 0.043457471742944322 0 0.00042461545236223267 0.043457471742944322 0 0.0004446456632665018 0.043728665169444195 0 0.00063856380499488139 0.043787143184709734 0 0.00027934816563939191 0.04355969000239087 0 0.00042461545236223267 0.043457471742944322 0 0.0004446456632665018 0.043728665169444195 0 0.00019507342679535848 0.043199820813695701 0 0.00042461545236223267 0.043457471742944322 0 0.00031476618871635625 0.04288895578332861 0 0.00042461545236223267 0.043457471742944322 0 0.00031476618871635625 0.04288895578332861 0 0.00061941832255219909 0.043476055606692265 0 0.00017178829416006941 0.042717647254869699 0 0.00019507342679535848 0.043199820813695701 0 0.00031476618871635625 0.04288895578332861 0 0.00031476618871635625 0.04288895578332861 0 0.00047030559753527047 0.042466568079519353 0 8.6440206989906002e-05 0.042572619004751122 0 0.00017178829416006941 0.042717647254869699 0 0.00031476618871635625 0.04288895578332861 0 8.6440206989906002e-05 0.042572619004751122 0 0.00020007600817676584 0.042440557439532033 0 0.0003087390191910874 0.041776840410792465 0 0.00017178829416006941 0.042717647254869699 0 -0.000811630819549501 0.041030938464296868 0 0.00043027386540045155 0.040341227733300219 0 -0.00071747169084627137 0.042424803619594532 0 -0.000811630819549501 0.041030938464296868 0 -0.0015280351476954306 0.041652320630016171 0 0.00017178829416006941 0.042717647254869699 0 -0.00071747169084627137 0.042424803619594532 0 -0.000811630819549501 0.041030938464296868 0 -0.000811630819549501 0.041030938464296868 0 -0.0018350915231075534 0.040585437584312906 0 -0.0012383123299308022 0.039718239968432448 0 -0.000811630819549501 0.041030938464296868 0 -0.0018350915231075534 0.040585437584312906 0 -0.0015280351476954306 0.041652320630016171 0 -0.0018350915231075534 0.040585437584312906 0 -0.0024723488370180621 0.041164394453538582 0 -0.0027566147265292657 0.040181990659530709 0 -0.0015280351476954306 0.041652320630016171 0 -0.0024723488370180621 0.041164394453538582 0 -0.0021755572615055649 0.04207774527380035 0 -0.0018350915231075534 0.040585437584312906 0 -0.0015280351476954306 0.041652320630016171 0 -0.0024723488370180621 0.041164394453538582 0 -0.0041761718395088394 0.040771421983249546 0 -0.003298895099003947 0.040756921526969928 0 -0.0037260245175241664 0.039600479162775738 0 -0.003298895099003947 0.040756921526969928 0 -0.0024723488370180621 0.041164394453538582 0 -0.0027566147265292657 0.040181990659530709 0 -0.003298895099003947 0.040756921526969928 0 -0.0024723488370180621 0.041164394453538582 0 -0.0031753817395059748 0.041644376167890559 0 -0.0024723488370180621 0.041164394453538582 0 -0.0031753817395059748 0.041644376167890559 0 -0.0021755572615055649 0.04207774527380035 0 -0.0041761718395088394 0.040771421983249546 0 -0.003298895099003947 0.040756921526969928 0 -0.0031753817395059748 0.041644376167890559 0 -0.0043940948580924689 0.042070931641061231 0 -0.0031753817395059748 0.041644376167890559 0 -0.0024081861324072805 0.043017964951483155 0 -0.0042181266916108693 0.042154936260308563 0 -0.0026234714491841452 0.042636564348298399 0 -0.0043940948580924689 0.042070931641061231 0 -0.0027361596598841189 0.042375048737005969 0 -0.0035952062764832713 0.042759900700700258 0 -0.0031753817395059748 0.041644376167890559 0 -0.0024081861324072805 0.043017964951483155 0 -0.0021755572615055649 0.04207774527380035 0 -0.0024081861324072805 0.043017964951483155 0 -0.0012913124135655284 0.042869812412729399 0 -0.00048622669455184229 0.043676947910156312 0 -0.00071747169084627137 0.042424803619594532 0 -0.0015280351476954306 0.041652320630016171 0 -0.0012913124135655284 0.042869812412729399 0 -0.0015280351476954306 0.041652320630016171 0 -0.0021755572615055649 0.04207774527380035 0 -0.0012913124135655284 0.042869812412729399 0 -0.0024081861324072805 0.043017964951483155 0 -0.0021755572615055649 0.04207774527380035 0 -0.0012913124135655284 0.042869812412729399 0 -0.0027361596598841189 0.042375048737005969 0 -0.0035952062764832713 0.042759900700700258 0 -0.0015864720653847222 0.042793762068514929 0 -0.0017895004381871982 0.0377288080866999 0 -0.00071237732766120778 0.036939199601376226 0 -0.0026234714491841452 0.042636564348298399 0 -0.00065010938430484137 0.043492483842893226 0 -0.0027361596598841189 0.042375048737005969 0 -0.0011845712109185675 0.042609108698096788 0 -0.0015864720653847222 0.042793762068514929 0 0.00033086455483227766 0.031683459111419121 0 0.00058279325389165614 0.031883710620920068 0 0.00017253612028347387 0.031881578592269089 0 0.00033086455483227766 0.031683459111419121 0 0.0001968771791256259 0.031718396208500046 0 0.00017253612028347387 0.031881578592269089 0 0.00033086455483227766 0.031683459111419121 0 0.00058279325389165614 0.031883710620920068 0 0.00052623648654605444 0.031649380521534494 0 0.00069361811552611083 0.031855390623001571 0 0.00058279325389165614 0.031883710620920068 0 0.00052623648654605444 0.031649380521534494 0 0.00086903909212141374 0.031716744756362963 0 0.00049845930385303857 0.031639227841762541 0 0.00070194387181232048 0.031264393498980483 0 0.00074667350457495723 0.031490236263373904 0 0.00049590889731997753 0.03146711323966319 0 0.00074667350457495723 0.031490236263373904 0 0.00052623648654605444 0.031649380521534494 0 0.00049590889731997753 0.03146711323966319 0 0.00033086455483227766 0.031683459111419121 0 0.00052623648654605444 0.031649380521534494 0 0.00049590889731997753 0.03146711323966319 0 0.00049590889731997753 0.03146711323966319 0 0.00035765805554826619 0.031468963040415528 0 0.00047570471283384238 0.031298965272832345 0 0.00070194387181232048 0.031264393498980483 0 0.00049590889731997753 0.03146711323966319 0 0.00047570471283384238 0.031298965272832345 0 0.00033086455483227766 0.031683459111419121 0 0.0001968771791256259 0.031718396208500046 0 0.0002549598980931152 0.031598242353071328 0 0.0002549598980931152 0.031598242353071328 0 0.00023480705038944667 0.031482077456029003 0 0.00014388419699368701 0.031643352350014621 0 0.0001968771791256259 0.031718396208500046 0 0.0002549598980931152 0.031598242353071328 0 0.00014388419699368701 0.031643352350014621 0 0.00033086455483227766 0.031683459111419121 0 0.0002549598980931152 0.031598242353071328 0 0.00035765805554826619 0.031468963040415528 0 0.00033086455483227766 0.031683459111419121 0 0.00049590889731997753 0.03146711323966319 0 0.00035765805554826619 0.031468963040415528 0 0.00035765805554826619 0.031468963040415528 0 0.00047570471283384238 0.031298965272832345 0 0.00031055891036647936 0.031331550281605412 0 0.0002549598980931152 0.031598242353071328 0 0.00035765805554826619 0.031468963040415528 0 0.00023480705038944667 0.031482077456029003 0 0.00035765805554826619 0.031468963040415528 0 0.00023480705038944667 0.031482077456029003 0 0.00031055891036647936 0.031331550281605412 0 0.00023480705038944667 0.031482077456029003 0 0.00010416384772741493 0.03153950123609417 0 0.00019462447582235606 0.031358104395091402 0 0.00010416384772741493 0.03153950123609417 0 1.8740644438769943e-05 0.031683265908512136 0 -0.00010059933878936244 0.031520932404454367 0 0.00033443706767503993 0.031520945473044425 0 0.00014695014041559671 0.031401818759374235 0 0.00010416384772741493 0.03153950123609417 0 -0.00010059933878936244 0.031520932404454367 0 0.00019462447582235606 0.031358104395091402 0 1.8740644438769943e-05 0.031683265908512136 0 -0.00011262403943785051 0.0317731456748966 0 -0.00010059933878936244 0.031520932404454367 0 0.00023480705038944667 0.031482077456029003 0 0.00010416384772741493 0.03153950123609417 0 0.00014388419699368701 0.031643352350014621 0 0.00010416384772741493 0.03153950123609417 0 1.8740644438769943e-05 0.031683265908512136 0 0.00014388419699368701 0.031643352350014621 0 1.8740644438769943e-05 0.031683265908512136 0 0.00014388419699368701 0.031643352350014621 0 9.1958999559220593e-05 0.031768530346089174 0 -0.0011845712109185675 0.042609108698096788 0 -0.0015864720653847222 0.042793762068514929 0 0.00029716743575799982 0.042801765954595422 0 0.0001968771791256259 0.031718396208500046 0 9.1958999559220593e-05 0.031768530346089174 0 0.00017253612028347387 0.031881578592269089 0 -5.8401769408430026e-05 0.031855081180991847 0 0.00017253612028347387 0.031881578592269089 0 -0.00030094567548526082 0.031910657963206156 0 9.1958999559220593e-05 0.031768530346089174 0 -5.8401769408430026e-05 0.031855081180991847 0 0.00017253612028347387 0.031881578592269089 0 0.0001968771791256259 0.031718396208500046 0 0.00014388419699368701 0.031643352350014621 0 9.1958999559220593e-05 0.031768530346089174 0 -0.00071237732766120778 0.036939199601376226 0 5.0574502171472774e-05 0.039893901796819113 0 -8.5779023929663081e-05 0.04355031128839168 0 -0.00048622669455184229 0.043676947910156312 0 0.00021687457163404374 0.043784287263138551 0 1.8740644438769943e-05 0.031683265908512136 0 9.1958999559220593e-05 0.031768530346089174 0 -5.8401769408430026e-05 0.031855081180991847 0 1.8740644438769943e-05 0.031683265908512136 0 -5.8401769408430026e-05 0.031855081180991847 0 -0.00011262403943785051 0.0317731456748966 0 -0.00048622669455184229 0.043676947910156312 0 0.00021687457163404374 0.043784287263138551 0 0.00047213511220357498 0.044048739092654166 0 -0.00065010938430484137 0.043492483842893226 0 5.0574502171472774e-05 0.039893901796819113 0 0.00042219771433365453 0.043866885134352426 0 0.00021687457163404374 0.043784287263138551 0 0.00047213511220357498 0.044048739092654166 0 0.00042219771433365453 0.043866885134352426 0 0.00047213511220357498 0.044048739092654166 0 0.00054560438193829923 0.043900466016511416 0 0.00042219771433365453 0.043866885134352426 0 0.0004446456632665018 0.043728665169444195 0 0.00054560438193829923 0.043900466016511416 0 0.00042219771433365453 0.043866885134352426 0 0.0004446456632665018 0.043728665169444195 0 0.00021687457163404374 0.043784287263138551 0 0.00027934816563939191 0.04355969000239087 0 0.0004446456632665018 0.043728665169444195 0 0.00021687457163404374 0.043784287263138551 0 8.2862707353338467e-05 0.043508686047540823 0 0.00027934816563939191 0.04355969000239087 0 0.00021687457163404374 0.043784287263138551 0 8.2862707353338467e-05 0.043508686047540823 0 -8.5779023929663081e-05 0.04355031128839168 0 0.00021687457163404374 0.043784287263138551 0 -5.8401769408430026e-05 0.031855081180991847 0 -0.00018511827109176016 0.031875366019412391 0 -0.00030094567548526082 0.031910657963206156 0 -5.8401769408430026e-05 0.031855081180991847 0 -0.00018511827109176016 0.031875366019412391 0 -0.00011262403943785051 0.0317731456748966 0 -0.00018511827109176016 0.031875366019412391 0 -0.00023220666275538865 0.031833527001953611 0 -0.00011262403943785051 0.0317731456748966 0 -0.00018511827109176016 0.031875366019412391 0 -0.00023220666275538865 0.031833527001953611 0 -0.00026192465154416234 0.031909855066558974 0 -0.00023220666275538865 0.031833527001953611 0 -0.00026192465154416234 0.031909855066558974 0 -0.00029708410805693534 0.031970154418139926 0 -0.00018511827109176016 0.031875366019412391 0 -0.00026192465154416234 0.031909855066558974 0 -0.00030094567548526082 0.031910657963206156 0 -0.00026192465154416234 0.031909855066558974 0 -0.00030094567548526082 0.031910657963206156 0 -0.00029708410805693534 0.031970154418139926 0 -0.00030094567548526082 0.031910657963206156 0 -0.00029708410805693534 0.031970154418139926 0 -0.00015163419812161644 0.032152296370597369 0 0.000313788058451511 0.031309690351477237 0 0.00041332879048104176 0.031342166497396483 0 0.0003930014150396104 0.031379648644035571 0 -0.00020965636632788961 0.031719077362821549 0 -0.00010059933878936244 0.031520932404454367 0 -0.00039681810752305118 0.031680275447538722 0 -0.00029708410805693534 0.031970154418139926 0 -0.00015163419812161644 0.032152296370597369 0 -0.00016768006180481685 0.03252503154302671 0 -0.00023220666275538865 0.031833527001953611 0 -0.00020965636632788961 0.031719077362821549 0 -0.00039681810752305118 0.031680275447538722 0 -0.00052170207974170768 0.031682186166119244 0 0.00047863357062009611 0.035830848199848664 0 -0.00023220666275538865 0.031833527001953611 0 -0.00029708410805693534 0.031970154418139926 0 -0.00039681810752305118 0.031680275447538722 0 -0.00011262403943785051 0.0317731456748966 0 -0.00020965636632788961 0.031719077362821549 0 -0.00010059933878936244 0.031520932404454367 0 -0.00023220666275538865 0.031833527001953611 0 -0.00011262403943785051 0.0317731456748966 0 -0.00020965636632788961 0.031719077362821549 0 0.00033443706767503993 0.031520945473044425 0 0.00047863357062009611 0.035830848199848664 0 0.00072443066068687183 0.03118378356983546 0 0.0010552973030702384 0.03129783230330857 0 0.00041332879048104176 0.031342166497396483 0 0.00027630559947290189 0.031333632641130663 0 0.00019709340465996661 0.03133755924022983 0 0.00041332879048104176 0.031342166497396483 0 0.000313788058451511 0.031309690351477237 0 0.00027630559947290189 0.031333632641130663 0 0.00041332879048104176 0.031342166497396483 0 0.0006309648616562557 0.031299332741482548 0 0.00042765656289107983 0.031345096973910955 0 0.00072443066068687183 0.03118378356983546 0 0.00053554186468118261 0.031160998025443715 0 0.00041332879048104176 0.031342166497396483 0 0.000313788058451511 0.031309690351477237 0 0.00027630559947290189 0.031333632641130663 0 0.00019462447582235606 0.031358104395091402 0 0.00027630559947290189 0.031333632641130663 0 0.00019462447582235606 0.031358104395091402 0 0.00019709340465996661 0.03133755924022983 0 0.00019462447582235606 0.031358104395091402 0 0.00019709340465996661 0.03133755924022983 0 0.00031055891036647936 0.031331550281605412 0 0.00072443066068687183 0.03118378356983546 0 0.0010552973030702384 0.03129783230330857 0 0.00094241598548281422 0.031104247200788755 0 0.0010108047329143914 0.030927207664538242 0 0.00143282198827967 0.030880645606764647 0 0.0010230829104964697 0.030599809239750149 0 0.00094241598548281422 0.031104247200788755 0 0.0010108047329143914 0.030927207664538242 0 0.0006943436739686818 0.030995117032457713 0 0.00094241598548281422 0.031104247200788755 0 0.0010108047329143914 0.030927207664538242 0 0.0012320398445088726 0.031066900801202883 0 0.0010552973030702384 0.03129783230330857 0 0.00094241598548281422 0.031104247200788755 0 0.0012320398445088726 0.031066900801202883 0 0.0010108047329143914 0.030927207664538242 0 0.0006943436739686818 0.030995117032457713 0 0.00076273973748021591 0.0307688038911322 0 0.0006943436739686818 0.030995117032457713 0 0.00054356560237312499 0.030804852762702849 0 0.00046998621892685173 0.030960873722090908 0 0.0006943436739686818 0.030995117032457713 0 0.00053554186468118261 0.031160998025443715 0 0.00046998621892685173 0.030960873722090908 0 0.00072443066068687183 0.03118378356983546 0 0.0006943436739686818 0.030995117032457713 0 0.00053554186468118261 0.031160998025443715 0 0.00072443066068687183 0.03118378356983546 0 0.00094241598548281422 0.031104247200788755 0 0.0006943436739686818 0.030995117032457713 0 0.00070194387181232048 0.031264393498980483 0 0.00047570471283384238 0.031298965272832345 0 0.00046148779023439155 0.031108230501968086 0 0.0006309648616562557 0.031299332741482548 0 0.0010496634953651228 0.031075297173125242 0 0.00019709340465996661 0.03133755924022983 0 0.00046148779023439155 0.031108230501968086 0 0.00031055891036647936 0.031331550281605412 0 0.0010552973030702384 0.03129783230330857 0 0.0016414994674171274 0.031043491670920475 0 0.0012320398445088726 0.031066900801202883 0 0.00047570471283384238 0.031298965272832345 0 0.00046148779023439155 0.031108230501968086 0 0.00031055891036647936 0.031331550281605412 0 0.00023480705038944667 0.031482077456029003 0 0.00019462447582235606 0.031358104395091402 0 0.00031055891036647936 0.031331550281605412 0 0.0010108047329143914 0.030927207664538242 0 0.0012320398445088726 0.031066900801202883 0 0.00143282198827967 0.030880645606764647 0 0.0016414994674171274 0.031043491670920475 0 0.0012320398445088726 0.031066900801202883 0 0.00143282198827967 0.030880645606764647 0 0.0019487982955363925 0.030373518942004664 0 0.0016414994674171274 0.031043491670920475 0 0.00143282198827967 0.030880645606764647 0 0.0023738552185686742 0.030487167745034432 0 0.0015020152179052412 0.030851954038134489 0 0.0028789087806420765 0.029557113572761872 0 0.0027926014002565584 0.03062437135438199 0 0.0020103511148759508 0.030293261877040793 0 0.0027926014002565584 0.03062437135438199 0 0.00143282198827967 0.030880645606764647 0 0.0020103511148759508 0.030293261877040793 0 0.00143282198827967 0.030880645606764647 0 0.0020103511148759508 0.030293261877040793 0 0.0014293848869421967 0.030454306680919242 0 0.00143282198827967 0.030880645606764647 0 0.0014293848869421967 0.030454306680919242 0 0.0010230829104964697 0.030599809239750149 0 0.0014293848869421967 0.030454306680919242 0 0.0012230680166759687 0.030096355725672673 0 0.0010230829104964697 0.030599809239750149 0 0.0020103511148759508 0.030293261877040793 0 0.0014293848869421967 0.030454306680919242 0 0.001728986881904162 0.029672731124704612 0 0.0014293848869421967 0.030454306680919242 0 0.0012230680166759687 0.030096355725672673 0 0.001728986881904162 0.029672731124704612 0 0.0012027252534326338 0.029501319482357402 0 0.0012230680166759687 0.030096355725672673 0 0.001728986881904162 0.029672731124704612 0 0.0028789087806420765 0.029557113572761872 0 0.0020103511148759508 0.030293261877040793 0 0.001728986881904162 0.029672731124704612 0 0.0007041223622773694 0.030581427206090507 0 0.00054356560237312499 0.030804852762702849 0 0.00076273973748021591 0.0307688038911322 0 0.0007041223622773694 0.030581427206090507 0 0.00054356560237312499 0.030804852762702849 0 0.00051017495894972406 0.030621944832630206 0 0.00054356560237312499 0.030804852762702849 0 0.00051017495894972406 0.030621944832630206 0 0.00036324994273268321 0.030875131592523773 0 0.0006943436739686818 0.030995117032457713 0 0.00054356560237312499 0.030804852762702849 0 0.00076273973748021591 0.0307688038911322 0 0.0010108047329143914 0.030927207664538242 0 0.00076273973748021591 0.0307688038911322 0 0.0010230829104964697 0.030599809239750149 0 0.0007041223622773694 0.030581427206090507 0 0.00076273973748021591 0.0307688038911322 0 0.0010230829104964697 0.030599809239750149 0 0.0007041223622773694 0.030581427206090507 0 0.0010230829104964697 0.030599809239750149 0 0.00086718665436021644 0.03012660901850912 0 0.0012230680166759687 0.030096355725672673 0 0.0010230829104964697 0.030599809239750149 0 0.00086718665436021644 0.03012660901850912 0 0.0012027252534326338 0.029501319482357402 0 0.0012230680166759687 0.030096355725672673 0 0.00086718665436021644 0.03012660901850912 0 0.0006528680698011987 0.029994286044436543 0 0.00086718665436021644 0.03012660901850912 0 0.00051017495894972406 0.030621944832630206 0 0.0007041223622773694 0.030581427206090507 0 0.00086718665436021644 0.03012660901850912 0 0.00051017495894972406 0.030621944832630206 0 0.0003725349260583055 0.030591246333647414 0 0.0006528680698011987 0.029994286044436543 0 0.00051017495894972406 0.030621944832630206 0 0.00032176695880279776 0.031020340660152645 0 0.00037424794268570041 0.03083539660478132 0 0.00029945606013523634 0.031596766017793494 0 0.0003725349260583055 0.030591246333647414 0 0.00051017495894972406 0.030621944832630206 0 0.00032176695880279776 0.031020340660152645 0 0.0003725349260583055 0.030591246333647414 0 0.00032176695880279776 0.031020340660152645 0 0.00029945606013523634 0.031596766017793494 0 0.00051017495894972406 0.030621944832630206 0 0.00032176695880279776 0.031020340660152645 0 0.00036324994273268321 0.030875131592523773 0 0.00032176695880279776 0.031020340660152645 0 0.00036324994273268321 0.030875131592523773 0 0.00037424794268570041 0.03083539660478132 0 0.00054356560237312499 0.030804852762702849 0 0.00036324994273268321 0.030875131592523773 0 0.00046998621892685173 0.030960873722090908 0 0.00036324994273268321 0.030875131592523773 0 0.00037424794268570041 0.03083539660478132 0 0.00046998621892685173 0.030960873722090908 0 0.0023784467424112716 0.036784378363361993 0 0.00041295197065085965 0.034398987987531465 0 0.00029945606013523634 0.031596766017793494 0 -9.3158230794432805e-05 0.037438796475418409 0 0.00041295197065085965 0.034398987987531465 0 -0.0022533543067347131 0.03573274468142261 0 0.0012599196540831383 0.033686318566457242 0 0.00046629450195820305 0.03179737085548686 0 0.0023784467424112716 0.036784378363361993 0 -9.3158230794432805e-05 0.037438796475418409 0 0.00041295197065085965 0.034398987987531465 0 -0.0019817429199842414 0.031820674447711424 0 0.00030381350765135091 0.034271853363065916 0 -0.0021445659046490082 0.030741839832794146 0 0.00041295197065085965 0.034398987987531465 0 0.00029945606013523634 0.031596766017793494 0 -0.0019795249236106835 0.032689813138359419 0 0.00041295197065085965 0.034398987987531465 0 -0.0022533543067347131 0.03573274468142261 0 -0.0019795249236106835 0.032689813138359419 0 -0.004007896573955394 0.033803287635037212 0 -0.0022533543067347131 0.03573274468142261 0 -0.004007896573955394 0.033803287635037212 0 -0.0051589866985267945 0.038286225795094921 0 -0.0061150162081651614 0.034669635535234507 0 -0.004007896573955394 0.033803287635037212 0 -0.0022533543067347131 0.03573274468142261 0 -0.0051589866985267945 0.038286225795094921 0 -9.3158230794432805e-05 0.037438796475418409 0 -0.0022533543067347131 0.03573274468142261 0 -0.0020786501292401273 0.039420208374079932 0 -0.0022533543067347131 0.03573274468142261 0 -0.0020786501292401273 0.039420208374079932 0 -0.0051589866985267945 0.038286225795094921 0 -0.0020786501292401273 0.039420208374079932 0 -0.0051589866985267945 0.038286225795094921 0 -0.0028037820939383132 0.043990749349328929 0 -0.0039890379279440558 0.042235563212648965 0 -0.0028314074281194138 0.044012291115540329 0 -0.0030224596428658416 0.046071892978275915 0 -0.0028037820939383132 0.043990749349328929 0 -0.0028611389194366666 0.044875703176227549 0 -0.0020786501292401273 0.039420208374079932 0 -0.0028037820939383132 0.043990749349328929 0 -0.0011483741305401501 0.04237073441271251 0 -0.0020786501292401273 0.039420208374079932 0 -0.0011483741305401501 0.04237073441271251 0 -8.1157533493488314e-05 0.040513774051843782 0 -0.0028037820939383132 0.043990749349328929 0 -0.0011483741305401501 0.04237073441271251 0 -0.0012570067672054031 0.044394559688560882 0 -0.0011483741305401501 0.04237073441271251 0 0.00020706612809445675 0.042968743292644544 0 -0.0012570067672054031 0.044394559688560882 0 -0.0011483741305401501 0.04237073441271251 0 0.00020706612809445675 0.042968743292644544 0 -8.1157533493488314e-05 0.040513774051843782 0 0.0016500723968939709 0.04173351067392965 0 -8.1157533493488314e-05 0.040513774051843782 0 0.0014853842351903199 0.039543095179222665 0 0.00020706612809445675 0.042968743292644544 0 0.0016500723968939709 0.04173351067392965 0 -8.1157533493488314e-05 0.040513774051843782 0 0.00020706612809445675 0.042968743292644544 0 0.0016500723968939709 0.04173351067392965 0 0.0017288109078159144 0.043709466467454425 0 0.0025352597616003095 0.042640956423697134 0 0.0030501347882149711 0.043760123000438807 0 0.0017288109078159144 0.043709466467454425 0 0.0016500723968939709 0.04173351067392965 0 0.0025352597616003095 0.042640956423697134 0 0.0017288109078159144 0.043709466467454425 0 0.0022121011934767899 0.03671042578932996 0 0.00047863357062009611 0.035830848199848664 0 0.0025352597616003095 0.042640956423697134 0 0.003517529879599455 0.041099742454046552 0 0.0030501347882149711 0.043760123000438807 0 0.003517529879599455 0.041099742454046552 0 0.0044349136501844345 0.044954231838718703 0 0.0030501347882149711 0.043760123000438807 0 0.00041332879048104176 0.031342166497396483 0 0.00037273737851223891 0.03129097148635606 0 0.0003930014150396104 0.031379648644035571 0 0.00053554186468118261 0.031160998025443715 0 0.00041332879048104176 0.031342166497396483 0 0.00037273737851223891 0.03129097148635606 0 0.0016500723968939709 0.04173351067392965 0 0.003517529879599455 0.041099742454046552 0 0.0014853842351903199 0.039543095179222665 0 0.0016500723968939709 0.04173351067392965 0 0.0025352597616003095 0.042640956423697134 0 0.003517529879599455 0.041099742454046552 0 0.00037424794268570041 0.03083539660478132 0 0.00037273737851223891 0.03129097148635606 0 0.00046998621892685173 0.030960873722090908 0 0.0012599196540831383 0.033686318566457242 0 0.0022121011934767899 0.03671042578932996 0 0.0023784467424112716 0.036784378363361993 0 0.003517529879599455 0.041099742454046552 0 0.0014853842351903199 0.039543095179222665 0 0.00053554186468118261 0.031160998025443715 0 0.00037273737851223891 0.03129097148635606 0 0.00046998621892685173 0.030960873722090908 0 0.0023784467424112716 0.036784378363361993 0 -9.3158230794432805e-05 0.037438796475418409 0 0.0014853842351903199 0.039543095179222665 0 -9.3158230794432805e-05 0.037438796475418409 0 -8.1157533493488314e-05 0.040513774051843782 0 0.0014853842351903199 0.039543095179222665 0 -9.3158230794432805e-05 0.037438796475418409 0 -0.0020786501292401273 0.039420208374079932 0 -8.1157533493488314e-05 0.040513774051843782 0 -0.0014557663842279826 0.047457985768259464 0 -0.0012933011404853128 0.047069522248789006 0 -0.0012316208041077414 0.04825738085045523 0 -0.0014557663842279826 0.047457985768259464 0 -0.0013712322275814652 0.047572420947484678 0 -0.0012316208041077414 0.04825738085045523 0 -0.0010521491963720892 0.048348521175264204 0 -0.0015196658346004965 0.046925411031590446 0 -0.0014557663842279826 0.047457985768259464 0 -0.0013712322275814652 0.047572420947484678 0 -0.0015205469565685976 0.047469759600137454 0 -0.00070639633696212289 0.046992054882243235 0 -0.0013712322275814652 0.047572420947484678 0 -0.0015205469565685976 0.047469759600137454 0 -0.0014557663842279826 0.047457985768259464 0 -0.0015205469565685976 0.047469759600137454 0 -0.0018170478943873747 0.046976308185059483 0 -0.0015205469565685976 0.047469759600137454 0 -0.0018170478943873747 0.046976308185059483 0 -0.0023543320152028101 0.04728528488728885 0 -0.0018170478943873747 0.046976308185059483 0 -0.0023543320152028101 0.04728528488728885 0 -0.002246006770824822 0.046428590296329661 0 -0.0048225856459437333 0.039249345361711201 0 -0.0041421376821022147 0.041118015282622426 0 -0.0018355024648047719 0.0475671628030956 0 -0.0015205469565685976 0.047469759600137454 0 -0.0023543320152028101 0.04728528488728885 0 -0.0054264594855321559 0.0315944877308812 0 -0.004007896573955394 0.033803287635037212 0 -0.0061150162081651614 0.034669635535234507 0 -0.0030224596428658416 0.046071892978275915 0 -0.0023543320152028101 0.04728528488728885 0 -0.002246006770824822 0.046428590296329661 0 -0.0039890379279440558 0.042235563212648965 0 -0.0041421376821022147 0.041118015282622426 0 -0.0030224596428658416 0.046071892978275915 0 -0.0025387295510701673 0.045653681352623057 0 -0.002246006770824822 0.046428590296329661 0 -0.0030224596428658416 0.046071892978275915 0 -0.0025387295510701673 0.045653681352623057 0 -0.0028611389194366666 0.044875703176227549 0 -0.0025387295510701673 0.045653681352623057 0 -0.0021218684454018537 0.045766494355914532 0 -0.002246006770824822 0.046428590296329661 0 -0.0025387295510701673 0.045653681352623057 0 -0.0021218684454018537 0.045766494355914532 0 -0.0025642880127917079 0.044948574068229746 0 -0.0018170478943873747 0.046976308185059483 0 -0.002246006770824822 0.046428590296329661 0 -0.0017303717351481482 0.046538716856624536 0 -0.0021218684454018537 0.045766494355914532 0 -0.002246006770824822 0.046428590296329661 0 -0.0017303717351481482 0.046538716856624536 0 -0.0014557663842279826 0.047457985768259464 0 -0.0018170478943873747 0.046976308185059483 0 -0.0017303717351481482 0.046538716856624536 0 -0.0014557663842279826 0.047457985768259464 0 -0.0017303717351481482 0.046538716856624536 0 -0.0012933011404853128 0.047069522248789006 0 -0.0017303717351481482 0.046538716856624536 0 -0.0014867802996842319 0.046259702700177763 0 -0.0012933011404853128 0.047069522248789006 0 -0.0021218684454018537 0.045766494355914532 0 -0.0017303717351481482 0.046538716856624536 0 -0.0017438386502873703 0.045969107930796206 0 -0.0017438386502873703 0.045969107930796206 0 -0.0014867802996842319 0.046259702700177763 0 -0.0016102140605269862 0.045492044091483781 0 -0.0021218684454018537 0.045766494355914532 0 -0.0017438386502873703 0.045969107930796206 0 -0.0016102140605269862 0.045492044091483781 0 -0.0017303717351481482 0.046538716856624536 0 -0.0017438386502873703 0.045969107930796206 0 -0.0014867802996842319 0.046259702700177763 0 -0.0014867802996842319 0.046259702700177763 0 -0.0009684002297081053 0.046352278501980176 0 -0.0012933011404853128 0.047069522248789006 0 -0.0014867802996842319 0.046259702700177763 0 -0.0009684002297081053 0.046352278501980176 0 -0.0016102140605269862 0.045492044091483781 0 0.00089998434887513109 0.047522022406028493 0 0.0011465882184434129 0.047213735940558506 0 0.00062149234063887926 0.047881916646566332 0 0.00089998434887513109 0.047522022406028493 0 0.00062149234063887926 0.047881916646566332 0 0.00078927895893149327 0.047977901800323249 0 -0.0004540513297476192 0.047559109903402334 0 -5.6587237865506309e-05 0.046839114679226225 0 0.00045084595242970104 0.048837567204537698 0 0.00022068887676500687 0.04842925080590349 0 -0.00034177695966394078 0.048336363020959595 0 0.00089998434887513109 0.047522022406028493 0 0.00082322150536902089 0.047724521566838471 0 0.00078927895893149327 0.047977901800323249 0 0.00070240009576703585 0.048072600100011756 0 -5.6587237865506309e-05 0.046839114679226225 0 0.00089998434887513109 0.047522022406028493 0 0.00082322150536902089 0.047724521566838471 0 0.0011716364351637026 0.04701498099657072 0 0.00089998434887513109 0.047522022406028493 0 0.0011716364351637026 0.04701498099657072 0 0.0011465882184434129 0.047213735940558506 0 0.0011716364351637026 0.04701498099657072 0 0.0015194271941707678 0.046635522772160529 0 0.0011465882184434129 0.047213735940558506 0 -5.6587237865506309e-05 0.046839114679226225 0 0.0013760197421776004 0.047073695905088558 0 0.0011465882184434129 0.047213735940558506 0 0.0015993026035075744 0.046995889609779407 0 0.00062149234063887926 0.047881916646566332 0 0.0011465882184434129 0.047213735940558506 0 0.0015628113040271651 0.046819925494483425 0 0.0015993026035075744 0.046995889609779407 0 0.0015194271941707678 0.046635522772160529 0 0.0011465882184434129 0.047213735940558506 0 0.0015628113040271651 0.046819925494483425 0 0.0015194271941707678 0.046635522772160529 0 0.0019916697299032643 0.046404617421883169 0 0.0021700875821963109 0.046149875145777043 0 0.0015628113040271651 0.046819925494483425 0 0.0019916697299032643 0.046404617421883169 0 0.0015993026035075744 0.046995889609779407 0 0.0015194271941707678 0.046635522772160529 0 0.0015628113040271651 0.046819925494483425 0 0.0019916697299032643 0.046404617421883169 0 -5.6587237865506309e-05 0.046839114679226225 0 -0.00024741793689207796 0.045454178858554434 0 0.0011939795595219218 0.046622910001979968 0 0.0015194271941707678 0.046635522772160529 0 0.0021700875821963109 0.046149875145777043 0 -0.0021218684454018537 0.045766494355914532 0 -0.0016102140605269862 0.045492044091483781 0 -0.0025642880127917079 0.044948574068229746 0 -0.00024741793689207796 0.045454178858554434 0 -0.00039082475897107589 0.045856134049458354 0 -0.0025387295510701673 0.045653681352623057 0 -0.0025642880127917079 0.044948574068229746 0 -0.0028611389194366666 0.044875703176227549 0 0.0021700875821963109 0.046149875145777043 0 0.0022777550467245455 0.045835646066465098 0 0.0020207836524106936 0.045854620589714339 0 0.0019916697299032643 0.046404617421883169 0 0.0021700875821963109 0.046149875145777043 0 0.0022777550467245455 0.045835646066465098 0 0.0019916697299032643 0.046404617421883169 0 0.0022777550467245455 0.045835646066465098 0 0.0023875390137068045 0.045856899377287312 0 0.0023875390137068045 0.045856899377287312 0 0.002363082349644479 0.045430036135223173 0 0.0022966447650949158 0.045407414275434044 0 0.0022777550467245455 0.045835646066465098 0 0.0023875390137068045 0.045856899377287312 0 0.0022966447650949158 0.045407414275434044 0 0.0022862570950366438 0.045652899756651676 0 0.0023157744694851891 0.044722788454781413 0 0.002545672807622574 0.045267138848939757 0 0.002363082349644479 0.045430036135223173 0 0.0023217369469126295 0.0450474458847707 0 0.0023875390137068045 0.045856899377287312 0 0.002545672807622574 0.045267138848939757 0 0.002363082349644479 0.045430036135223173 0 0.002363082349644479 0.045430036135223173 0 0.0022966447650949158 0.045407414275434044 0 0.0023217369469126295 0.0450474458847707 0 0.0023157744694851891 0.044722788454781413 0 0.0018538418127884173 0.043935618609816277 0 0.0088268114791525999 0.044185323157848636 0 0.0077834612201034001 0.04282797496303857 0 0.006247360018817572 0.043595362073350817 0 -0.0055260960537800849 0.046974897751375241 0 -0.005337363891433535 0.044766121950166202 0 -0.0036913099685656715 0.045451381241722551 0 0.0088268114791525999 0.044185323157848636 0 0.0077834612201034001 0.04282797496303857 0 0.0091168697942012131 0.041936332976965848 0 0.0077834612201034001 0.04282797496303857 0 0.0091168697942012131 0.041936332976965848 0 0.0075223424222934602 0.040833287067091648 0 -0.0036913099685656715 0.045451381241722551 0 -0.0023532493909371433 0.047793976232498321 0 -0.0016009028009138398 0.045387126211228673 0 -0.0055260960537800849 0.046974897751375241 0 -0.0036913099685656715 0.045451381241722551 0 -0.0023532493909371433 0.047793976232498321 0 -0.005337363891433535 0.044766121950166202 0 -0.0036913099685656715 0.045451381241722551 0 -0.0041836917675455772 0.043839208279550797 0 -0.0036913099685656715 0.045451381241722551 0 -0.0016009028009138398 0.045387126211228673 0 -0.0028284536320904189 0.043950952297814053 0 0.0019916697299032643 0.046404617421883169 0 0.0023875390137068045 0.045856899377287312 0 0.0015993026035075744 0.046995889609779407 0 0.0023157744694851891 0.044722788454781413 0 -0.0012084892410226232 0.047398366334941627 0 0.0023875390137068045 0.045856899377287312 0 0.0023535875229043829 0.046159931984770121 0 0.0015993026035075744 0.046995889609779407 0 -0.0023532493909371433 0.047793976232498321 0 -0.00054248768835855042 0.046922927085450275 0 0.00062149234063887926 0.047881916646566332 0 -0.0012084892410226232 0.047398366334941627 0 0.00075360333602982293 0.04783374189518276 0 -0.0023532493909371433 0.047793976232498321 0 -0.00054248768835855042 0.046922927085450275 0 -0.0016009028009138398 0.045387126211228673 0 -0.00054248768835855042 0.046922927085450275 0 -0.0016009028009138398 0.045387126211228673 0 -0.00012099747486838338 0.045414536029186395 0 -0.00054248768835855042 0.046922927085450275 0 -0.00012099747486838338 0.045414536029186395 0 0.00057022781921319346 0.047016756383902875 0 -0.00012099747486838338 0.045414536029186395 0 0.00097325161960347482 0.045921489723027356 0 0.00057022781921319346 0.047016756383902875 0 0.00097325161960347482 0.045921489723027356 0 0.00057022781921319346 0.047016756383902875 0 0.0012351048113347094 0.047270626161609562 0 -0.00054248768835855042 0.046922927085450275 0 0.00057022781921319346 0.047016756383902875 0 0.00062149234063887926 0.047881916646566332 0 0.00057022781921319346 0.047016756383902875 0 0.00062149234063887926 0.047881916646566332 0 0.0010569599424651824 0.047821634192729418 0 0.0011406372935808093 0.044405930902088678 0 0.0013268936755228523 0.044572204091493157 0 0.00082934141694514674 0.044198460469057135 0 0.0011406372935808093 0.044405930902088678 0 0.0013268936755228523 0.044572204091493157 0 0.0012530726413459454 0.044315369539645239 0 0.00076136145388468104 0.039190733043598804 0 0.00080671318329194643 0.043650784469947732 0 0.00080671318329194643 0.043650784469947732 0 0.0016792414016891435 0.045045945703659732 0 0.0013268936755228523 0.044572204091493157 0 0.001528483821157015 0.044339099183418725 0 0.0018699947650136458 0.044653849006667884 0 0.0013268936755228523 0.044572204091493157 0 0.001528483821157015 0.044339099183418725 0 0.0012530726413459454 0.044315369539645239 0 0.001528483821157015 0.044339099183418725 0 0.0012530726413459454 0.044315369539645239 0 0.0011904293517334119 0.044042915035444163 0 0.0011406372935808093 0.044405930902088678 0 0.0012530726413459454 0.044315369539645239 0 0.0010746606690337705 0.044180932544664632 0 0.0010746606690337705 0.044180932544664632 0 0.00097604606883670527 0.043967901281032895 0 0.0011904293517334119 0.044042915035444163 0 0.0012530726413459454 0.044315369539645239 0 0.0010746606690337705 0.044180932544664632 0 0.0011904293517334119 0.044042915035444163 0 0.0010746606690337705 0.044180932544664632 0 0.00097604606883670527 0.043967901281032895 0 0.00086529695115897341 0.044026005412189255 0 5.0574502171472774e-05 0.039893901796819113 0 0.00076136145388468104 0.039190733043598804 0 5.0574502171472774e-05 0.039893901796819113 0 0.00080671318329194643 0.043650784469947732 0 -0.00010110427012872153 0.040918639976015088 0 0.00071928072832408104 0.041193384884028045 0 0.00095048389768296508 0.041112604523994616 0 0.00047213511220357498 0.044048739092654166 0 0.0013268936755228523 0.044572204091493157 0 0.00082934141694514674 0.044198460469057135 0 -0.00030094567548526082 0.031910657963206156 0 0.00067747256975394631 0.032217216024624337 0 6.7676582975634367e-05 0.032192680346410998 0 0.00097604606883670527 0.043967901281032895 0 0.00086529695115897341 0.044026005412189255 0 0.00079825178666826746 0.043795704139721704 0 0.00086529695115897341 0.044026005412189255 0 0.00097937555611594235 0.044205160329088729 0 0.00082934141694514674 0.044198460469057135 0 0.0011406372935808093 0.044405930902088678 0 0.0010746606690337705 0.044180932544664632 0 0.00097937555611594235 0.044205160329088729 0 0.0010746606690337705 0.044180932544664632 0 0.00086529695115897341 0.044026005412189255 0 0.00097937555611594235 0.044205160329088729 0 0.00063856380499488139 0.043787143184709734 0 0.00067129353190694687 0.043992171899880146 0 0.00054560438193829923 0.043900466016511416 0 0.0004446456632665018 0.043728665169444195 0 0.00063856380499488139 0.043787143184709734 0 0.00054560438193829923 0.043900466016511416 0 0.00086529695115897341 0.044026005412189255 0 0.00063856380499488139 0.043787143184709734 0 0.00079825178666826746 0.043795704139721704 0 0.00086529695115897341 0.044026005412189255 0 0.00063856380499488139 0.043787143184709734 0 0.00067129353190694687 0.043992171899880146 0 0.00086529695115897341 0.044026005412189255 0 0.00067129353190694687 0.043992171899880146 0 0.00082934141694514674 0.044198460469057135 0 0.00047213511220357498 0.044048739092654166 0 0.00067129353190694687 0.043992171899880146 0 0.00054560438193829923 0.043900466016511416 0 0.00047213511220357498 0.044048739092654166 0 0.00067129353190694687 0.043992171899880146 0 0.00082934141694514674 0.044198460469057135 0 -0.00030094567548526082 0.031910657963206156 0 6.7676582975634367e-05 0.032192680346410998 0 -0.00015163419812161644 0.032152296370597369 0 0.0011406372935808093 0.044405930902088678 0 0.00097937555611594235 0.044205160329088729 0 0.00082934141694514674 0.044198460469057135 0 0.00067747256975394631 0.032217216024624337 0 6.7676582975634367e-05 0.032192680346410998 0 -0.00016768006180481685 0.03252503154302671 0 0.0014398412452321578 0.046055297363082386 0 0.0020206692619103 0.044714611804310106 0 0.0044349136501844345 0.044954231838718703 0 0.00076136145388468104 0.039190733043598804 0 0.00047863357062009611 0.035830848199848664 0 6.7676582975634367e-05 0.032192680346410998 0 -0.00015163419812161644 0.032152296370597369 0 -0.00016768006180481685 0.03252503154302671 0 0.0020206692619103 0.044714611804310106 0 0.0044349136501844345 0.044954231838718703 0 0.0030501347882149711 0.043760123000438807 0 0.0020206692619103 0.044714611804310106 0 0.0030501347882149711 0.043760123000438807 0 0.0017288109078159144 0.043709466467454425 0 0.0020206692619103 0.044714611804310106 0 0.0017288109078159144 0.043709466467454425 0 0.00045259667300362439 0.044707619698151679 0 0.00020706612809445675 0.042968743292644544 0 0.0017288109078159144 0.043709466467454425 0 0.00045259667300362439 0.044707619698151679 0 0.0014398412452321578 0.046055297363082386 0 0.00039640066205148101 0.046355795310251184 0 0.0020206692619103 0.044714611804310106 0 0.00039640066205148101 0.046355795310251184 0 0.0020206692619103 0.044714611804310106 0 0.00045259667300362439 0.044707619698151679 0 0.00039640066205148101 0.046355795310251184 0 0.00045259667300362439 0.044707619698151679 0 -0.00092094412022241897 0.045207416245011629 0 0.00045259667300362439 0.044707619698151679 0 -0.0012570067672054031 0.044394559688560882 0 -0.00092094412022241897 0.045207416245011629 0 0.00020706612809445675 0.042968743292644544 0 0.00045259667300362439 0.044707619698151679 0 -0.0012570067672054031 0.044394559688560882 0 0.00039640066205148101 0.046355795310251184 0 -0.00092094412022241897 0.045207416245011629 0 -0.0029674676013317163 0.045174354828221443 0 -0.0028037820939383132 0.043990749349328929 0 -0.0012570067672054031 0.044394559688560882 0 -0.0029674676013317163 0.045174354828221443 0 -0.0012570067672054031 0.044394559688560882 0 -0.00092094412022241897 0.045207416245011629 0 -0.0029674676013317163 0.045174354828221443 0 -0.0025642880127917079 0.044948574068229746 0 -0.0028611389194366666 0.044875703176227549 0 -0.0029674676013317163 0.045174354828221443 0 -0.0028037820939383132 0.043990749349328929 0 -0.0028611389194366666 0.044875703176227549 0 -0.0029674676013317163 0.045174354828221443 0 0.0022777550467245455 0.045835646066465098 0 0.0020207836524106936 0.045854620589714339 0 0.0021187040826307476 0.045246888512975716 0 0.0022777550467245455 0.045835646066465098 0 0.0021187040826307476 0.045246888512975716 0 0.0022966447650949158 0.045407414275434044 0 0.00080671318329194643 0.043650784469947732 0 -0.00039082475897107589 0.045856134049458354 0 0.00091035780381795489 0.045686169843747293 0 0.0020207836524106936 0.045854620589714339 0 0.0015247071487836607 0.045459379838234573 0 0.0020207836524106936 0.045854620589714339 0 0.0021187040826307476 0.045246888512975716 0 0.0015247071487836607 0.045459379838234573 0 0.0020965536217116805 0.045120256856937664 0 0.0016792414016891435 0.045045945703659732 0 0.0021187040826307476 0.045246888512975716 0 0.0018699947650136458 0.044653849006667884 0 0.0019473031457477366 0.044511932454990466 0 0.001528483821157015 0.044339099183418725 0 0.0018699947650136458 0.044653849006667884 0 0.0019473031457477366 0.044511932454990466 0 0.001528483821157015 0.044339099183418725 0 0.0019473031457477366 0.044511932454990466 0 0.0015038102567320826 0.043950884492236234 0 0.0019473031457477366 0.044511932454990466 0 0.0021290442011090266 0.044046984538560367 0 0.0021847239675352927 0.044712687132562122 0 0.0021290442011090266 0.044046984538560367 0 0.0016185695570754214 0.043440725315748642 0 0.0015038102567320826 0.043950884492236234 0 0.0019473031457477366 0.044511932454990466 0 0.0021290442011090266 0.044046984538560367 0 0.0015038102567320826 0.043950884492236234 0 0.002545672807622574 0.045267138848939757 0 0.0023217369469126295 0.0450474458847707 0 0.0022792482611424954 0.044404727910181012 0 0.0021187040826307476 0.045246888512975716 0 0.0022966447650949158 0.045407414275434044 0 0.0021847239675352927 0.044712687132562122 0 0.0021187040826307476 0.045246888512975716 0 0.0019473031457477366 0.044511932454990466 0 0.0021847239675352927 0.044712687132562122 0 0.0021290442011090266 0.044046984538560367 0 0.0021847239675352927 0.044712687132562122 0 0.0022792482611424954 0.044404727910181012 0 0.0021847239675352927 0.044712687132562122 0 0.0023217369469126295 0.0450474458847707 0 0.0022792482611424954 0.044404727910181012 0 0.0022966447650949158 0.045407414275434044 0 0.0021847239675352927 0.044712687132562122 0 0.0023217369469126295 0.0450474458847707 0 0.0023157744694851891 0.044722788454781413 0 0.0047341727931183965 0.044060252955403563 0 0.006247360018817572 0.043595362073350817 0 0.0054515344903060493 0.041829829323908725 0 0.0067720747642864417 0.042245161168605903 0 0.0077834612201034001 0.04282797496303857 0 0.006247360018817572 0.043595362073350817 0 0.0067720747642864417 0.042245161168605903 0 0.0077834612201034001 0.04282797496303857 0 0.0067720747642864417 0.042245161168605903 0 0.0075223424222934602 0.040833287067091648 0 0.006247360018817572 0.043595362073350817 0 0.0054515344903060493 0.041829829323908725 0 0.0023229235423174589 0.042895219120977102 0 0.0021290442011090266 0.044046984538560367 0 0.0022792482611424954 0.044404727910181012 0 0.0023229235423174589 0.042895219120977102 0 0.0047341727931183965 0.044060252955403563 0 0.0021451643318057402 0.043004601064244682 0 0.0021290442011090266 0.044046984538560367 0 0.0023229235423174589 0.042895219120977102 0 0.0016185695570754214 0.043440725315748642 0 0.0054515344903060493 0.041829829323908725 0 0.0023229235423174589 0.042895219120977102 0 0.004677249422775062 0.039850319741056323 0 0.0023229235423174589 0.042895219120977102 0 0.001596380199670473 0.041681146643218717 0 0.0025274322245687894 0.040351750755858694 0 0.0023229235423174589 0.042895219120977102 0 0.001596380199670473 0.041681146643218717 0 0.00093027658820487712 0.042717385752259349 0 0.00093027658820487712 0.042717385752259349 0 0.0016185695570754214 0.043440725315748642 0 0.0010474641897636136 0.043352476783007694 0 0.00093027658820487712 0.042717385752259349 0 0.0010474641897636136 0.043352476783007694 0 0.00071763020741894522 0.042853123563687978 0 0.0023229235423174589 0.042895219120977102 0 0.00093027658820487712 0.042717385752259349 0 0.0016185695570754214 0.043440725315748642 0 0.0016185695570754214 0.043440725315748642 0 0.0015038102567320826 0.043950884492236234 0 0.0010474641897636136 0.043352476783007694 0 0.0015038102567320826 0.043950884492236234 0 0.0010474641897636136 0.043352476783007694 0 0.0010504879759038134 0.043666837671746422 0 0.0010474641897636136 0.043352476783007694 0 0.0010504879759038134 0.043666837671746422 0 0.0007256153389019487 0.043264623595060725 0 0.0015038102567320826 0.043950884492236234 0 0.0010504879759038134 0.043666837671746422 0 0.0011904293517334119 0.044042915035444163 0 0.0010504879759038134 0.043666837671746422 0 0.0011904293517334119 0.044042915035444163 0 0.00089339838709964184 0.043715029659193161 0 0.001528483821157015 0.044339099183418725 0 0.0015038102567320826 0.043950884492236234 0 0.0011904293517334119 0.044042915035444163 0 0.00042461545236223267 0.043457471742944322 0 0.00063856380499488139 0.043787143184709734 0 0.00061941832255219909 0.043476055606692265 0 0.00063856380499488139 0.043787143184709734 0 0.00061941832255219909 0.043476055606692265 0 0.00079825178666826746 0.043795704139721704 0 0.00097604606883670527 0.043967901281032895 0 0.00079825178666826746 0.043795704139721704 0 0.00089339838709964184 0.043715029659193161 0 0.00061941832255219909 0.043476055606692265 0 0.00079825178666826746 0.043795704139721704 0 0.00089339838709964184 0.043715029659193161 0 0.00097604606883670527 0.043967901281032895 0 0.0011904293517334119 0.044042915035444163 0 0.00089339838709964184 0.043715029659193161 0 0.00061941832255219909 0.043476055606692265 0 0.00089339838709964184 0.043715029659193161 0 0.0007256153389019487 0.043264623595060725 0 0.0010504879759038134 0.043666837671746422 0 0.00089339838709964184 0.043715029659193161 0 0.0007256153389019487 0.043264623595060725 0 0.00031476618871635625 0.04288895578332861 0 0.00061941832255219909 0.043476055606692265 0 0.0007256153389019487 0.043264623595060725 0 0.00093027658820487712 0.042717385752259349 0 0.00071763020741894522 0.042853123563687978 0 0.00047030559753527047 0.042466568079519353 0 0.00031476618871635625 0.04288895578332861 0 0.0005471646582023489 0.042834814977922318 0 0.00047030559753527047 0.042466568079519353 0 0.0005471646582023489 0.042834814977922318 0 0.00071763020741894522 0.042853123563687978 0 0.00047030559753527047 0.042466568079519353 0 0.00031476618871635625 0.04288895578332861 0 0.0007256153389019487 0.043264623595060725 0 0.0005471646582023489 0.042834814977922318 0 0.0010474641897636136 0.043352476783007694 0 0.0007256153389019487 0.043264623595060725 0 0.00071763020741894522 0.042853123563687978 0 0.0007256153389019487 0.043264623595060725 0 0.0005471646582023489 0.042834814977922318 0 0.00071763020741894522 0.042853123563687978 0 0.00086458415651133119 0.04260934281139498 0 -0.0010238015519359325 0.041546655692887458 0 -0.0022918270906133295 0.040311611626679768 0 0.00034284939948215818 0.03749430815941978 0 0.00041881724090081729 0.040235063491150837 0 0.00093027658820487712 0.042717385752259349 0 -0.0022918270906133295 0.040311611626679768 0 0.00041881724090081729 0.040235063491150837 0 -0.0022918270906133295 0.040311611626679768 0 0.00034284939948215818 0.03749430815941978 0 -0.0032263766605185955 0.036644376251079969 0 -5.5907723399949635e-05 0.035365794965863583 0 0.0030688072007268325 0.036460490194562878 0 0.0029153667038946778 0.031284392016393527 0 -5.5907723399949635e-05 0.035365794965863583 0 0.0025274322245687894 0.040351750755858694 0 0.0030688072007268325 0.036460490194562878 0 0.00021220975348204207 0.036532643241197045 0 0.0024555377480194197 0.040104180186878342 0 0.00034284939948215818 0.03749430815941978 0 0.00041881724090081729 0.040235063491150837 0 0.0025274322245687894 0.040351750755858694 0 0.001596380199670473 0.041681146643218717 0 0.00093027658820487712 0.042717385752259349 0 0.00041881724090081729 0.040235063491150837 0 0.001596380199670473 0.041681146643218717 0 0.00041881724090081729 0.040235063491150837 0 0.0025274322245687894 0.040351750755858694 0 0.0023229235423174589 0.042895219120977102 0 0.0025274322245687894 0.040351750755858694 0 0.004677249422775062 0.039850319741056323 0 0.004677249422775062 0.039850319741056323 0 0.0062252167314462243 0.037515356751837044 0 0.0030688072007268325 0.036460490194562878 0 0.0025274322245687894 0.040351750755858694 0 0.004677249422775062 0.039850319741056323 0 0.0030688072007268325 0.036460490194562878 0 0.004677249422775062 0.039850319741056323 0 0.0085482344387888577 0.0398258790502675 0 0.0062252167314462243 0.037515356751837044 0 0.0054515344903060493 0.041829829323908725 0 0.004677249422775062 0.039850319741056323 0 0.0085482344387888577 0.0398258790502675 0 0.0055511742707795722 0.041789810526685657 0 0.0086300949826022006 0.039841342229166216 0 0.0054515344903060493 0.041829829323908725 0 0.0067720747642864417 0.042245161168605903 0 0.0075223424222934602 0.040833287067091648 0 0.0085482344387888577 0.0398258790502675 0 0.0084501510872132621 0.036826246690935413 0 0.0062252167314462243 0.037515356751837044 0 0.0084501510872132621 0.036826246690935413 0 0.0062252167314462243 0.037515356751837044 0 0.0063685246715311809 0.033829930693897656 0 0.0084501510872132621 0.036826246690935413 0 0.0063685246715311809 0.033829930693897656 0 0.0096375718232872259 0.035025242747160491 0 0.0062252167314462243 0.037515356751837044 0 0.0030688072007268325 0.036460490194562878 0 0.0063685246715311809 0.033829930693897656 0 0.0029153667038946778 0.031284392016393527 0 0.0063685246715311809 0.033829930693897656 0 0.0061957163072245821 0.029306165845846586 0 0.0030688072007268325 0.036460490194562878 0 0.0029153667038946778 0.031284392016393527 0 0.0063685246715311809 0.033829930693897656 0 0.0063404775408491985 0.033505296812156617 0 0.0063289884501903605 0.02909111720261252 0 0.0063685246715311809 0.033829930693897656 0 0.0065054268703075959 0.028676231425460132 0 0.008976242919335891 0.031135299403051805 0 0.0063685246715311809 0.033829930693897656 0 0.0094792574622882229 0.033112135170641238 0 0.008976242919335891 0.031135299403051805 0 0.0063685246715311809 0.033829930693897656 0 0.0096375718232872259 0.035025242747160491 0 0.0094792574622882229 0.033112135170641238 0 0.0029153667038946778 0.031284392016393527 0 0.0061957163072245821 0.029306165845846586 0 0.0037772151117063018 0.028396287395026198 0 0.0029153667038946778 0.031284392016393527 0 0.0016365779826510321 0.028019854819594871 0 0.0037772151117063018 0.028396287395026198 0 0.0029153667038946778 0.031284392016393527 0 -6.5715885385648224e-05 0.029530359531307969 0 0.0016365779826510321 0.028019854819594871 0 0.0029153667038946778 0.031284392016393527 0 -6.5715885385648224e-05 0.029530359531307969 0 0.00028166451327050519 0.031950045184357678 0 -6.5715885385648224e-05 0.029530359531307969 0 -0.0017068926187124103 0.028371815292593281 0 -0.0019534166978432124 0.031239797460993441 0 -6.5715885385648224e-05 0.029530359531307969 0 -0.0019534166978432124 0.031239797460993441 0 0.00028166451327050519 0.031950045184357678 0 0.00021220975348204207 0.036532643241197045 0 -0.001875817887852572 0.032779222821104494 0 -5.5907723399949635e-05 0.035365794965863583 0 -0.0019534166978432124 0.031239797460993441 0 0.00028166451327050519 0.031950045184357678 0 0.00034284939948215818 0.03749430815941978 0 -0.0018951140167192588 0.034351361909805339 0 -0.0032263766605185955 0.036644376251079969 0 -5.5907723399949635e-05 0.035365794965863583 0 0.0029153667038946778 0.031284392016393527 0 0.00028166451327050519 0.031950045184357678 0 0.00044375595174280246 0.040580567339752724 0 0.0015497048973151504 0.036825716424623102 0 0.0037902593759716365 0.039941342028181594 0 0.00044375595174280246 0.040580567339752724 0 0.0024259462838455968 0.043046992447974448 0 0.0037902593759716365 0.039941342028181594 0 0.00044375595174280246 0.040580567339752724 0 0.0024259462838455968 0.043046992447974448 0 -0.00092758526427467547 0.043498572348115591 0 0.0018631041656669738 0.043232401442444154 0 -0.0007099734013423409 0.043521507204334398 0 -0.00012099747486838338 0.045414536029186395 0 0.00097325161960347482 0.045921489723027356 0 0.00080603592322967227 0.043503710844143915 0 -0.00012099747486838338 0.045414536029186395 0 0.00080603592322967227 0.043503710844143915 0 -0.00092758526427467547 0.043498572348115591 0 -0.0016009028009138398 0.045387126211228673 0 -0.00012099747486838338 0.045414536029186395 0 -0.00092758526427467547 0.043498572348115591 0 -0.0016009028009138398 0.045387126211228673 0 -0.00092758526427467547 0.043498572348115591 0 -0.0028284536320904189 0.043950952297814053 0 -0.00092758526427467547 0.043498572348115591 0 -0.0020411295508049108 0.042204329007082327 0 -0.0028284536320904189 0.043950952297814053 0 0.00044375595174280246 0.040580567339752724 0 -0.0023710173574534922 0.040078683902117482 0 0.0015497048973151504 0.036825716424623102 0 -0.0020411295508049108 0.042204329007082327 0 -0.0023710173574534922 0.040078683902117482 0 -0.0034050539469306518 0.042570199660195478 0 0.00044375595174280246 0.040580567339752724 0 -0.00092758526427467547 0.043498572348115591 0 -0.0020411295508049108 0.042204329007082327 0 0.00044375595174280246 0.040580567339752724 0 -0.0020411295508049108 0.042204329007082327 0 -0.0023710173574534922 0.040078683902117482 0 -0.0014299520515096557 0.037623237141977635 0 1.0861528334481555e-05 0.030943531205261925 0 0.00071978283961415769 0.033183436227566546 0 -0.0004727009123021957 0.033933334792686468 0 0.00011877857987788443 0.028817360749392083 0 -0.00043788196323425824 0.036824233216218777 0 -0.0028506964384717986 0.038289918711466801 0 -0.0019323510226621013 0.034508996499662048 0 -0.0044478752166935863 0.041903742736711533 0 -0.0034050539469306518 0.042570199660195478 0 -0.0051915090621334906 0.042432870544799557 0 -0.0014299520515096557 0.037623237141977635 0 0.0040694705815537031 0.038415532499940834 0 -0.0023710173574534922 0.040078683902117482 0 -0.0044478752166935863 0.041903742736711533 0 -0.0034050539469306518 0.042570199660195478 0 -0.0017889833703636359 0.038694799263198978 0 -0.0014299520515096557 0.037623237141977635 0 -0.0020411295508049108 0.042204329007082327 0 -0.0034050539469306518 0.042570199660195478 0 -0.0028284536320904189 0.043950952297814053 0 -0.0034050539469306518 0.042570199660195478 0 -0.0028284536320904189 0.043950952297814053 0 -0.0041836917675455772 0.043839208279550797 0 -0.0036913099685656715 0.045451381241722551 0 -0.0028284536320904189 0.043950952297814053 0 -0.0041836917675455772 0.043839208279550797 0 -0.0034050539469306518 0.042570199660195478 0 -0.0041836917675455772 0.043839208279550797 0 -0.0051915090621334906 0.042432870544799557 0 0.0091168697942012131 0.041936332976965848 0 0.0075223424222934602 0.040833287067091648 0 0.0093641829495647519 0.039704296601010249 0 0.0018538418127884173 0.043935618609816277 0 0.0040694705815537031 0.038415532499940834 0 -0.005337363891433535 0.044766121950166202 0 -0.0041836917675455772 0.043839208279550797 0 -0.0051915090621334906 0.042432870544799557 0 0.0085482344387888577 0.0398258790502675 0 0.0084501510872132621 0.036826246690935413 0 0.011467388400794268 0.037950058767671387 0 0.0086300949826022006 0.039841342229166216 0 0.0040694705815537031 0.038415532499940834 0 0.0084501510872132621 0.036826246690935413 0 0.011467388400794268 0.037950058767671387 0 0.0096375718232872259 0.035025242747160491 0 0.0040694705815537031 0.038415532499940834 0 0.0050171202087963282 0.028485302600485072 0 0.011467388400794268 0.037950058767671387 0 0.0096375718232872259 0.035025242747160491 0 0.012080056115886639 0.032681319858884207 0 0.0096375718232872259 0.035025242747160491 0 0.0094792574622882229 0.033112135170641238 0 0.012080056115886639 0.032681319858884207 0 0.0094792574622882229 0.033112135170641238 0 0.008976242919335891 0.031135299403051805 0 0.012080056115886639 0.032681319858884207 0 0.0065054268703075959 0.028676231425460132 0 0.008976242919335891 0.031135299403051805 0 0.010302450628994434 0.027929260296425999 0 0.002562018129954758 0.021843480049723831 0 0.0032247497619095713 0.021955106350256132 0 0.0030832712729992099 0.023566666238003547 0 0.008976242919335891 0.031135299403051805 0 0.010302450628994434 0.027929260296425999 0 0.012080056115886639 0.032681319858884207 0 0.0067100002604869712 0.024974601359991359 0 0.0050171202087963282 0.028485302600485072 0 1.0861528334481555e-05 0.030943531205261925 0 0.00070478226896951077 0.027462815095798482 0 0.00073481664908936419 0.025050040649288889 0 0.0017996607957516013 0.028145719195557469 0 0.00011877857987788443 0.028817360749392083 0 0.00073481664908936419 0.025050040649288889 0 0.0017996607957516013 0.028145719195557469 0 0.0024503129409289811 0.024065979695718907 0 0.0018047708974868151 0.023173222795471345 0 0.0050171202087963282 0.028485302600485072 0 0.00071978283961415769 0.033183436227566546 0 0.0017996607957516013 0.028145719195557469 0 0.00011877857987788443 0.028817360749392083 0 -0.0017889833703636359 0.038694799263198978 0 0.0024687832177347083 0.03573211078992098 0 0.00031229296963562753 0.034812231949307423 0 0.00066712721552343016 0.03305545682378188 0 0.002957956067806538 0.034851211715977194 0 -0.00043788196323425824 0.036824233216218777 0 0.00031229296963562753 0.034812231949307423 0 0.002957956067806538 0.034851211715977194 0 -0.0019323510226621013 0.034508996499662048 0 0.00031229296963562753 0.034812231949307423 0 0.00066712721552343016 0.03305545682378188 0 -0.00043788196323425824 0.036824233216218777 0 -0.0019323510226621013 0.034508996499662048 0 0.00031229296963562753 0.034812231949307423 0 -0.0019323510226621013 0.034508996499662048 0 0.00066712721552343016 0.03305545682378188 0 -0.00095890694442175536 0.030591439955775061 0 0.00066712721552343016 0.03305545682378188 0 0.001233920799929009 0.030043311060341835 0 -0.00095890694442175536 0.030591439955775061 0 0.00066712721552343016 0.03305545682378188 0 0.0033373734513690127 0.031636236211555112 0 0.002957956067806538 0.034851211715977194 0 0.00066712721552343016 0.03305545682378188 0 0.0033373734513690127 0.031636236211555112 0 0.001233920799929009 0.030043311060341835 0 0.0029336394217816062 0.028339353506232724 0 0.0002648193740962509 0.026601262263892148 0 0.0031499030536942937 0.025204407621449924 0 0.0029336394217816062 0.028339353506232724 0 0.0031499030536942937 0.025204407621449924 0 0.0046776675688461047 0.026624376366226742 0 0.0033373734513690127 0.031636236211555112 0 0.0029336394217816062 0.028339353506232724 0 0.001233920799929009 0.030043311060341835 0 0.0033373734513690127 0.031636236211555112 0 0.0029336394217816062 0.028339353506232724 0 0.0056580109530797546 0.028850861303644136 0 0.001233920799929009 0.030043311060341835 0 0.0002648193740962509 0.026601262263892148 0 -0.00095890694442175536 0.030591439955775061 0 0.0013630110215053274 0.024258527429568428 0 0.00070478226896951077 0.027462815095798482 0 0.0029336394217816062 0.028339353506232724 0 0.001233920799929009 0.030043311060341835 0 0.0002648193740962509 0.026601262263892148 0 0.0021755180961798063 0.021934293604960811 0 0.0022337698330923178 0.021569588939380407 0 0.0023637705276517303 0.021790230007615319 0 0.0014698605624904589 0.022486688095995223 0 0.0022546272110267143 0.021529864446462436 0 0.0023637705276517303 0.021790230007615319 0 0.0014698605624904589 0.022486688095995223 0 0.0024503129409289811 0.024065979695718907 0 0.0028854236523818272 0.020982658842090818 0 0.002862543258568257 0.020923482398706644 0 0.0022546272110267143 0.021529864446462436 0 0.0018047708974868151 0.023173222795471345 0 0.0021755180961798063 0.021934293604960811 0 0.00073481664908936419 0.025050040649288889 0 0.0014698605624904589 0.022486688095995223 0 0.0024503129409289811 0.024065979695718907 0 0.0032247497619095713 0.021955106350256132 0 0.0028854236523818272 0.020982658842090818 0 0.002891137894131124 0.02148182248087508 0 0.0028854236523818272 0.020982658842090818 0 0.0027856506115354531 0.021236412312649021 0 0.002891137894131124 0.02148182248087508 0 0.002562018129954758 0.021843480049723831 0 0.0027856506115354531 0.021236412312649021 0 0.0025967697341548451 0.021067694488984545 0 0.0067100002604869712 0.024974601359991359 0 0.0055187424407513001 0.022050971772425543 0 0.010302450628994434 0.027929260296425999 0 0.0085299689538644394 0.023317977245962112 0 0.008138365724579006 0.026088455868387452 0 0.002562018129954758 0.021843480049723831 0 0.0027856506115354531 0.021236412312649021 0 0.002891137894131124 0.02148182248087508 0 0.002562018129954758 0.021843480049723831 0 0.0032247497619095713 0.021955106350256132 0 0.002891137894131124 0.02148182248087508 0 0.0027856506115354531 0.021236412312649021 0 0.0025967697341548451 0.021067694488984545 0 0.002862543258568257 0.020923482398706644 0 0.0028854236523818272 0.020982658842090818 0 0.0027856506115354531 0.021236412312649021 0 0.002862543258568257 0.020923482398706644 0 0.0025967697341548451 0.021067694488984545 0 0.002862543258568257 0.020923482398706644 0 0.0027560151188037079 0.020691513543555605 0 0.0028590820839468341 0.020752856148205028 0 0.002827780581735597 0.020366937145021993 0 0.0025720054741792783 0.019500210033990523 0 0.0027560151188037079 0.020691513543555605 0 0.0028590820839468341 0.020752856148205028 0 0.002827780581735597 0.020366937145021993 0 0.002862543258568257 0.020923482398706644 0 0.0027560151188037079 0.020691513543555605 0 0.0028590820839468341 0.020752856148205028 0 0.002862543258568257 0.020923482398706644 0 0.0028590820839468341 0.020752856148205028 0 0.0022546272110267143 0.021529864446462436 0 0.002827780581735597 0.020366937145021993 0 0.0033379948726853384 0.019087388490049744 0 0.004036500260176352 0.018426205665161732 0 0.002813693729675971 0.02021848208297379 0 0.0032664204683826455 0.018990478910562485 0 0.002827780581735597 0.020366937145021993 0 0.0033379948726853384 0.019087388490049744 0 0.0029432614901162804 0.019520098854763152 0 0.0033379948726853384 0.019087388490049744 0 0.0031820888946566339 0.018833081090602624 0 0.0036127509516481432 0.018431078512249236 0 0.0033379948726853384 0.019087388490049744 0 0.0029432614901162804 0.019520098854763152 0 0.0031820888946566339 0.018833081090602624 0 0.0033379948726853384 0.019087388490049744 0 0.004036500260176352 0.018426205665161732 0 0.0036127509516481432 0.018431078512249236 0 0.0028590820839468341 0.020752856148205028 0 0.0025720054741792783 0.019500210033990523 0 0.0026211620922628699 0.019511147253870691 0 0.0028590820839468341 0.020752856148205028 0 0.0022546272110267143 0.021529864446462436 0 0.00186140770556608 0.022486863311820742 0 0.0027042532287504216 0.020838288069010093 0 0.0022389634080599657 0.020958172838483391 0 0.0002648193740962509 0.026601262263892148 0 0.0020247344112571228 0.022683153075120085 0 0.0031499030536942937 0.025204407621449924 0 0.0023637705276517303 0.021790230007615319 0 0.00186140770556608 0.022486863311820742 0 0.0020247344112571228 0.022683153075120085 0 0.0023637705276517303 0.021790230007615319 0 0.0022546272110267143 0.021529864446462436 0 0.00186140770556608 0.022486863311820742 0 0.0013630110215053274 0.024258527429568428 0 0.0019184466213430255 0.022796938735715231 0 0.00186140770556608 0.022486863311820742 0 0.0025285084443501071 0.022391586836484675 0 0.0030103186169841583 0.021652671060700963 0 0.00186140770556608 0.022486863311820742 0 0.0020247344112571228 0.022683153075120085 0 0.0025285084443501071 0.022391586836484675 0 0.0022389634080599657 0.020958172838483391 0 0.002422664471286565 0.020347629471588812 0 0.0025720054741792783 0.019500210033990523 0 0.0026211620922628699 0.019511147253870691 0 0.0021822626177658601 0.0187659253594482 0 0.0020247344112571228 0.022683153075120085 0 0.0025285084443501071 0.022391586836484675 0 0.0036565881374451066 0.023100652749572528 0 0.0025285084443501071 0.022391586836484675 0 0.0036565881374451066 0.023100652749572528 0 0.0030103186169841583 0.021652671060700963 0 0.0036565881374451066 0.023100652749572528 0 0.004827809824891051 0.022228812278672436 0 0.0030103186169841583 0.021652671060700963 0 0.0036565881374451066 0.023100652749572528 0 0.0031499030536942937 0.025204407621449924 0 0.0052179266468878448 0.024260329257649805 0 0.0020247344112571228 0.022683153075120085 0 0.0036565881374451066 0.023100652749572528 0 0.0031499030536942937 0.025204407621449924 0 0.0017007179954993705 0.025030840966463644 0 0.00010939805584282866 0.025296305700817062 0 0.0011185553059315505 0.026300264237655437 0 0.0017007179954993705 0.025030840966463644 0 0.0011185553059315505 0.026300264237655437 0 0.003049656456926733 0.026442953159279799 0 0.0017007179954993705 0.025030840966463644 0 0.0005419429934961868 0.02363809212418887 0 0.0021232357277081665 0.023704002875123427 0 0.0017007179954993705 0.025030840966463644 0 0.0031209688691085508 0.024762914635036912 0 0.0021232357277081665 0.023704002875123427 0 0.0017007179954993705 0.025030840966463644 0 0.00010939805584282866 0.025296305700817062 0 0.0005419429934961868 0.02363809212418887 0 -0.00074620814958384308 0.024384685337532595 0 0.00010939805584282866 0.025296305700817062 0 0.0005419429934961868 0.02363809212418887 0 -0.00074620814958384308 0.024384685337532595 0 -0.0010127536144279349 0.022986292948442455 0 -0.002014807385213997 0.024622665105621777 0 -0.00074620814958384308 0.024384685337532595 0 -0.0011357038236682506 0.025545496601491066 0 -0.002014807385213997 0.024622665105621777 0 -0.00074620814958384308 0.024384685337532595 0 -0.0011357038236682506 0.025545496601491066 0 0.00010939805584282866 0.025296305700817062 0 -0.0011357038236682506 0.025545496601491066 0 0.00010939805584282866 0.025296305700817062 0 -0.00063707788298949998 0.027015607901397863 0 0.00010939805584282866 0.025296305700817062 0 -0.00063707788298949998 0.027015607901397863 0 0.0011185553059315505 0.026300264237655437 0 -0.0011357038236682506 0.025545496601491066 0 -0.00063707788298949998 0.027015607901397863 0 -0.0023469436357760076 0.026467577065782566 0 -0.0017068926187124103 0.028371815292593281 0 -0.00063707788298949998 0.027015607901397863 0 -0.0023469436357760076 0.026467577065782566 0 -6.5715885385648224e-05 0.029530359531307969 0 -0.0017068926187124103 0.028371815292593281 0 -0.00063707788298949998 0.027015607901397863 0 -0.00063707788298949998 0.027015607901397863 0 0.0011185553059315505 0.026300264237655437 0 0.0016365779826510321 0.028019854819594871 0 -6.5715885385648224e-05 0.029530359531307969 0 -0.00063707788298949998 0.027015607901397863 0 0.0016365779826510321 0.028019854819594871 0 0.0011185553059315505 0.026300264237655437 0 0.0016365779826510321 0.028019854819594871 0 0.003049656456926733 0.026442953159279799 0 0.0016365779826510321 0.028019854819594871 0 0.0037772151117063018 0.028396287395026198 0 0.003049656456926733 0.026442953159279799 0 0.0037772151117063018 0.028396287395026198 0 0.0046677373872027229 0.0270344979867095 0 0.003049656456926733 0.026442953159279799 0 0.0061957163072245821 0.029306165845846586 0 0.0037772151117063018 0.028396287395026198 0 0.0046677373872027229 0.0270344979867095 0 0.0046677373872027229 0.0270344979867095 0 0.003049656456926733 0.026442953159279799 0 0.0045008713873976236 0.025622699368325959 0 0.0063289884501903605 0.02909111720261252 0 0.0063908553182402371 0.02464096724367832 0 0.0065054268703075959 0.028676231425460132 0 0.010302450628994434 0.027929260296425999 0 0.008138365724579006 0.026088455868387452 0 0.0065054268703075959 0.028676231425460132 0 0.008138365724579006 0.026088455868387452 0 0.0066987805574032474 0.023672439276823939 0 0.0061957163072245821 0.029306165845846586 0 0.0046677373872027229 0.0270344979867095 0 0.0057872212423784051 0.025501194682148752 0 0.0046677373872027229 0.0270344979867095 0 0.0057872212423784051 0.025501194682148752 0 0.0045008713873976236 0.025622699368325959 0 0.0085299689538644394 0.023317977245962112 0 0.008138365724579006 0.026088455868387452 0 0.0066987805574032474 0.023672439276823939 0 0.0063908553182402371 0.02464096724367832 0 0.0045406224882873561 0.020340889751724437 0 0.0057872212423784051 0.025501194682148752 0 0.0044027774841064885 0.024104328191021034 0 0.0054268479194842061 0.022149176194377666 0 0.0085299689538644394 0.023317977245962112 0 0.0066987805574032474 0.023672439276823939 0 0.0068493260763256014 0.018866495203377846 0 0.0057872212423784051 0.025501194682148752 0 0.0045008713873976236 0.025622699368325959 0 0.0044027774841064885 0.024104328191021034 0 0.0017007179954993705 0.025030840966463644 0 0.003049656456926733 0.026442953159279799 0 0.0031209688691085508 0.024762914635036912 0 0.003049656456926733 0.026442953159279799 0 0.0045008713873976236 0.025622699368325959 0 0.0031209688691085508 0.024762914635036912 0 0.0045008713873976236 0.025622699368325959 0 0.0044027774841064885 0.024104328191021034 0 0.0031209688691085508 0.024762914635036912 0 0.0044027774841064885 0.024104328191021034 0 0.0031519813780969989 0.023721360716573922 0 0.0031209688691085508 0.024762914635036912 0 0.0031519813780969989 0.023721360716573922 0 0.0031209688691085508 0.024762914635036912 0 0.0021232357277081665 0.023704002875123427 0 0.0031519813780969989 0.023721360716573922 0 0.0040029406545223026 0.022799763679835744 0 0.0026551921786696995 0.022577106346400373 0 0.0031519813780969989 0.023721360716573922 0 0.0026551921786696995 0.022577106346400373 0 0.0021232357277081665 0.023704002875123427 0 0.0044027774841064885 0.024104328191021034 0 0.0031519813780969989 0.023721360716573922 0 0.0040029406545223026 0.022799763679835744 0 0.0040029406545223026 0.022799763679835744 0 0.0033043054327010044 0.021634796178247085 0 0.0026551921786696995 0.022577106346400373 0 0.0040029406545223026 0.022799763679835744 0 0.0041867620193224726 0.0218780031342144 0 0.0033043054327010044 0.021634796178247085 0 0.0033043054327010044 0.021634796178247085 0 0.0026551921786696995 0.022577106346400373 0 0.001926744129357395 0.021170800976538867 0 0.0055187424407513001 0.022050971772425543 0 0.0045406224882873561 0.020340889751724437 0 0.0025967697341548451 0.021067694488984545 0 0.0027560151188037079 0.020691513543555605 0 0.0024718359942784108 0.0202806917120066 0 0.0027560151188037079 0.020691513543555605 0 0.002827780581735597 0.020366937145021993 0 0.0024718359942784108 0.0202806917120066 0 0.0044027774841064885 0.024104328191021034 0 0.0040029406545223026 0.022799763679835744 0 0.0054268479194842061 0.022149176194377666 0 0.0041867620193224726 0.0218780031342144 0 0.0054268479194842061 0.022149176194377666 0 0.0037407086931568602 0.020958539302695478 0 0.0040029406545223026 0.022799763679835744 0 0.0041867620193224726 0.0218780031342144 0 0.0054268479194842061 0.022149176194377666 0 0.002827780581735597 0.020366937145021993 0 0.0024718359942784108 0.0202806917120066 0 0.0029432614901162804 0.019520098854763152 0 0.0045406224882873561 0.020340889751724437 0 0.0030916473367322019 0.019217512689068735 0 0.0054268479194842061 0.022149176194377666 0 0.0037407086931568602 0.020958539302695478 0 0.0030828818888058878 0.018908309005144418 0 0.0027126869667857341 0.019338754106972701 0 0.0028618362730977081 0.019164972145185668 0 0.0030828818888058878 0.018908309005144418 0 0.0024718359942784108 0.0202806917120066 0 0.0028618362730977081 0.019164972145185668 0 0.0029432614901162804 0.019520098854763152 0 0.0045406224882873561 0.020340889751724437 0 0.0032176519286251808 0.019240395825246254 0 0.0028618362730977081 0.019164972145185668 0 0.0031820888946566339 0.018833081090602624 0 0.0030828818888058878 0.018908309005144418 0 0.0028618362730977081 0.019164972145185668 0 0.0029432614901162804 0.019520098854763152 0 0.0031820888946566339 0.018833081090602624 0 0.0037407086931568602 0.020958539302695478 0 0.0027724660401863841 0.020300645241497526 0 0.0030828818888058878 0.018908309005144418 0 0.0027724660401863841 0.020300645241497526 0 0.001926744129357395 0.021170800976538867 0 0.0018698868210598415 0.019226049372551301 0 0.0033043054327010044 0.021634796178247085 0 0.0027724660401863841 0.020300645241497526 0 0.001926744129357395 0.021170800976538867 0 0.0033043054327010044 0.021634796178247085 0 0.0037407086931568602 0.020958539302695478 0 0.0027724660401863841 0.020300645241497526 0 0.0041867620193224726 0.0218780031342144 0 0.0033043054327010044 0.021634796178247085 0 0.0037407086931568602 0.020958539302695478 0 0.00073209147562759691 0.020529912778022342 0 0.001926744129357395 0.021170800976538867 0 0.0018698868210598415 0.019226049372551301 0 0.00073209147562759691 0.020529912778022342 0 0.001926744129357395 0.021170800976538867 0 0.00042870479066936767 0.021911110417610097 0 0.0026551921786696995 0.022577106346400373 0 0.001926744129357395 0.021170800976538867 0 0.0015117058860919931 0.022575403319314808 0 0.001926744129357395 0.021170800976538867 0 0.0015117058860919931 0.022575403319314808 0 0.00042870479066936767 0.021911110417610097 0 0.0015117058860919931 0.022575403319314808 0 0.0005419429934961868 0.02363809212418887 0 0.00042870479066936767 0.021911110417610097 0 0.0015117058860919931 0.022575403319314808 0 0.0005419429934961868 0.02363809212418887 0 0.0021232357277081665 0.023704002875123427 0 0.0026551921786696995 0.022577106346400373 0 0.0015117058860919931 0.022575403319314808 0 0.0021232357277081665 0.023704002875123427 0 -0.0010127536144279349 0.022986292948442455 0 0.00042870479066936767 0.021911110417610097 0 -0.00084527661620710797 0.020993460895962369 0 -0.00074620814958384308 0.024384685337532595 0 0.0005419429934961868 0.02363809212418887 0 -0.0010127536144279349 0.022986292948442455 0 0.0005419429934961868 0.02363809212418887 0 -0.0010127536144279349 0.022986292948442455 0 0.00042870479066936767 0.021911110417610097 0 0.00073209147562759691 0.020529912778022342 0 0.00042870479066936767 0.021911110417610097 0 -0.00084527661620710797 0.020993460895962369 0 0.00073209147562759691 0.020529912778022342 0 -0.00084527661620710797 0.020993460895962369 0 0.00024074302356424178 0.019462755160191893 0 -0.0021451037910000729 0.020739694604985065 0 -0.0034555836617292429 0.021237953852810267 0 -0.0026201394746932635 0.022895915109656988 0 -0.00084527661620710797 0.020993460895962369 0 -0.0021451037910000729 0.020739694604985065 0 -0.0026201394746932635 0.022895915109656988 0 -0.00084527661620710797 0.020993460895962369 0 -0.0021451037910000729 0.020739694604985065 0 -0.0010716608490604859 0.019318978037470184 0 -0.0021451037910000729 0.020739694604985065 0 -0.0034555836617292429 0.021237953852810267 0 -0.0026672782851937422 0.019551250844058485 0 -0.0034555836617292429 0.021237953852810267 0 -0.0043480668987178634 0.020781952995120607 0 -0.0026672782851937422 0.019551250844058485 0 -0.0034555836617292429 0.021237953852810267 0 -0.0046452089894710637 0.022236199871296443 0 -0.0043480668987178634 0.020781952995120607 0 -0.0040474680070194296 0.021694741819204503 0 -0.0025237934147755415 0.023567465122157571 0 -0.0034555836617292429 0.021237953852810267 0 -0.0037858702981687642 0.023352293071615956 0 -0.0046452089894710637 0.022236199871296443 0 -0.0034555836617292429 0.021237953852810267 0 -0.0026201394746932635 0.022895915109656988 0 -0.0048939175432137659 0.02486630476172598 0 -0.0010127536144279349 0.022986292948442455 0 -0.00084527661620710797 0.020993460895962369 0 -0.0026201394746932635 0.022895915109656988 0 -0.0010127536144279349 0.022986292948442455 0 -0.0026201394746932635 0.022895915109656988 0 -0.002014807385213997 0.024622665105621777 0 -0.0026201394746932635 0.022895915109656988 0 -0.002014807385213997 0.024622665105621777 0 -0.0032084686774251636 0.025389983037923908 0 -0.002014807385213997 0.024622665105621777 0 -0.0032084686774251636 0.025389983037923908 0 -0.0023469436357760076 0.026467577065782566 0 -0.0011357038236682506 0.025545496601491066 0 -0.002014807385213997 0.024622665105621777 0 -0.0023469436357760076 0.026467577065782566 0 -0.0026201394746932635 0.022895915109656988 0 -0.0032084686774251636 0.025389983037923908 0 -0.0048939175432137659 0.02486630476172598 0 -0.0025237934147755415 0.023567465122157571 0 -0.0040783046273356561 0.029850900306589708 0 -0.0025237934147755415 0.023567465122157571 0 0.00069466263678415934 0.030858856211611503 0 -0.0032084686774251636 0.025389983037923908 0 -0.0048939175432137659 0.02486630476172598 0 -0.0034135513812877795 0.027783205662289451 0 -0.0064304492369153966 0.028007001102688542 0 -0.0056527869328596228 0.031435586971383996 0 -0.0041518428687099497 0.031144855380826716 0 -0.0064304492369153966 0.028007001102688542 0 -0.0056527869328596228 0.031435586971383996 0 -0.0071391736879105362 0.032342060019306784 0 -0.0032084686774251636 0.025389983037923908 0 -0.0034135513812877795 0.027783205662289451 0 -0.0023469436357760076 0.026467577065782566 0 -0.0017068926187124103 0.028371815292593281 0 -0.0034135513812877795 0.027783205662289451 0 -0.0023469436357760076 0.026467577065782566 0 -0.0030606504226342425 0.032311950073321709 0 -0.0011025707047926598 0.032314869270746206 0 -0.0031410942945414694 0.03026323538190092 0 -0.0030606504226342425 0.032311950073321709 0 -0.0011025707047926598 0.032314869270746206 0 -0.002457374374974669 0.033945213674764815 0 -0.0011025707047926598 0.032314869270746206 0 -0.00099873605239859855 0.034296505878798567 0 -0.002457374374974669 0.033945213674764815 0 0.0076832813414191709 0.018981960569219556 0 0.0035319046283649263 0.02167161000838453 0 0.0067070194969711316 0.024881702785044566 0 0.0016512368605528557 0.027319771291485405 0 0.00069466263678415934 0.030858856211611503 0 0.0076832813414191709 0.018981960569219556 0 0.003491266897896134 0.017981067786902675 0 0.0054061087151464869 0.015904596147547051 0 0.0076832813414191709 0.018981960569219556 0 0.0035319046283649263 0.02167161000838453 0 0.003491266897896134 0.017981067786902675 0 -0.0025237934147755415 0.023567465122157571 0 0.00044730399765017788 0.019083895510092715 0 0.0035319046283649263 0.02167161000838453 0 0.003491266897896134 0.017981067786902675 0 0.00039863024244269344 0.018469898593122095 0 0.0016512368605528557 0.027319771291485405 0 -0.00093832882964989934 0.021853847252409284 0 0.003491266897896134 0.017981067786902675 0 0.00039863024244269344 0.018469898593122095 0 0.0015319268698659582 0.016976699983878976 0 -0.00093832882964989934 0.021853847252409284 0 0.0015718484562076364 0.017723726506714881 0 0.0015319268698659582 0.016976699983878976 0 0.0013488807218640106 0.015164194846964974 0 -0.00070572426879479265 0.017014041158542204 0 0.0015319268698659582 0.016976699983878976 0 0.0030264747449519074 0.016220243846468394 0 0.0013488807218640106 0.015164194846964974 0 0.003491266897896134 0.017981067786902675 0 0.0015319268698659582 0.016976699983878976 0 0.0030264747449519074 0.016220243846468394 0 0.0034164665439820078 0.015097015952674637 0 0.0013488807218640106 0.015164194846964974 0 0.0031750987923420161 0.013014567227561849 0 0.0016363014581706084 0.014233402459127941 0 0.0013488807218640106 0.015164194846964974 0 0.0027570261725613971 0.01337491586061589 0 0.0030264747449519074 0.016220243846468394 0 0.0034164665439820078 0.015097015952674637 0 0.0013488807218640106 0.015164194846964974 0 0.0022623389220115669 0.014097130921407913 0 0.00072502090191747109 0.016171030921368509 0 0.0016363014581706084 0.014233402459127941 0 0.0013488807218640106 0.015164194846964974 0 -0.00070572426879479265 0.017014041158542204 0 0.0030264747449519074 0.016220243846468394 0 0.0034164665439820078 0.015097015952674637 0 0.0054061087151464869 0.015904596147547051 0 0.003491266897896134 0.017981067786902675 0 0.0030264747449519074 0.016220243846468394 0 0.0054061087151464869 0.015904596147547051 0 0.0034164665439820078 0.015097015952674637 0 0.0054061087151464869 0.015904596147547051 0 0.0031750987923420161 0.013014567227561849 0 0.00044730399765017788 0.019083895510092715 0 0.00072502090191747109 0.016171030921368509 0 -0.0043480668987178634 0.020781952995120607 0 -0.0056017803273772752 0.02104335218368647 0 -0.0043447536602672816 0.019428432016005952 0 -0.0046452089894710637 0.022236199871296443 0 -0.0043480668987178634 0.020781952995120607 0 -0.0056017803273772752 0.02104335218368647 0 0.00072502090191747109 0.016171030921368509 0 -0.0012724014804104532 0.016207134179118805 0 0.0022105728374286165 0.013165562396837371 0 0.0020766027242808118 0.012970606935482454 0 0.0025785909765006164 0.012327836086656501 0 0.0016363014581706084 0.014233402459127941 0 0.0015016256155935181 0.013400673961105091 0 0.0012253935727192299 0.014038993980095657 0 0.0016363014581706084 0.014233402459127941 0 0.0015016256155935181 0.013400673961105091 0 0.0019539816693351446 0.013460612824141066 0 0.0015016256155935181 0.013400673961105091 0 0.0019539816693351446 0.013460612824141066 0 0.0020766027242808118 0.012970606935482454 0 0.0016363014581706084 0.014233402459127941 0 0.0019539816693351446 0.013460612824141066 0 0.0027570261725613971 0.01337491586061589 0 0.00072502090191747109 0.016171030921368509 0 0.0008215157415241563 0.014538960435631063 0 0.0019539816693351446 0.013460612824141066 0 0.0027570261725613971 0.01337491586061589 0 0.0020766027242808118 0.012970606935482454 0 0.0015016256155935181 0.013400673961105091 0 0.0020766027242808118 0.012970606935482454 0 0.0015707615312581459 0.012768450497607246 0 0.0020766027242808118 0.012970606935482454 0 0.0015707615312581459 0.012768450497607246 0 0.0018435890378556185 0.012591619157276043 0 0.0015016256155935181 0.013400673961105091 0 0.0015707615312581459 0.012768450497607246 0 0.00099426697617623571 0.013364094369710727 0 0.0015707615312581459 0.012768450497607246 0 0.00099426697617623571 0.013364094369710727 0 0.00099381480468986442 0.012424571936973227 0 0.0015016256155935181 0.013400673961105091 0 0.00099426697617623571 0.013364094369710727 0 0.0012253935727192299 0.014038993980095657 0 0.00099426697617623571 0.013364094369710727 0 0.0012253935727192299 0.014038993980095657 0 0.00089010810318954396 0.014083691456745309 0 0.00099426697617623571 0.013364094369710727 0 0.00020603230528157019 0.014020659716070452 0 0.00089010810318954396 0.014083691456745309 0 0.00099426697617623571 0.013364094369710727 0 0.00046800106424140913 0.012852382929176698 0 0.00099381480468986442 0.012424571936973227 0 0.00046800106424140913 0.012852382929176698 0 0.00020603230528157019 0.014020659716070452 0 -0.00028622475701110827 0.012581290015751364 0 0.00020603230528157019 0.014020659716070452 0 -0.0010719592684484355 0.013080987229793487 0 -0.00028622475701110827 0.012581290015751364 0 0.00099426697617623571 0.013364094369710727 0 0.00046800106424140913 0.012852382929176698 0 0.00020603230528157019 0.014020659716070452 0 0.00020603230528157019 0.014020659716070452 0 0.0014721623675766579 0.015247652300074983 0 0.0001651166276343926 0.015306039484021811 0 0.00020603230528157019 0.014020659716070452 0 -0.0010481345715202008 0.014769491900732195 0 0.0001651166276343926 0.015306039484021811 0 0.00038649969724576731 0.01382555219089962 0 -1.8228925992787283e-05 0.016783599818073414 0 0.0016542742039060089 0.014147184079115705 0 -1.8228925992787283e-05 0.016783599818073414 0 0.0012253935727192299 0.014038993980095657 0 0.00089010810318954396 0.014083691456745309 0 0.0010359663028443997 0.014804297886127063 0 0.0016363014581706084 0.014233402459127941 0 0.0012253935727192299 0.014038993980095657 0 0.0010359663028443997 0.014804297886127063 0 0.00020603230528157019 0.014020659716070452 0 0.00089010810318954396 0.014083691456745309 0 0.0010359663028443997 0.014804297886127063 0 -0.0020939387572116433 0.013292941339013041 0 -0.0022046998450725541 0.014466710235044821 0 -0.0032440295731660891 0.013187445552010324 0 -0.0020939387572116433 0.013292941339013041 0 -0.0023250242055234131 0.011960490935215676 0 -0.0032440295731660891 0.013187445552010324 0 -0.0020939387572116433 0.013292941339013041 0 -0.0015289812984266551 0.0139223348762778 0 -0.0022046998450725541 0.014466710235044821 0 0.00020603230528157019 0.014020659716070452 0 -0.0015289812984266551 0.0139223348762778 0 -0.0010719592684484355 0.013080987229793487 0 -0.0020939387572116433 0.013292941339013041 0 -0.0015289812984266551 0.0139223348762778 0 -0.0010719592684484355 0.013080987229793487 0 -0.0020939387572116433 0.013292941339013041 0 -0.0010719592684484355 0.013080987229793487 0 -0.001622595684917662 0.012575996836429718 0 -0.0010481345715202008 0.014769491900732195 0 -0.0022485112724801898 0.015092861061616206 0 -0.00086765942385686812 0.015652648494005921 0 0.00020603230528157019 0.014020659716070452 0 -0.0015289812984266551 0.0139223348762778 0 -0.0010481345715202008 0.014769491900732195 0 -0.0015289812984266551 0.0139223348762778 0 -0.0010481345715202008 0.014769491900732195 0 -0.0022046998450725541 0.014466710235044821 0 -0.0029615279693328638 0.015515187460815504 0 -0.0012799517929250024 0.011619950297805213 0 -0.0022046998450725541 0.014466710235044821 0 -0.0022230198394909088 0.015084783600546936 0 -0.0032440295731660891 0.013187445552010324 0 -0.0010481345715202008 0.014769491900732195 0 -0.0022046998450725541 0.014466710235044821 0 -0.0022485112724801898 0.015092861061616206 0 -0.0026231815445406149 0.014722806375436026 0 -0.0029615279693328638 0.015515187460815504 0 -0.0055117336156796076 0.01639420877418649 0 -0.004018583673771935 0.01915801104666123 0 -0.0056290119878388426 0.020689136729076588 0 -0.001219774115049616 0.014510239871845377 0 -0.0012635880555792662 0.015266979418065841 0 -0.0017755950665354653 0.01489083823656585 0 -0.0029615279693328638 0.015515187460815504 0 -0.0035081890181580797 0.018228601101824247 0 -0.0029615279693328638 0.015515187460815504 0 -0.0028645088057802008 0.01764708072473254 0 -0.0022485112724801898 0.015092861061616206 0 -0.00086765942385686812 0.015652648494005921 0 -0.0015316287128428687 0.016520130118419664 0 -0.00086765942385686812 0.015652648494005921 0 -0.0015316287128428687 0.016520130118419664 0 0.00036008335039758359 0.016602486947661046 0 -0.0010481345715202008 0.014769491900732195 0 -0.00086765942385686812 0.015652648494005921 0 0.0001651166276343926 0.015306039484021811 0 -0.0028645088057802008 0.01764708072473254 0 -0.0022949708583669881 0.021306923157266802 0 -0.0015316287128428687 0.016520130118419664 0 0.00036008335039758359 0.016602486947661046 0 -0.00076324946980431505 0.017982901404800477 0 -0.0041812590755965591 0.021041386852534042 0 -0.004018583673771935 0.01915801104666123 0 -0.0025601104932733397 0.021864515596616906 0 -0.0041812590755965591 0.021041386852534042 0 -0.004018583673771935 0.01915801104666123 0 -0.0056290119878388426 0.020689136729076588 0 -0.0041812590755965591 0.021041386852534042 0 -0.0056290119878388426 0.020689136729076588 0 -0.0045100390979940005 0.022443059072338272 0 -1.8228925992787283e-05 0.016783599818073414 0 -0.00081523993163032534 0.019056993795720675 0 -0.00093832882964989934 0.021853847252409284 0 -0.0036125330582265649 0.028207222208768309 0 -0.00048896542880235078 0.020748227648463222 0 -0.0010151458501274449 0.020224691248899744 0 -0.002110376376132957 0.021561122415709746 0 0.00053943302957136182 0.018260766505085888 0 0.0015319268698659582 0.016976699983878976 0 -0.00070572426879479265 0.017014041158542204 0 -0.00093832882964989934 0.021853847252409284 0 -1.8228925992787283e-05 0.016783599818073414 0 0.0014721623675766579 0.015247652300074983 0 0.0001651166276343926 0.015306039484021811 0 0.00036008335039758359 0.016602486947661046 0 -0.00086765942385686812 0.015652648494005921 0 0.0001651166276343926 0.015306039484021811 0 0.00036008335039758359 0.016602486947661046 0 -0.002110376376132957 0.021561122415709746 0 -0.0024863575566583507 0.02265110077723068 0 -0.0032058826693345285 0.022866254222540908 0 -0.00081523993163032534 0.019056993795720675 0 -0.0022949708583669881 0.021306923157266802 0 -0.002110376376132957 0.021561122415709746 0 -0.0024863575566583507 0.02265110077723068 0 -0.0015969485152567034 0.022221474548831246 0 -0.00048896542880235078 0.020748227648463222 0 -0.002110376376132957 0.021561122415709746 0 -0.0015969485152567034 0.022221474548831246 0 -0.0030606504226342425 0.032311950073321709 0 -0.0031410942945414694 0.03026323538190092 0 -0.004948764831637067 0.032832807000869074 0 -0.0030606504226342425 0.032311950073321709 0 -0.004948764831637067 0.032832807000869074 0 -0.0043085828161771571 0.03455455399208774 0 -0.0030606504226342425 0.032311950073321709 0 -0.0043085828161771571 0.03455455399208774 0 -0.002457374374974669 0.033945213674764815 0 -0.0043085828161771571 0.03455455399208774 0 -0.0063154622220408015 0.035134649441696059 0 -0.0042229297094099408 0.036739003420023689 0 -0.004948764831637067 0.032832807000869074 0 -0.0043085828161771571 0.03455455399208774 0 -0.0063154622220408015 0.035134649441696059 0 -0.0024863575566583507 0.02265110077723068 0 -0.0015969485152567034 0.022221474548831246 0 -0.0026424787778193807 0.023703653472307969 0 -0.0036125330582265649 0.028207222208768309 0 -0.0042468472777116573 0.029082531949595276 0 -0.0024863575566583507 0.02265110077723068 0 -0.0032058826693345285 0.022866254222540908 0 -0.0030926617474279338 0.023080928157748655 0 -0.0024863575566583507 0.02265110077723068 0 -0.0026424787778193807 0.023703653472307969 0 -0.0030926617474279338 0.023080928157748655 0 -0.0063154622220408015 0.035134649441696059 0 -0.0042229297094099408 0.036739003420023689 0 -0.005809513003384551 0.037194130240164373 0 -0.0063154622220408015 0.035134649441696059 0 -0.0074483307168588479 0.036982948410764306 0 -0.005809513003384551 0.037194130240164373 0 -0.0043085828161771571 0.03455455399208774 0 -0.0042229297094099408 0.036739003420023689 0 -0.0027409887035707071 0.035970144600682465 0 -0.0035081890181580797 0.018228601101824247 0 -0.0033316789886634014 0.019079096090030993 0 -0.0056290119878388426 0.020689136729076588 0 -0.0045100390979940005 0.022443059072338272 0 -0.0056015970897314686 0.024721808552161474 0 -0.0012635880555792662 0.015266979418065841 0 -0.0013188223727948322 0.015985211221949656 0 -0.001744363905652409 0.015761568912344214 0 -0.0045100390979940005 0.022443059072338272 0 -0.004495354702961505 0.024119760524023131 0 -0.0056015970897314686 0.024721808552161474 0 -0.0022949708583669881 0.021306923157266802 0 -0.004599566710790131 0.0243058640058753 0 -0.0045100390979940005 0.022443059072338272 0 -0.0025601104932733397 0.021864515596616906 0 -0.004495354702961505 0.024119760524023131 0 -0.0041812590755965591 0.021041386852534042 0 -0.0045100390979940005 0.022443059072338272 0 -0.0025601104932733397 0.021864515596616906 0 -0.0032337267233761131 0.022817216600125527 0 -0.0030926617474279338 0.023080928157748655 0 -0.0035774604322018665 0.023846778777537818 0 -0.0022949708583669881 0.021306923157266802 0 -0.0022578270689348574 0.02167768633047891 0 -0.0026424787778193807 0.023703653472307969 0 -0.0030926617474279338 0.023080928157748655 0 -0.0035774604322018665 0.023846778777537818 0 -0.0032337267233761131 0.022817216600125527 0 -0.0035774604322018665 0.023846778777537818 0 -0.004495354702961505 0.024119760524023131 0 -0.0035774604322018665 0.023846778777537818 0 -0.0039840778401540209 0.025736873962765621 0 -0.004495354702961505 0.024119760524023131 0 -0.0026424787778193807 0.023703653472307969 0 -0.0035774604322018665 0.023846778777537818 0 -0.0039840778401540209 0.025736873962765621 0 -0.0042468472777116573 0.029082531949595276 0 -0.0064040684727040545 0.032408722842861531 0 -0.0039840778401540209 0.025736873962765621 0 -0.004495354702961505 0.024119760524023131 0 -0.0056015970897314686 0.024721808552161474 0 -0.0039840778401540209 0.025736873962765621 0 -0.0056015970897314686 0.024721808552161474 0 -0.0056165387070534227 0.027922936938094688 0 -0.0033316789886634014 0.019079096090030993 0 -0.004455866082943888 0.027878564786555697 0 -0.0064040684727040545 0.032408722842861531 0 -0.004455866082943888 0.027878564786555697 0 -0.0013188223727948322 0.015985211221949656 0 -0.0014312430307225582 0.016606338858108076 0 -0.0015881837950986132 0.016352733650085528 0 -0.0074483307168588479 0.036982948410764306 0 -0.0072307666767456045 0.039069254805142499 0 -0.0085364328731380099 0.038611171291888478 0 -0.0074483307168588479 0.036982948410764306 0 -0.0072307666767456045 0.039069254805142499 0 -0.0061303059659764507 0.03857526439691978 0 -0.0069586217188522719 0.040476237873222638 0 -0.007811253344996957 0.040011007752301125 0 -0.0072307666767456045 0.039069254805142499 0 -0.0069586217188522719 0.040476237873222638 0 -0.0072307666767456045 0.039069254805142499 0 -0.0063036610985405814 0.039866172112576967 0 -0.0072307666767456045 0.039069254805142499 0 -0.0061303059659764507 0.03857526439691978 0 -0.0063036610985405814 0.039866172112576967 0 -0.00069186605849254628 0.03401587247197202 0 -0.004455866082943888 0.027878564786555697 0 -0.007811253344996957 0.040011007752301125 0 -0.0072307666767456045 0.039069254805142499 0 -0.0085364328731380099 0.038611171291888478 0 -0.0042229297094099408 0.036739003420023689 0 -0.0047687854025461633 0.038340703771815053 0 -0.0034676390095103641 0.038140302243736803 0 -0.0042229297094099408 0.036739003420023689 0 -0.0047687854025461633 0.038340703771815053 0 -0.005809513003384551 0.037194130240164373 0 -0.0047687854025461633 0.038340703771815053 0 -0.0037260245175241664 0.039600479162775738 0 -0.0034676390095103641 0.038140302243736803 0 -0.0074483307168588479 0.036982948410764306 0 -0.005809513003384551 0.037194130240164373 0 -0.0061303059659764507 0.03857526439691978 0 -0.0047687854025461633 0.038340703771815053 0 -0.005809513003384551 0.037194130240164373 0 -0.0061303059659764507 0.03857526439691978 0 -0.0047687854025461633 0.038340703771815053 0 -0.0061303059659764507 0.03857526439691978 0 -0.0052364961779006571 0.039695066575646767 0 -0.0061303059659764507 0.03857526439691978 0 -0.0063036610985405814 0.039866172112576967 0 -0.0052364961779006571 0.039695066575646767 0 -0.0057322521621226297 0.040372980830995796 0 -0.0063036610985405814 0.039866172112576967 0 -0.0052364961779006571 0.039695066575646767 0 -0.0047687854025461633 0.038340703771815053 0 -0.0052364961779006571 0.039695066575646767 0 -0.0037260245175241664 0.039600479162775738 0 -0.0041761718395088394 0.040771421983249546 0 -0.0052364961779006571 0.039695066575646767 0 -0.0037260245175241664 0.039600479162775738 0 -0.003298895099003947 0.040756921526969928 0 -0.0037260245175241664 0.039600479162775738 0 -0.0027566147265292657 0.040181990659530709 0 -0.0037260245175241664 0.039600479162775738 0 -0.0027566147265292657 0.040181990659530709 0 -0.0023158252489937181 0.038887160325651725 0 -0.0037260245175241664 0.039600479162775738 0 -0.0034676390095103641 0.038140302243736803 0 -0.0023158252489937181 0.038887160325651725 0 -0.0034676390095103641 0.038140302243736803 0 -0.0024369298369698081 0.037307929579401294 0 -0.0023158252489937181 0.038887160325651725 0 -0.0042229297094099408 0.036739003420023689 0 -0.0034676390095103641 0.038140302243736803 0 -0.0024369298369698081 0.037307929579401294 0 -0.0024369298369698081 0.037307929579401294 0 -0.0013502844245125573 0.037909044844573164 0 -0.0023158252489937181 0.038887160325651725 0 -0.0012533457495580039 0.037626977601787182 0 -0.001160502386079314 0.037239089774910174 0 -0.0024369298369698081 0.037307929579401294 0 -0.0013502844245125573 0.037909044844573164 0 -0.0012086901494539357 0.037214273639344514 0 -0.0013502844245125573 0.037909044844573164 0 -0.0013965944665099354 0.038810111466992613 0 -0.0023158252489937181 0.038887160325651725 0 -0.0013502844245125573 0.037909044844573164 0 -0.0013965944665099354 0.038810111466992613 0 -0.00066585387406885494 0.038737388883081154 0 -0.0018350915231075534 0.040585437584312906 0 -0.0027566147265292657 0.040181990659530709 0 -0.0023158252489937181 0.038887160325651725 0 -0.0013965944665099354 0.038810111466992613 0 -0.0012383123299308022 0.039718239968432448 0 -0.00066585387406885494 0.038737388883081154 0 -0.0018350915231075534 0.040585437584312906 0 -0.0023158252489937181 0.038887160325651725 0 -0.0012383123299308022 0.039718239968432448 0 -0.0013965944665099354 0.038810111466992613 0 -0.0023158252489937181 0.038887160325651725 0 -0.0012383123299308022 0.039718239968432448 0 0.0003087390191910874 0.041776840410792465 0 -0.0013965584849776351 0.038702158756457848 0 -0.0012383123299308022 0.039718239968432448 0 0.00043027386540045155 0.040341227733300219 0 -0.00066585387406885494 0.038737388883081154 0 -0.000811630819549501 0.041030938464296868 0 -0.0012383123299308022 0.039718239968432448 0 0.00043027386540045155 0.040341227733300219 0 0.00043027386540045155 0.040341227733300219 0 0.00034735557856965213 0.038350793624461664 0 -0.00066585387406885494 0.038737388883081154 0 -0.0010238015519359325 0.041546655692887458 0 -0.0013965584849776351 0.038702158756457848 0 0.00047030559753527047 0.042466568079519353 0 8.6440206989906002e-05 0.042572619004751122 0 3.0107707562973718e-05 0.042109501675512695 0 -0.0022918270906133295 0.040311611626679768 0 -0.0032263766605185955 0.036644376251079969 0 -0.005293222524941717 0.038204720909399956 0 -0.0013965584849776351 0.038702158756457848 0 -0.001160502386079314 0.037239089774910174 0 -0.0013502844245125573 0.037909044844573164 0 0.00034735557856965213 0.038350793624461664 0 -0.00066585387406885494 0.038737388883081154 0 -0.0013502844245125573 0.037909044844573164 0 0.00034735557856965213 0.038350793624461664 0 -0.0012411506646908168 0.037233106544783401 0 -0.00054471064346072091 0.034052627029302535 0 -0.0019948313644183708 0.03263105875893195 0 -0.00255858313602635 0.036051167036215671 0 -0.00031498813693313176 0.03758316592410333 0 -0.00054471064346072091 0.034052627029302535 0 -0.00255858313602635 0.036051167036215671 0 -0.005293222524941717 0.038204720909399956 0 -0.0049691000496940255 0.034692002699302359 0 -0.0055621385347842866 0.034114816605107776 0 -0.0013965584849776351 0.038702158756457848 0 -0.004428777875593936 0.033835447279960726 0 -0.0046270829293571826 0.033974389592991018 0 -0.004428777875593936 0.033835447279960726 0 -0.0032263766605185955 0.036644376251079969 0 -0.005293222524941717 0.038204720909399956 0 -0.0049691000496940255 0.034692002699302359 0 -0.0032263766605185955 0.036644376251079969 0 -0.0049691000496940255 0.034692002699302359 0 -0.0034832391101432226 0.034653167949586089 0 -0.0049691000496940255 0.034692002699302359 0 -0.0034832391101432226 0.034653167949586089 0 -0.0040812595857997328 0.033366110801334906 0 -0.0018951140167192588 0.034351361909805339 0 -0.0032263766605185955 0.036644376251079969 0 -0.0034832391101432226 0.034653167949586089 0 -0.0018951140167192588 0.034351361909805339 0 -0.0034832391101432226 0.034653167949586089 0 -0.0040812595857997328 0.033366110801334906 0 -0.001875817887852572 0.032779222821104494 0 -0.0040783046273356561 0.029850900306589708 0 -0.0017068926187124103 0.028371815292593281 0 -0.0019534166978432124 0.031239797460993441 0 -0.0034135513812877795 0.027783205662289451 0 -0.0018951140167192588 0.034351361909805339 0 -0.0041518428687099497 0.031144855380826716 0 -0.0040812595857997328 0.033366110801334906 0 -0.0041518428687099497 0.031144855380826716 0 -0.0040812595857997328 0.033366110801334906 0 -0.0048613802397715171 0.03250591791369082 0 -0.0056527869328596228 0.031435586971383996 0 -0.0054560621312625211 0.033955504128399545 0 -0.0071391736879105362 0.032342060019306784 0 -0.0056071191991966156 0.03179380417662811 0 -0.004428777875593936 0.033835447279960726 0 -0.0056527869328596228 0.031435586971383996 0 -0.0055692628232888904 0.0340900035532712 0 -0.0048613802397715171 0.03250591791369082 0 -0.004428777875593936 0.033835447279960726 0 0.00069466263678415934 0.030858856211611503 0 -0.0055692628232888904 0.0340900035532712 0 -0.0040812595857997328 0.033366110801334906 0 -0.0048613802397715171 0.03250591791369082 0 -0.0049691000496940255 0.034692002699302359 0 -0.0055692628232888904 0.0340900035532712 0 -0.0040812595857997328 0.033366110801334906 0 -0.0056527869328596228 0.031435586971383996 0 -0.0041518428687099497 0.031144855380826716 0 -0.0048613802397715171 0.03250591791369082 0 0.00086991247798409352 0.034262111002785069 0 -0.00042743853352180885 0.03550226103793222 0 -0.00099873605239859855 0.034296505878798567 0 -0.00042743853352180885 0.03550226103793222 0 -0.00099873605239859855 0.034296505878798567 0 -0.001950774086233334 0.036036945199594855 0 -0.0011025707047926598 0.032314869270746206 0 0.00086991247798409352 0.034262111002785069 0 -0.00099873605239859855 0.034296505878798567 0 -0.0043085828161771571 0.03455455399208774 0 -0.002457374374974669 0.033945213674764815 0 -0.001950774086233334 0.036036945199594855 0 -0.0042218758994763553 0.034647782585357965 0 -0.0022680459242232481 0.036028118656436077 0 -0.00099873605239859855 0.034296505878798567 0 -0.002457374374974669 0.033945213674764815 0 -0.001950774086233334 0.036036945199594855 0 -0.0042229297094099408 0.036739003420023689 0 -0.0024369298369698081 0.037307929579401294 0 -0.0027409887035707071 0.035970144600682465 0 0.00069466263678415934 0.030858856211611503 0 -0.001160502386079314 0.037239089774910174 0 -0.0024369298369698081 0.037307929579401294 0 -0.0027409887035707071 0.035970144600682465 0 -0.0012086901494539357 0.037214273639344514 0 -0.00042743853352180885 0.03550226103793222 0 -0.001950774086233334 0.036036945199594855 0 0.00031536075417766432 0.037543761740832501 0 0.00086991247798409352 0.034262111002785069 0 -0.00042743853352180885 0.03550226103793222 0 0.00031536075417766432 0.037543761740832501 0 -0.0022680459242232481 0.036028118656436077 0 -0.001160502386079314 0.037239089774910174 0 0.00032314861218666751 0.055023959342319274 0 0.00044685229132012603 0.054810964432894189 0 0.00023596711510534817 0.054880398814642808 0 0.00032314861218666751 0.055023959342319274 0 0.00058896414208745084 0.054957409504596856 0 0.00044685229132012603 0.054810964432894189 0 0.00019702969692976145 0.054968276036118237 0 3.7252841075307445e-08 0.054999971697504056 0 8.2944168464090876e-09 0.054999969153235885 0 5.54484018093198e-05 0.054937004183416502 0 6.4316914086364109e-05 0.054922215107945475 0 5.5762443024409523e-08 0.054999942941917908 0 5.9682086428596934e-05 0.054940315712191427 0 0.00032314861218666751 0.055023959342319274 0 0.00023596711510534817 0.054880398814642808 0 1.331979758109226e-07 0.054999990350742163 0 6.4316914086364109e-05 0.054922215107945475 0 5.5762443024409523e-08 0.054999942941917908 0 -2.9326549096855243e-08 0.054999986159859841 0 3.7014741845404999e-05 0.054971704318171652 0 3.509113473181607e-05 0.054944865247044977 0 -2.963599974700994e-09 0.054999990793476485 0 2.4498517707299564e-08 0.054999906055748164 0 3.509113473181607e-05 0.054944865247044977 0 -2.963599974700994e-09 0.054999990793476485 0 3.7014741845404999e-05 0.054971704318171652 0 3.509113473181607e-05 0.054944865247044977 0 8.8450548667353231e-05 0.054947017732676816 0 6.4316914086364109e-05 0.054922215107945475 0 5.9682086428596934e-05 0.054940315712191427 0 0.00019646843766698568 0.054874139818230465 0 5.54484018093198e-05 0.054937004183416502 0 0.00017545492152440883 0.054899256025974411 0 3.509113473181607e-05 0.054944865247044977 0 8.8450548667353231e-05 0.054947017732676816 0 0.00019646843766698568 0.054874139818230465 0 8.8450548667353231e-05 0.054947017732676816 0 0.00019646843766698568 0.054874139818230465 0 0.00014368390202775325 0.054980730920362299 0 0.00019702969692976145 0.054968276036118237 0 0.00050481303628993623 0.054959051065455844 0 6.4316914086364109e-05 0.054922215107945475 0 0.00025869405311738903 0.054810013289236362 0 0.00019646843766698568 0.054874139818230465 0 0.00025869405311738903 0.054810013289236362 0 0.00019646843766698568 0.054874139818230465 0 0.00027701605804145179 0.054955628633265391 0 0.00074272547563326093 0.055086301587669188 0 0.00073793790000882607 0.054988936886131524 0 0.00058896414208745084 0.054957409504596856 0 0.00050481303628993623 0.054959051065455844 0 0.0008342677349101582 0.055061046360770034 0 0.00074272547563326093 0.055086301587669188 0 0.00084816517951826485 0.055043546178991362 0 0.00086031416539185434 0.055060705089552332 0 0.00025869405311738903 0.054810013289236362 0 0.00046427941891598139 0.054985253700241439 0 0.00027701605804145179 0.054955628633265391 0 0.00074272547563326093 0.055086301587669188 0 0.00084816517951826485 0.055043546178991362 0 0.00080725752020362684 0.055023156168126398 0 0.00074272547563326093 0.055086301587669188 0 0.00080725752020362684 0.055023156168126398 0 0.00073793790000882607 0.054988936886131524 0 0.00084816517951826485 0.055043546178991362 0 0.00080725752020362684 0.055023156168126398 0 0.00091826562643644745 0.054988446086654784 0 0.00080725752020362684 0.055023156168126398 0 0.00082924651899926377 0.054939271605051125 0 0.00091826562643644745 0.054988446086654784 0 0.00082924651899926377 0.054939271605051125 0 0.00098107443261210951 0.054841087963994242 0 0.00091826562643644745 0.054988446086654784 0 0.00080725752020362684 0.055023156168126398 0 0.00082924651899926377 0.054939271605051125 0 0.00073793790000882607 0.054988936886131524 0 0.00082924651899926377 0.054939271605051125 0 0.00073793790000882607 0.054988936886131524 0 0.00071482502887463574 0.054900377421985086 0 0.00082924651899926377 0.054939271605051125 0 0.00080066548419016766 0.054779147068354926 0 0.00071482502887463574 0.054900377421985086 0 0.00082924651899926377 0.054939271605051125 0 0.00080066548419016766 0.054779147068354926 0 0.00098107443261210951 0.054841087963994242 0 0.00032314861218666751 0.055023959342319274 0 0.00074272547563326093 0.055086301587669188 0 0.00058896414208745084 0.054957409504596856 0 0.00073793790000882607 0.054988936886131524 0 0.00058896414208745084 0.054957409504596856 0 0.00071482502887463574 0.054900377421985086 0 0.00058896414208745084 0.054957409504596856 0 0.0006153184449910631 0.054820921096248892 0 0.00071482502887463574 0.054900377421985086 0 0.00080066548419016766 0.054779147068354926 0 0.0006153184449910631 0.054820921096248892 0 0.00071482502887463574 0.054900377421985086 0 0.00058896414208745084 0.054957409504596856 0 0.0006153184449910631 0.054820921096248892 0 0.00044685229132012603 0.054810964432894189 0 0.0006153184449910631 0.054820921096248892 0 0.00044685229132012603 0.054810964432894189 0 0.00067453840615640237 0.054539798843230881 0 0.00044685229132012603 0.054810964432894189 0 0.00067453840615640237 0.054539798843230881 0 0.00036839264216216068 0.054656472245405652 0 0.00080066548419016766 0.054779147068354926 0 0.0006153184449910631 0.054820921096248892 0 0.00067453840615640237 0.054539798843230881 0 0.00080066548419016766 0.054779147068354926 0 0.00095933399648709546 0.054588248799498598 0 0.00098107443261210951 0.054841087963994242 0 0.00080066548419016766 0.054779147068354926 0 0.00067453840615640237 0.054539798843230881 0 0.00095933399648709546 0.054588248799498598 0 0.00067453840615640237 0.054539798843230881 0 0.0011364482997039743 0.053817769710812521 0 0.00068234743287589792 0.054174961932865869 0 0.00067453840615640237 0.054539798843230881 0 0.00095933399648709546 0.054588248799498598 0 0.0011364482997039743 0.053817769710812521 0 0.00067453840615640237 0.054539798843230881 0 0.00036839264216216068 0.054656472245405652 0 0.00068234743287589792 0.054174961932865869 0 0.00036839264216216068 0.054656472245405652 0 0.00027041018183539012 0.054613686161063012 0 0.00068234743287589792 0.054174961932865869 0 0.00036839264216216068 0.054656472245405652 0 0.00015571684919400767 0.054849092136176385 0 0.00027041018183539012 0.054613686161063012 0 0.00044685229132012603 0.054810964432894189 0 0.00036839264216216068 0.054656472245405652 0 0.00023596711510534817 0.054880398814642808 0 0.00036839264216216068 0.054656472245405652 0 0.00023596711510534817 0.054880398814642808 0 0.00015571684919400767 0.054849092136176385 0 0.00023596711510534817 0.054880398814642808 0 1.331979758109226e-07 0.054999990350742163 0 0.00015571684919400767 0.054849092136176385 0 1.331979758109226e-07 0.054999990350742163 0 1.1270185237702171e-07 0.0549995700411363 0 0.00015571684919400767 0.054849092136176385 0 1.1270185237702171e-07 0.0549995700411363 0 0.00015571684919400767 0.054849092136176385 0 0.00027041018183539012 0.054613686161063012 0 1.1270185237702171e-07 0.0549995700411363 0 0.00027041018183539012 0.054613686161063012 0 1.846263617538316e-07 0.054999414451961354 0 0.00025634535040165246 0.054604461794518194 0 0.00042152132354704029 0.054361141407808108 0 0.00064800387459923046 0.054109337402965453 0 0.00027041018183539012 0.054613686161063012 0 0.00025634535040165246 0.054604461794518194 0 0.00064800387459923046 0.054109337402965453 0 0.00027041018183539012 0.054613686161063012 0 0.00025634535040165246 0.054604461794518194 0 1.846263617538316e-07 0.054999414451961354 0 0.00025634535040165246 0.054604461794518194 0 1.846263617538316e-07 0.054999414451961354 0 1.9796080695201614e-07 0.054999304320455009 0 0.00025634535040165246 0.054604461794518194 0 0.00042152132354704029 0.054361141407808108 0 1.9796080695201614e-07 0.054999304320455009 0 0.00063888835205830525 0.053980171838621381 0 0.00030790090247769653 0.054484248231349237 0 0.00058556641108254348 0.054124354721820353 0 0.00042152132354704029 0.054361141407808108 0 0.00030790090247769653 0.054484248231349237 0 0.00058556641108254348 0.054124354721820353 0 0.00042152132354704029 0.054361141407808108 0 0.00030790090247769653 0.054484248231349237 0 1.9796080695201614e-07 0.054999304320455009 0 1.8663283639333983e-07 0.054999309481666939 0 0.00030790090247769653 0.054484248231349237 0 1.9796080695201614e-07 0.054999304320455009 0 0.0012452088469412528 0.053362177723066409 0 0.00086955613032487107 0.053775702240316553 0 0.00089147186926635564 0.053791333620021121 0 0.0010501917178503493 0.05351548333984818 0 0.0012452088469412528 0.053362177723066409 0 0.00086955613032487107 0.053775702240316553 0 0.00086955613032487107 0.053775702240316553 0 0.00058556641108254348 0.054124354721820353 0 0.00089147186926635564 0.053791333620021121 0 0.00063888835205830525 0.053980171838621381 0 0.00086955613032487107 0.053775702240316553 0 0.00058556641108254348 0.054124354721820353 0 0.00042152132354704029 0.054361141407808108 0 0.00058556641108254348 0.054124354721820353 0 0.00089147186926635564 0.053791333620021121 0 0.00042152132354704029 0.054361141407808108 0 0.00089147186926635564 0.053791333620021121 0 0.00064800387459923046 0.054109337402965453 0 0.0012452088469412528 0.053362177723066409 0 0.00089147186926635564 0.053791333620021121 0 0.0014413619750674584 0.053206631510715183 0 0.00089147186926635564 0.053791333620021121 0 0.001079254764394715 0.053647026420315262 0 0.0014413619750674584 0.053206631510715183 0 0.00089147186926635564 0.053791333620021121 0 0.001079254764394715 0.053647026420315262 0 0.00064800387459923046 0.054109337402965453 0 0.00027041018183539012 0.054613686161063012 0 0.00064800387459923046 0.054109337402965453 0 0.00068234743287589792 0.054174961932865869 0 0.001079254764394715 0.053647026420315262 0 0.00064800387459923046 0.054109337402965453 0 0.00068234743287589792 0.054174961932865869 0 0.0011364482997039743 0.053817769710812521 0 0.001079254764394715 0.053647026420315262 0 0.0015881893690002655 0.053175666440483368 0 0.0011364482997039743 0.053817769710812521 0 0.001079254764394715 0.053647026420315262 0 0.00068234743287589792 0.054174961932865869 0 0.0011364482997039743 0.053817769710812521 0 0.0015881893690002655 0.053175666440483368 0 0.0020610460356010303 0.052915913033104812 0 0.0015881893690002655 0.053175666440483368 0 0.0019376289253591253 0.052572153150270154 0 0.0020610460356010303 0.052915913033104812 0 0.0019376289253591253 0.052572153150270154 0 0.0021266103033669537 0.052126141138749825 0 0.0020610460356010303 0.052915913033104812 0 0.001079254764394715 0.053647026420315262 0 0.0015881893690002655 0.053175666440483368 0 0.0014413619750674584 0.053206631510715183 0 0.0015881893690002655 0.053175666440483368 0 0.0019376289253591253 0.052572153150270154 0 0.0014413619750674584 0.053206631510715183 0 0.0012452088469412528 0.053362177723066409 0 0.0014413619750674584 0.053206631510715183 0 0.0016287151801147608 0.052882560377148884 0 0.0019376289253591253 0.052572153150270154 0 0.0014413619750674584 0.053206631510715183 0 0.0016287151801147608 0.052882560377148884 0 0.0019376289253591253 0.052572153150270154 0 0.0016287151801147608 0.052882560377148884 0 0.0018599570829209002 0.052426394839942353 0 0.0018017791994555971 0.052512918054816962 0 0.0014792954803949704 0.053020754933570967 0 0.0016287151801147608 0.052882560377148884 0 0.0014792954803949704 0.053020754933570967 0 0.0012452088469412528 0.053362177723066409 0 0.0016287151801147608 0.052882560377148884 0 0.0014792954803949704 0.053020754933570967 0 0.0010501917178503493 0.05351548333984818 0 0.0012452088469412528 0.053362177723066409 0 0.0018668250316641363 0.052101055292715297 0 0.0018017791994555971 0.052512918054816962 0 0.00190097477770154 0.052051178725149028 0 0.0018017791994555971 0.052512918054816962 0 0.0016287151801147608 0.052882560377148884 0 0.0018599570829209002 0.052426394839942353 0 0.0018017791994555971 0.052512918054816962 0 0.00190097477770154 0.052051178725149028 0 0.0018599570829209002 0.052426394839942353 0 0.00190097477770154 0.052051178725149028 0 0.0019666888954122607 0.05197486952098937 0 0.0018646016261589396 0.051490337724899062 0 0.00190097477770154 0.052051178725149028 0 0.0018599570829209002 0.052426394839942353 0 0.0019666888954122607 0.05197486952098937 0 0.0019376289253591253 0.052572153150270154 0 0.0018599570829209002 0.052426394839942353 0 0.0019666888954122607 0.05197486952098937 0 0.0019376289253591253 0.052572153150270154 0 0.0019666888954122607 0.05197486952098937 0 0.002069819621118484 0.05167474293212454 0 0.0019376289253591253 0.052572153150270154 0 0.002069819621118484 0.05167474293212454 0 0.0021266103033669537 0.052126141138749825 0 0.0019666888954122607 0.05197486952098937 0 0.002069819621118484 0.05167474293212454 0 0.0019394740020645279 0.051241757959672472 0 0.002069819621118484 0.05167474293212454 0 0.0022024112475422992 0.051324365985916012 0 0.0021110749100497644 0.050956848741847353 0 0.0022024112475422992 0.051324365985916012 0 0.0024496672041957736 0.05065636374997326 0 0.0021110749100497644 0.050956848741847353 0 0.0022024112475422992 0.051324365985916012 0 0.0024496672041957736 0.05065636374997326 0 0.0023572077977505653 0.051014399645259882 0 0.0023572077977505653 0.051014399645259882 0 0.0024360261843933157 0.05130410109969933 0 0.0023650242421458857 0.050969205868907679 0 0.0022024112475422992 0.051324365985916012 0 0.0023572077977505653 0.051014399645259882 0 0.0024360261843933157 0.05130410109969933 0 0.0022024112475422992 0.051324365985916012 0 0.0021266103033669537 0.052126141138749825 0 0.0024360261843933157 0.05130410109969933 0 0.002069819621118484 0.05167474293212454 0 0.0022024112475422992 0.051324365985916012 0 0.0021266103033669537 0.052126141138749825 0 0.0021266103033669537 0.052126141138749825 0 0.0020610460356010303 0.052915913033104812 0 0.0024360261843933157 0.05130410109969933 0 0.0021127613633350421 0.052730168010402916 0 0.0024405283521019162 0.052757101086339409 0 0.0011364482997039743 0.053817769710812521 0 0.0020610460356010303 0.052915913033104812 0 0.001755397176726963 0.054137905784725222 0 0.0011181455851086534 0.053746995985591295 0 0.001461457049696825 0.054583281689215384 0 0.00095933399648709546 0.054588248799498598 0 0.0012140966655290915 0.054719271529784515 0 0.00098107443261210951 0.054841087963994242 0 0.00095933399648709546 0.054588248799498598 0 0.0011364482997039743 0.053817769710812521 0 0.0012140966655290915 0.054719271529784515 0 0.0020610460356010303 0.052915913033104812 0 0.001755397176726963 0.054137905784725222 0 0.0025135881695679909 0.05387556307473329 0 0.001461457049696825 0.054583281689215384 0 0.0020855190671559107 0.054145306742720854 0 0.001755397176726963 0.054137905784725222 0 0.0025135881695679909 0.05387556307473329 0 0.0024244876047122702 0.05508679106119841 0 0.0012140966655290915 0.054719271529784515 0 0.0010694233929389918 0.054905906867355074 0 0.0012083146807031211 0.054982365189191515 0 0.0012140966655290915 0.054719271529784515 0 0.00098107443261210951 0.054841087963994242 0 0.0010694233929389918 0.054905906867355074 0 0.00098107443261210951 0.054841087963994242 0 0.0010694233929389918 0.054905906867355074 0 0.00091826562643644745 0.054988446086654784 0 0.00091826562643644745 0.054988446086654784 0 0.00099397904352705965 0.05498793362943543 0 0.00092226127261837044 0.055031318004700916 0 0.0010694233929389918 0.054905906867355074 0 0.00091826562643644745 0.054988446086654784 0 0.00099397904352705965 0.05498793362943543 0 0.0010694233929389918 0.054905906867355074 0 0.00099397904352705965 0.05498793362943543 0 0.0010794889176584282 0.054974159108315254 0 0.00099397904352705965 0.05498793362943543 0 0.0010794889176584282 0.054974159108315254 0 0.0010384599220492133 0.05501300747561523 0 0.0010384599220492133 0.05501300747561523 0 0.00092226127261837044 0.055031318004700916 0 0.0010038567107198383 0.055064163995896642 0 0.00099397904352705965 0.05498793362943543 0 0.0010384599220492133 0.05501300747561523 0 0.00092226127261837044 0.055031318004700916 0 0.00084816517951826485 0.055043546178991362 0 0.00092226127261837044 0.055031318004700916 0 0.00086031416539185434 0.055060705089552332 0 0.00084816517951826485 0.055043546178991362 0 0.00091826562643644745 0.054988446086654784 0 0.00092226127261837044 0.055031318004700916 0 0.0010384599220492133 0.05501300747561523 0 0.0012083146807031211 0.054982365189191515 0 0.0010038567107198383 0.055064163995896642 0 0.0010794889176584282 0.054974159108315254 0 0.0010384599220492133 0.05501300747561523 0 0.0012083146807031211 0.054982365189191515 0 0.0020855190671559107 0.054145306742720854 0 0.0009328861084231555 0.054871833576536654 0 0.0018138354675216173 0.053956452541312448 0 0.0022648085764257956 0.054639751976555254 0 0.001654861644434706 0.054500728534477572 0 0.0018138354675216173 0.053956452541312448 0 0.001654861644434706 0.054500728534477572 0 0.0010943841449113708 0.054536478369481889 0 0.0010694233929389918 0.054905906867355074 0 0.0010794889176584282 0.054974159108315254 0 0.0012083146807031211 0.054982365189191515 0 0.0027333321679445964 0.05200183507999475 0 0.0025671696686869121 0.051923646143777716 0 0.002712365286724059 0.052223433122757436 0 0.0029146031536210347 0.05207266400521865 0 0.0027333321679445964 0.05200183507999475 0 0.0027392379761337878 0.051786907806438465 0 0.0020855190671559107 0.054145306742720854 0 0.0028619733698565537 0.051700908897633402 0 0.0032329895130895942 0.050019403098121869 0 0.0027730883110048464 0.052007616156519686 0 0.0020855190671559107 0.054145306742720854 0 0.0027730883110048464 0.052007616156519686 0 0.0029146031536210347 0.05207266400521865 0 0.0027333321679445964 0.05200183507999475 0 0.002712365286724059 0.052223433122757436 0 0.0027333321679445964 0.05200183507999475 0 0.0025671696686869121 0.051923646143777716 0 0.0027392379761337878 0.051786907806438465 0 0.0029430472279554682 0.049581003970291693 0 0.0028249557723531815 0.049974248207581506 0 0.0026234215996010805 0.049861735672823281 0 0.0037786110145699163 0.049189109538072207 0 0.0026234215996010805 0.049861735672823281 0 0.0031167988420898506 0.049183763502789246 0 0.0029430472279554682 0.049581003970291693 0 0.0028249557723531815 0.049974248207581506 0 0.0033161147191303909 0.050042903526806015 0 0.0032329895130895942 0.050019403098121869 0 0.0028027105950474778 0.04964710180510705 0 0.0026673374266484289 0.050277875072140467 0 0.0027730883110048464 0.052007616156519686 0 0.0024496672041957736 0.05065636374997326 0 0.0028249557723531815 0.049974248207581506 0 0.0033161147191303909 0.050042903526806015 0 0.0024496672041957736 0.05065636374997326 0 0.0028249557723531815 0.049974248207581506 0 0.0026234215996010805 0.049861735672823281 0 0.0024496672041957736 0.05065636374997326 0 0.0023572077977505653 0.051014399645259882 0 0.0023650242421458857 0.050969205868907679 0 0.0025135881695679909 0.05387556307473329 0 0.0024244876047122702 0.05508679106119841 0 0.0029200800000961937 0.054695668325188788 0 0.0024405283521019162 0.052757101086339409 0 0.0027730883110048464 0.052007616156519686 0 0.0021270362602749827 0.04959808884357441 0 0.0018326613910994336 0.049812743967657808 0 0.0020514930513061734 0.050326031563262652 0 0.0021270362602749827 0.04959808884357441 0 0.0026234215996010805 0.049861735672823281 0 0.0020514930513061734 0.050326031563262652 0 0.0024496672041957736 0.05065636374997326 0 0.0026234215996010805 0.049861735672823281 0 0.0020514930513061734 0.050326031563262652 0 0.0021270362602749827 0.04959808884357441 0 0.0026234215996010805 0.049861735672823281 0 0.0026053250255546815 0.04934466354550341 0 0.0026234215996010805 0.049861735672823281 0 0.0031167988420898506 0.049183763502789246 0 0.0026053250255546815 0.04934466354550341 0 0.0031167988420898506 0.049183763502789246 0 0.0026053250255546815 0.04934466354550341 0 0.0031019842777100146 0.048830253711563652 0 0.0021270362602749827 0.04959808884357441 0 0.0026053250255546815 0.04934466354550341 0 0.0023426561247398042 0.049077384039832625 0 0.0021270362602749827 0.04959808884357441 0 0.0016228436569916665 0.049412966776380969 0 0.0023426561247398042 0.049077384039832625 0 0.0020823816096037489 0.04953479024396755 0 0.0015929070634207096 0.049186736437411567 0 0.0016156883701469301 0.04896334463245082 0 0.0014248845402423111 0.049184962606874209 0 0.001266232503413139 0.048606494245672871 0 0.0015929070634207096 0.049186736437411567 0 0.0010564544926078806 0.048923214929466066 0 0.0021270362602749827 0.04959808884357441 0 0.0016156883701469301 0.04896334463245082 0 0.0018326613910994336 0.049812743967657808 0 0.0016156883701469301 0.04896334463245082 0 0.0014248845402423111 0.049184962606874209 0 0.0018326613910994336 0.049812743967657808 0 0.0018326613910994336 0.049812743967657808 0 0.0015611652493767196 0.049706935643828692 0 0.0017823475172252248 0.050402078358180176 0 0.0014248845402423111 0.049184962606874209 0 0.0018326613910994336 0.049812743967657808 0 0.0015611652493767196 0.049706935643828692 0 0.0014248845402423111 0.049184962606874209 0 0.0015611652493767196 0.049706935643828692 0 0.0012702418710196146 0.049240732630440119 0 0.0015611652493767196 0.049706935643828692 0 0.0014773562016962311 0.049918697813628739 0 0.0012702418710196146 0.049240732630440119 0 0.0014773562016962311 0.049918697813628739 0 0.0017823475172252248 0.050402078358180176 0 0.0015214062420562393 0.050277101523331404 0 0.0015611652493767196 0.049706935643828692 0 0.0014773562016962311 0.049918697813628739 0 0.0017823475172252248 0.050402078358180176 0 0.0017823475172252248 0.050402078358180176 0 0.0020514930513061734 0.050326031563262652 0 0.0021110749100497644 0.050956848741847353 0 0.0018326613910994336 0.049812743967657808 0 0.0017823475172252248 0.050402078358180176 0 0.0020514930513061734 0.050326031563262652 0 0.0024496672041957736 0.05065636374997326 0 0.0020514930513061734 0.050326031563262652 0 0.0021110749100497644 0.050956848741847353 0 0.0017823475172252248 0.050402078358180176 0 0.0021110749100497644 0.050956848741847353 0 0.0019394740020645279 0.051241757959672472 0 0.002069819621118484 0.05167474293212454 0 0.0021110749100497644 0.050956848741847353 0 0.0019394740020645279 0.051241757959672472 0 0.0017823475172252248 0.050402078358180176 0 0.0019394740020645279 0.051241757959672472 0 0.0017098310799330935 0.050829748129182256 0 0.0019394740020645279 0.051241757959672472 0 0.0017098310799330935 0.050829748129182256 0 0.0018646016261589396 0.051490337724899062 0 0.0017098310799330935 0.050829748129182256 0 0.0018646016261589396 0.051490337724899062 0 0.0016595278535243246 0.051060407088758863 0 0.0019666888954122607 0.05197486952098937 0 0.0019394740020645279 0.051241757959672472 0 0.0018646016261589396 0.051490337724899062 0 0.00190097477770154 0.052051178725149028 0 0.0018646016261589396 0.051490337724899062 0 0.0018140126771587759 0.051641440046017673 0 0.0018646016261589396 0.051490337724899062 0 0.0018140126771587759 0.051641440046017673 0 0.0016595278535243246 0.051060407088758863 0 0.0018140126771587759 0.051641440046017673 0 0.0016319863996179416 0.051369480817490099 0 0.0016595278535243246 0.051060407088758863 0 0.0018025542644328158 0.051943604411874011 0 0.0018140126771587759 0.051641440046017673 0 0.0016319863996179416 0.051369480817490099 0 0.0018668250316641363 0.052101055292715297 0 0.00190097477770154 0.052051178725149028 0 0.0018140126771587759 0.051641440046017673 0 0.0013520195843120823 0.050999380182172718 0 0.0014039563763158837 0.050730846655341152 0 0.00092954218869508039 0.050460439381483133 0 0.0013684949324229432 0.051438011936463551 0 0.0013520195843120823 0.050999380182172718 0 0.00092954218869508039 0.050460439381483133 0 0.0013520195843120823 0.050999380182172718 0 0.0016319863996179416 0.051369480817490099 0 0.0014039563763158837 0.050730846655341152 0 0.0013684949324229432 0.051438011936463551 0 0.0013520195843120823 0.050999380182172718 0 0.0016319863996179416 0.051369480817490099 0 0.0016319863996179416 0.051369480817490099 0 0.0016595278535243246 0.051060407088758863 0 0.0014039563763158837 0.050730846655341152 0 0.0016595278535243246 0.051060407088758863 0 0.0014039563763158837 0.050730846655341152 0 0.0014343893814779329 0.050417542902724016 0 0.0014039563763158837 0.050730846655341152 0 0.0011492868610234106 0.049994976813243337 0 0.00092954218869508039 0.050460439381483133 0 0.0014039563763158837 0.050730846655341152 0 0.0014343893814779329 0.050417542902724016 0 0.0011492868610234106 0.049994976813243337 0 0.0014343893814779329 0.050417542902724016 0 0.0012352051209791087 0.049692768438568284 0 0.0011492868610234106 0.049994976813243337 0 0.0017098310799330935 0.050829748129182256 0 0.0016595278535243246 0.051060407088758863 0 0.0014343893814779329 0.050417542902724016 0 0.0017098310799330935 0.050829748129182256 0 0.0014343893814779329 0.050417542902724016 0 0.0015214062420562393 0.050277101523331404 0 0.0017823475172252248 0.050402078358180176 0 0.0017098310799330935 0.050829748129182256 0 0.0015214062420562393 0.050277101523331404 0 0.0014773562016962311 0.049918697813628739 0 0.0015214062420562393 0.050277101523331404 0 0.0012352051209791087 0.049692768438568284 0 0.0014343893814779329 0.050417542902724016 0 0.0015214062420562393 0.050277101523331404 0 0.0012352051209791087 0.049692768438568284 0 0.0012352051209791087 0.049692768438568284 0 0.0010636975106946697 0.049475286281142068 0 0.0010638918511216798 0.04907526455156027 0 0.0010636975106946697 0.049475286281142068 0 0.00095866167661591084 0.049402788359523497 0 0.00098468174602757614 0.049364457939002584 0 0.0009020969519159403 0.049241029099869035 0 0.000405362145374456 0.04845017492866778 0 0.0010636975106946697 0.049475286281142068 0 0.0011492868610234106 0.049994976813243337 0 0.00095866167661591084 0.049402788359523497 0 0.0012352051209791087 0.049692768438568284 0 0.0010636975106946697 0.049475286281142068 0 0.0011492868610234106 0.049994976813243337 0 0.0011492868610234106 0.049994976813243337 0 0.00095866167661591084 0.049402788359523497 0 0.00092954218869508039 0.050460439381483133 0 0.00095866167661591084 0.049402788359523497 0 0.00061828659443400517 0.050158181893109353 0 0.00011993205022302453 0.049585673099139568 0 0.00024061795261117654 0.050564747674723451 0 0.00061828659443400517 0.050158181893109353 0 0.00011993205022302453 0.049585673099139568 0 0.00095866167661591084 0.049402788359523497 0 0.00061828659443400517 0.050158181893109353 0 0.00092954218869508039 0.050460439381483133 0 0.00068794947380140467 0.050647487686634275 0 0.00061828659443400517 0.050158181893109353 0 0.00092954218869508039 0.050460439381483133 0 -0.0014386372137878824 0.04850364546977854 0 -0.001294946240727619 0.048320640224631874 0 -0.00076353057035619479 0.050323450394356498 0 0.00011993205022302453 0.049585673099139568 0 -0.0012316208041077414 0.04825738085045523 0 -0.002166025190517925 0.047136351200674345 0 -0.0013712322275814652 0.047572420947484678 0 -0.0012316208041077414 0.04825738085045523 0 0.00011993205022302453 0.049585673099139568 0 -0.0012316208041077414 0.04825738085045523 0 -0.00018117064331510437 0.047481003704576835 0 0.00095866167661591084 0.049402788359523497 0 0.00011993205022302453 0.049585673099139568 0 -0.00018117064331510437 0.047481003704576835 0 -0.0012933011404853128 0.047069522248789006 0 -0.0012316208041077414 0.04825738085045523 0 -0.00018117064331510437 0.047481003704576835 0 0.0010636975106946697 0.049475286281142068 0 0.00098468174602757614 0.049364457939002584 0 0.0010638918511216798 0.04907526455156027 0 0.00098468174602757614 0.049364457939002584 0 0.0010638918511216798 0.04907526455156027 0 0.00077609425910092568 0.048538415138977803 0 0.00045084595242970104 0.048837567204537698 0 0.00098468174602757614 0.049364457939002584 0 0.00077609425910092568 0.048538415138977803 0 -0.0004540513297476192 0.047559109903402334 0 0.000405362145374456 0.04845017492866778 0 -0.0009684002297081053 0.046352278501980176 0 -0.0012933011404853128 0.047069522248789006 0 -0.00018117064331510437 0.047481003704576835 0 0.00045084595242970104 0.048837567204537698 0 0.00022068887676500687 0.04842925080590349 0 0.00077609425910092568 0.048538415138977803 0 0.00077609425910092568 0.048538415138977803 0 0.00078927895893149327 0.047977901800323249 0 0.0009749916900019818 0.048501643957315758 0 0.00070240009576703585 0.048072600100011756 0 0.00078514036249250447 0.048372846935315753 0 0.00082322150536902089 0.047724521566838471 0 0.00077609425910092568 0.048538415138977803 0 0.00078927895893149327 0.047977901800323249 0 0.00078927895893149327 0.047977901800323249 0 0.00096788114232230842 0.048116524449925799 0 0.0009749916900019818 0.048501643957315758 0 0.00062149234063887926 0.047881916646566332 0 0.00078927895893149327 0.047977901800323249 0 0.00096788114232230842 0.048116524449925799 0 0.0010839952870919697 0.048478172438012931 0 0.0009749916900019818 0.048501643957315758 0 0.0011431602875568675 0.048961016238792149 0 0.00096788114232230842 0.048116524449925799 0 0.0010839952870919697 0.048478172438012931 0 0.0011320064753139248 0.048193103161494194 0 0.00096788114232230842 0.048116524449925799 0 0.0010839952870919697 0.048478172438012931 0 0.0009749916900019818 0.048501643957315758 0 0.0010638918511216798 0.04907526455156027 0 0.0009749916900019818 0.048501643957315758 0 0.0011431602875568675 0.048961016238792149 0 0.0010638918511216798 0.04907526455156027 0 0.00077609425910092568 0.048538415138977803 0 0.0009749916900019818 0.048501643957315758 0 0.0012352051209791087 0.049692768438568284 0 0.0010638918511216798 0.04907526455156027 0 0.0011431602875568675 0.048961016238792149 0 0.0014773562016962311 0.049918697813628739 0 0.0012352051209791087 0.049692768438568284 0 0.0012702418710196146 0.049240732630440119 0 0.0012352051209791087 0.049692768438568284 0 0.0011431602875568675 0.048961016238792149 0 0.0012702418710196146 0.049240732630440119 0 0.0012702418710196146 0.049240732630440119 0 0.0011601698246948785 0.048767943034823 0 0.0012028630967432594 0.048814907189117851 0 0.0010839952870919697 0.048478172438012931 0 0.0011601698246948785 0.048767943034823 0 0.0011260731640404817 0.048420268725151601 0 0.0011431602875568675 0.048961016238792149 0 0.0012702418710196146 0.049240732630440119 0 0.0011601698246948785 0.048767943034823 0 0.0010839952870919697 0.048478172438012931 0 0.0011431602875568675 0.048961016238792149 0 0.0011601698246948785 0.048767943034823 0 0.0011601698246948785 0.048767943034823 0 0.0011260731640404817 0.048420268725151601 0 0.0012028630967432594 0.048814907189117851 0 0.0011260731640404817 0.048420268725151601 0 0.0012028630967432594 0.048814907189117851 0 0.0011321137875265276 0.048579290243855787 0 0.0014248845402423111 0.049184962606874209 0 0.0012702418710196146 0.049240732630440119 0 0.0012028630967432594 0.048814907189117851 0 0.0014248845402423111 0.049184962606874209 0 0.0012028630967432594 0.048814907189117851 0 0.001266232503413139 0.048606494245672871 0 0.0012028630967432594 0.048814907189117851 0 0.0011321137875265276 0.048579290243855787 0 0.001266232503413139 0.048606494245672871 0 0.0011260731640404817 0.048420268725151601 0 0.0011321137875265276 0.048579290243855787 0 0.0011462645745599772 0.048484781327174736 0 0.0011321137875265276 0.048579290243855787 0 0.0011462645745599772 0.048484781327174736 0 0.0011324009042116973 0.048513967789929217 0 0.0011260731640404817 0.048420268725151601 0 0.0011462645745599772 0.048484781327174736 0 0.0011805054648666728 0.048163737974428883 0 0.0016959169128429046 0.04715963089447759 0 0.0012777109213252345 0.047317048554604668 0 0.0012790149297374415 0.047787421308205312 0 0.0011462645745599772 0.048484781327174736 0 0.0012790149297374415 0.047787421308205312 0 0.0011805054648666728 0.048163737974428883 0 0.0015223669284352274 0.047716396191361705 0 0.001245636459403453 0.047877591586572357 0 0.0016959169128429046 0.04715963089447759 0 0.0012181686511394073 0.047127996012361596 0 0.0012777109213252345 0.047317048554604668 0 0.00097325161960347482 0.045921489723027356 0 0.0022363463674756816 0.045130381165400017 0 0.0012351048113347094 0.047270626161609562 0 0.0016673545224909821 0.046282626289215298 0 0.0013648111999969535 0.047036944928662644 0 0.0012351048113347094 0.047270626161609562 0 0.0012777109213252345 0.047317048554604668 0 0.0012790149297374415 0.047787421308205312 0 0.0012181686511394073 0.047127996012361596 0 0.0012351048113347094 0.047270626161609562 0 0.0012777109213252345 0.047317048554604668 0 0.00062149234063887926 0.047881916646566332 0 0.00096788114232230842 0.048116524449925799 0 0.0010569599424651824 0.047821634192729418 0 0.0012351048113347094 0.047270626161609562 0 0.0012790149297374415 0.047787421308205312 0 0.0010569599424651824 0.047821634192729418 0 0.00057022781921319346 0.047016756383902875 0 0.0012351048113347094 0.047270626161609562 0 0.0010569599424651824 0.047821634192729418 0 0.0012790149297374415 0.047787421308205312 0 0.0010569599424651824 0.047821634192729418 0 0.0011320064753139248 0.048193103161494194 0 0.00096788114232230842 0.048116524449925799 0 0.0010569599424651824 0.047821634192729418 0 0.0011320064753139248 0.048193103161494194 0 0.0010839952870919697 0.048478172438012931 0 0.0011260731640404817 0.048420268725151601 0 0.0011320064753139248 0.048193103161494194 0 0.0011260731640404817 0.048420268725151601 0 0.0011320064753139248 0.048193103161494194 0 0.0011805054648666728 0.048163737974428883 0 0.0012790149297374415 0.047787421308205312 0 0.0011320064753139248 0.048193103161494194 0 0.0011805054648666728 0.048163737974428883 0 -0.0059857937164241532 0.046741696703624859 0 -0.0069984512950911175 0.047733581614443257 0 -0.0064506138078719083 0.045373934031010754 0 -0.0060521202135620416 0.047586934632456293 0 -0.0057663123363994586 0.048328434742214425 0 -0.0069984512950911175 0.047733581614443257 0 -0.0016630138391605848 0.046313266785964424 0 0.0019264838887146725 0.043499430018763746 0 -0.00049240822852727258 0.044708972204328512 0 0.00152499330593076 0.045626116514249061 0 0.0018885628232192919 0.044348552839617847 0 -0.0060521202135620416 0.047586934632456293 0 -0.0057663123363994586 0.048328434742214425 0 -0.0051805700555912406 0.047469130411223526 0 -0.0051805700555912406 0.047469130411223526 0 -0.0059857937164241532 0.046741696703624859 0 -0.0047875312189102712 0.046651936025912388 0 -0.0060521202135620416 0.047586934632456293 0 -0.0051805700555912406 0.047469130411223526 0 -0.0059857937164241532 0.046741696703624859 0 -0.0060521202135620416 0.047586934632456293 0 -0.0059857937164241532 0.046741696703624859 0 -0.0069984512950911175 0.047733581614443257 0 0.0045755919380143211 0.041222387146003535 0 0.0019264838887146725 0.043499430018763746 0 0.0037902593759716365 0.039941342028181594 0 0.006672649311122182 0.041322754635169462 0 0.00596157613522557 0.038336864405597651 0 0.0024259462838455968 0.043046992447974448 0 0.0037902593759716365 0.039941342028181594 0 0.0045927072059911657 0.041404334469838738 0 0.0037902593759716365 0.039941342028181594 0 0.0045927072059911657 0.041404334469838738 0 0.0062087589270976582 0.041103992063249745 0 0.0045927072059911657 0.041404334469838738 0 0.0062087589270976582 0.041103992063249745 0 0.0058115217575493974 0.042534419463649609 0 0.0019264838887146725 0.043499430018763746 0 0.0026399629332358281 0.044088025188393956 0 0.0024259462838455968 0.043046992447974448 0 0.0045927072059911657 0.041404334469838738 0 0.0058115217575493974 0.042534419463649609 0 0.0018631041656669738 0.043232401442444154 0 0.0026399629332358281 0.044088025188393956 0 0.00080603592322967227 0.043503710844143915 0 0.0022363463674756816 0.045130381165400017 0 0.0027881811722031153 0.043245837062413334 0 0.00097325161960347482 0.045921489723027356 0 0.00080603592322967227 0.043503710844143915 0 0.0022363463674756816 0.045130381165400017 0 0.0012181686511394073 0.047127996012361596 0 0.0013421230081487009 0.046670627735974815 0 0.0015894737985538115 0.04688437964997455 0 0.0016673545224909821 0.046282626289215298 0 0.0026399629332358281 0.044088025188393956 0 0.0016754266387192828 0.046643976571164356 0 0.0015894737985538115 0.04688437964997455 0 0.0019836709347861034 0.046803355493501092 0 0.0016959169128429046 0.04715963089447759 0 0.0015894737985538115 0.04688437964997455 0 0.0019836709347861034 0.046803355493501092 0 0.0016959169128429046 0.04715963089447759 0 0.0012181686511394073 0.047127996012361596 0 0.0015894737985538115 0.04688437964997455 0 -0.0016630138391605848 0.046313266785964424 0 0.0026399629332358281 0.044088025188393956 0 0.0016754266387192828 0.046643976571164356 0 0.0013421230081487009 0.046670627735974815 0 0.0015894737985538115 0.04688437964997455 0 0.0015223669284352274 0.047716396191361705 0 0.00057265750327924127 0.047839029863119026 0 -0.0010415595378177817 0.047342780892653424 0 -0.001198259603734482 0.047277785102740513 0 -0.0013038571385266221 0.047396465468383761 0 0.0011321137875265276 0.048579290243855787 0 0.0011324009042116973 0.048513967789929217 0 0.001266232503413139 0.048606494245672871 0 0.00057265750327924127 0.047839029863119026 0 -0.0021474328403334412 0.048189037868488306 0 -0.0016630138391605848 0.046313266785964424 0 0.00057265750327924127 0.047839029863119026 0 0.00057265750327924127 0.047839029863119026 0 0.0010564544926078806 0.048923214929466066 0 -5.2496727958768501e-05 0.048703798965768395 0 0.00073954305233911162 0.048579194388871955 0 0.00028065028880880024 0.048334190686558649 0 -5.2496727958768501e-05 0.048703798965768395 0 0.00073954305233911162 0.048579194388871955 0 0.00079249018600584351 0.049085767072687456 0 -0.0033028481981268658 0.048033537346350831 0 -0.0035294083689610552 0.046137812593042199 0 -0.0019636431023551714 0.046662898013138471 0 -0.0021474328403334412 0.048189037868488306 0 0.0002672243220035744 0.048336610586842847 0 -0.0035057676924907044 0.048842294805166241 0 -0.0020193029064104369 0.047179048170115215 0 -0.0008111061674455916 0.048458355132795637 0 0.00073954305233911162 0.048579194388871955 0 0.00028065028880880024 0.048334190686558649 0 0.0010942243031985095 0.048217175237686517 0 -0.0021474328403334412 0.048189037868488306 0 -0.0020498962086280535 0.047017551934517399 0 -0.0016630138391605848 0.046313266785964424 0 -0.0021474328403334412 0.048189037868488306 0 -0.0033028481981268658 0.048033537346350831 0 -0.0047875312189102712 0.046651936025912388 0 -0.0035294083689610552 0.046137812593042199 0 -0.0057663123363994586 0.048328434742214425 0 -0.0051805700555912406 0.047469130411223526 0 -0.0033028481981268658 0.048033537346350831 0 -0.0051805700555912406 0.047469130411223526 0 -0.0033028481981268658 0.048033537346350831 0 -0.0047875312189102712 0.046651936025912388 0 -0.0047875312189102712 0.046651936025912388 0 -0.0035294083689610552 0.046137812593042199 0 -0.0053110772093359088 0.045574272120526234 0 -0.0039445126282763553 0.044824562001386646 0 -0.0051770298335855093 0.044325272191686922 0 -0.0053110772093359088 0.045574272120526234 0 -0.0035294083689610552 0.046137812593042199 0 -0.0039445126282763553 0.044824562001386646 0 -0.0053110772093359088 0.045574272120526234 0 -0.0019636431023551714 0.046662898013138471 0 -0.0021673440659559251 0.044748468062483976 0 -0.00050857430284837228 0.045404833686967794 0 -0.0035294083689610552 0.046137812593042199 0 -0.0019636431023551714 0.046662898013138471 0 -0.0021673440659559251 0.044748468062483976 0 -0.0035294083689610552 0.046137812593042199 0 -0.0039445126282763553 0.044824562001386646 0 -0.0021673440659559251 0.044748468062483976 0 -0.0031053192091001604 0.043746980401770018 0 -0.0042053701553065948 0.042993096329447263 0 -0.0020642450996944568 0.042380822670223917 0 -0.0021673440659559251 0.044748468062483976 0 -0.0020642450996944568 0.042380822670223917 0 -7.0675895630292353e-05 0.043475240461164889 0 -0.0021673440659559251 0.044748468062483976 0 -0.0031053192091001604 0.043746980401770018 0 -0.0020642450996944568 0.042380822670223917 0 -0.0039445126282763553 0.044824562001386646 0 -0.0021673440659559251 0.044748468062483976 0 -0.0031053192091001604 0.043746980401770018 0 -0.0039445126282763553 0.044824562001386646 0 -0.0051770298335855093 0.044325272191686922 0 -0.0042053701553065948 0.042993096329447263 0 -0.0039445126282763553 0.044824562001386646 0 -0.0031053192091001604 0.043746980401770018 0 -0.0042053701553065948 0.042993096329447263 0 -0.0051770298335855093 0.044325272191686922 0 -0.0042053701553065948 0.042993096329447263 0 -0.005929651484870224 0.042808176703084337 0 0.0015666333676064978 0.037145455215533286 0 0.00058109451576850342 0.041072987146394895 0 -0.0051770298335855093 0.044325272191686922 0 -0.005929651484870224 0.042808176703084337 0 -0.0064506138078719083 0.045373934031010754 0 0.0089154761251045728 0.031539419119318082 0 0.0080382856046386942 0.036226872768076054 0 0.0064783168487444649 0.03315522525858261 0 0.0019264838887146725 0.043499430018763746 0 0.00058109451576850342 0.041072987146394895 0 -0.0051770298335855093 0.044325272191686922 0 -0.0053110772093359088 0.045574272120526234 0 -0.0064506138078719083 0.045373934031010754 0 -0.0059857937164241532 0.046741696703624859 0 -0.0047875312189102712 0.046651936025912388 0 -0.0053110772093359088 0.045574272120526234 0 -0.0059857937164241532 0.046741696703624859 0 -0.0053110772093359088 0.045574272120526234 0 -0.0064506138078719083 0.045373934031010754 0 0.006672649311122182 0.041322754635169462 0 0.0080382856046386942 0.036226872768076054 0 0.00596157613522557 0.038336864405597651 0 0.0015497048973151504 0.036825716424623102 0 0.0052136619608796472 0.036622540760332202 0 0.0064783168487444649 0.03315522525858261 0 0.0015497048973151504 0.036825716424623102 0 0.0037902593759716365 0.039941342028181594 0 0.0052136619608796472 0.036622540760332202 0 0.0037902593759716365 0.039941342028181594 0 0.00596157613522557 0.038336864405597651 0 0.0052136619608796472 0.036622540760332202 0 0.0080382856046386942 0.036226872768076054 0 0.00596157613522557 0.038336864405597651 0 0.0052136619608796472 0.036622540760332202 0 0.0080382856046386942 0.036226872768076054 0 0.0052136619608796472 0.036622540760332202 0 0.0064783168487444649 0.03315522525858261 0 0.0024687832177347083 0.03573211078992098 0 0.006211425407519065 0.033334693155297086 0 0.0033373734513690127 0.031636236211555112 0 0.002957956067806538 0.034851211715977194 0 0.0064783168487444649 0.03315522525858261 0 0.0033373734513690127 0.031636236211555112 0 0.0064783168487444649 0.03315522525858261 0 0.0056580109530797546 0.028850861303644136 0 0.0015666333676064978 0.037145455215533286 0 0.0017498572015515576 0.033808247273396895 0 0.0089154761251045728 0.031539419119318082 0 0.0056580109530797546 0.028850861303644136 0 0.0098765006608949411 0.027752760806464365 0 0.0089154761251045728 0.031539419119318082 0 0.0064783168487444649 0.03315522525858261 0 0.0056580109530797546 0.028850861303644136 0 0.0090243319836746452 0.027210401604198586 0 0.0017498572015515576 0.033808247273396895 0 0.0056580109530797546 0.028850861303644136 0 0.0065956124516982776 0.026249009085433619 0 0.008288287078135493 0.027749372103532132 0 0.0065956124516982776 0.026249009085433619 0 0.0088216743691365944 0.025108519123637461 0 0.008288287078135493 0.027749372103532132 0 0.0056580109530797546 0.028850861303644136 0 0.0065956124516982776 0.026249009085433619 0 0.0046776675688461047 0.026624376366226742 0 0.0029336394217816062 0.028339353506232724 0 0.0056580109530797546 0.028850861303644136 0 0.0046776675688461047 0.026624376366226742 0 0.0065956124516982776 0.026249009085433619 0 0.0046776675688461047 0.026624376366226742 0 0.0052179266468878448 0.024260329257649805 0 0.0031499030536942937 0.025204407621449924 0 0.0046776675688461047 0.026624376366226742 0 0.0052179266468878448 0.024260329257649805 0 0.0065956124516982776 0.026249009085433619 0 0.0052179266468878448 0.024260329257649805 0 0.0074381836220680127 0.023709166396309201 0 0.0065956124516982776 0.026249009085433619 0 0.0074381836220680127 0.023709166396309201 0 0.0088216743691365944 0.025108519123637461 0 0.0052179266468878448 0.024260329257649805 0 0.0074381836220680127 0.023709166396309201 0 0.006554911662395268 0.022209232177295125 0 0.0074381836220680127 0.023709166396309201 0 0.006554911662395268 0.022209232177295125 0 0.0081854531772751846 0.0218604692165352 0 0.0052179266468878448 0.024260329257649805 0 0.006554911662395268 0.022209232177295125 0 0.004827809824891051 0.022228812278672436 0 0.0036565881374451066 0.023100652749572528 0 0.0052179266468878448 0.024260329257649805 0 0.004827809824891051 0.022228812278672436 0 -0.0011152328989247943 0.03535585503853525 0 0.00057519704634182984 0.035891139951965911 0 0.00033480964815073842 0.03443518795612515 0 -0.0011152328989247943 0.03535585503853525 0 0.00033480964815073842 0.03443518795612515 0 -0.00055419645183016526 0.032995373124574845 0 -0.0021596325500725789 0.033854056001275397 0 -0.0011152328989247943 0.03535585503853525 0 -0.00055419645183016526 0.032995373124574845 0 0.00024130483021476525 0.034127902870408323 0 -0.00023237537724265606 0.032915201691396709 0 0.0074381836220680127 0.023709166396309201 0 0.0092895481032363846 0.022616542868013997 0 0.0088216743691365944 0.025108519123637461 0 -0.0021596325500725789 0.033854056001275397 0 -0.0026833916192936067 0.036096007301217897 0 -0.0011152328989247943 0.03535585503853525 0 0.0074381836220680127 0.023709166396309201 0 0.0092895481032363846 0.022616542868013997 0 0.0081854531772751846 0.0218604692165352 0 0.0038227885004632972 0.027843865839056525 0 0.00311337846947128 0.030505473472354664 0 -0.0026833916192936067 0.036096007301217897 0 -0.0011152328989247943 0.03535585503853525 0 -0.00048838971640318806 0.037491473123273965 0 -0.0011152328989247943 0.03535585503853525 0 -0.00048838971640318806 0.037491473123273965 0 0.00057519704634182984 0.035891139951965911 0 -0.0018606370519750721 0.0388999442256985 0 -0.0053028660554115944 0.040080509647056131 0 -0.0020642450996944568 0.042380822670223917 0 0.00311337846947128 0.030505473472354664 0 0.0017498572015515576 0.033808247273396895 0 -0.0026833916192936067 0.036096007301217897 0 -0.00048838971640318806 0.037491473123273965 0 -0.0032042928931289988 0.038118814459183914 0 -0.0026157224695710917 0.039092380459714679 0 0.0017498572015515576 0.033808247273396895 0 -0.0042053701553065948 0.042993096329447263 0 -0.005929651484870224 0.042808176703084337 0 -0.0053028660554115944 0.040080509647056131 0 -0.0042053701553065948 0.042993096329447263 0 -0.0053028660554115944 0.040080509647056131 0 -0.0020642450996944568 0.042380822670223917 0 -0.0020642450996944568 0.042380822670223917 0 0.00028160304963828958 0.041196212796496663 0 -7.0675895630292353e-05 0.043475240461164889 0 -0.0018606370519750721 0.0388999442256985 0 -0.0020642450996944568 0.042380822670223917 0 0.00028160304963828958 0.041196212796496663 0 0.00028160304963828958 0.041196212796496663 0 0.0020527167931684099 0.042988782343470484 0 -7.0675895630292353e-05 0.043475240461164889 0 0.00028160304963828958 0.041196212796496663 0 0.0030972062622628116 0.040506097816924908 0 0.0020527167931684099 0.042988782343470484 0 0.0030972062622628116 0.040506097816924908 0 0.0036887976890279985 0.04248290523315762 0 0.0020527167931684099 0.042988782343470484 0 0.00028160304963828958 0.041196212796496663 0 0.0030972062622628116 0.040506097816924908 0 0.0023527809138292831 0.037299209731488842 0 -0.0026157224695710917 0.039092380459714679 0 0.0028923374875023979 0.037007133206745917 0 -0.0018606370519750721 0.0388999442256985 0 0.00028160304963828958 0.041196212796496663 0 0.0023527809138292831 0.037299209731488842 0 -0.00048838971640318806 0.037491473123273965 0 0.00057519704634182984 0.035891139951965911 0 0.0023527809138292831 0.037299209731488842 0 0.00057519704634182984 0.035891139951965911 0 0.0023527809138292831 0.037299209731488842 0 0.0020333883560059197 0.034644571800005429 0 0.0023527809138292831 0.037299209731488842 0 0.0020333883560059197 0.034644571800005429 0 0.0038799776182043585 0.034841482489683807 0 0.0020333883560059197 0.034644571800005429 0 0.0038799776182043585 0.034841482489683807 0 0.0027928672529164366 0.032650784985548659 0 0.0020333883560059197 0.034644571800005429 0 0.00033480964815073842 0.03443518795612515 0 0.0012207141362023523 0.032131565878009999 0 0.00057519704634182984 0.035891139951965911 0 0.0020333883560059197 0.034644571800005429 0 0.00033480964815073842 0.03443518795612515 0 0.0062679954559341318 0.0362760157128948 0 0.0086963610165279263 0.036831819471685699 0 0.0078375548686751059 0.033768343288706801 0 0.0065701719765005233 0.034533665736645021 0 0.0038799776182043585 0.034841482489683807 0 0.0051430978530093629 0.03144964326427846 0 0.0023527809138292831 0.037299209731488842 0 0.0038799776182043585 0.034841482489683807 0 0.0054279305739639268 0.038637172153921311 0 0.0065701719765005233 0.034533665736645021 0 0.0038799776182043585 0.034841482489683807 0 0.0054279305739639268 0.038637172153921311 0 0.0065701719765005233 0.034533665736645021 0 0.0080283187534458521 0.037873469246349011 0 0.0054279305739639268 0.038637172153921311 0 0.0062679954559341318 0.0362760157128948 0 0.0078257733008173219 0.038985816292121195 0 0.0086963610165279263 0.036831819471685699 0 0.006410331612816172 0.035381882936220611 0 0.0079270004280896072 0.038447736302412827 0 0.0080283187534458521 0.037873469246349011 0 0.0054279305739639268 0.038637172153921311 0 0.0072712420451033202 0.040450116523833589 0 0.0054279305739639268 0.038637172153921311 0 0.0072712420451033202 0.040450116523833589 0 0.0056270776160474642 0.041778414874113198 0 0.0030972062622628116 0.040506097816924908 0 0.0023527809138292831 0.037299209731488842 0 0.0054279305739639268 0.038637172153921311 0 0.0030972062622628116 0.040506097816924908 0 0.0054279305739639268 0.038637172153921311 0 0.0056270776160474642 0.041778414874113198 0 0.0030972062622628116 0.040506097816924908 0 0.0036887976890279985 0.04248290523315762 0 0.0056270776160474642 0.041778414874113198 0 0.0036887976890279985 0.04248290523315762 0 0.0056270776160474642 0.041778414874113198 0 0.0051464484661506021 0.043572109977407479 0 0.0072712420451033202 0.040450116523833589 0 0.0056270776160474642 0.041778414874113198 0 0.0077000752122207989 0.041838656606347502 0 0.0056270776160474642 0.041778414874113198 0 0.0077000752122207989 0.041838656606347502 0 0.006976110501277992 0.043528734683696661 0 0.0054153195830398473 0.048004907958909812 0 0.007204399933667182 0.047385034686722116 0 0.006976110501277992 0.043528734683696661 0 0.0058312937876027048 0.045799605126902038 0 0.0090241714114013862 0.042229199114173249 0 0.006976110501277992 0.043528734683696661 0 0.0057341933305062459 0.044417058745381065 0 0.0051464484661506021 0.043572109977407479 0 0.0056270776160474642 0.041778414874113198 0 0.006976110501277992 0.043528734683696661 0 0.0051464484661506021 0.043572109977407479 0 0.006976110501277992 0.043528734683696661 0 0.0057341933305062459 0.044417058745381065 0 0.0058312937876027048 0.045799605126902038 0 0.0057341933305062459 0.044417058745381065 0 0.0058312937876027048 0.045799605126902038 0 0.00497375863931491 0.044826681689536733 0 0.0054153195830398473 0.048004907958909812 0 0.004234466640963999 0.049853982244934841 0 0.0035296279310793447 0.048088309042719123 0 0.0034845827960550105 0.048297528427114933 0 0.00349856912984592 0.048661785791369178 0 0.0035296279310793447 0.048088309042719123 0 0.0034930741691025537 0.047989550306086995 0 0.0037046302240436955 0.047439811039094455 0 0.0034930741691025537 0.047989550306086995 0 0.0037046302240436955 0.047439811039094455 0 0.0033739471424326815 0.048089207166754459 0 0.0034930741691025537 0.047989550306086995 0 0.0034845827960550105 0.048297528427114933 0 0.0034344179174038442 0.048303428439856737 0 0.0035296279310793447 0.048088309042719123 0 0.0034930741691025537 0.047989550306086995 0 0.0034845827960550105 0.048297528427114933 0 0.0037046302240436955 0.047439811039094455 0 0.0030749779003425063 0.046367215935362291 0 0.0029239421368756511 0.047840853906659063 0 0.0057837784596463816 0.045849483961128791 0 0.0037046302240436955 0.047439811039094455 0 0.0043008246533960187 0.045846528877705267 0 0.0054153195830398473 0.048004907958909812 0 0.0042937079482184559 0.047642500935448404 0 0.0037046302240436955 0.047439811039094455 0 0.0043008246533960187 0.045846528877705267 0 0.0030749779003425063 0.046367215935362291 0 0.0054153195830398473 0.048004907958909812 0 0.0048737826197930677 0.047153908023962181 0 0.0058312937876027048 0.045799605126902038 0 0.0043008246533960187 0.045846528877705267 0 0.00497375863931491 0.044826681689536733 0 0.0043008246533960187 0.045846528877705267 0 0.0030749779003425063 0.046367215935362291 0 0.0034922237808395068 0.04459728696951068 0 0.0043008246533960187 0.045846528877705267 0 0.0034922237808395068 0.04459728696951068 0 0.00497375863931491 0.044826681689536733 0 0.0034922237808395068 0.04459728696951068 0 0.00497375863931491 0.044826681689536733 0 0.0051464484661506021 0.043572109977407479 0 0.0057341933305062459 0.044417058745381065 0 0.00497375863931491 0.044826681689536733 0 0.0051464484661506021 0.043572109977407479 0 0.0036887976890279985 0.04248290523315762 0 0.0034922237808395068 0.04459728696951068 0 0.0051464484661506021 0.043572109977407479 0 0.0036887976890279985 0.04248290523315762 0 0.0034922237808395068 0.04459728696951068 0 0.0020527167931684099 0.042988782343470484 0 0.0034922237808395068 0.04459728696951068 0 0.0020527167931684099 0.042988782343470484 0 0.0016663614517309136 0.045865964193780695 0 0.0020527167931684099 0.042988782343470484 0 -7.0675895630292353e-05 0.043475240461164889 0 0.0016663614517309136 0.045865964193780695 0 -0.0021673440659559251 0.044748468062483976 0 -7.0675895630292353e-05 0.043475240461164889 0 -0.00050857430284837228 0.045404833686967794 0 -7.0675895630292353e-05 0.043475240461164889 0 -0.00050857430284837228 0.045404833686967794 0 0.0016663614517309136 0.045865964193780695 0 0.00037068982649017518 0.047111488428852821 0 -0.00050857430284837228 0.045404833686967794 0 0.0016663614517309136 0.045865964193780695 0 -0.0020193029064104369 0.047179048170115215 0 0.00037068982649017518 0.047111488428852821 0 -0.00050857430284837228 0.045404833686967794 0 -0.0020498962086280535 0.047017551934517399 0 -0.00065836573672343785 0.045526364107945388 0 0.0016663614517309136 0.045865964193780695 0 0.0018689473432227266 0.048061470401762077 0 0.0029239421368756511 0.047840853906659063 0 0.00037068982649017518 0.047111488428852821 0 0.0016663614517309136 0.045865964193780695 0 0.0018689473432227266 0.048061470401762077 0 0.0030749779003425063 0.046367215935362291 0 0.0034922237808395068 0.04459728696951068 0 0.0016663614517309136 0.045865964193780695 0 0.0030749779003425063 0.046367215935362291 0 0.0016663614517309136 0.045865964193780695 0 0.0029239421368756511 0.047840853906659063 0 0.0018689473432227266 0.048061470401762077 0 0.0015882419807111696 0.048758095704230696 0 0.0023320159994273176 0.048547527023708542 0 0.0018689473432227266 0.048061470401762077 0 0.0023320159994273176 0.048547527023708542 0 0.0029239421368756511 0.047840853906659063 0 -0.0020193029064104369 0.047179048170115215 0 0.00037068982649017518 0.047111488428852821 0 -0.0008111061674455916 0.048458355132795637 0 0.00167896925055743 0.048093451437381377 0 0.0002672243220035744 0.048336610586842847 0 0.00037068982649017518 0.047111488428852821 0 0.0018689473432227266 0.048061470401762077 0 -0.0008111061674455916 0.048458355132795637 0 0.0018689473432227266 0.048061470401762077 0 0.0010942243031985095 0.048217175237686517 0 0.0015882419807111696 0.048758095704230696 0 0.00073954305233911162 0.048579194388871955 0 0.00079249018600584351 0.049085767072687456 0 0.0015882419807111696 0.048758095704230696 0 0.0016228436569916665 0.049412966776380969 0 0.00079249018600584351 0.049085767072687456 0 0.0015882419807111696 0.048758095704230696 0 0.00073954305233911162 0.048579194388871955 0 0.0010942243031985095 0.048217175237686517 0 0.0015882419807111696 0.048758095704230696 0 0.0016228436569916665 0.049412966776380969 0 0.0015882419807111696 0.048758095704230696 0 0.0023426561247398042 0.049077384039832625 0 0.0015882419807111696 0.048758095704230696 0 0.0023426561247398042 0.049077384039832625 0 0.0023320159994273176 0.048547527023708542 0 0.0026053250255546815 0.04934466354550341 0 0.0023426561247398042 0.049077384039832625 0 0.0031019842777100146 0.048830253711563652 0 0.0023426561247398042 0.049077384039832625 0 0.0029303942706390886 0.048528077248534134 0 0.0031019842777100146 0.048830253711563652 0 0.0023426561247398042 0.049077384039832625 0 0.0023320159994273176 0.048547527023708542 0 0.0029303942706390886 0.048528077248534134 0 0.0031019842777100146 0.048830253711563652 0 0.0032811976206906057 0.048430791460301353 0 0.003393770675496433 0.04850131032655626 0 0.0029303942706390886 0.048528077248534134 0 0.0031019842777100146 0.048830253711563652 0 0.0032811976206906057 0.048430791460301353 0 0.0029303942706390886 0.048528077248534134 0 0.0032811976206906057 0.048430791460301353 0 0.0033739471424326815 0.048089207166754459 0 0.0032811976206906057 0.048430791460301353 0 0.0034344179174038442 0.048303428439856737 0 0.003393770675496433 0.04850131032655626 0 0.0034930741691025537 0.047989550306086995 0 0.0034344179174038442 0.048303428439856737 0 0.0033739471424326815 0.048089207166754459 0 0.0032811976206906057 0.048430791460301353 0 0.0034344179174038442 0.048303428439856737 0 0.0033739471424326815 0.048089207166754459 0 0.0037046302240436955 0.047439811039094455 0 0.0033739471424326815 0.048089207166754459 0 0.0029239421368756511 0.047840853906659063 0 0.0029303942706390886 0.048528077248534134 0 0.0033739471424326815 0.048089207166754459 0 0.0029239421368756511 0.047840853906659063 0 0.0023320159994273176 0.048547527023708542 0 0.0029303942706390886 0.048528077248534134 0 0.0029239421368756511 0.047840853906659063 0 0.0033689648136536869 0.048605451482573676 0 0.0034955646016544208 0.048520092805277824 0 0.0035404694937792502 0.048483991849925301 0 0.0033689648136536869 0.048605451482573676 0 0.0035404694937792502 0.048483991849925301 0 0.0031010071947784826 0.048414822940987895 0 0.0033689648136536869 0.048605451482573676 0 0.0029135257535654554 0.04900952489655163 0 0.0033563969967943326 0.048855032672175995 0 0.0033689648136536869 0.048605451482573676 0 0.0034955646016544208 0.048520092805277824 0 0.0033563969967943326 0.048855032672175995 0 0.0034955646016544208 0.048520092805277824 0 0.003393770675496433 0.04850131032655626 0 0.0035404694937792502 0.048483991849925301 0 0.0034845827960550105 0.048297528427114933 0 0.0034344179174038442 0.048303428439856737 0 0.0034955646016544208 0.048520092805277824 0 0.0034344179174038442 0.048303428439856737 0 0.0034955646016544208 0.048520092805277824 0 0.003393770675496433 0.04850131032655626 0 0.0035290431287999442 0.048841875210753137 0 0.0037300039385937409 0.048872879210571242 0 0.0038290209372002456 0.048701081521910952 0 0.0031019842777100146 0.048830253711563652 0 0.003393770675496433 0.04850131032655626 0 0.0035404694937792502 0.048483991849925301 0 0.0031019842777100146 0.048830253711563652 0 0.0035290431287999442 0.048841875210753137 0 0.0038290209372002456 0.048701081521910952 0 0.0032973710388997379 0.048477461116325012 0 0.0033586725634703451 0.049843984343916903 0 0.0031167988420898506 0.049183763502789246 0 0.0031019842777100146 0.048830253711563652 0 0.0035290431287999442 0.048841875210753137 0 0.0037786110145699163 0.049189109538072207 0 0.0031167988420898506 0.049183763502789246 0 0.0035290431287999442 0.048841875210753137 0 0.0036441290446272536 0.049090947749092881 0 0.0035290431287999442 0.048841875210753137 0 0.0037300039385937409 0.048872879210571242 0 0.0032329895130895942 0.050019403098121869 0 0.0032592419166626702 0.049067016269010506 0 0.0036441290446272536 0.049090947749092881 0 0.0039287888413908839 0.048860282550180718 0 0.0037300039385937409 0.048872879210571242 0 0.0032329895130895942 0.050019403098121869 0 0.0028619733698565537 0.051700908897633402 0 0.0028619733698565537 0.051700908897633402 0 0.0033586725634703451 0.049843984343916903 0 0.0039287888413908839 0.048860282550180718 0 0.0037300039385937409 0.048872879210571242 0 0.0038290209372002456 0.048701081521910952 0 0.0029936163568721062 0.050814744659562011 0 0.0033191404227281051 0.051312530304057948 0 0.0020047084767851526 0.051624575459457762 0 0.0033586725634703451 0.049843984343916903 0 0.002021014108103872 0.052408364446524656 0 0.0028619733698565537 0.051700908897633402 0 0.002021014108103872 0.052408364446524656 0 0.001654861644434706 0.054500728534477572 0 0.0013728137499773663 0.054680635763939771 0 0.0010943841449113708 0.054536478369481889 0 0.001654861644434706 0.054500728534477572 0 0.0013728137499773663 0.054680635763939771 0 0.0017831782716478662 0.055034007038247651 0 0.0013728137499773663 0.054680635763939771 0 0.0013198048384816237 0.054937667007153301 0 0.0017831782716478662 0.055034007038247651 0 0.0022648085764257956 0.054639751976555254 0 0.001654861644434706 0.054500728534477572 0 0.0017831782716478662 0.055034007038247651 0 0.0010943841449113708 0.054536478369481889 0 0.00096996249703520346 0.054877940604799072 0 0.00052462156829163886 0.055112585168067947 0 0.0009328861084231555 0.054871833576536654 0 0.00063651738294950497 0.055050940787563271 0 0.00086031416539185434 0.055060705089552332 0 0.0010038567107198383 0.055064163995896642 0 0.00052462156829163886 0.055112585168067947 0 0.00092226127261837044 0.055031318004700916 0 0.00086031416539185434 0.055060705089552332 0 0.0010038567107198383 0.055064163995896642 0 0.0013728137499773663 0.054680635763939771 0 0.0010943841449113708 0.054536478369481889 0 0.00096996249703520346 0.054877940604799072 0 0.0013198048384816237 0.054937667007153301 0 0.00096996249703520346 0.054877940604799072 0 0.00095237705873539461 0.055229441999305524 0 0.0013728137499773663 0.054680635763939771 0 0.0013198048384816237 0.054937667007153301 0 0.00096996249703520346 0.054877940604799072 0 0.00096996249703520346 0.054877940604799072 0 0.00072181304235552672 0.055116884170129422 0 0.00052462156829163886 0.055112585168067947 0 0.00045957492228414405 0.05462340987404251 0 0.0010130727336334149 0.054464527637562279 0 0.00047850710993024224 0.05487687807350327 0 0.00096996249703520346 0.054877940604799072 0 0.00095237705873539461 0.055229441999305524 0 0.00072181304235552672 0.055116884170129422 0 0.00045957492228414405 0.05462340987404251 0 0.00047850710993024224 0.05487687807350327 0 0.00023241138287857883 0.054887375061941329 0 0.0013198048384816237 0.054937667007153301 0 0.00095237705873539461 0.055229441999305524 0 0.0017831782716478662 0.055034007038247651 0 0.002021014108103872 0.052408364446524656 0 0.0014168677717176189 0.051933586537664889 0 0.0031010071947784826 0.048414822940987895 0 0.0029135257535654554 0.04900952489655163 0 0.0022065842719510916 0.049262886224849478 0 0.00052595808831940537 0.055092704307052043 0 0.002021014108103872 0.052408364446524656 0 0.0033689648136536869 0.048605451482573676 0 0.0031010071947784826 0.048414822940987895 0 0.0029135257535654554 0.04900952489655163 0 0.0029135257535654554 0.04900952489655163 0 0.003132919416400664 0.049531953195335883 0 0.0033563969967943326 0.048855032672175995 0 0.0029135257535654554 0.04900952489655163 0 0.003132919416400664 0.049531953195335883 0 0.0022065842719510916 0.049262886224849478 0 0.003132919416400664 0.049531953195335883 0 0.0022065842719510916 0.049262886224849478 0 0.0017494011017751942 0.050624644980327767 0 0.0032177189985748505 0.050158024111832324 0 0.0017817184759513006 0.050535671012485947 0 0.0034625240656014416 0.050798049712741766 0 0.0017494011017751942 0.050624644980327767 0 0.0024320413813581094 0.05156346303428163 0 0.0017494011017751942 0.050624644980327767 0 0.0024320413813581094 0.05156346303428163 0 0.0014680759593531337 0.051907604710597216 0 0.0024320413813581094 0.05156346303428163 0 0.0031533000732573632 0.052154892623150081 0 0.0021888201172250857 0.052424612497334142 0 0.0024320413813581094 0.05156346303428163 0 0.0021888201172250857 0.052424612497334142 0 0.0014680759593531337 0.051907604710597216 0 0.0034625240656014416 0.050798049712741766 0 0.0024320413813581094 0.05156346303428163 0 0.0031533000732573632 0.052154892623150081 0 0.0034625240656014416 0.050798049712741766 0 0.004287488470191266 0.051683894822620445 0 0.0031533000732573632 0.052154892623150081 0 0.0034625240656014416 0.050798049712741766 0 0.004287488470191266 0.051683894822620445 0 0.005137067626234313 0.050737252697361894 0 0.004287488470191266 0.051683894822620445 0 0.0050052359208697522 0.051527786809098093 0 0.00472388550534292 0.052022588413360715 0 0.004287488470191266 0.051683894822620445 0 0.005137067626234313 0.050737252697361894 0 0.0050052359208697522 0.051527786809098093 0 0.003132919416400664 0.049531953195335883 0 0.0033563969967943326 0.048855032672175995 0 0.00349856912984592 0.048661785791369178 0 0.0032177189985748505 0.050158024111832324 0 0.004234466640963999 0.049853982244934841 0 0.0034955646016544208 0.048520092805277824 0 0.0033563969967943326 0.048855032672175995 0 0.00349856912984592 0.048661785791369178 0 0.0034845827960550105 0.048297528427114933 0 0.0034955646016544208 0.048520092805277824 0 0.00349856912984592 0.048661785791369178 0 0.0068505267691149349 0.050683928039674649 0 0.0050052359208697522 0.051527786809098093 0 0.0054318194938469972 0.052203509791574912 0 0.0068505267691149349 0.050683928039674649 0 0.005137067626234313 0.050737252697361894 0 0.0050052359208697522 0.051527786809098093 0 0.0050052359208697522 0.051527786809098093 0 0.0054318194938469972 0.052203509791574912 0 0.00472388550534292 0.052022588413360715 0 0.0077000752122207989 0.041838656606347502 0 0.006976110501277992 0.043528734683696661 0 0.0090241714114013862 0.042229199114173249 0 0.0077000752122207989 0.041838656606347502 0 0.0090241714114013862 0.042229199114173249 0 0.0093417119857111888 0.041405576786722707 0 0.0072712420451033202 0.040450116523833589 0 0.0077000752122207989 0.041838656606347502 0 0.0093417119857111888 0.041405576786722707 0 0.004287488470191266 0.051683894822620445 0 0.0041756227868474383 0.052682825144277398 0 0.0031533000732573632 0.052154892623150081 0 0.0054318194938469972 0.052203509791574912 0 0.0041756227868474383 0.052682825144277398 0 0.0039213445362344841 0.053706799198720671 0 0.0054318194938469972 0.052203509791574912 0 0.00472388550534292 0.052022588413360715 0 0.0041756227868474383 0.052682825144277398 0 0.0090241714114013862 0.042229199114173249 0 0.0093417119857111888 0.041405576786722707 0 0.011216982051019928 0.039850585647656069 0 0.007204399933667182 0.047385034686722116 0 0.0083433908685038097 0.046153425911483734 0 0.004287488470191266 0.051683894822620445 0 0.00472388550534292 0.052022588413360715 0 0.0041756227868474383 0.052682825144277398 0 0.0093417119857111888 0.041405576786722707 0 0.011216982051019928 0.039850585647656069 0 0.0096100993476382918 0.038997577022450929 0 0.0041756227868474383 0.052682825144277398 0 0.0039213445362344841 0.053706799198720671 0 0.0032800256848792226 0.053074233010974137 0 0.0078257733008173219 0.038985816292121195 0 0.0093417119857111888 0.041405576786722707 0 0.0096100993476382918 0.038997577022450929 0 0.0079270004280896072 0.038447736302412827 0 0.0092429142993916309 0.041170827484787245 0 0.0080283187534458521 0.037873469246349011 0 0.0072712420451033202 0.040450116523833589 0 0.0093417119857111888 0.041405576786722707 0 0.0078257733008173219 0.038985816292121195 0 0.0096100993476382918 0.038997577022450929 0 0.0086963610165279263 0.036831819471685699 0 0.011216982051019928 0.039850585647656069 0 0.0096100993476382918 0.038997577022450929 0 0.010948813069561386 0.03768728183724121 0 0.0096100993476382918 0.038997577022450929 0 0.010948813069561386 0.03768728183724121 0 0.0086963610165279263 0.036831819471685699 0 0.010948813069561386 0.03768728183724121 0 0.0086963610165279263 0.036831819471685699 0 0.011631159514522106 0.034370737623498328 0 0.0015757338998106667 0.054372110088357926 0 0.0013953135039987126 0.054355066324282414 0 0.00092980046388872859 0.054410924028556504 0 0.0042783220726107336 0.048686844810803702 0 -0.00056049512010789687 0.056601874674285867 0 0.00082211355546381846 0.054362016351285895 0 0.00092980046388872859 0.054410924028556504 0 0.00079649889272674439 0.054296837359716195 0 0.00082211355546381846 0.054362016351285895 0 0.00079649889272674439 0.054296837359716195 0 0.00068112512177061397 0.05421339268887445 0 0.010948813069561386 0.03768728183724121 0 0.013680165549892849 0.037420149684815093 0 0.011631159514522106 0.034370737623498328 0 0.0042783220726107336 0.048686844810803702 0 0.0065565654462938433 0.043852530205992925 0 0.011216982051019928 0.039850585647656069 0 0.010948813069561386 0.03768728183724121 0 0.013680165549892849 0.037420149684815093 0 0.0083433908685038097 0.046153425911483734 0 0.0042783220726107336 0.048686844810803702 0 0.0039213445362344841 0.053706799198720671 0 0.0022868745145838815 0.055085829810366062 0 0.0026451877340985396 0.053724658821704463 0 0.0022868745145838815 0.055085829810366062 0 0.0021368484998258719 0.053995831063324722 0 0.0026451877340985396 0.053724658821704463 0 0.0018552806004754879 0.054203684897206873 0 0.0022868745145838815 0.055085829810366062 0 0.0016589096426834714 0.054380305910413665 0 0.0018552806004754879 0.054203684897206873 0 0.0022868745145838815 0.055085829810366062 0 0.0021368484998258719 0.053995831063324722 0 0.0042783220726107336 0.048686844810803702 0 0.0033024310220702846 0.053986183657445806 0 0.0013953135039987126 0.054355066324282414 0 0.0015955475828563826 0.054301489548071617 0 0.0012221653219299845 0.054313623260526002 0 0.0015757338998106667 0.054372110088357926 0 0.0013953135039987126 0.054355066324282414 0 0.0016589096426834714 0.054380305910413665 0 0.0013953135039987126 0.054355066324282414 0 0.0016589096426834714 0.054380305910413665 0 0.0015955475828563826 0.054301489548071617 0 0.0018552806004754879 0.054203684897206873 0 0.0015955475828563826 0.054301489548071617 0 0.0018145930751056498 0.053946607878078076 0 0.0018552806004754879 0.054203684897206873 0 0.0016589096426834714 0.054380305910413665 0 0.0015955475828563826 0.054301489548071617 0 0.0015955475828563826 0.054301489548071617 0 0.0015104048954452196 0.053908580097755461 0 0.0018145930751056498 0.053946607878078076 0 0.0015104048954452196 0.053908580097755461 0 0.0018145930751056498 0.053946607878078076 0 0.0017573720694789529 0.053611510498365975 0 0.0018552806004754879 0.054203684897206873 0 0.0018145930751056498 0.053946607878078076 0 0.0021368484998258719 0.053995831063324722 0 0.0021368484998258719 0.053995831063324722 0 0.002123906755558545 0.053585489323491095 0 0.0026451877340985396 0.053724658821704463 0 0.0018145930751056498 0.053946607878078076 0 0.0021368484998258719 0.053995831063324722 0 0.002123906755558545 0.053585489323491095 0 0.002123906755558545 0.053585489323491095 0 0.0019048920052719166 0.053166894112018824 0 0.0025219080058021216 0.053030620444207408 0 0.002123906755558545 0.053585489323491095 0 0.0026451877340985396 0.053724658821704463 0 0.0025219080058021216 0.053030620444207408 0 0.0017573720694789529 0.053611510498365975 0 0.0019048920052719166 0.053166894112018824 0 0.0012770085453273441 0.05346130557584737 0 0.002123906755558545 0.053585489323491095 0 0.0017573720694789529 0.053611510498365975 0 0.0019048920052719166 0.053166894112018824 0 0.0018145930751056498 0.053946607878078076 0 0.002123906755558545 0.053585489323491095 0 0.0017573720694789529 0.053611510498365975 0 0.0039213445362344841 0.053706799198720671 0 0.0026451877340985396 0.053724658821704463 0 0.0032800256848792226 0.053074233010974137 0 0.0026451877340985396 0.053724658821704463 0 0.0032800256848792226 0.053074233010974137 0 0.0025219080058021216 0.053030620444207408 0 0.0041756227868474383 0.052682825144277398 0 0.0032800256848792226 0.053074233010974137 0 0.0031533000732573632 0.052154892623150081 0 0.0032800256848792226 0.053074233010974137 0 0.0031533000732573632 0.052154892623150081 0 0.0025219080058021216 0.053030620444207408 0 0.0016300463359745433 0.052868176176688104 0 0.0019048920052719166 0.053166894112018824 0 0.0012770085453273441 0.05346130557584737 0 0.0016300463359745433 0.052868176176688104 0 0.0019048920052719166 0.053166894112018824 0 0.0021888201172250857 0.052424612497334142 0 0.0019048920052719166 0.053166894112018824 0 0.0025219080058021216 0.053030620444207408 0 0.0021888201172250857 0.052424612497334142 0 0.0031533000732573632 0.052154892623150081 0 0.0025219080058021216 0.053030620444207408 0 0.0021888201172250857 0.052424612497334142 0 0.0016300463359745433 0.052868176176688104 0 0.0021888201172250857 0.052424612497334142 0 0.0014680759593531337 0.051907604710597216 0 0.0012600540196455322 0.05268827572555182 0 0.00076114791217772224 0.052864078349307612 0 0.0014680759593531337 0.051907604710597216 0 0.0016300463359745433 0.052868176176688104 0 0.0012600540196455322 0.05268827572555182 0 0.0014680759593531337 0.051907604710597216 0 0.00076114791217772224 0.052864078349307612 0 0.00062058337192061894 0.054091437423148106 0 0.0012770085453273441 0.05346130557584737 0 0.0012600540196455322 0.05268827572555182 0 0.00076114791217772224 0.052864078349307612 0 0.0012770085453273441 0.05346130557584737 0 0.0016300463359745433 0.052868176176688104 0 0.0012600540196455322 0.05268827572555182 0 0.0012770085453273441 0.05346130557584737 0 0.00076114791217772224 0.052864078349307612 0 0.00062058337192061894 0.054091437423148106 0 8.9783528787430744e-05 0.054052355319363442 0 0.00076114791217772224 0.052864078349307612 0 -3.003116258165535e-05 0.052898815202337773 0 8.9783528787430744e-05 0.054052355319363442 0 0.00062058337192061894 0.054091437423148106 0 8.938141289642681e-05 0.054603355564723066 0 8.9783528787430744e-05 0.054052355319363442 0 0.0015104048954452196 0.053908580097755461 0 0.0017573720694789529 0.053611510498365975 0 0.0012770085453273441 0.05346130557584737 0 0.00062058337192061894 0.054091437423148106 0 0.0012770085453273441 0.05346130557584737 0 0.0010975817172050302 0.054170301065850301 0 0.0015104048954452196 0.053908580097755461 0 0.0012770085453273441 0.05346130557584737 0 0.0010975817172050302 0.054170301065850301 0 0.0015955475828563826 0.054301489548071617 0 0.0015104048954452196 0.053908580097755461 0 0.0010975817172050302 0.054170301065850301 0 0.00062058337192061894 0.054091437423148106 0 0.0010975817172050302 0.054170301065850301 0 0.00059614028623295725 0.054893979955809878 0 0.0015955475828563826 0.054301489548071617 0 0.0012221653219299845 0.054313623260526002 0 0.00085143733299194253 0.054243991833274913 0 0.0015027645297643279 0.054309904108793883 0 0.00073783018462021319 0.05457240014029522 0 0.0015955475828563826 0.054301489548071617 0 0.0010975817172050302 0.054170301065850301 0 0.00059614028623295725 0.054893979955809878 0 0.00062058337192061894 0.054091437423148106 0 0.00059614028623295725 0.054893979955809878 0 8.938141289642681e-05 0.054603355564723066 0 0.00085143733299194253 0.054243991833274913 0 0.00092980046388872859 0.054410924028556504 0 0.0006552278973975575 0.054496866754692848 0 0.00085143733299194253 0.054243991833274913 0 0.00040705453499757126 0.054402132728470991 0 0.0006552278973975575 0.054496866754692848 0 0.00073783018462021319 0.05457240014029522 0 0.00025370828796436465 0.054735833630773022 0 0.0012221653219299845 0.054313623260526002 0 0.00085143733299194253 0.054243991833274913 0 0.00092980046388872859 0.054410924028556504 0 0.0013953135039987126 0.054355066324282414 0 0.0012221653219299845 0.054313623260526002 0 0.00092980046388872859 0.054410924028556504 0 4.7882292562348642e-05 0.055050659825849418 0 -1.6176422509831023e-07 0.054999844021401248 0 1.0344706051469759e-07 0.055000158638128474 0 0.00059614028623295725 0.054893979955809878 0 4.7882292562348642e-05 0.055050659825849418 0 8.938141289642681e-05 0.054603355564723066 0 4.7882292562348642e-05 0.055050659825849418 0 8.938141289642681e-05 0.054603355564723066 0 -4.84746725127446e-05 0.054825554105417555 0 -4.84746725127446e-05 0.054825554105417555 0 -1.6176422509831023e-07 0.054999844021401248 0 -5.7483008377854842e-08 0.054999230178066745 0 4.7882292562348642e-05 0.055050659825849418 0 -4.84746725127446e-05 0.054825554105417555 0 -1.6176422509831023e-07 0.054999844021401248 0 -4.84746725127446e-05 0.054825554105417555 0 -0.00015277143160851426 0.054657773733684141 0 -5.7483008377854842e-08 0.054999230178066745 0 8.938141289642681e-05 0.054603355564723066 0 -0.00015277143160851426 0.054657773733684141 0 8.9783528787430744e-05 0.054052355319363442 0 8.938141289642681e-05 0.054603355564723066 0 -4.84746725127446e-05 0.054825554105417555 0 -0.00015277143160851426 0.054657773733684141 0 2.4928146389943762e-05 0.053907918967496055 0 -0.00012937364980581718 0.054508251257532232 0 -6.6422344823812226e-05 0.054978226809042664 0 -0.00015277143160851426 0.054657773733684141 0 -4.0463972727590007e-05 0.054929703274286451 0 -3.003116258165535e-05 0.052898815202337773 0 -0.00015277143160851426 0.054657773733684141 0 8.9783528787430744e-05 0.054052355319363442 0 -5.7483008377854842e-08 0.054999230178066745 0 -4.0463972727590007e-05 0.054929703274286451 0 3.0177185466369539e-09 0.055000094948284797 0 -0.00015277143160851426 0.054657773733684141 0 -5.7483008377854842e-08 0.054999230178066745 0 -4.0463972727590007e-05 0.054929703274286451 0 -4.0463972727590007e-05 0.054929703274286451 0 3.0177185466369539e-09 0.055000094948284797 0 -1.4670428170248434e-06 0.055009565139778005 0 3.0177185466369539e-09 0.055000094948284797 0 -1.4670428170248434e-06 0.055009565139778005 0 2.4209057851578183e-08 0.05500003005941264 0 -1.4670428170248434e-06 0.055009565139778005 0 2.2087154822806441e-05 0.055021584532483889 0 2.4209057851578183e-08 0.05500003005941264 0 -1.4670428170248434e-06 0.055009565139778005 0 4.5689104036479321e-06 0.055000455879853943 0 3.4315452734506073e-05 0.055040282172503188 0 -1.4670428170248434e-06 0.055009565139778005 0 2.2087154822806441e-05 0.055021584532483889 0 3.4315452734506073e-05 0.055040282172503188 0 -6.6422344823812226e-05 0.054978226809042664 0 -4.0463972727590007e-05 0.054929703274286451 0 -1.4670428170248434e-06 0.055009565139778005 0 -6.6422344823812226e-05 0.054978226809042664 0 -1.4670428170248434e-06 0.055009565139778005 0 4.5689104036479321e-06 0.055000455879853943 0 -6.6422344823812226e-05 0.054978226809042664 0 0.00010840235939652274 0.055040958459109807 0 4.5689104036479321e-06 0.055000455879853943 0 2.4928146389943762e-05 0.053907918967496055 0 0.00048701549497547444 0.053071442037519248 0 0.00076114791217772224 0.052864078349307612 0 -3.003116258165535e-05 0.052898815202337773 0 0.00080570927956690266 0.051107915980693634 0 0.00076114791217772224 0.052864078349307612 0 0.0014680759593531337 0.051907604710597216 0 0.00080570927956690266 0.051107915980693634 0 0.0017494011017751942 0.050624644980327767 0 0.0014680759593531337 0.051907604710597216 0 0.00080570927956690266 0.051107915980693634 0 0.0014168677717176189 0.051933586537664889 0 0.00048701549497547444 0.053071442037519248 0 0.0022065842719510916 0.049262886224849478 0 0.0017494011017751942 0.050624644980327767 0 0.00080570927956690266 0.051107915980693634 0 0.00047850710993024224 0.05487687807350327 0 0.00010840235939652274 0.055040958459109807 0 0.00023241138287857883 0.054887375061941329 0 0.00023241138287857883 0.054887375061941329 0 6.5972126835138134e-05 0.054959167702527248 0 0.00010600119506743393 0.054824762622873703 0 0.00010840235939652274 0.055040958459109807 0 0.00023241138287857883 0.054887375061941329 0 6.5972126835138134e-05 0.054959167702527248 0 0.00010840235939652274 0.055040958459109807 0 4.5689104036479321e-06 0.055000455879853943 0 6.5972126835138134e-05 0.054959167702527248 0 4.5689104036479321e-06 0.055000455879853943 0 6.5972126835138134e-05 0.054959167702527248 0 3.4315452734506073e-05 0.055040282172503188 0 6.5972126835138134e-05 0.054959167702527248 0 0.00010600119506743393 0.054824762622873703 0 3.4315452734506073e-05 0.055040282172503188 0 0.0002959891020014647 0.055012354705885919 0 6.1982595808542277e-05 0.055047903097341915 0 0.00016993916887419902 0.055095178740470388 0 0.00034162463764354594 0.055263137206162806 0 3.4315452734506073e-05 0.055040282172503188 0 0.00016993916887419902 0.055095178740470388 0 0.00031959060002923856 0.05510909977073096 0 0.0002275261925606475 0.055040557447588567 0 0.00016993916887419902 0.055095178740470388 0 0.00034162463764354594 0.055263137206162806 0 0.00031959060002923856 0.05510909977073096 0 0.00016993916887419902 0.055095178740470388 0 3.4315452734506073e-05 0.055040282172503188 0 8.4137461294482509e-05 0.05504577938989743 0 0.00016993916887419902 0.055095178740470388 0 0.0002275261925606475 0.055040557447588567 0 8.4137461294482509e-05 0.05504577938989743 0 0.00052595808831940537 0.055092704307052043 0 0.0002959891020014647 0.055012354705885919 0 0.00045957492228414405 0.05462340987404251 0 0.00023241138287857883 0.054887375061941329 0 0.00010600119506743393 0.054824762622873703 0 0.00095237705873539461 0.055229441999305524 0 0.00072181304235552672 0.055116884170129422 0 0.00034162463764354594 0.055263137206162806 0 0.00034162463764354594 0.055263137206162806 0 0.00031959060002923856 0.05510909977073096 0 0.00052462156829163886 0.055112585168067947 0 0.00072181304235552672 0.055116884170129422 0 0.00034162463764354594 0.055263137206162806 0 0.00052462156829163886 0.055112585168067947 0 0.00025869405311738903 0.054810013289236362 0 0.00086031416539185434 0.055060705089552332 0 0.00046427941891598139 0.054985253700241439 0 0.00086031416539185434 0.055060705089552332 0 0.00052462156829163886 0.055112585168067947 0 0.00054193104449862988 0.055054890287396713 0 0.00031959060002923856 0.05510909977073096 0 0.00052462156829163886 0.055112585168067947 0 0.00038978722266520366 0.055046878297407072 0 0.00054193104449862988 0.055054890287396713 0 0.00038978722266520366 0.055046878297407072 0 0.00046427941891598139 0.054985253700241439 0 0.00052462156829163886 0.055112585168067947 0 0.00054193104449862988 0.055054890287396713 0 0.00038978722266520366 0.055046878297407072 0 0.00038978722266520366 0.055046878297407072 0 0.00046427941891598139 0.054985253700241439 0 0.00027701605804145179 0.054955628633265391 0 0.00086031416539185434 0.055060705089552332 0 0.00054193104449862988 0.055054890287396713 0 0.00046427941891598139 0.054985253700241439 0 0.0002275261925606475 0.055040557447588567 0 0.00014368390202775325 0.054980730920362299 0 8.4137461294482509e-05 0.05504577938989743 0 0.00031959060002923856 0.05510909977073096 0 0.00038978722266520366 0.055046878297407072 0 0.0002275261925606475 0.055040557447588567 0 0.00038978722266520366 0.055046878297407072 0 0.0002275261925606475 0.055040557447588567 0 0.00027701605804145179 0.054955628633265391 0 0.00019646843766698568 0.054874139818230465 0 0.00027701605804145179 0.054955628633265391 0 0.00014368390202775325 0.054980730920362299 0 0.0002275261925606475 0.055040557447588567 0 0.00027701605804145179 0.054955628633265391 0 0.00014368390202775325 0.054980730920362299 0 8.8450548667353231e-05 0.054947017732676816 0 0.00014368390202775325 0.054980730920362299 0 5.0201001560088968e-05 0.054993616995888034 0 0.00014368390202775325 0.054980730920362299 0 5.0201001560088968e-05 0.054993616995888034 0 8.4137461294482509e-05 0.05504577938989743 0 5.0201001560088968e-05 0.054993616995888034 0 2.2087154822806441e-05 0.055021584532483889 0 8.4137461294482509e-05 0.05504577938989743 0 3.7014741845404999e-05 0.054971704318171652 0 8.8450548667353231e-05 0.054947017732676816 0 5.0201001560088968e-05 0.054993616995888034 0 3.7014741845404999e-05 0.054971704318171652 0 5.0201001560088968e-05 0.054993616995888034 0 -2.963599974700994e-09 0.054999990793476485 0 5.0201001560088968e-05 0.054993616995888034 0 -2.963599974700994e-09 0.054999990793476485 0 2.2087154822806441e-05 0.055021584532483889 0 -2.963599974700994e-09 0.054999990793476485 0 2.2087154822806441e-05 0.055021584532483889 0 2.4209057851578183e-08 0.05500003005941264 0 2.2087154822806441e-05 0.055021584532483889 0 3.4315452734506073e-05 0.055040282172503188 0 8.4137461294482509e-05 0.05504577938989743 0 0.00041153476128414881 0.054269892819771556 0 2.4172499309671319e-07 0.054999291335632257 0 1.3088542247422271e-06 0.054996444030816244 0 0.00041153476128414881 0.054269892819771556 0 0.00056529556867800286 0.053997128779837825 0 2.4172499309671319e-07 0.054999291335632257 0 0.00041153476128414881 0.054269892819771556 0 0.00055250505563010763 0.053831859551249847 0 0.00056529556867800286 0.053997128779837825 0 0.00041153476128414881 0.054269892819771556 0 0.00055250505563010763 0.053831859551249847 0 0.00057268275805806459 0.053703778004712384 0 0.00055250505563010763 0.053831859551249847 0 0.00056529556867800286 0.053997128779837825 0 0.00062330171723800525 0.053370347964310623 0 0.00056529556867800286 0.053997128779837825 0 0.00036602694228545131 0.054560827825597839 0 0.00068755389475684656 0.054103300606017077 0 2.4172499309671319e-07 0.054999291335632257 0 0.00036602694228545131 0.054560827825597839 0 3.70890813972525e-07 0.054999604867676889 0 0.00056529556867800286 0.053997128779837825 0 2.4172499309671319e-07 0.054999291335632257 0 0.00036602694228545131 0.054560827825597839 0 0.00036602694228545131 0.054560827825597839 0 3.70890813972525e-07 0.054999604867676889 0 0.00048586319256302104 0.054572416057189613 0 3.70890813972525e-07 0.054999604867676889 0 0.00029969572043134679 0.05474772368305373 0 0.00048586319256302104 0.054572416057189613 0 3.70890813972525e-07 0.054999604867676889 0 0.00029969572043134679 0.05474772368305373 0 1.8030455487223164e-07 0.054998796084454023 0 0.00029969572043134679 0.05474772368305373 0 0.0006552278973975575 0.054496866754692848 0 0.00048586319256302104 0.054572416057189613 0 0.00040705453499757126 0.054402132728470991 0 0.00029969572043134679 0.05474772368305373 0 0.0006552278973975575 0.054496866754692848 0 0.00025370828796436465 0.054735833630773022 0 9.156116094410735e-08 0.054999879618297103 0 0.00040705453499757126 0.054402132728470991 0 0.00029969572043134679 0.05474772368305373 0 1.8030455487223164e-07 0.054998796084454023 0 0.00092980046388872859 0.054410924028556504 0 0.0006552278973975575 0.054496866754692848 0 0.00074274528051473737 0.054363086948748328 0 0.0006552278973975575 0.054496866754692848 0 0.00074274528051473737 0.054363086948748328 0 0.00048586319256302104 0.054572416057189613 0 0.00092980046388872859 0.054410924028556504 0 0.00074274528051473737 0.054363086948748328 0 0.00076617704978510545 0.054147611512457026 0 0.00036602694228545131 0.054560827825597839 0 0.00048586319256302104 0.054572416057189613 0 0.00068755389475684656 0.054103300606017077 0 0.00074274528051473737 0.054363086948748328 0 0.00048586319256302104 0.054572416057189613 0 0.00068755389475684656 0.054103300606017077 0 0.00074274528051473737 0.054363086948748328 0 0.00068755389475684656 0.054103300606017077 0 0.00076617704978510545 0.054147611512457026 0 0.00068755389475684656 0.054103300606017077 0 0.00072277934586806563 0.053630836133153809 0 0.00069923507113113135 0.053457432807997675 0 0.00072277934586806563 0.053630836133153809 0 0.00076617704978510545 0.054147611512457026 0 0.00066062957069544233 0.053975173884131519 0 0.00068755389475684656 0.054103300606017077 0 0.00072277934586806563 0.053630836133153809 0 0.00076617704978510545 0.054147611512457026 0 0.00076617704978510545 0.054147611512457026 0 0.00066062957069544233 0.053975173884131519 0 0.00068112512177061397 0.05421339268887445 0 0.00076617704978510545 0.054147611512457026 0 0.00079649889272674439 0.054296837359716195 0 0.00068112512177061397 0.05421339268887445 0 0.00092980046388872859 0.054410924028556504 0 0.00076617704978510545 0.054147611512457026 0 0.00079649889272674439 0.054296837359716195 0 0.0086963610165279263 0.036831819471685699 0 0.0078375548686751059 0.033768343288706801 0 0.011631159514522106 0.034370737623498328 0 0.0078375548686751059 0.033768343288706801 0 0.011631159514522106 0.034370737623498328 0 0.0093690830569583203 0.031059013566365545 0 0.00066062957069544233 0.053975173884131519 0 0.00068112512177061397 0.05421339268887445 0 0.00044019605128183941 0.053931513844132861 0 0.0065565654462938433 0.043852530205992925 0 0.0048222255297969523 0.042531588157709126 0 0.0078375548686751059 0.033768343288706801 0 0.0093690830569583203 0.031059013566365545 0 0.0061085494266740108 0.030571955169539367 0 0.00044019605128183941 0.053931513844132861 0 0.00051626404011598421 0.05355454655498644 0 -0.00024054141533554646 0.05337441937425081 0 0.0048222255297969523 0.042531588157709126 0 0.0033114176988796838 0.040656988837874795 0 0.00066062957069544233 0.053975173884131519 0 0.00044019605128183941 0.053931513844132861 0 0.00051626404011598421 0.05355454655498644 0 0.00072277934586806563 0.053630836133153809 0 0.00066062957069544233 0.053975173884131519 0 0.00051626404011598421 0.05355454655498644 0 0.00072277934586806563 0.053630836133153809 0 0.00051626404011598421 0.05355454655498644 0 0.00064432687326705445 0.052903441888330398 0 0.00051626404011598421 0.05355454655498644 0 0.00064432687326705445 0.052903441888330398 0 -0.00024054141533554646 0.05337441937425081 0 0.00064432687326705445 0.052903441888330398 0 0.00093192195354073427 0.052633194482227232 0 0.0007277705990210362 0.053059448116918269 0 0.00064432687326705445 0.052903441888330398 0 0.00093192195354073427 0.052633194482227232 0 0.0012590983986208594 0.052354998375967826 0 0.00093192195354073427 0.052633194482227232 0 0.0007277705990210362 0.053059448116918269 0 0.00077350519117346753 0.052911355020569116 0 0.00072277934586806563 0.053630836133153809 0 0.00064432687326705445 0.052903441888330398 0 0.0007277705990210362 0.053059448116918269 0 0.00056529556867800286 0.053997128779837825 0 0.00068755389475684656 0.054103300606017077 0 0.00069923507113113135 0.053457432807997675 0 0.00072277934586806563 0.053630836133153809 0 0.0007277705990210362 0.053059448116918269 0 0.00069923507113113135 0.053457432807997675 0 0.00056529556867800286 0.053997128779837825 0 0.00069923507113113135 0.053457432807997675 0 0.00062330171723800525 0.053370347964310623 0 0.0007277705990210362 0.053059448116918269 0 0.00069923507113113135 0.053457432807997675 0 0.00077350519117346753 0.052911355020569116 0 0.00069923507113113135 0.053457432807997675 0 0.00062330171723800525 0.053370347964310623 0 0.00077350519117346753 0.052911355020569116 0 0.00055250505563010763 0.053831859551249847 0 0.00062330171723800525 0.053370347964310623 0 0.00057268275805806459 0.053703778004712384 0 0.00062330171723800525 0.053370347964310623 0 0.00068485979786444824 0.052917149036435691 0 0.00053381077878689274 0.053269982396035857 0 0.00062330171723800525 0.053370347964310623 0 0.00068485979786444824 0.052917149036435691 0 0.00077350519117346753 0.052911355020569116 0 0.00068485979786444824 0.052917149036435691 0 0.0010055838372956822 0.052317058037247142 0 0.00077350519117346753 0.052911355020569116 0 0.0010055838372956822 0.052317058037247142 0 0.0012969859893100153 0.051913192842483892 0 0.00089770877864685478 0.052582842924017791 0 0.00068485979786444824 0.052917149036435691 0 0.0010055838372956822 0.052317058037247142 0 0.00089770877864685478 0.052582842924017791 0 0.00093192195354073427 0.052633194482227232 0 0.0010055838372956822 0.052317058037247142 0 0.0012114730501590295 0.052219842231709758 0 0.00093192195354073427 0.052633194482227232 0 0.0010055838372956822 0.052317058037247142 0 0.00077350519117346753 0.052911355020569116 0 0.0013720738144040079 0.0516694233506097 0 0.0012445646547933748 0.051976133038405654 0 0.00058624085356601238 0.051875207894396869 0 0.0014070204705694928 0.051051146532491404 0 0.0013720738144040079 0.0516694233506097 0 0.00058624085356601238 0.051875207894396869 0 0.0014070204705694928 0.051051146532491404 0 0.0013720738144040079 0.0516694233506097 0 0.001499418777034373 0.051425208479671629 0 0.0013720738144040079 0.0516694233506097 0 0.0012445646547933748 0.051976133038405654 0 0.0012114730501590295 0.052219842231709758 0 0.0013720738144040079 0.0516694233506097 0 0.0012114730501590295 0.052219842231709758 0 0.001499418777034373 0.051425208479671629 0 0.0010055838372956822 0.052317058037247142 0 0.0012114730501590295 0.052219842231709758 0 0.001499418777034373 0.051425208479671629 0 0.0010055838372956822 0.052317058037247142 0 0.001499418777034373 0.051425208479671629 0 0.0012969859893100153 0.051913192842483892 0 0.001499418777034373 0.051425208479671629 0 0.0017105107735776125 0.051446129030273478 0 0.0012969859893100153 0.051913192842483892 0 0.001499418777034373 0.051425208479671629 0 0.0017105107735776125 0.051446129030273478 0 0.0020492948387921058 0.050301999702439586 0 0.0014070204705694928 0.051051146532491404 0 0.001499418777034373 0.051425208479671629 0 0.0020492948387921058 0.050301999702439586 0 0.0014070204705694928 0.051051146532491404 0 0.0020492948387921058 0.050301999702439586 0 0.00081901887511621942 0.049218116177762262 0 0.0020492948387921058 0.050301999702439586 0 0.00081901887511621942 0.049218116177762262 0 0.0012026544208532412 0.046934293559522396 0 0.00081901887511621942 0.049218116177762262 0 -0.00018166238646571208 0.047714974068803741 0 0.0012026544208532412 0.046934293559522396 0 -0.00018166238646571208 0.047714974068803741 0 -0.0012815433526272375 0.048922157125758162 0 -0.0014191839294732185 0.045683107819828789 0 0.00081901887511621942 0.049218116177762262 0 -0.00018166238646571208 0.047714974068803741 0 -0.0012815433526272375 0.048922157125758162 0 0.00081901887511621942 0.049218116177762262 0 0.00044844915983673051 0.050296016149554403 0 -0.0012815433526272375 0.048922157125758162 0 0.0014070204705694928 0.051051146532491404 0 0.00081901887511621942 0.049218116177762262 0 0.00044844915983673051 0.050296016149554403 0 -0.0012815433526272375 0.048922157125758162 0 -2.3235457681523719e-05 0.051527187930892455 0 -0.0040180626001728335 0.04902098427993825 0 -0.0032490210840754371 0.046679810707277843 0 -0.0012815433526272375 0.048922157125758162 0 -0.004676912519076851 0.048421756728174344 0 -0.0032490210840754371 0.046679810707277843 0 -0.004676912519076851 0.048421756728174344 0 -0.0050121490625837 0.046197645643594021 0 -0.0032490210840754371 0.046679810707277843 0 -0.0012815433526272375 0.048922157125758162 0 -0.0014191839294732185 0.045683107819828789 0 -0.0021112476328206675 0.048322295858574671 0 -0.0031943190747590953 0.042182720945252231 0 0.0015988533133980453 0.023885694473449747 0 0.0024873256344084636 0.023837718444066954 0 0.0013040242523731228 0.023367743852647848 0 0.0015988533133980453 0.023885694473449747 0 0.0018636385029987118 0.024376859598242148 0 0.00098775944816589432 0.024329717828685215 0 0.0015988533133980453 0.023885694473449747 0 0.0020671385885841177 0.024113924199578342 0 0.0024873256344084636 0.023837718444066954 0 -0.001112811428574015 0.04000642606453144 0 -0.0031943190747590953 0.042182720945252231 0 0.0015988533133980453 0.023885694473449747 0 0.0020671385885841177 0.024113924199578342 0 0.0018636385029987118 0.024376859598242148 0 -0.0012815433526272375 0.048922157125758162 0 -2.3235457681523719e-05 0.051527187930892455 0 0.00058624085356601238 0.051875207894396869 0 0.00044844915983673051 0.050296016149554403 0 -0.0012815433526272375 0.048922157125758162 0 0.00058624085356601238 0.051875207894396869 0 0.0014070204705694928 0.051051146532491404 0 0.00044844915983673051 0.050296016149554403 0 0.00058624085356601238 0.051875207894396869 0 -0.001112811428574015 0.04000642606453144 0 0.00032909640604323926 0.046432767800416559 0 0.0020671385885841177 0.024113924199578342 0 0.0024873256344084636 0.023837718444066954 0 0.0023602588351421014 0.024383135389699179 0 0.0024873256344084636 0.023837718444066954 0 0.002976369991590623 0.024676568054070695 0 0.004278508801201006 0.025124475533291241 0 -0.0031690810619139048 0.049269065974562473 0 -0.0028863921450972851 0.049486546102688052 0 -0.0016249752462486329 0.051648366483487737 0 -0.001112811428574015 0.04000642606453144 0 0.0013850104378686171 0.037755324513139378 0 0.0024873256344084636 0.023837718444066954 0 0.002976369991590623 0.024676568054070695 0 0.0023602588351421014 0.024383135389699179 0 0.002976369991590623 0.024676568054070695 0 0.0023519490136614412 0.025066773888835162 0 0.0031922074290568316 0.025193157948497948 0 0.002976369991590623 0.024676568054070695 0 0.0023602588351421014 0.024383135389699179 0 0.0023519490136614412 0.025066773888835162 0 0.002976369991590623 0.024676568054070695 0 0.0031922074290568316 0.025193157948497948 0 0.004278508801201006 0.025124475533291241 0 0.0018636385029987118 0.024376859598242148 0 0.0014933086759570421 0.024813338498620292 0 0.00098775944816589432 0.024329717828685215 0 0.0023602588351421014 0.024383135389699179 0 0.0023519490136614412 0.025066773888835162 0 0.0018636385029987118 0.024376859598242148 0 0.0020671385885841177 0.024113924199578342 0 0.0023602588351421014 0.024383135389699179 0 0.0018636385029987118 0.024376859598242148 0 0.0023519490136614412 0.025066773888835162 0 0.0018636385029987118 0.024376859598242148 0 0.0014933086759570421 0.024813338498620292 0 0.0023519490136614412 0.025066773888835162 0 0.0023882655732924652 0.026882869024948405 0 0.00092607887596759977 0.025450401219775272 0 0.0023519490136614412 0.025066773888835162 0 0.0014933086759570421 0.024813338498620292 0 0.00092607887596759977 0.025450401219775272 0 0.0023519490136614412 0.025066773888835162 0 0.0032302090224828341 0.025926701825853687 0 0.0023882655732924652 0.026882869024948405 0 0.0023519490136614412 0.025066773888835162 0 0.0031922074290568316 0.025193157948497948 0 0.0032302090224828341 0.025926701825853687 0 0.0032302090224828341 0.025926701825853687 0 0.004278508801201006 0.025124475533291241 0 0.0043511583117227144 0.027435728333289947 0 0.0031922074290568316 0.025193157948497948 0 0.0032302090224828341 0.025926701825853687 0 0.004278508801201006 0.025124475533291241 0 0.00032909640604323926 0.046432767800416559 0 6.2842338920557085e-05 0.052552036831371274 0 0.0012445646547933748 0.051976133038405654 0 0.00058624085356601238 0.051875207894396869 0 0.0012590983986208594 0.052354998375967826 0 -0.0028863921450972851 0.049486546102688052 0 -0.0016249752462486329 0.051648366483487737 0 -0.00078297353775170283 0.051301692742510632 0 0.00093192195354073427 0.052633194482227232 0 0.0012114730501590295 0.052219842231709758 0 0.0012590983986208594 0.052354998375967826 0 0.0012445646547933748 0.051976133038405654 0 0.0012114730501590295 0.052219842231709758 0 0.0012590983986208594 0.052354998375967826 0 0.00069614126317384139 0.052582245829541109 0 6.2842338920557085e-05 0.052552036831371274 0 0.0013850104378686171 0.037755324513139378 0 0.0033114176988796838 0.040656988837874795 0 -0.0016249752462486329 0.051648366483487737 0 -0.00078297353775170283 0.051301692742510632 0 -0.00024054141533554646 0.05337441937425081 0 0.00064432687326705445 0.052903441888330398 0 -0.00078297353775170283 0.051301692742510632 0 -0.00024054141533554646 0.05337441937425081 0 0.0068322909670345024 0.027699877103374813 0 0.0043511583117227144 0.027435728333289947 0 0.0061085494266740108 0.030571955169539367 0 0.004278508801201006 0.025124475533291241 0 0.0068322909670345024 0.027699877103374813 0 0.0043511583117227144 0.027435728333289947 0 0.0043511583117227144 0.027435728333289947 0 0.0061085494266740108 0.030571955169539367 0 0.0033156174593527263 0.030176120580490726 0 0.0093690830569583203 0.031059013566365545 0 0.0068322909670345024 0.027699877103374813 0 0.0061085494266740108 0.030571955169539367 0 0.0078375548686751059 0.033768343288706801 0 0.0061085494266740108 0.030571955169539367 0 0.0047184874721711862 0.03332017514308068 0 0.0051430978530093629 0.03144964326427846 0 0.003050699195871765 0.030509543712612393 0 0.0036564288636595547 0.028716399162362512 0 0.0061085494266740108 0.030571955169539367 0 0.0047184874721711862 0.03332017514308068 0 0.0033156174593527263 0.030176120580490726 0 0.0049333311459469932 0.032393939106892915 0 0.0035066623016140421 0.029446506015003846 0 0.0038799776182043585 0.034841482489683807 0 0.0051430978530093629 0.03144964326427846 0 0.0027928672529164366 0.032650784985548659 0 0.006410331612816172 0.035381882936220611 0 0.0049333311459469932 0.032393939106892915 0 0.0062679954559341318 0.0362760157128948 0 0.0078375548686751059 0.033768343288706801 0 0.0047184874721711862 0.03332017514308068 0 0.00033480964815073842 0.03443518795612515 0 0.0012207141362023523 0.032131565878009999 0 -0.00050828138003934089 0.032601723834559219 0 0.0012207141362023523 0.032131565878009999 0 0.0015678563075755183 0.030005599250097739 0 -2.8009919988255291e-05 0.031111605120735335 0 0.0012207141362023523 0.032131565878009999 0 -0.00050828138003934089 0.032601723834559219 0 -2.8009919988255291e-05 0.031111605120735335 0 0.0051430978530093629 0.03144964326427846 0 0.0027928672529164366 0.032650784985548659 0 0.003050699195871765 0.030509543712612393 0 0.0020333883560059197 0.034644571800005429 0 0.0012207141362023523 0.032131565878009999 0 0.0027928672529164366 0.032650784985548659 0 0.0012207141362023523 0.032131565878009999 0 0.0027928672529164366 0.032650784985548659 0 0.003050699195871765 0.030509543712612393 0 0.003050699195871765 0.030509543712612393 0 0.0015678563075755183 0.030005599250097739 0 0.0036564288636595547 0.028716399162362512 0 0.0015678563075755183 0.030005599250097739 0 0.0013070364598196248 0.028338655225075667 0 0.0036564288636595547 0.028716399162362512 0 0.0012207141362023523 0.032131565878009999 0 0.003050699195871765 0.030509543712612393 0 0.0015678563075755183 0.030005599250097739 0 0.0015678563075755183 0.030005599250097739 0 0.00036114944218104927 0.029574204609734527 0 -2.8009919988255291e-05 0.031111605120735335 0 0.0015678563075755183 0.030005599250097739 0 0.0013070364598196248 0.028338655225075667 0 0.00036114944218104927 0.029574204609734527 0 0.0013070364598196248 0.028338655225075667 0 0.0012386611264874529 0.027089510175902574 0 0.00067268970733922828 0.027342345781425408 0 0.0013070364598196248 0.028338655225075667 0 0.0036564288636595547 0.028716399162362512 0 0.0023882655732924652 0.026882869024948405 0 0.0035066623016140421 0.029446506015003846 0 0.0024583034175690507 0.027108794744045855 0 0.0032302090224828341 0.025926701825853687 0 0.0043511583117227144 0.027435728333289947 0 0.0023882655732924652 0.026882869024948405 0 0.0043511583117227144 0.027435728333289947 0 0.0033156174593527263 0.030176120580490726 0 0.0023882655732924652 0.026882869024948405 0 0.0013070364598196248 0.028338655225075667 0 0.0023882655732924652 0.026882869024948405 0 0.0012386611264874529 0.027089510175902574 0 0.0023882655732924652 0.026882869024948405 0 0.0012386611264874529 0.027089510175902574 0 0.00092607887596759977 0.025450401219775272 0 0.00059812515982441165 0.026325449727446566 0 -2.2149871105669559e-05 0.025760313992881787 0 8.6431500492545018e-05 0.027211088206185143 0 0.0012386611264874529 0.027089510175902574 0 0.00059812515982441165 0.026325449727446566 0 0.00092607887596759977 0.025450401219775272 0 0.00059812515982441165 0.026325449727446566 0 -2.2149871105669559e-05 0.025760313992881787 0 0.00092607887596759977 0.025450401219775272 0 0.00059812515982441165 0.026325449727446566 0 0.00067268970733922828 0.027342345781425408 0 8.6431500492545018e-05 0.027211088206185143 0 0.0012386611264874529 0.027089510175902574 0 0.00059812515982441165 0.026325449727446566 0 0.00067268970733922828 0.027342345781425408 0 -2.2149871105669559e-05 0.025760313992881787 0 -0.0002780737951946059 0.026588924872009249 0 -0.0008145667080480196 0.026037306517510229 0 -2.2149871105669559e-05 0.025760313992881787 0 -0.0008145667080480196 0.026037306517510229 0 -0.00037821227767884189 0.024809691727708652 0 -2.2149871105669559e-05 0.025760313992881787 0 -0.0002780737951946059 0.026588924872009249 0 8.6431500492545018e-05 0.027211088206185143 0 -0.0002780737951946059 0.026588924872009249 0 -0.00036493972023159864 0.027191128865223176 0 -0.0008145667080480196 0.026037306517510229 0 -0.0002780737951946059 0.026588924872009249 0 -0.00036493972023159864 0.027191128865223176 0 8.6431500492545018e-05 0.027211088206185143 0 0.0027730366669825963 0.022790716452131439 0 -0.0015146259382689527 0.028327583245652811 0 -0.00089698871358749566 0.027998787836713435 0 8.6431500492545018e-05 0.027211088206185143 0 0.00012555455367768342 0.027801472837006846 0 0.0013070364598196248 0.028338655225075667 0 0.00067268970733922828 0.027342345781425408 0 0.00012555455367768342 0.027801472837006846 0 0.00067268970733922828 0.027342345781425408 0 8.6431500492545018e-05 0.027211088206185143 0 0.00012555455367768342 0.027801472837006846 0 0.0013070364598196248 0.028338655225075667 0 0.00012555455367768342 0.027801472837006846 0 0.00036114944218104927 0.029574204609734527 0 -0.00052369655028711669 0.028957082294196038 0 0.0012231439601014032 0.027672494706919456 0 0.00012555455367768342 0.027801472837006846 0 0.00036114944218104927 0.029574204609734527 0 -0.0014554169762599799 0.030851112396998379 0 0.00036114944218104927 0.029574204609734527 0 -0.0014554169762599799 0.030851112396998379 0 -2.8009919988255291e-05 0.031111605120735335 0 -0.00089698871358749566 0.027998787836713435 0 0.00012555455367768342 0.027801472837006846 0 -0.00021999129797309753 0.028960777147967715 0 0.008440379397811372 0.018294106332594172 0 0.009817850780222806 0.02030558558883758 0 0.0077592294861877293 0.020527084163355677 0 0.0027730366669825963 0.022790716452131439 0 0.0012231439601014032 0.027672494706919456 0 0.0092895481032363846 0.022616542868013997 0 0.009817850780222806 0.02030558558883758 0 0.0081854531772751846 0.0218604692165352 0 0.0038227885004632972 0.027843865839056525 0 0.0012231439601014032 0.027672494706919456 0 0.009817850780222806 0.02030558558883758 0 0.0081854531772751846 0.0218604692165352 0 0.0077592294861877293 0.020527084163355677 0 -0.0021596325500725789 0.033854056001275397 0 -0.0015151013949025384 0.031483937407241251 0 -0.00055419645183016526 0.032995373124574845 0 -0.0014554169762599799 0.030851112396998379 0 -0.00050828138003934089 0.032601723834559219 0 -2.8009919988255291e-05 0.031111605120735335 0 0.0012231439601014032 0.027672494706919456 0 -0.00023237537724265606 0.032915201691396709 0 0.004827809824891051 0.022228812278672436 0 0.0058719415835446678 0.019889099938022799 0 0.0030103186169841583 0.021652671060700963 0 0.0013846466958879933 0.018222909665878376 0 0.0018230919590530531 0.018494087618591833 0 0.0021344811559990641 0.018707970142909289 0 0.0041199554899534621 0.018347494232384621 0 0.002422664471286565 0.020347629471588812 0 0.006554911662395268 0.022209232177295125 0 0.004827809824891051 0.022228812278672436 0 0.0058719415835446678 0.019889099938022799 0 0.006554911662395268 0.022209232177295125 0 0.0077592294861877293 0.020527084163355677 0 0.0058719415835446678 0.019889099938022799 0 0.006554911662395268 0.022209232177295125 0 0.0081854531772751846 0.0218604692165352 0 0.0077592294861877293 0.020527084163355677 0 0.008440379397811372 0.018294106332594172 0 0.0077592294861877293 0.020527084163355677 0 0.0058719415835446678 0.019889099938022799 0 0.0027730366669825963 0.022790716452131439 0 0.0041199554899534621 0.018347494232384621 0 0.00041653223260986198 0.01853830518835315 0 0.0013846466958879933 0.018222909665878376 0 0.0010206963178194636 0.018599687827996383 0 0.0013846466958879933 0.018222909665878376 0 0.0016328078709906657 0.018353581825877589 0 0.0010206963178194636 0.018599687827996383 0 0.0013846466958879933 0.018222909665878376 0 0.0016328078709906657 0.018353581825877589 0 0.0018230919590530531 0.018494087618591833 0 0.0016328078709906657 0.018353581825877589 0 0.0010206963178194636 0.018599687827996383 0 0.0010585864928459045 0.018959001751467877 0 0.0016328078709906657 0.018353581825877589 0 0.0010585864928459045 0.018959001751467877 0 0.0018058430509812033 0.018962047386212513 0 0.0027730366669825963 0.022790716452131439 0 -0.00038967258110960573 0.022470525754007219 0 0.00041653223260986198 0.01853830518835315 0 0.0010206963178194636 0.018599687827996383 0 0.00057428738220643202 0.019143075302340277 0 0.0010206963178194636 0.018599687827996383 0 0.00057428738220643202 0.019143075302340277 0 0.0010585864928459045 0.018959001751467877 0 -0.00038967258110960573 0.022470525754007219 0 -5.0586246482323457e-05 0.022387607625895638 0 0.00057428738220643202 0.019143075302340277 0 0.0010585864928459045 0.018959001751467877 0 0.00029617123701640154 0.020194139384188989 0 0.0010585864928459045 0.018959001751467877 0 0.00029617123701640154 0.020194139384188989 0 0.0018058430509812033 0.018962047386212513 0 0.00029617123701640154 0.020194139384188989 0 0.00032059869112562874 0.022682337542972327 0 0.0019917444259082407 0.019742110070706944 0 -0.00072319688843434232 0.024149273877808356 0 -0.00032588907792888068 0.023534096587981803 0 0.00032059869112562874 0.022682337542972327 0 -5.0586246482323457e-05 0.022387607625895638 0 0.00033446989006630636 0.022773370284189617 0 -0.00072319688843434232 0.024149273877808356 0 -0.0003045518570725662 0.024031661016452235 0 -0.00032588907792888068 0.023534096587981803 0 -0.0008145667080480196 0.026037306517510229 0 -0.00072319688843434232 0.024149273877808356 0 -0.00037821227767884189 0.024809691727708652 0 -0.00072319688843434232 0.024149273877808356 0 -0.0003045518570725662 0.024031661016452235 0 -0.00037821227767884189 0.024809691727708652 0 -2.2149871105669559e-05 0.025760313992881787 0 -0.00037821227767884189 0.024809691727708652 0 9.3000432964425621e-05 0.024610196624599737 0 -2.2149871105669559e-05 0.025760313992881787 0 0.00092607887596759977 0.025450401219775272 0 9.3000432964425621e-05 0.024610196624599737 0 0.0014933086759570421 0.024813338498620292 0 0.00092607887596759977 0.025450401219775272 0 0.00098775944816589432 0.024329717828685215 0 0.00092607887596759977 0.025450401219775272 0 0.00054303831290795576 0.02407273004025353 0 9.3000432964425621e-05 0.024610196624599737 0 0.00097541739548207061 0.025970339121283419 0 0.00089353733998346924 0.022720007886777128 0 0.00054303831290795576 0.02407273004025353 0 9.3000432964425621e-05 0.024610196624599737 0 -2.6788540260186084e-05 0.023802970473517721 0 -0.0003045518570725662 0.024031661016452235 0 9.3000432964425621e-05 0.024610196624599737 0 -2.6788540260186084e-05 0.023802970473517721 0 -0.0003045518570725662 0.024031661016452235 0 -0.00037821227767884189 0.024809691727708652 0 9.3000432964425621e-05 0.024610196624599737 0 -0.0003045518570725662 0.024031661016452235 0 -2.6788540260186084e-05 0.023802970473517721 0 -0.00043669635850839716 0.023645450609519468 0 0.00089353733998346924 0.022720007886777128 0 -0.0031009262892699777 0.031067080558753565 0 0.00054303831290795576 0.02407273004025353 0 -2.6788540260186084e-05 0.023802970473517721 0 0.00022301655822583384 0.02347477003603016 0 0.0015988533133980453 0.023885694473449747 0 0.00098775944816589432 0.024329717828685215 0 0.00081074253380556511 0.023398477185543311 0 -0.0031009262892699777 0.031067080558753565 0 -0.0086710528466748468 0.040370426820623057 0 -0.007141983250439147 0.048346027186538833 0 -0.0072250860386794966 0.046347066271932247 0 -0.0079211600077131669 0.044052800528450259 0 0.0015988533133980453 0.023885694473449747 0 0.0013040242523731228 0.023367743852647848 0 0.00081074253380556511 0.023398477185543311 0 -0.0031943190747590953 0.042182720945252231 0 -0.0031009262892699777 0.031067080558753565 0 -0.0043935544217744565 0.04814922108786833 0 -0.007141983250439147 0.048346027186538833 0 -0.0072250860386794966 0.046347066271932247 0 -0.0031943190747590953 0.042182720945252231 0 -0.0057582794674018792 0.046216927731508831 0 -0.004676912519076851 0.048421756728174344 0 -0.0072250860386794966 0.046347066271932247 0 -0.0050121490625837 0.046197645643594021 0 -0.011004076313960727 0.030400910905536725 0 -0.0081064229630909892 0.032640964048405295 0 -0.010258493047675539 0.034348000110310681 0 -2.6788540260186084e-05 0.023802970473517721 0 0.00022301655822583384 0.02347477003603016 0 -0.00043669635850839716 0.023645450609519468 0 -0.011004076313960727 0.030400910905536725 0 -0.0057497501388237672 0.029821345535545017 0 -0.0081064229630909892 0.032640964048405295 0 -0.0031009262892699777 0.031067080558753565 0 -0.0035282295043595228 0.026295966364262863 0 -0.0057497501388237672 0.029821345535545017 0 -0.003273328728870407 0.030859118437018957 0 -0.0058916394644250121 0.033480819924473562 0 -0.0057497501388237672 0.029821345535545017 0 -0.0058916394644250121 0.033480819924473562 0 -0.0081064229630909892 0.032640964048405295 0 -0.003273328728870407 0.030859118437018957 0 -0.0011076271948820551 0.028521952155324496 0 0.0012049354917561947 0.029341476527168668 0 -0.0035282295043595228 0.026295966364262863 0 -0.00013576473750990725 0.026424645888219075 0 -0.0057497501388237672 0.029821345535545017 0 -0.003273328728870407 0.030859118437018957 0 -0.0011076271948820551 0.028521952155324496 0 -0.00032588907792888068 0.023534096587981803 0 0.00032059869112562874 0.022682337542972327 0 0.00079241479011051908 0.023461857466042225 0 -0.00043669635850839716 0.023645450609519468 0 0.00017792126604423582 0.02436819004596695 0 -0.00032588907792888068 0.023534096587981803 0 0.00017792126604423582 0.02436819004596695 0 -0.00032588907792888068 0.023534096587981803 0 0.00079241479011051908 0.023461857466042225 0 -0.0003045518570725662 0.024031661016452235 0 -0.00043669635850839716 0.023645450609519468 0 -0.00032588907792888068 0.023534096587981803 0 -0.0029296199403063628 0.034630051210081468 0 -0.0027683657502784727 0.033860171359831097 0 -0.0034499762833395909 0.034566416697520023 0 -0.0029296199403063628 0.034630051210081468 0 -0.0034499762833395909 0.034566416697520023 0 -0.0032542418767817116 0.035145499730686633 0 -0.0027741494583529373 0.033963345062000126 0 -0.005626520157670829 0.036446245799904929 0 -0.0029296199403063628 0.034630051210081468 0 -0.0027683657502784727 0.033860171359831097 0 -0.0023877682610711484 0.034602182052730614 0 -0.0027683657502784727 0.033860171359831097 0 -0.0020838172294723222 0.033808507300684056 0 -0.0023877682610711484 0.034602182052730614 0 -0.003273328728870407 0.030859118437018957 0 -0.0027365745232319789 0.034294507292167153 0 0.0012049354917561947 0.029341476527168668 0 -0.003273328728870407 0.030859118437018957 0 -0.0027365745232319789 0.034294507292167153 0 -0.0058916394644250121 0.033480819924473562 0 -0.0027365745232319789 0.034294507292167153 0 -0.0058916394644250121 0.033480819924473562 0 -0.0080516926078793433 0.038410070396535691 0 -0.0058916394644250121 0.033480819924473562 0 -0.0080368671748159513 0.035469515038846301 0 -0.0080516926078793433 0.038410070396535691 0 -0.0080368671748159513 0.035469515038846301 0 -0.010258493047675539 0.034348000110310681 0 -0.0077884682465597108 0.038578401740497717 0 -0.0058916394644250121 0.033480819924473562 0 -0.0081064229630909892 0.032640964048405295 0 -0.0080368671748159513 0.035469515038846301 0 -0.0081064229630909892 0.032640964048405295 0 -0.0080368671748159513 0.035469515038846301 0 -0.010258493047675539 0.034348000110310681 0 -0.0050121490625837 0.046197645643594021 0 -0.0058721049381046126 0.044461170514138733 0 -0.0038497915936132601 0.044160147388411168 0 -0.0072250860386794966 0.046347066271932247 0 -0.0050121490625837 0.046197645643594021 0 -0.0058721049381046126 0.044461170514138733 0 -0.0072250860386794966 0.046347066271932247 0 -0.0058721049381046126 0.044461170514138733 0 -0.0079211600077131669 0.044052800528450259 0 -0.0058721049381046126 0.044461170514138733 0 -0.0079211600077131669 0.044052800528450259 0 -0.0054206385740686817 0.041264375992559131 0 -0.0058721049381046126 0.044461170514138733 0 -0.0054206385740686817 0.041264375992559131 0 -0.0038497915936132601 0.044160147388411168 0 -0.0079211600077131669 0.044052800528450259 0 -0.0054206385740686817 0.041264375992559131 0 -0.0077884682465597108 0.038578401740497717 0 -0.0054206385740686817 0.041264375992559131 0 -0.0052666230603840621 0.038397441867761617 0 -0.0077884682465597108 0.038578401740497717 0 -0.0077884682465597108 0.038578401740497717 0 -0.0080516926078793433 0.038410070396535691 0 -0.004661069578341624 0.036340797612253006 0 -0.0086710528466748468 0.040370426820623057 0 -0.0083174634984073403 0.038256698608776625 0 -0.0080368671748159513 0.035469515038846301 0 -0.0077884682465597108 0.038578401740497717 0 -0.0080516926078793433 0.038410070396535691 0 -0.0034499762833395909 0.034566416697520023 0 -0.0037146786262465094 0.035532435915188017 0 -0.0032542418767817116 0.035145499730686633 0 -0.0034499762833395909 0.034566416697520023 0 -0.0037146786262465094 0.035532435915188017 0 -0.004661069578341624 0.036340797612253006 0 -0.005626520157670829 0.036446245799904929 0 -0.0047552890910784341 0.036299853546713709 0 -0.0037146786262465094 0.035532435915188017 0 -0.0038651537288760481 0.03584773132852679 0 -0.0035218165448312362 0.035643918673386281 0 -0.0037146786262465094 0.035532435915188017 0 -0.0035218165448312362 0.035643918673386281 0 -0.0032542418767817116 0.035145499730686633 0 -0.0052666230603840621 0.038397441867761617 0 -0.0077884682465597108 0.038578401740497717 0 -0.004661069578341624 0.036340797612253006 0 -0.0037146786262465094 0.035532435915188017 0 -0.0038651537288760481 0.03584773132852679 0 -0.004661069578341624 0.036340797612253006 0 -0.004661069578341624 0.036340797612253006 0 -0.0035564019485349306 0.0357320822514871 0 -0.0036880871855749747 0.035358554406131885 0 -0.0038651537288760481 0.03584773132852679 0 -0.004661069578341624 0.036340797612253006 0 -0.0035564019485349306 0.0357320822514871 0 -0.0035564019485349306 0.0357320822514871 0 -0.0035218165448312362 0.035643918673386281 0 -0.0031805135557409197 0.035696853310308307 0 -0.0035564019485349306 0.0357320822514871 0 -0.0031805135557409197 0.035696853310308307 0 -0.0030207337400961097 0.035873137529274235 0 -0.0038651537288760481 0.03584773132852679 0 -0.0035564019485349306 0.0357320822514871 0 -0.0035218165448312362 0.035643918673386281 0 -0.0029507987462375762 0.035584258902408343 0 -0.0030554568175338707 0.035419820348337121 0 -0.002638791878807585 0.035267492415595389 0 -0.0031805135557409197 0.035696853310308307 0 -0.0029507987462375762 0.035584258902408343 0 -0.0030554568175338707 0.035419820348337121 0 -0.0035218165448312362 0.035643918673386281 0 -0.0031805135557409197 0.035696853310308307 0 -0.0030554568175338707 0.035419820348337121 0 -0.0035218165448312362 0.035643918673386281 0 -0.0030554568175338707 0.035419820348337121 0 -0.0032542418767817116 0.035145499730686633 0 -0.0030554568175338707 0.035419820348337121 0 -0.0028609077933991834 0.035022856017979227 0 -0.0032542418767817116 0.035145499730686633 0 -0.0029296199403063628 0.034630051210081468 0 -0.0028609077933991834 0.035022856017979227 0 -0.0032542418767817116 0.035145499730686633 0 -0.0028609077933991834 0.035022856017979227 0 -0.002638791878807585 0.035267492415595389 0 -0.0023877682610711484 0.034602182052730614 0 -0.0029296199403063628 0.034630051210081468 0 -0.0028609077933991834 0.035022856017979227 0 -0.0023877682610711484 0.034602182052730614 0 -0.002638791878807585 0.035267492415595389 0 -0.0025330652761851292 0.035490418997682592 0 -0.0022493948551766682 0.035109968833699351 0 -0.0030554568175338707 0.035419820348337121 0 -0.0028609077933991834 0.035022856017979227 0 -0.002638791878807585 0.035267492415595389 0 -0.0029507987462375762 0.035584258902408343 0 -0.002638791878807585 0.035267492415595389 0 -0.0027371692732462284 0.035485939156791352 0 -0.002638791878807585 0.035267492415595389 0 -0.0027371692732462284 0.035485939156791352 0 -0.0025330652761851292 0.035490418997682592 0 -0.0029507987462375762 0.035584258902408343 0 -0.0027371692732462284 0.035485939156791352 0 -0.0028584006216815228 0.035637653669966997 0 -0.0027371692732462284 0.035485939156791352 0 -0.0025330652761851292 0.035490418997682592 0 -0.0028584006216815228 0.035637653669966997 0 -0.0028584006216815228 0.035637653669966997 0 -0.0029738972983415772 0.035703068398398007 0 -0.0027387376640266182 0.03566257663776131 0 -0.0025330652761851292 0.035490418997682592 0 -0.0028584006216815228 0.035637653669966997 0 -0.0027387376640266182 0.03566257663776131 0 -0.0025330652761851292 0.035490418997682592 0 -0.0027387376640266182 0.03566257663776131 0 -0.002383944349762533 0.035633864266262853 0 -0.0031805135557409197 0.035696853310308307 0 -0.0029507987462375762 0.035584258902408343 0 -0.0030104587890599035 0.035758168191007536 0 -0.0029507987462375762 0.035584258902408343 0 -0.0028584006216815228 0.035637653669966997 0 -0.0030104587890599035 0.035758168191007536 0 -0.0028584006216815228 0.035637653669966997 0 -0.0030104587890599035 0.035758168191007536 0 -0.0029738972983415772 0.035703068398398007 0 -0.0030104587890599035 0.035758168191007536 0 -0.0029738972983415772 0.035703068398398007 0 -0.0028644020280955236 0.03579788143370969 0 -0.0029980500041079626 0.035594315579871354 0 -0.0029389654329728225 0.035725514828845763 0 -0.0029675411669296231 0.035248778080675287 0 -0.0029738972983415772 0.035703068398398007 0 -0.0029980500041079626 0.035594315579871354 0 -0.0028644020280955236 0.03579788143370969 0 -0.0029738972983415772 0.035703068398398007 0 -0.0029980500041079626 0.035594315579871354 0 -0.0028664582198074141 0.035691603296039556 0 -0.0029980500041079626 0.035594315579871354 0 -0.0028664582198074141 0.035691603296039556 0 -0.0029389654329728225 0.035725514828845763 0 -0.0029980500041079626 0.035594315579871354 0 -0.0029675411669296231 0.035248778080675287 0 -0.0028644020280955236 0.03579788143370969 0 -0.0027387376640266182 0.03566257663776131 0 -0.0028664582198074141 0.035691603296039556 0 -0.0025113226010178122 0.035845536623823601 0 -0.0028664582198074141 0.035691603296039556 0 -0.0029389654329728225 0.035725514828845763 0 -0.0025113226010178122 0.035845536623823601 0 -0.003524990111501257 0.029698890177130937 0 -0.0043969312709653098 0.028076442096144998 0 -0.0029738972983415772 0.035703068398398007 0 -0.0027387376640266182 0.03566257663776131 0 -0.0028664582198074141 0.035691603296039556 0 -0.0073781702564768847 0.021136219299915208 0 -0.0058876281595961043 0.02042344910655277 0 -0.0057429608931706053 0.021238865931560325 0 8.0954726032538192e-05 0.02878652530417973 0 4.2104514331110812e-05 0.029514853275281271 0 9.8426508307428208e-05 0.028177837818527993 0 -0.003524990111501257 0.029698890177130937 0 -0.0028181395117319709 0.023904693673808639 0 8.0954726032538192e-05 0.02878652530417973 0 9.8426508307428208e-05 0.028177837818527993 0 7.0167166157973686e-05 0.027176355859998877 0 -0.0049578901764939943 0.034931038944059314 0 -0.0031352622027089288 0.034291360109924708 0 -0.0029675411669296231 0.035248778080675287 0 -0.003524990111501257 0.029698890177130937 0 -0.0014225564641351389 0.032312666070010529 0 -0.003524990111501257 0.029698890177130937 0 -0.0029386670942740992 0.03531870283264716 0 8.0954726032538192e-05 0.02878652530417973 0 4.2104514331110812e-05 0.029514853275281271 0 -0.00018422166809478187 0.030245123412177839 0 4.2104514331110812e-05 0.029514853275281271 0 -5.2941842752117203e-05 0.030392413319316771 0 -0.00018422166809478187 0.030245123412177839 0 2.3717031589714331e-07 0.029802663416466077 0 -5.2941842752117203e-05 0.030392413319316771 0 -0.00022866585860814134 0.031646956337745051 0 4.2104514331110812e-05 0.029514853275281271 0 2.3717031589714331e-07 0.029802663416466077 0 -5.2941842752117203e-05 0.030392413319316771 0 4.2104514331110812e-05 0.029514853275281271 0 2.3717031589714331e-07 0.029802663416466077 0 9.8426508307428208e-05 0.028177837818527993 0 2.3717031589714331e-07 0.029802663416466077 0 9.8426508307428208e-05 0.028177837818527993 0 3.4011433492831576e-07 0.026724531993896294 0 -1.751020372863653e-06 0.032881415986538876 0 -0.00085267513560397326 0.033295166699194606 0 -0.00013780639082489903 0.034723030703668042 0 2.3717031589714331e-07 0.029802663416466077 0 -1.751020372863653e-06 0.032881415986538876 0 -0.00022866585860814134 0.031646956337745051 0 -1.751020372863653e-06 0.032881415986538876 0 -0.00022866585860814134 0.031646956337745051 0 -0.00085267513560397326 0.033295166699194606 0 -5.2941842752117203e-05 0.030392413319316771 0 -0.00022866585860814134 0.031646956337745051 0 -0.00018422166809478187 0.030245123412177839 0 -0.0014225564641351389 0.032312666070010529 0 -0.00084513449479839289 0.03286857398604217 0 -0.00022866585860814134 0.031646956337745051 0 -0.00018422166809478187 0.030245123412177839 0 -0.00085267513560397326 0.033295166699194606 0 -0.0031352622027089288 0.034291360109924708 0 -0.0023360201078998668 0.034712337516261578 0 -0.00085267513560397326 0.033295166699194606 0 -0.0031352622027089288 0.034291360109924708 0 -0.0029675411669296231 0.035248778080675287 0 -0.0023360201078998668 0.034712337516261578 0 -0.0023360201078998668 0.034712337516261578 0 -0.0019351836043647434 0.03515076638383461 0 -0.00085267513560397326 0.033295166699194606 0 -0.0029675411669296231 0.035248778080675287 0 -0.0023360201078998668 0.034712337516261578 0 -0.0019351836043647434 0.03515076638383461 0 -0.00085267513560397326 0.033295166699194606 0 -0.00083562563067887002 0.035245231682367706 0 -0.00013780639082489903 0.034723030703668042 0 -0.0019351836043647434 0.03515076638383461 0 -0.00085267513560397326 0.033295166699194606 0 -0.00083562563067887002 0.035245231682367706 0 -0.00083562563067887002 0.035245231682367706 0 -0.0022027036756134244 0.03599795114498168 0 -0.00041671741036576984 0.036605528374048305 0 -0.0019351836043647434 0.03515076638383461 0 -0.00083562563067887002 0.035245231682367706 0 -0.0022027036756134244 0.03599795114498168 0 -0.0019351836043647434 0.03515076638383461 0 -0.0022027036756134244 0.03599795114498168 0 -0.0028644020280955236 0.03579788143370969 0 -0.0029675411669296231 0.035248778080675287 0 -0.0019351836043647434 0.03515076638383461 0 -0.0028644020280955236 0.03579788143370969 0 -0.0035564019485349306 0.0357320822514871 0 -0.0022027036756134244 0.03599795114498168 0 -0.0030207337400961097 0.035873137529274235 0 -0.0022027036756134244 0.03599795114498168 0 -0.0028644020280955236 0.03579788143370969 0 -0.0030207337400961097 0.035873137529274235 0 -0.0030104587890599035 0.035758168191007536 0 -0.0028644020280955236 0.03579788143370969 0 -0.0030207337400961097 0.035873137529274235 0 -0.0031805135557409197 0.035696853310308307 0 -0.0030104587890599035 0.035758168191007536 0 -0.0030207337400961097 0.035873137529274235 0 -0.0023484374631073945 0.036029682762766864 0 -0.0025090946459351074 0.036969839327879159 0 -0.0035564019485349306 0.0357320822514871 0 -0.0022027036756134244 0.03599795114498168 0 -0.0036880871855749747 0.035358554406131885 0 -0.0022027036756134244 0.03599795114498168 0 -0.00041671741036576984 0.036605528374048305 0 -0.0015652766824981415 0.038541156867248356 0 -0.00041671741036576984 0.036605528374048305 0 0.00037132227465766921 0.036065233542093331 0 0.0015462336991203538 0.037204664503991111 0 -0.00041671741036576984 0.036605528374048305 0 0.0015462336991203538 0.037204664503991111 0 0.0004370748280830466 0.038589790242059031 0 -0.00041671741036576984 0.036605528374048305 0 0.00037132227465766921 0.036065233542093331 0 1.1928681343023798e-05 0.035628076809106207 0 -0.00083562563067887002 0.035245231682367706 0 -0.00041671741036576984 0.036605528374048305 0 1.1928681343023798e-05 0.035628076809106207 0 1.1928681343023798e-05 0.035628076809106207 0 0.00034586918293244817 0.036413392415780246 0 -0.00013780639082489903 0.034723030703668042 0 -0.00083562563067887002 0.035245231682367706 0 1.1928681343023798e-05 0.035628076809106207 0 -0.00013780639082489903 0.034723030703668042 0 0.00037132227465766921 0.036065233542093331 0 1.1928681343023798e-05 0.035628076809106207 0 0.00034586918293244817 0.036413392415780246 0 0.00034586918293244817 0.036413392415780246 0 1.3987146283813554e-06 0.035960824845420597 0 -1.7526990884316122e-06 0.039033333445239779 0 -1.751020372863653e-06 0.032881415986538876 0 -0.00013780639082489903 0.034723030703668042 0 1.3987146283813554e-06 0.035960824845420597 0 0.00034586918293244817 0.036413392415780246 0 -0.00013780639082489903 0.034723030703668042 0 1.3987146283813554e-06 0.035960824845420597 0 0.00034586918293244817 0.036413392415780246 0 -1.7526990884316122e-06 0.039033333445239779 0 0.0002117605415174054 0.035916701673016818 0 -5.9068163024774981e-07 0.039039740906719522 0 -0.0012544911074263488 0.041024549039798318 0 0.00037132227465766921 0.036065233542093331 0 0.00034586918293244817 0.036413392415780246 0 0.0002117605415174054 0.035916701673016818 0 -8.1150027620296824e-06 0.039051431355869297 0 -0.0030043253997365281 0.045839123420704765 0 -0.00026991347386880448 0.046896984686601854 0 -0.0030043253997365281 0.045839123420704765 0 -0.0013837380326022889 0.048961562062456887 0 -0.00026991347386880448 0.046896984686601854 0 0.00037132227465766921 0.036065233542093331 0 0.0002117605415174054 0.035916701673016818 0 0.0015462336991203538 0.037204664503991111 0 -0.0030043253997365281 0.045839123420704765 0 -0.0033131078338662951 0.04968863065076428 0 -0.0013837380326022889 0.048961562062456887 0 -0.0012544911074263488 0.041024549039798318 0 -0.00088785292476130102 0.043477100661502739 0 -0.0033131078338662951 0.04968863065076428 0 -0.0013837380326022889 0.048961562062456887 0 -0.001229936357441976 0.051286229674747025 0 -0.0033131078338662951 0.04968863065076428 0 -0.0031340903395170759 0.05198453279993915 0 -0.001229936357441976 0.051286229674747025 0 -0.0017405690864391924 0.052397221381077073 0 -0.0031340903395170759 0.05198453279993915 0 -0.001229936357441976 0.051286229674747025 0 -0.0017405690864391924 0.052397221381077073 0 -0.0031340903395170759 0.05198453279993915 0 -0.0024126875784013526 0.052890519916644931 0 -0.00088785292476130102 0.043477100661502739 0 -0.00050632630727111955 0.046260006234310869 0 0.0015462336991203538 0.037204664503991111 0 0.002379281132738888 0.040434558445617337 0 0.0004370748280830466 0.038589790242059031 0 -0.00041671741036576984 0.036605528374048305 0 0.0004370748280830466 0.038589790242059031 0 -0.0015652766824981415 0.038541156867248356 0 -0.004661069578341624 0.036340797612253006 0 -0.0036880871855749747 0.035358554406131885 0 -0.0011148655587487554 0.038928641861962321 0 -0.0052666230603840621 0.038397441867761617 0 -0.004661069578341624 0.036340797612253006 0 -0.0011148655587487554 0.038928641861962321 0 0.0004370748280830466 0.038589790242059031 0 -0.0015652766824981415 0.038541156867248356 0 -0.00072240761321919493 0.041873525228376111 0 -0.0025090946459351074 0.036969839327879159 0 -0.00095020803258620556 0.040585150873789146 0 0.002379281132738888 0.040434558445617337 0 0.0004370748280830466 0.038589790242059031 0 -0.00072240761321919493 0.041873525228376111 0 0.002379281132738888 0.040434558445617337 0 0.0016375690145190142 0.043195788429983083 0 -0.00072240761321919493 0.041873525228376111 0 0.0016375690145190142 0.043195788429983083 0 -0.00072240761321919493 0.041873525228376111 0 0.0020891536848577294 0.045437079049814935 0 -0.0054206385740686817 0.041264375992559131 0 -0.0011148655587487554 0.038928641861962321 0 -0.0038497915936132601 0.044160147388411168 0 -0.0054206385740686817 0.041264375992559131 0 -0.0052666230603840621 0.038397441867761617 0 -0.0011148655587487554 0.038928641861962321 0 -0.0011148655587487554 0.038928641861962321 0 -0.0038497915936132601 0.044160147388411168 0 -0.0014191839294732185 0.045683107819828789 0 -0.0032490210840754371 0.046679810707277843 0 -0.0050121490625837 0.046197645643594021 0 -0.0038497915936132601 0.044160147388411168 0 -0.0032490210840754371 0.046679810707277843 0 -0.0038497915936132601 0.044160147388411168 0 -0.0014191839294732185 0.045683107819828789 0 -0.0011148655587487554 0.038928641861962321 0 -0.0014191839294732185 0.045683107819828789 0 0.0012026544208532412 0.046934293559522396 0 -0.00072240761321919493 0.041873525228376111 0 0.0012026544208532412 0.046934293559522396 0 0.0020891536848577294 0.045437079049814935 0 -0.00095020803258620556 0.040585150873789146 0 0.0011763565253487822 0.046494459902119263 0 -0.00018166238646571208 0.047714974068803741 0 -0.0014191839294732185 0.045683107819828789 0 0.0012026544208532412 0.046934293559522396 0 0.0023058653995618105 0.049778315194320126 0 0.00065520784407014341 0.049442955338917585 0 0.0020492948387921058 0.050301999702439586 0 0.0020891536848577294 0.045437079049814935 0 0.0032431813808221762 0.045052166745317306 0 0.0017105107735776125 0.051446129030273478 0 0.0020492948387921058 0.050301999702439586 0 0.0020897282586328264 0.052328135291106186 0 0.0020492948387921058 0.050301999702439586 0 0.0012026544208532412 0.046934293559522396 0 0.0020891536848577294 0.045437079049814935 0 0.0016375690145190142 0.043195788429983083 0 0.0020891536848577294 0.045437079049814935 0 0.0027758821999836719 0.045128274198245819 0 0.0018477954288712494 0.048465428036563535 0 0.00065520784407014341 0.049442955338917585 0 0.0017105107735776125 0.051446129030273478 0 0.0020897282586328264 0.052328135291106186 0 0.0012969859893100153 0.051913192842483892 0 0.00065520784407014341 0.049442955338917585 0 -0.00065443008105071628 0.053474297767165571 0 0.0012969859893100153 0.051913192842483892 0 0.0011088358740677447 0.052795752532242467 0 0.00089770877864685478 0.052582842924017791 0 0.0020897282586328264 0.052328135291106186 0 0.0012969859893100153 0.051913192842483892 0 0.0011088358740677447 0.052795752532242467 0 -0.0030678430304440616 0.053819687018863901 0 -0.0016978422021644854 0.053375627011896784 0 -0.0024126875784013526 0.052890519916644931 0 -0.0017405690864391924 0.052397221381077073 0 -0.0016978422021644854 0.053375627011896784 0 -0.0024126875784013526 0.052890519916644931 0 0.002379281132738888 0.040434558445617337 0 0.0016375690145190142 0.043195788429983083 0 0.0027758821999836719 0.045128274198245819 0 -0.0031340903395170759 0.05198453279993915 0 -0.0030678430304440616 0.053819687018863901 0 -0.0024126875784013526 0.052890519916644931 0 -0.00050632630727111955 0.046260006234310869 0 0.00065520784407014341 0.049442955338917585 0 0.0002526360298191248 0.052928729506731075 0 0.0005420614552485185 0.052866830659436405 0 -0.0017405690864391924 0.052397221381077073 0 -0.0016978422021644854 0.053375627011896784 0 -0.00032320755796769077 0.052891842992353992 0 0.0011088358740677447 0.052795752532242467 0 0.00068910645618748914 0.053081877367274669 0 0.00089770877864685478 0.052582842924017791 0 -0.00065443008105071628 0.053474297767165571 0 0.0002526360298191248 0.052928729506731075 0 0.00068485979786444824 0.052917149036435691 0 0.00068910645618748914 0.053081877367274669 0 0.00089770877864685478 0.052582842924017791 0 0.00068485979786444824 0.052917149036435691 0 0.00068910645618748914 0.053081877367274669 0 0.00053381077878689274 0.053269982396035857 0 0.00053381077878689274 0.053269982396035857 0 0.00070111220826060857 0.052961542941938625 0 0.00057268275805806459 0.053703778004712384 0 0.00062330171723800525 0.053370347964310623 0 0.00053381077878689274 0.053269982396035857 0 0.00057268275805806459 0.053703778004712384 0 0.00053381077878689274 0.053269982396035857 0 0.0005517306385847407 0.053138873832218936 0 0.00070111220826060857 0.052961542941938625 0 0.00068910645618748914 0.053081877367274669 0 0.00053381077878689274 0.053269982396035857 0 0.0005517306385847407 0.053138873832218936 0 0.00054446924784862249 0.05253160004676892 0 0.00065951383751891742 0.051753339438449356 0 7.7699189480538779e-05 0.0517438823521299 0 0.00054446924784862249 0.05253160004676892 0 0.00070111220826060857 0.052961542941938625 0 0.00065951383751891742 0.051753339438449356 0 0.0005420614552485185 0.052866830659436405 0 0.00072868339839136703 0.0529072057065774 0 0.00070111220826060857 0.052961542941938625 0 0.00084474112284114989 0.052204297233239813 0 0.00065951383751891742 0.051753339438449356 0 7.7699189480538779e-05 0.0517438823521299 0 -0.001229936357441976 0.051286229674747025 0 0.00019128863597867298 0.050226917278918447 0 0.00065951383751891742 0.051753339438449356 0 7.7699189480538779e-05 0.0517438823521299 0 0.00019128863597867298 0.050226917278918447 0 -0.00032320755796769077 0.052891842992353992 0 0.00054446924784862249 0.05253160004676892 0 7.7699189480538779e-05 0.0517438823521299 0 -0.0017405690864391924 0.052397221381077073 0 -0.00032320755796769077 0.052891842992353992 0 -0.001229936357441976 0.051286229674747025 0 -0.00032320755796769077 0.052891842992353992 0 7.7699189480538779e-05 0.0517438823521299 0 -0.001229936357441976 0.051286229674747025 0 -8.1150027620296824e-06 0.039051431355869297 0 0.00017111518686121764 0.044471327037381603 0 2.9983896588715557e-06 0.047888438694541832 0 -0.0013837380326022889 0.048961562062456887 0 -0.001229936357441976 0.051286229674747025 0 0.00019128863597867298 0.050226917278918447 0 0.00019128863597867298 0.050226917278918447 0 -0.00026991347386880448 0.046896984686601854 0 0.00081170413649275179 0.049139451949958897 0 -0.0013837380326022889 0.048961562062456887 0 0.00019128863597867298 0.050226917278918447 0 -0.00026991347386880448 0.046896984686601854 0 -8.1150027620296824e-06 0.039051431355869297 0 -0.00026991347386880448 0.046896984686601854 0 0.00017111518686121764 0.044471327037381603 0 -0.00026991347386880448 0.046896984686601854 0 0.00086045764071906083 0.047489836554484112 0 0.00081170413649275179 0.049139451949958897 0 -0.00026991347386880448 0.046896984686601854 0 0.00017111518686121764 0.044471327037381603 0 0.00086045764071906083 0.047489836554484112 0 0.00017111518686121764 0.044471327037381603 0 2.9983896588715557e-06 0.047888438694541832 0 3.0374955527483906e-05 0.046780545716244522 0 0.0013180127462240894 0.049006213733994587 0 0.001100285408049128 0.050579730570245091 0 0.0008751014540256299 0.051673393160575357 0 2.9983896588715557e-06 0.047888438694541832 0 3.0374955527483906e-05 0.046780545716244522 0 4.887943176086666e-05 0.049717961686617261 0 0.00060158912704650507 0.047762970358137299 0 0.00052037853805387364 0.050732154013587299 0 0.00017111518686121764 0.044471327037381603 0 0.0013180127462240894 0.049006213733994587 0 0.00086045764071906083 0.047489836554484112 0 8.194824895490317e-05 0.045058642054090194 0 0.00060158912704650507 0.047762970358137299 0 0.0013180127462240894 0.049006213733994587 0 0.00086045764071906083 0.047489836554484112 0 0.0011468876951965029 0.049253160637864474 0 0.00086045764071906083 0.047489836554484112 0 0.0011468876951965029 0.049253160637864474 0 0.00081170413649275179 0.049139451949958897 0 0.0013180127462240894 0.049006213733994587 0 0.0011468876951965029 0.049253160637864474 0 0.001100285408049128 0.050579730570245091 0 0.0011468876951965029 0.049253160637864474 0 0.001100285408049128 0.050579730570245091 0 0.0010778592004600409 0.050316834859585026 0 0.001100285408049128 0.050579730570245091 0 0.0010778592004600409 0.050316834859585026 0 0.00097402422979742218 0.051664792381820417 0 0.0010778592004600409 0.050316834859585026 0 0.00092371469308281007 0.050835983966709485 0 0.00097402422979742218 0.051664792381820417 0 0.0011468876951965029 0.049253160637864474 0 0.0010778592004600409 0.050316834859585026 0 0.00081170413649275179 0.049139451949958897 0 0.0010778592004600409 0.050316834859585026 0 0.00081170413649275179 0.049139451949958897 0 0.00092371469308281007 0.050835983966709485 0 0.00065951383751891742 0.051753339438449356 0 0.00019128863597867298 0.050226917278918447 0 0.00092371469308281007 0.050835983966709485 0 0.00019128863597867298 0.050226917278918447 0 0.00081170413649275179 0.049139451949958897 0 0.00092371469308281007 0.050835983966709485 0 0.00084474112284114989 0.052204297233239813 0 0.00092371469308281007 0.050835983966709485 0 0.00097402422979742218 0.051664792381820417 0 0.00084474112284114989 0.052204297233239813 0 0.00065951383751891742 0.051753339438449356 0 0.00092371469308281007 0.050835983966709485 0 7.2777631154330941e-08 0.054996482957212926 0 0.00055256357094020316 0.05333244041626975 0 1.3088542247422271e-06 0.054996444030816244 0 0.00097402422979742218 0.051664792381820417 0 0.00055256357094020316 0.05333244041626975 0 0.0007220622362824194 0.053221775175091197 0 0.00084474112284114989 0.052204297233239813 0 0.00097402422979742218 0.051664792381820417 0 0.0007220622362824194 0.053221775175091197 0 2.9983896588715557e-06 0.047888438694541832 0 7.2777631154330941e-08 0.054996482957212926 0 0.00010072663575066243 0.05310511618369361 0 0.00097402422979742218 0.051664792381820417 0 0.00074521287606394988 0.052015113606210125 0 0.00055256357094020316 0.05333244041626975 0 2.9983896588715557e-06 0.047888438694541832 0 4.887943176086666e-05 0.049717961686617261 0 0.00010072663575066243 0.05310511618369361 0 0.001100285408049128 0.050579730570245091 0 0.00097402422979742218 0.051664792381820417 0 0.00074521287606394988 0.052015113606210125 0 0.001100285408049128 0.050579730570245091 0 0.00074521287606394988 0.052015113606210125 0 0.0008751014540256299 0.051673393160575357 0 0.00074521287606394988 0.052015113606210125 0 0.00010072663575066243 0.05310511618369361 0 0.00055256357094020316 0.05333244041626975 0 0.00052037853805387364 0.050732154013587299 0 0.00021832683099428808 0.052705666720967582 0 0.00074521287606394988 0.052015113606210125 0 0.0008751014540256299 0.051673393160575357 0 0.00010072663575066243 0.05310511618369361 0 7.2777631154330941e-08 0.054996482957212926 0 0.00010072663575066243 0.05310511618369361 0 0.00055256357094020316 0.05333244041626975 0 1.3088542247422271e-06 0.054996444030816244 0 0.0007220622362824194 0.053221775175091197 0 0.00055659540125405354 0.053860778465363079 0 0.00055256357094020316 0.05333244041626975 0 1.3088542247422271e-06 0.054996444030816244 0 0.0007220622362824194 0.053221775175091197 0 0.00070111220826060857 0.052961542941938625 0 0.00084474112284114989 0.052204297233239813 0 0.0007220622362824194 0.053221775175091197 0 0.00070111220826060857 0.052961542941938625 0 0.0007220622362824194 0.053221775175091197 0 0.00055659540125405354 0.053860778465363079 0 0.00070111220826060857 0.052961542941938625 0 0.00055659540125405354 0.053860778465363079 0 0.00057268275805806459 0.053703778004712384 0 0.00041153476128414881 0.054269892819771556 0 0.00055659540125405354 0.053860778465363079 0 0.00057268275805806459 0.053703778004712384 0 0.00041153476128414881 0.054269892819771556 0 1.3088542247422271e-06 0.054996444030816244 0 0.00055659540125405354 0.053860778465363079 0 0.0017897097350973519 0.009515064258415926 0 0.0021249328427845929 0.009933056457539554 0 0.0019227485514972456 0.009257552896675526 0 0.0017897097350973519 0.009515064258415926 0 0.0019227485514972456 0.009257552896675526 0 0.0015990573791686456 0.009029056829225425 0 0.0019227485514972456 0.009257552896675526 0 0.0024018729658994249 0.0094386160747947246 0 0.0019952544885665697 0.0087816914831049912 0 0.0021249328427845929 0.009933056457539554 0 0.0019227485514972456 0.009257552896675526 0 0.0024018729658994249 0.0094386160747947246 0 0.0019227485514972456 0.009257552896675526 0 0.0015990573791686456 0.009029056829225425 0 0.0017223354179463567 0.0087573756267831076 0 0.0015990573791686456 0.009029056829225425 0 0.0014679372637965635 0.0086083518972212003 0 0.0017223354179463567 0.0087573756267831076 0 0.0015990573791686456 0.009029056829225425 0 0.0014679372637965635 0.0086083518972212003 0 0.0012541105752956233 0.0086529167231017626 0 0.0015990573791686456 0.009029056829225425 0 0.0015038045049480203 0.0093143791210339878 0 0.0012541105752956233 0.0086529167231017626 0 0.0017897097350973519 0.009515064258415926 0 0.0015990573791686456 0.009029056829225425 0 0.0015038045049480203 0.0093143791210339878 0 0.0017897097350973519 0.009515064258415926 0 0.0015038045049480203 0.0093143791210339878 0 0.0018395285160071853 0.010034280370208291 0 0.0015038045049480203 0.0093143791210339878 0 0.0014310327688925059 0.0095920960746012536 0 0.0018395285160071853 0.010034280370208291 0 0.0015038045049480203 0.0093143791210339878 0 0.0014310327688925059 0.0095920960746012536 0 0.001136423075101556 0.0089164221060824417 0 0.0014310327688925059 0.0095920960746012536 0 0.0018395285160071853 0.010034280370208291 0 0.0018181783378249119 0.010456814570118943 0 0.0018395285160071853 0.010034280370208291 0 0.0020808431819055828 0.010692510562535749 0 0.0018181783378249119 0.010456814570118943 0 0.0017897097350973519 0.009515064258415926 0 0.0021249328427845929 0.009933056457539554 0 0.0018395285160071853 0.010034280370208291 0 0.0021249328427845929 0.009933056457539554 0 0.0018395285160071853 0.010034280370208291 0 0.0023124557406284164 0.010756072519929502 0 0.0018395285160071853 0.010034280370208291 0 0.0020808431819055828 0.010692510562535749 0 0.0023124557406284164 0.010756072519929502 0 0.0020808431819055828 0.010692510562535749 0 0.0023124557406284164 0.010756072519929502 0 0.0024170957921133183 0.011617454065519343 0 0.0023124557406284164 0.010756072519929502 0 0.0028890630389554568 0.01178165763319455 0 0.0026478568180574535 0.010508353645834434 0 0.0023124557406284164 0.010756072519929502 0 0.0028890630389554568 0.01178165763319455 0 0.0024170957921133183 0.011617454065519343 0 0.0021249328427845929 0.009933056457539554 0 0.0023124557406284164 0.010756072519929502 0 0.0026478568180574535 0.010508353645834434 0 0.0028890630389554568 0.01178165763319455 0 0.0032788339732528981 0.011129474605326964 0 0.0038660676102835051 0.012488294213618517 0 0.0028890630389554568 0.01178165763319455 0 0.0037325980297013201 0.01342771516680121 0 0.0038660676102835051 0.012488294213618517 0 0.0028890630389554568 0.01178165763319455 0 0.0032788339732528981 0.011129474605326964 0 0.0026478568180574535 0.010508353645834434 0 0.0032788339732528981 0.011129474605326964 0 0.0042361045835143428 0.010970081622972676 0 0.0038660676102835051 0.012488294213618517 0 0.0042012005170366925 0.012898207457505383 0 0.0055826685453750444 0.014152127149461723 0 0.0032788339732528981 0.011129474605326964 0 0.0030490566240370617 0.010239375319929665 0 0.0042361045835143428 0.010970081622972676 0 0.0030490566240370617 0.010239375319929665 0 0.003000988992495087 0.0091287916826732363 0 0.0042361045835143428 0.010970081622972676 0 0.0053574697682153873 0.016440413521959373 0 0.0066883736351495146 0.016606132936051031 0 0.0072610678841692443 0.017393731402696799 0 0.0032788339732528981 0.011129474605326964 0 0.0030490566240370617 0.010239375319929665 0 0.0026478568180574535 0.010508353645834434 0 0.0021249328427845929 0.009933056457539554 0 0.0026478568180574535 0.010508353645834434 0 0.0024018729658994249 0.0094386160747947246 0 0.0030490566240370617 0.010239375319929665 0 0.0026478568180574535 0.010508353645834434 0 0.0024018729658994249 0.0094386160747947246 0 0.0030490566240370617 0.010239375319929665 0 0.0024018729658994249 0.0094386160747947246 0 0.003000988992495087 0.0091287916826732363 0 0.003000988992495087 0.0091287916826732363 0 0.0021018558071117656 0.0079099352408317364 0 0.0023479663776131516 0.0083839745362592807 0 0.0053574697682153873 0.016440413521959373 0 0.0046212477703615759 0.014523431123935716 0 0.0026097947206129529 0.01418965076456012 0 0.0024018729658994249 0.0094386160747947246 0 0.003000988992495087 0.0091287916826732363 0 0.0023148782363136664 0.0088493024790533732 0 0.0042012005170366925 0.012898207457505383 0 0.0024104033472885063 0.010129889440907328 0 0.003000988992495087 0.0091287916826732363 0 0.0023479663776131516 0.0083839745362592807 0 0.0023148782363136664 0.0088493024790533732 0 0.0053574697682153873 0.016440413521959373 0 0.0066883736351495146 0.016606132936051031 0 0.0065657737592307308 0.015281694232065992 0 0.0053574697682153873 0.016440413521959373 0 0.0065657737592307308 0.015281694232065992 0 0.0046212477703615759 0.014523431123935716 0 0.0026029089173930718 0.012026459231718373 0 0.0034592683896505889 0.014082019632398442 0 0.0042891501632301961 0.015320883715230679 0 0.0018216575094908668 0.013218038980513226 0 0.0055888173670568531 0.013940415146984944 0 0.005425451635472203 0.015296318696906376 0 0.0026029089173930718 0.012026459231718373 0 0.0065657737592307308 0.015281694232065992 0 0.0046212477703615759 0.014523431123935716 0 0.0045894720068499163 0.012941450865327914 0 0.0046212477703615759 0.014523431123935716 0 0.0036902221703743405 0.013644172849607254 0 0.0026097947206129529 0.01418965076456012 0 0.0046212477703615759 0.014523431123935716 0 0.0045894720068499163 0.012941450865327914 0 0.0036902221703743405 0.013644172849607254 0 0.0045894720068499163 0.012941450865327914 0 0.0036902221703743405 0.013644172849607254 0 0.0032990646234708357 0.01247446469757049 0 0.0029394772356120605 0.01319477842756918 0 0.0026097947206129529 0.01418965076456012 0 0.0021382929051819671 0.012454342541386217 0 0.0019594501820585771 0.0077769867902474591 0 0.0020802230894697705 0.0078839200083272477 0 0.0015181417648449825 0.0071632183207987563 0 0.0036902221703743405 0.013644172849607254 0 0.0029394772356120605 0.01319477842756918 0 0.0026097947206129529 0.01418965076456012 0 0.0036902221703743405 0.013644172849607254 0 0.0029394772356120605 0.01319477842756918 0 0.0032990646234708357 0.01247446469757049 0 0.0019594501820585771 0.0077769867902474591 0 0.0019116437276545796 0.0080049201177195221 0 0.0016915527983616635 0.0078319447975439133 0 0.0019594501820585771 0.0077769867902474591 0 0.0019116437276545796 0.0080049201177195221 0 0.0021286028701087167 0.0079498206679591323 0 0.0017588457944124659 0.009139156900999099 0 0.0024104033472885063 0.010129889440907328 0 0.0019116437276545796 0.0080049201177195221 0 0.0021286028701087167 0.0079498206679591323 0 0.0020528038455483975 0.0083167711974522184 0 0.0019116437276545796 0.0080049201177195221 0 0.0020528038455483975 0.0083167711974522184 0 0.0017854263756914737 0.0081696904102572746 0 0.0024104033472885063 0.010129889440907328 0 0.0018385649609310821 0.008502393994429024 0 0.0021286028701087167 0.0079498206679591323 0 0.0023479663776131516 0.0083839745362592807 0 0.0020528038455483975 0.0083167711974522184 0 0.0023479663776131516 0.0083839745362592807 0 0.0020528038455483975 0.0083167711974522184 0 0.0023148782363136664 0.0088493024790533732 0 0.0020528038455483975 0.0083167711974522184 0 0.0019952544885665697 0.0087816914831049912 0 0.0023148782363136664 0.0088493024790533732 0 0.0020528038455483975 0.0083167711974522184 0 0.0018205946449726899 0.0084749179691792197 0 0.0019952544885665697 0.0087816914831049912 0 0.0020528038455483975 0.0083167711974522184 0 0.0018205946449726899 0.0084749179691792197 0 0.0017854263756914737 0.0081696904102572746 0 0.0018205946449726899 0.0084749179691792197 0 0.0019952544885665697 0.0087816914831049912 0 0.0017223354179463567 0.0087573756267831076 0 0.0019227485514972456 0.009257552896675526 0 0.0019952544885665697 0.0087816914831049912 0 0.0017223354179463567 0.0087573756267831076 0 0.0024018729658994249 0.0094386160747947246 0 0.0019952544885665697 0.0087816914831049912 0 0.0023148782363136664 0.0088493024790533732 0 0.0014679372637965635 0.0086083518972212003 0 0.0013272686460363994 0.0082299421472120417 0 0.0012541105752956233 0.0086529167231017626 0 0.0014679372637965635 0.0086083518972212003 0 0.0016071063132622658 0.0083902816624811753 0 0.0013272686460363994 0.0082299421472120417 0 0.0014679372637965635 0.0086083518972212003 0 0.0017223354179463567 0.0087573756267831076 0 0.0016071063132622658 0.0083902816624811753 0 0.0018205946449726899 0.0084749179691792197 0 0.0017223354179463567 0.0087573756267831076 0 0.0016071063132622658 0.0083902816624811753 0 0.0016071063132622658 0.0083902816624811753 0 0.0017854263756914737 0.0081696904102572746 0 0.0015112599478521254 0.0080109046443169289 0 0.0018205946449726899 0.0084749179691792197 0 0.0016071063132622658 0.0083902816624811753 0 0.0017854263756914737 0.0081696904102572746 0 0.0016071063132622658 0.0083902816624811753 0 0.0015112599478521254 0.0080109046443169289 0 0.0013272686460363994 0.0082299421472120417 0 0.0015112599478521254 0.0080109046443169289 0 0.0014699672505060664 0.0076748164757304681 0 0.0012796198558190416 0.0077804605105587085 0 0.0015112599478521254 0.0080109046443169289 0 0.0016915527983616635 0.0078319447975439133 0 0.0014699672505060664 0.0076748164757304681 0 0.0017854263756914737 0.0081696904102572746 0 0.0015112599478521254 0.0080109046443169289 0 0.0016915527983616635 0.0078319447975439133 0 0.0019116437276545796 0.0080049201177195221 0 0.0017854263756914737 0.0081696904102572746 0 0.0016915527983616635 0.0078319447975439133 0 0.0019594501820585771 0.0077769867902474591 0 0.0016915527983616635 0.0078319447975439133 0 0.0015741081929419116 0.0075663327523723531 0 0.0014699672505060664 0.0076748164757304681 0 0.0015741081929419116 0.0075663327523723531 0 0.0013116811402406428 0.0074013757697330221 0 0.0016915527983616635 0.0078319447975439133 0 0.0014699672505060664 0.0076748164757304681 0 0.0015741081929419116 0.0075663327523723531 0 0.0012796198558190416 0.0077804605105587085 0 0.0011191933213323048 0.0074350580700764928 0 0.0010411820868582136 0.0079268845466520608 0 0.0014699672505060664 0.0076748164757304681 0 0.0012796198558190416 0.0077804605105587085 0 0.0013116811402406428 0.0074013757697330221 0 0.0012796198558190416 0.0077804605105587085 0 0.0011191933213323048 0.0074350580700764928 0 0.0013116811402406428 0.0074013757697330221 0 0.0011191933213323048 0.0074350580700764928 0 0.00098875591647753862 0.0073413268337645188 0 0.0010411820868582136 0.0079268845466520608 0 0.00098875591647753862 0.0073413268337645188 0 0.0010411820868582136 0.0079268845466520608 0 0.00085128166953725524 0.0077657574911042353 0 0.0010411820868582136 0.0079268845466520608 0 0.0013272686460363994 0.0082299421472120417 0 0.0012541105752956233 0.0086529167231017626 0 0.0012796198558190416 0.0077804605105587085 0 0.0010411820868582136 0.0079268845466520608 0 0.0013272686460363994 0.0082299421472120417 0 0.0015112599478521254 0.0080109046443169289 0 0.0012796198558190416 0.0077804605105587085 0 0.0013272686460363994 0.0082299421472120417 0 0.00088287035638250815 0.0072642021950563079 0 0.00093783137594963403 0.006567004623924423 0 0.00075842214486823961 0.0068826376557619964 0 0.00098875591647753862 0.0073413268337645188 0 0.00088287035638250815 0.0072642021950563079 0 0.00093783137594963403 0.006567004623924423 0 0.00098875591647753862 0.0073413268337645188 0 0.00088287035638250815 0.0072642021950563079 0 0.00085128166953725524 0.0077657574911042353 0 0.00088287035638250815 0.0072642021950563079 0 0.00085128166953725524 0.0077657574911042353 0 0.00086079647703879685 0.0075893102539968307 0 0.00088287035638250815 0.0072642021950563079 0 0.00086079647703879685 0.0075893102539968307 0 0.00075842214486823961 0.0068826376557619964 0 0.00086079647703879685 0.0075893102539968307 0 0.0011976274785676091 0.0067071147671068938 0 0.00084108147608494895 0.0074685509166412698 0 0.00085128166953725524 0.0077657574911042353 0 0.00086079647703879685 0.0075893102539968307 0 0.00070040391687544638 0.0077549291285401766 0 0.00070040391687544638 0.0077549291285401766 0 0.0011976274785676091 0.0067071147671068938 0 0.00033346558688581086 0.0083395154412769772 0 0.00086079647703879685 0.0075893102539968307 0 0.00070040391687544638 0.0077549291285401766 0 0.0011976274785676091 0.0067071147671068938 0 0.0012541105752956233 0.0086529167231017626 0 0.00088752224069605897 0.0082467138914587602 0 0.001136423075101556 0.0089164221060824417 0 0.0010411820868582136 0.0079268845466520608 0 0.0012541105752956233 0.0086529167231017626 0 0.00088752224069605897 0.0082467138914587602 0 0.0015038045049480203 0.0093143791210339878 0 0.0012541105752956233 0.0086529167231017626 0 0.001136423075101556 0.0089164221060824417 0 0.0010411820868582136 0.0079268845466520608 0 0.00085128166953725524 0.0077657574911042353 0 0.00088752224069605897 0.0082467138914587602 0 0.00085128166953725524 0.0077657574911042353 0 0.00070040391687544638 0.0077549291285401766 0 0.00088752224069605897 0.0082467138914587602 0 0.00070040391687544638 0.0077549291285401766 0 0.00088752224069605897 0.0082467138914587602 0 0.00078582423215200028 0.0084811328062247057 0 0.00070040391687544638 0.0077549291285401766 0 0.00078582423215200028 0.0084811328062247057 0 0.00033346558688581086 0.0083395154412769772 0 0.00078582423215200028 0.0084811328062247057 0 0.001136423075101556 0.0089164221060824417 0 0.0010426243997377657 0.0091820530011935374 0 0.00088752224069605897 0.0082467138914587602 0 0.00078582423215200028 0.0084811328062247057 0 0.001136423075101556 0.0089164221060824417 0 0.0014310327688925059 0.0095920960746012536 0 0.001136423075101556 0.0089164221060824417 0 0.0010426243997377657 0.0091820530011935374 0 0.0014411658273259904 0.0099632869597095271 0 0.0010426243997377657 0.0091820530011935374 0 0.0011636405348236175 0.0099792730466451568 0 0.0014310327688925059 0.0095920960746012536 0 0.0014411658273259904 0.0099632869597095271 0 0.0010426243997377657 0.0091820530011935374 0 0.00078582423215200028 0.0084811328062247057 0 0.0010426243997377657 0.0091820530011935374 0 0.00033346558688581086 0.0083395154412769772 0 0.0010426243997377657 0.0091820530011935374 0 0.00033346558688581086 0.0083395154412769772 0 0.0011636405348236175 0.0099792730466451568 0 0.00033346558688581086 0.0083395154412769772 0 0.0011636405348236175 0.0099792730466451568 0 0.00023652780443778634 0.010557604245299168 0 0.0011636405348236175 0.0099792730466451568 0 0.0010116404525726522 0.010768832329983668 0 0.00023652780443778634 0.010557604245299168 0 0.0015340393573831518 0.011012878449607027 0 0.0011636405348236175 0.0099792730466451568 0 0.0010116404525726522 0.010768832329983668 0 0.0015340393573831518 0.011012878449607027 0 0.0011636405348236175 0.0099792730466451568 0 0.001691386697259326 0.010654813491902846 0 0.0014411658273259904 0.0099632869597095271 0 0.0011636405348236175 0.0099792730466451568 0 0.001691386697259326 0.010654813491902846 0 0.0011976274785676091 0.0067071147671068938 0 0.0012101984452552164 0.0064872185821879891 0 0.0010640407654812407 0.0056454264154584717 0 0.0011976274785676091 0.0067071147671068938 0 0.00033346558688581086 0.0083395154412769772 0 0.0012101984452552164 0.0064872185821879891 0 0.0003031970233901203 0.0082606531457936894 0 -9.449965508635821e-05 0.0083898525400997181 0 0.00033346558688581086 0.0083395154412769772 0 0.0010788801955290061 0.0063785352867520278 0 0.0012101984452552164 0.0064872185821879891 0 0.00033346558688581086 0.0083395154412769772 0 -0.0014457981806854268 0.010367679093169985 0 0.00023652780443778634 0.010557604245299168 0 0.0010788801955290061 0.0063785352867520278 0 0.0012101984452552164 0.0064872185821879891 0 0.00095675727631120745 0.0064734563176248117 0 0.0010788801955290061 0.0063785352867520278 0 0.00094907213894721975 0.007137435955535322 0 0.00095675727631120745 0.0064734563176248117 0 -0.0014457981806854268 0.010367679093169985 0 -0.0010793426556082782 0.0096749847480292299 0 -0.000572754518175862 0.0097246932026668412 0 -0.0014457981806854268 0.010367679093169985 0 -0.0012217703859546173 0.010540338315033626 0 -0.0010793426556082782 0.0096749847480292299 0 -9.449965508635821e-05 0.0083898525400997181 0 9.0025808014371035e-05 0.008435976860429217 0 -0.0012881567579464614 0.01052937058441096 0 -0.0016773289947199473 0.010765430336109116 0 -0.0012217703859546173 0.010540338315033626 0 0.00023652780443778634 0.010557604245299168 0 -0.00031113645549829349 0.011348589393369836 0 -0.0014457981806854268 0.010367679093169985 0 -0.0012217703859546173 0.010540338315033626 0 0.00023652780443778634 0.010557604245299168 0 -0.0012217703859546173 0.010540338315033626 0 -0.0010060128072740041 0.011944989306279383 0 -0.00031113645549829349 0.011348589393369836 0 -0.0010060128072740041 0.011944989306279383 0 -0.00031113645549829349 0.011348589393369836 0 -0.00028622475701110827 0.012581290015751364 0 -0.0010719592684484355 0.013080987229793487 0 -0.0010060128072740041 0.011944989306279383 0 -0.00028622475701110827 0.012581290015751364 0 -0.001622595684917662 0.012575996836429718 0 -0.0010060128072740041 0.011944989306279383 0 -0.0023250242055234131 0.011960490935215676 0 -0.0010719592684484355 0.013080987229793487 0 -0.001622595684917662 0.012575996836429718 0 -0.0010060128072740041 0.011944989306279383 0 -0.0012217703859546173 0.010540338315033626 0 -0.0010060128072740041 0.011944989306279383 0 -0.0023250242055234131 0.011960490935215676 0 -0.0020939387572116433 0.013292941339013041 0 -0.001622595684917662 0.012575996836429718 0 -0.0023250242055234131 0.011960490935215676 0 -0.0016773289947199473 0.010765430336109116 0 -0.0012799517929250024 0.011619950297805213 0 0.001069590388596396 0.011494134997011803 0 0.0016099625507461765 0.012240687288323837 0 0.0017840917204623174 0.011748840946493472 0 0.0015340393573831518 0.011012878449607027 0 0.001069590388596396 0.011494134997011803 0 0.0017840917204623174 0.011748840946493472 0 0.0015340393573831518 0.011012878449607027 0 0.001069590388596396 0.011494134997011803 0 0.0010116404525726522 0.010768832329983668 0 0.001069590388596396 0.011494134997011803 0 0.0010116404525726522 0.010768832329983668 0 0.00023652780443778634 0.010557604245299168 0 0.001069590388596396 0.011494134997011803 0 0.00023652780443778634 0.010557604245299168 0 0.00039592053493011845 0.011850519755034983 0 0.00023652780443778634 0.010557604245299168 0 -0.00031113645549829349 0.011348589393369836 0 0.00039592053493011845 0.011850519755034983 0 -0.00031113645549829349 0.011348589393369836 0 0.00039592053493011845 0.011850519755034983 0 -0.00028622475701110827 0.012581290015751364 0 0.00046800106424140913 0.012852382929176698 0 0.00039592053493011845 0.011850519755034983 0 -0.00028622475701110827 0.012581290015751364 0 0.00046800106424140913 0.012852382929176698 0 0.00039592053493011845 0.011850519755034983 0 0.00099381480468986442 0.012424571936973227 0 0.001069590388596396 0.011494134997011803 0 0.00039592053493011845 0.011850519755034983 0 0.00099381480468986442 0.012424571936973227 0 0.001069590388596396 0.011494134997011803 0 0.00099381480468986442 0.012424571936973227 0 0.0016099625507461765 0.012240687288323837 0 0.0015707615312581459 0.012768450497607246 0 0.00099381480468986442 0.012424571936973227 0 0.0016099625507461765 0.012240687288323837 0 0.0018435890378556185 0.012591619157276043 0 0.0020973958465724915 0.012384073079482057 0 0.0016099625507461765 0.012240687288323837 0 0.0015707615312581459 0.012768450497607246 0 0.0018435890378556185 0.012591619157276043 0 0.0016099625507461765 0.012240687288323837 0 0.0020766027242808118 0.012970606935482454 0 0.0018435890378556185 0.012591619157276043 0 0.0020973958465724915 0.012384073079482057 0 0.0020973958465724915 0.012384073079482057 0 0.0017840917204623174 0.011748840946493472 0 0.0021408280328478499 0.011860612685962854 0 0.0020973958465724915 0.012384073079482057 0 0.0016099625507461765 0.012240687288323837 0 0.0017840917204623174 0.011748840946493472 0 0.0020766027242808118 0.012970606935482454 0 0.0020973958465724915 0.012384073079482057 0 0.0025785909765006164 0.012327836086656501 0 0.0020973958465724915 0.012384073079482057 0 0.0025785909765006164 0.012327836086656501 0 0.0023463508248122472 0.012064888856662428 0 0.0020973958465724915 0.012384073079482057 0 0.0023463508248122472 0.012064888856662428 0 0.0021408280328478499 0.011860612685962854 0 0.0025785909765006164 0.012327836086656501 0 0.002471549366498212 0.012011099301894064 0 0.0023463508248122472 0.012064888856662428 0 0.0025785909765006164 0.012327836086656501 0 0.002471549366498212 0.012011099301894064 0 0.0025430253126521611 0.012020464637139147 0 0.002471549366498212 0.012011099301894064 0 0.0023463508248122472 0.012064888856662428 0 0.0023200029103773623 0.011817496771772991 0 0.0023463508248122472 0.012064888856662428 0 0.0023200029103773623 0.011817496771772991 0 0.0021408280328478499 0.011860612685962854 0 0.0023200029103773623 0.011817496771772991 0 0.0020358437015514127 0.011451049503766545 0 0.0023006962692915141 0.011659217592800962 0 0.0023200029103773623 0.011817496771772991 0 0.0021408280328478499 0.011860612685962854 0 0.0020358437015514127 0.011451049503766545 0 0.002471549366498212 0.012011099301894064 0 0.0023200029103773623 0.011817496771772991 0 0.0024692776390746159 0.011916849288698543 0 0.0023200029103773623 0.011817496771772991 0 0.0024692776390746159 0.011916849288698543 0 0.0023006962692915141 0.011659217592800962 0 0.002471549366498212 0.012011099301894064 0 0.0024692776390746159 0.011916849288698543 0 0.0025430253126521611 0.012020464637139147 0 0.0017840917204623174 0.011748840946493472 0 0.0021408280328478499 0.011860612685962854 0 0.0020358437015514127 0.011451049503766545 0 0.0015340393573831518 0.011012878449607027 0 0.0017840917204623174 0.011748840946493472 0 0.0020358437015514127 0.011451049503766545 0 0.0015340393573831518 0.011012878449607027 0 0.0020358437015514127 0.011451049503766545 0 0.001691386697259326 0.010654813491902846 0 0.0020358437015514127 0.011451049503766545 0 0.001691386697259326 0.010654813491902846 0 0.0021325772382933903 0.011248715316435278 0 0.0020358437015514127 0.011451049503766545 0 0.0023006962692915141 0.011659217592800962 0 0.0021325772382933903 0.011248715316435278 0 0.0023006962692915141 0.011659217592800962 0 0.0024355077725690313 0.01184489989754575 0 0.0021325772382933903 0.011248715316435278 0 0.0024692776390746159 0.011916849288698543 0 0.0023006962692915141 0.011659217592800962 0 0.0024355077725690313 0.01184489989754575 0 0.0024692776390746159 0.011916849288698543 0 0.0024355077725690313 0.01184489989754575 0 0.0025591194825411441 0.012127970722152914 0 0.0024355077725690313 0.01184489989754575 0 0.002348789204531492 0.011635109568456283 0 0.0021325772382933903 0.011248715316435278 0 0.0021325772382933903 0.011248715316435278 0 0.0021283296703914064 0.011045227577360903 0 0.0018181783378249119 0.010456814570118943 0 0.002348789204531492 0.011635109568456283 0 0.0021325772382933903 0.011248715316435278 0 0.0021283296703914064 0.011045227577360903 0 0.002348789204531492 0.011635109568456283 0 0.0021283296703914064 0.011045227577360903 0 0.0024170957921133183 0.011617454065519343 0 0.0020808431819055828 0.010692510562535749 0 0.0021283296703914064 0.011045227577360903 0 0.0024170957921133183 0.011617454065519343 0 0.0020808431819055828 0.010692510562535749 0 0.0021283296703914064 0.011045227577360903 0 0.0018181783378249119 0.010456814570118943 0 0.0014310327688925059 0.0095920960746012536 0 0.0014411658273259904 0.0099632869597095271 0 0.0018181783378249119 0.010456814570118943 0 0.0014411658273259904 0.0099632869597095271 0 0.001691386697259326 0.010654813491902846 0 0.0018181783378249119 0.010456814570118943 0 0.001691386697259326 0.010654813491902846 0 0.0021325772382933903 0.011248715316435278 0 0.0018181783378249119 0.010456814570118943 0 0.0028890630389554568 0.01178165763319455 0 0.0027392224727486518 0.012705376168851127 0 0.0037325980297013201 0.01342771516680121 0 0.0027392224727486518 0.012705376168851127 0 0.0025426457651899852 0.013711365045754377 0 0.0037325980297013201 0.01342771516680121 0 0.0028890630389554568 0.01178165763319455 0 0.0027392224727486518 0.012705376168851127 0 0.0024170957921133183 0.011617454065519343 0 0.002348789204531492 0.011635109568456283 0 0.0024170957921133183 0.011617454065519343 0 0.0025749144749165689 0.012358229163771915 0 0.0027392224727486518 0.012705376168851127 0 0.0024170957921133183 0.011617454065519343 0 0.0025749144749165689 0.012358229163771915 0 0.0025749144749165689 0.012358229163771915 0 0.0025868391679888039 0.012495478112542707 0 0.0025426457651899852 0.013711365045754377 0 0.0024355077725690313 0.01184489989754575 0 0.002348789204531492 0.011635109568456283 0 0.0025749144749165689 0.012358229163771915 0 0.0024355077725690313 0.01184489989754575 0 0.0025749144749165689 0.012358229163771915 0 0.0025591194825411441 0.012127970722152914 0 0.0025749144749165689 0.012358229163771915 0 0.0025591194825411441 0.012127970722152914 0 0.0025868391679888039 0.012495478112542707 0 0.0025591194825411441 0.012127970722152914 0 0.0025868391679888039 0.012495478112542707 0 0.0025785752349949806 0.01214648606567308 0 0.0027392224727486518 0.012705376168851127 0 0.0025749144749165689 0.012358229163771915 0 0.0025426457651899852 0.013711365045754377 0 0.0025868391679888039 0.012495478112542707 0 0.0025426457651899852 0.013711365045754377 0 0.0025079485699581678 0.011987692529509776 0 0.0021952329546619533 0.013680208076077723 0 0.0004669824074997771 0.01461990647689697 0 -0.0021689149929738994 0.017816785932489424 0 -0.0014185017210103911 0.018536618132787671 0 -1.2224398882563461e-05 0.017707053022665672 0 -0.001957409848910813 0.01778396181675701 0 0.0021383622839556489 0.017188681328892546 0 -0.0021689149929738994 0.017816785932489424 0 -0.0019726813716419785 0.017250916675515249 0 0.0045480333282595072 0.016658624267928378 0 0.0025426457651899852 0.013711365045754377 0 -0.0019726813716419785 0.017250916675515249 0 0.0045480333282595072 0.016658624267928378 0 -0.0043447536602672816 0.019428432016005952 0 -0.0021689149929738994 0.017816785932489424 0 -0.0019726813716419785 0.017250916675515249 0 0.0025785909765006164 0.012327836086656501 0 0.0025430253126521611 0.012020464637139147 0 0.0025079485699581678 0.011987692529509776 0 0.0024692776390746159 0.011916849288698543 0 0.0025591194825411441 0.012127970722152914 0 0.0025430253126521611 0.012020464637139147 0 0.0025591194825411441 0.012127970722152914 0 0.0025430253126521611 0.012020464637139147 0 0.0025785752349949806 0.01214648606567308 0 0.0025430253126521611 0.012020464637139147 0 0.0025785752349949806 0.01214648606567308 0 0.0025079485699581678 0.011987692529509776 0 0.0025868391679888039 0.012495478112542707 0 0.0025785752349949806 0.01214648606567308 0 0.0025079485699581678 0.011987692529509776 0 -0.0012724014804104532 0.016207134179118805 0 0.0004669824074997771 0.01461990647689697 0 -0.0043447536602672816 0.019428432016005952 0 -0.0021689149929738994 0.017816785932489424 0 -0.0026672782851937422 0.019551250844058485 0 -0.0021689149929738994 0.017816785932489424 0 -0.0026672782851937422 0.019551250844058485 0 -0.0014185017210103911 0.018536618132787671 0 -0.0043480668987178634 0.020781952995120607 0 -0.0043447536602672816 0.019428432016005952 0 -0.0026672782851937422 0.019551250844058485 0 -0.0026672782851937422 0.019551250844058485 0 -0.0014185017210103911 0.018536618132787671 0 -0.0010716608490604859 0.019318978037470184 0 -0.0021451037910000729 0.020739694604985065 0 -0.0026672782851937422 0.019551250844058485 0 -0.0010716608490604859 0.019318978037470184 0 -0.0014185017210103911 0.018536618132787671 0 -0.0010716608490604859 0.019318978037470184 0 -1.2224398882563461e-05 0.017707053022665672 0 -0.00084527661620710797 0.020993460895962369 0 -0.0010716608490604859 0.019318978037470184 0 0.00024074302356424178 0.019462755160191893 0 -0.0010716608490604859 0.019318978037470184 0 0.00024074302356424178 0.019462755160191893 0 -1.2224398882563461e-05 0.017707053022665672 0 -1.2224398882563461e-05 0.017707053022665672 0 0.0018698868210598415 0.019226049372551301 0 0.0025759060417765984 0.01750694094890801 0 0.0021383622839556489 0.017188681328892546 0 0.0039978161719522211 0.016908207346851004 0 0.00073209147562759691 0.020529912778022342 0 0.00024074302356424178 0.019462755160191893 0 0.0018698868210598415 0.019226049372551301 0 0.00024074302356424178 0.019462755160191893 0 -1.2224398882563461e-05 0.017707053022665672 0 0.0018698868210598415 0.019226049372551301 0 0.0018698868210598415 0.019226049372551301 0 0.0030828818888058878 0.018908309005144418 0 0.0025759060417765984 0.01750694094890801 0 0.0027724660401863841 0.020300645241497526 0 0.0018698868210598415 0.019226049372551301 0 0.0030828818888058878 0.018908309005144418 0 0.0030828818888058878 0.018908309005144418 0 0.0025759060417765984 0.01750694094890801 0 0.0035463620522105835 0.018306466541675157 0 0.0031820888946566339 0.018833081090602624 0 0.0030828818888058878 0.018908309005144418 0 0.0035463620522105835 0.018306466541675157 0 0.0025759060417765984 0.01750694094890801 0 0.0035463620522105835 0.018306466541675157 0 0.0039786370894792531 0.017342052526118559 0 0.0039978161719522211 0.016908207346851004 0 0.0040318092819218868 0.017247221228015606 0 0.0054253192771679159 0.016193503698149682 0 0.0045995359976774399 0.017262909026332766 0 0.0053358443118861464 0.016254137408225913 0 0.0054253192771679159 0.016193503698149682 0 0.0053358443118861464 0.016254137408225913 0 0.005082148561261276 0.015237012191277563 0 0.0054253192771679159 0.016193503698149682 0 0.0045995359976774399 0.017262909026332766 0 0.0039786370894792531 0.017342052526118559 0 0.0045995359976774399 0.017262909026332766 0 0.004286163353722343 0.018429878248499208 0 0.0048607697770824921 0.017481297374503338 0 0.0045995359976774399 0.017262909026332766 0 0.0053358443118861464 0.016254137408225913 0 0.0048607697770824921 0.017481297374503338 0 0.0053358443118861464 0.016254137408225913 0 0.0058340395644363632 0.015434458887089761 0 0.0053275835090725709 0.016810485067210553 0 0.0053358443118861464 0.016254137408225913 0 0.005082148561261276 0.015237012191277563 0 0.0058340395644363632 0.015434458887089761 0 0.0025426457651899852 0.013711365045754377 0 0.0037325980297013201 0.01342771516680121 0 0.005082148561261276 0.015237012191277563 0 0.0037325980297013201 0.01342771516680121 0 0.005082148561261276 0.015237012191277563 0 0.0058340395644363632 0.015434458887089761 0 0.0025426457651899852 0.013711365045754377 0 0.0045480333282595072 0.016658624267928378 0 0.005082148561261276 0.015237012191277563 0 0.0045480333282595072 0.016658624267928378 0 0.0054253192771679159 0.016193503698149682 0 0.005082148561261276 0.015237012191277563 0 0.0016328078709906657 0.018353581825877589 0 0.0018230919590530531 0.018494087618591833 0 0.0021822626177658601 0.0187659253594482 0 0.0017388779441422765 0.018371516564741907 0 0.0027001778112541804 0.018219473367539932 0 0.0016328078709906657 0.018353581825877589 0 0.0032344114282441437 0.017597043174420499 0 0.0027840730089153417 0.018239309019736936 0 0.0018230919590530531 0.018494087618591833 0 0.0021344811559990641 0.018707970142909289 0 0.0021822626177658601 0.0187659253594482 0 0.0032664204683826455 0.018990478910562485 0 0.0027001778112541804 0.018219473367539932 0 0.0026211620922628699 0.019511147253870691 0 0.0021344811559990641 0.018707970142909289 0 0.0021822626177658601 0.0187659253594482 0 0.0032344114282441437 0.017597043174420499 0 0.003392744604856268 0.017903072439623923 0 0.0027840730089153417 0.018239309019736936 0 0.0032344114282441437 0.017597043174420499 0 0.003392744604856268 0.017903072439623923 0 0.0038194093338123273 0.017838870847802293 0 0.0038194093338123273 0.017838870847802293 0 0.0039786370894792531 0.017342052526118559 0 0.0035253352185902337 0.018030322621250226 0 0.003392744604856268 0.017903072439623923 0 0.0038194093338123273 0.017838870847802293 0 0.0035253352185902337 0.018030322621250226 0 0.004036500260176352 0.018426205665161732 0 0.0032344114282441437 0.017597043174420499 0 0.0038194093338123273 0.017838870847802293 0 0.004036500260176352 0.018426205665161732 0 0.0038194093338123273 0.017838870847802293 0 0.0036127509516481432 0.018431078512249236 0 0.0038194093338123273 0.017838870847802293 0 0.0036127509516481432 0.018431078512249236 0 0.0035463620522105835 0.018306466541675157 0 0.0031820888946566339 0.018833081090602624 0 0.0036127509516481432 0.018431078512249236 0 0.0035463620522105835 0.018306466541675157 0 0.0038194093338123273 0.017838870847802293 0 0.0035463620522105835 0.018306466541675157 0 0.0039786370894792531 0.017342052526118559 0 0.0039786370894792531 0.017342052526118559 0 0.004021276274939152 0.017882183168940718 0 0.0035253352185902337 0.018030322621250226 0 0.0045995359976774399 0.017262909026332766 0 0.0039786370894792531 0.017342052526118559 0 0.004021276274939152 0.017882183168940718 0 0.004021276274939152 0.017882183168940718 0 0.0036919548595950439 0.018731480389981514 0 0.004286163353722343 0.018429878248499208 0 0.0045995359976774399 0.017262909026332766 0 0.004021276274939152 0.017882183168940718 0 0.004286163353722343 0.018429878248499208 0 0.0036919548595950439 0.018731480389981514 0 0.0035253352185902337 0.018030322621250226 0 0.003077479069572064 0.018923342058662085 0 0.004021276274939152 0.017882183168940718 0 0.0036919548595950439 0.018731480389981514 0 0.0035253352185902337 0.018030322621250226 0 0.0035253352185902337 0.018030322621250226 0 0.0027840730089153417 0.018239309019736936 0 0.0026055389849101531 0.018686717063854802 0 0.003392744604856268 0.017903072439623923 0 0.0035253352185902337 0.018030322621250226 0 0.0027840730089153417 0.018239309019736936 0 0.0035253352185902337 0.018030322621250226 0 0.0026055389849101531 0.018686717063854802 0 0.003077479069572064 0.018923342058662085 0 0.0026055389849101531 0.018686717063854802 0 0.003077479069572064 0.018923342058662085 0 0.0019917444259082407 0.019742110070706944 0 0.0026055389849101531 0.018686717063854802 0 0.0018058430509812033 0.018962047386212513 0 0.0019917444259082407 0.019742110070706944 0 0.0027840730089153417 0.018239309019736936 0 0.0026055389849101531 0.018686717063854802 0 0.0018058430509812033 0.018962047386212513 0 0.0016328078709906657 0.018353581825877589 0 0.0027840730089153417 0.018239309019736936 0 0.0018058430509812033 0.018962047386212513 0 0.00032059869112562874 0.022682337542972327 0 0.0023203292056244444 0.02100081569178076 0 0.0022619640586491615 0.02250649707527877 0 0.00032059869112562874 0.022682337542972327 0 0.0019917444259082407 0.019742110070706944 0 0.0023203292056244444 0.02100081569178076 0 0.00029617123701640154 0.020194139384188989 0 0.0018058430509812033 0.018962047386212513 0 0.0019917444259082407 0.019742110070706944 0 0.0019917444259082407 0.019742110070706944 0 0.0031819535402638956 0.019746081479215829 0 0.0023203292056244444 0.02100081569178076 0 0.003077479069572064 0.018923342058662085 0 0.0019917444259082407 0.019742110070706944 0 0.0031819535402638956 0.019746081479215829 0 0.0036919548595950439 0.018731480389981514 0 0.003077479069572064 0.018923342058662085 0 0.0031819535402638956 0.019746081479215829 0 0.0031819535402638956 0.019746081479215829 0 0.0023203292056244444 0.02100081569178076 0 0.0035231507712563431 0.020839468631613161 0 0.0023203292056244444 0.02100081569178076 0 0.0035231507712563431 0.020839468631613161 0 0.0022619640586491615 0.02250649707527877 0 0.0035231507712563431 0.020839468631613161 0 0.0040899383859775793 0.020333261692190401 0 0.004181106420523939 0.021421879531417019 0 0.0040899383859775793 0.020333261692190401 0 0.0041017127301886487 0.020301323929665091 0 0.004181106420523939 0.021421879531417019 0 0.0035231507712563431 0.020839468631613161 0 0.0040899383859775793 0.020333261692190401 0 0.0039294196728827113 0.019535143545706259 0 0.0031819535402638956 0.019746081479215829 0 0.0035231507712563431 0.020839468631613161 0 0.0039294196728827113 0.019535143545706259 0 0.0036919548595950439 0.018731480389981514 0 0.0039294196728827113 0.019535143545706259 0 0.004286163353722343 0.018429878248499208 0 0.0036919548595950439 0.018731480389981514 0 0.0031819535402638956 0.019746081479215829 0 0.0039294196728827113 0.019535143545706259 0 0.004286163353722343 0.018429878248499208 0 0.0043167174236627996 0.019395041574142506 0 0.0046408302841898065 0.018518951454998666 0 0.0039294196728827113 0.019535143545706259 0 0.004286163353722343 0.018429878248499208 0 0.0043167174236627996 0.019395041574142506 0 0.0040899383859775793 0.020333261692190401 0 0.0039294196728827113 0.019535143545706259 0 0.0043167174236627996 0.019395041574142506 0 0.0040899383859775793 0.020333261692190401 0 0.0043167174236627996 0.019395041574142506 0 0.0041017127301886487 0.020301323929665091 0 0.0043167174236627996 0.019395041574142506 0 0.0044050608091701334 0.019777957955357226 0 0.0041017127301886487 0.020301323929665091 0 0.0044050608091701334 0.019777957955357226 0 0.0041017127301886487 0.020301323929665091 0 0.0042937226981601901 0.020270414922132197 0 0.0041017127301886487 0.020301323929665091 0 0.0042937226981601901 0.020270414922132197 0 0.0039688304762399021 0.020389040308114149 0 0.0042937226981601901 0.020270414922132197 0 0.0046862775581230703 0.021019378769561007 0 0.004166832836309935 0.021053679018921564 0 0.0042937226981601901 0.020270414922132197 0 0.0039037337568794761 0.020711555710205307 0 0.004166832836309935 0.021053679018921564 0 0.0042937226981601901 0.020270414922132197 0 0.0039037337568794761 0.020711555710205307 0 0.0039688304762399021 0.020389040308114149 0 0.0027338010703847572 0.024429124453193046 0 0.001343002648497823 0.028104189129288623 0 0.0039037337568794761 0.020711555710205307 0 0.0036604217667357739 0.020352852653310244 0 0.0039688304762399021 0.020389040308114149 0 -0.00085674564603455648 0.032108951130090491 0 -0.0013202781797544286 0.032996648197348835 0 -0.00087207161319783147 0.033395135738724255 0 0.0039037337568794761 0.020711555710205307 0 0.0036604217667357739 0.020352852653310244 0 0.0035217000657333034 0.021209487430931241 0 0.0041017127301886487 0.020301323929665091 0 0.0036604217667357739 0.020352852653310244 0 0.0039688304762399021 0.020389040308114149 0 0.0048802948396691886 0.02000281538078142 0 0.0027338010703847572 0.024429124453193046 0 0.0041017127301886487 0.020301323929665091 0 0.0041798658520730341 0.02115359215591725 0 0.004181106420523939 0.021421879531417019 0 0.0050540386298256763 0.023711065108947011 0 0.004181106420523939 0.021421879531417019 0 0.0034788780928698979 0.023097327879635837 0 0.0027338010703847572 0.024429124453193046 0 0.0036974220035189465 0.021556720050745427 0 0.0022619640586491615 0.02250649707527877 0 0.0031183804496672982 0.025683480129281098 0 0.00079241479011051908 0.023461857466042225 0 0.0035231507712563431 0.020839468631613161 0 0.004181106420523939 0.021421879531417019 0 0.0034788780928698979 0.023097327879635837 0 0.0035231507712563431 0.020839468631613161 0 0.0034788780928698979 0.023097327879635837 0 0.0022619640586491615 0.02250649707527877 0 0.0034788780928698979 0.023097327879635837 0 0.0022619640586491615 0.02250649707527877 0 0.0031183804496672982 0.025683480129281098 0 0.0050540386298256763 0.023711065108947011 0 0.0034788780928698979 0.023097327879635837 0 0.0031183804496672982 0.025683480129281098 0 0.0027338010703847572 0.024429124453193046 0 -0.0007623767065831474 0.031803779524417028 0 0.0050540386298256763 0.023711065108947011 0 0.0031183804496672982 0.025683480129281098 0 0.0012049354917561947 0.029341476527168668 0 -0.00085674564603455648 0.032108951130090491 0 -0.0013202781797544286 0.032996648197348835 0 -0.0019754326000150312 0.033002720805058269 0 -0.0013202781797544286 0.032996648197348835 0 -0.0019754326000150312 0.033002720805058269 0 -0.0015833346361862966 0.033443284462634802 0 -0.0011076271948820551 0.028521952155324496 0 0.0031183804496672982 0.025683480129281098 0 0.0012049354917561947 0.029341476527168668 0 -0.00013576473750990725 0.026424645888219075 0 0.0030717971155827689 0.025794013090840815 0 0.00017792126604423582 0.02436819004596695 0 0.0031183804496672982 0.025683480129281098 0 0.00079241479011051908 0.023461857466042225 0 0.00032059869112562874 0.022682337542972327 0 0.0022619640586491615 0.02250649707527877 0 0.00079241479011051908 0.023461857466042225 0 0.0058764405739905766 0.017522734828267692 0 0.0062566697221963074 0.018957123323628096 0 0.0071278863793894599 0.01885420176468279 0 0.0058764405739905766 0.017522734828267692 0 0.0069443130138340265 0.017559502286047253 0 0.0071852137094310436 0.017975471104006904 0 0.0059614066568879241 0.017557581788047019 0 0.0071739922335798617 0.018313056715657729 0 0.0058764405739905766 0.017522734828267692 0 0.0055340952041189519 0.018890818049598947 0 0.0062566697221963074 0.018957123323628096 0 0.0069443130138340265 0.017559502286047253 0 0.0072610678841692443 0.017393731402696799 0 0.0072397427505275719 0.017108011593091603 0 0.0069715491350470738 0.017554079531662267 0 0.0071739922335798617 0.018313056715657729 0 0.0066883736351495146 0.016606132936051031 0 0.0072610678841692443 0.017393731402696799 0 0.0072397427505275719 0.017108011593091603 0 0.0042361045835143428 0.010970081622972676 0 0.0038660676102835051 0.012488294213618517 0 0.0058340395644363632 0.015434458887089761 0 0.0069443130138340265 0.017559502286047253 0 0.0072610678841692443 0.017393731402696799 0 0.0058340395644363632 0.015434458887089761 0 0.0055826685453750444 0.014152127149461723 0 0.005803043652021049 0.015185461644605727 0 0.0037325980297013201 0.01342771516680121 0 0.0038660676102835051 0.012488294213618517 0 0.0058340395644363632 0.015434458887089761 0 0.0058764405739905766 0.017522734828267692 0 0.0069443130138340265 0.017559502286047253 0 0.0058340395644363632 0.015434458887089761 0 0.0058764405739905766 0.017522734828267692 0 0.0058340395644363632 0.015434458887089761 0 0.0053275835090725709 0.016810485067210553 0 0.0053358443118861464 0.016254137408225913 0 0.0053275835090725709 0.016810485067210553 0 0.0048607697770824921 0.017481297374503338 0 0.0053275835090725709 0.016810485067210553 0 0.0048607697770824921 0.017481297374503338 0 0.0051004188823478673 0.018188388960765123 0 0.0058764405739905766 0.017522734828267692 0 0.0053275835090725709 0.016810485067210553 0 0.0051004188823478673 0.018188388960765123 0 0.0048607697770824921 0.017481297374503338 0 0.0046408302841898065 0.018518951454998666 0 0.0051004188823478673 0.018188388960765123 0 0.004286163353722343 0.018429878248499208 0 0.0048607697770824921 0.017481297374503338 0 0.0046408302841898065 0.018518951454998666 0 0.0043167174236627996 0.019395041574142506 0 0.0046408302841898065 0.018518951454998666 0 0.0047120388993675214 0.019093494108916264 0 0.0046408302841898065 0.018518951454998666 0 0.0047120388993675214 0.019093494108916264 0 0.0051004188823478673 0.018188388960765123 0 0.0047120388993675214 0.019093494108916264 0 0.0051004188823478673 0.018188388960765123 0 0.0050517731823195907 0.019258407076527005 0 0.0043167174236627996 0.019395041574142506 0 0.0044050608091701334 0.019777957955357226 0 0.0047120388993675214 0.019093494108916264 0 0.0058764405739905766 0.017522734828267692 0 0.0051004188823478673 0.018188388960765123 0 0.0055340952041189519 0.018890818049598947 0 0.0051004188823478673 0.018188388960765123 0 0.0055340952041189519 0.018890818049598947 0 0.0050517731823195907 0.019258407076527005 0 0.0055340952041189519 0.018890818049598947 0 0.005294159350421 0.019593784213624541 0 0.005908833738752498 0.019526337917069862 0 0.0055340952041189519 0.018890818049598947 0 0.0050517731823195907 0.019258407076527005 0 0.005294159350421 0.019593784213624541 0 0.0050517731823195907 0.019258407076527005 0 0.005294159350421 0.019593784213624541 0 0.0050215314414637944 0.019871867590918423 0 0.005294159350421 0.019593784213624541 0 0.0051469987562516801 0.019915650909031697 0 0.0052709559716148631 0.019972451232375555 0 0.005294159350421 0.019593784213624541 0 0.0050215314414637944 0.019871867590918423 0 0.0051469987562516801 0.019915650909031697 0 0.005294159350421 0.019593784213624541 0 0.0052709559716148631 0.019972451232375555 0 0.005908833738752498 0.019526337917069862 0 0.0042937226981601901 0.020270414922132197 0 0.0050215314414637944 0.019871867590918423 0 0.0051480532011309145 0.020046313773199157 0 0.0042937226981601901 0.020270414922132197 0 0.0050215314414637944 0.019871867590918423 0 0.0046850471206512402 0.019675249437915692 0 0.0044050608091701334 0.019777957955357226 0 0.0042937226981601901 0.020270414922132197 0 0.0046850471206512402 0.019675249437915692 0 0.0044050608091701334 0.019777957955357226 0 0.0047120388993675214 0.019093494108916264 0 0.0046850471206512402 0.019675249437915692 0 0.0047120388993675214 0.019093494108916264 0 0.0050517731823195907 0.019258407076527005 0 0.0046850471206512402 0.019675249437915692 0 0.0050517731823195907 0.019258407076527005 0 0.0050215314414637944 0.019871867590918423 0 0.0046850471206512402 0.019675249437915692 0 0.0042937226981601901 0.020270414922132197 0 0.0052527458666092597 0.020419668326289924 0 0.0046862775581230703 0.021019378769561007 0 0.0048862049549059832 0.020667335798056147 0 0.0040030447973904244 0.018288394930090563 0 0.0040030447973904244 0.018288394930090563 0 0.0022015246486888338 0.016495050201114046 0 0.00074942625310612729 0.011615826196119972 0 0.0006658046865571167 0.012036623583485111 0 -1.1661703148323347e-05 0.012001115316759315 0 0.0040030447973904244 0.018288394930090563 0 0.0038671658084631871 0.016096565115606417 0 0.00074942625310612729 0.011615826196119972 0 0.0010345247708798044 0.011996013799443006 0 0.0014167816941968181 0.01190765974723969 0 0.0052709559716148631 0.019972451232375555 0 0.0051130244277042642 0.020127176327747204 0 0.0063333686094849935 0.02029668507499012 0 0.0051469987562516801 0.019915650909031697 0 0.0052709559716148631 0.019972451232375555 0 0.0051480532011309145 0.020046313773199157 0 0.004078864923530854 0.018538957707335293 0 0.0040030447973904244 0.018288394930090563 0 0.0050215314414637944 0.019871867590918423 0 0.0051469987562516801 0.019915650909031697 0 0.0051480532011309145 0.020046313773199157 0 0.00074942625310612729 0.011615826196119972 0 0.0010345247708798044 0.011996013799443006 0 0.0006658046865571167 0.012036623583485111 0 0.0010345247708798044 0.011996013799443006 0 0.0014167816941968181 0.01190765974723969 0 0.0012774538115810873 0.012160712179372011 0 0.0052709559716148631 0.019972451232375555 0 0.0063333686094849935 0.02029668507499012 0 0.005908833738752498 0.019526337917069862 0 0.005908833738752498 0.019526337917069862 0 0.0066426821789811758 0.019639920108278284 0 0.0062566697221963074 0.018957123323628096 0 0.0063333686094849935 0.02029668507499012 0 0.005908833738752498 0.019526337917069862 0 0.0066426821789811758 0.019639920108278284 0 0.0066426821789811758 0.019639920108278284 0 0.0062566697221963074 0.018957123323628096 0 0.0071278863793894599 0.01885420176468279 0 0.0055340952041189519 0.018890818049598947 0 0.005908833738752498 0.019526337917069862 0 0.0062566697221963074 0.018957123323628096 0 0.0066883736351495146 0.016606132936051031 0 0.0065657737592307308 0.015281694232065992 0 0.0072397427505275719 0.017108011593091603 0 0.005425451635472203 0.015296318696906376 0 0.0071739922335798617 0.018313056715657729 0 0.0066426821789811758 0.019639920108278284 0 0.0071278863793894599 0.01885420176468279 0 0.0075195821620925507 0.020481796021372012 0 0.0071739922335798617 0.018313056715657729 0 0.0034592683896505889 0.014082019632398442 0 0.0042891501632301961 0.015320883715230679 0 0.0067736523641831843 0.017430238219387967 0 0.0055888173670568531 0.013940415146984944 0 0.0063333686094849935 0.02029668507499012 0 0.0066426821789811758 0.019639920108278284 0 0.0075195821620925507 0.020481796021372012 0 0.0038671658084631871 0.016096565115606417 0 0.0034592683896505889 0.014082019632398442 0 0.0014167816941968181 0.01190765974723969 0 0.0018054657338400901 0.012167377306703708 0 0.0015666194791127657 0.012441006969999112 0 0.0018054657338400901 0.012167377306703708 0 0.0015666194791127657 0.012441006969999112 0 0.0016977175025216687 0.012686228160022866 0 0.0034592683896505889 0.014082019632398442 0 0.00077926151107981221 0.010533495140430369 0 0.0017498706220892596 0.012785925454042529 0 0.0015666194791127657 0.012441006969999112 0 0.0016977175025216687 0.012686228160022866 0 0.0017498706220892596 0.012785925454042529 0 0.0017468100915917061 0.012188034637987006 0 0.0016977175025216687 0.012686228160022866 0 0.0017498706220892596 0.012785925454042529 0 0.0012335563684966002 0.012842230816359483 0 0.0016777148348703446 0.013428262669097336 0 0.0017498706220892596 0.012785925454042529 0 0.0015666194791127657 0.012441006969999112 0 0.0012335563684966002 0.012842230816359483 0 0.0014167816941968181 0.01190765974723969 0 0.0015666194791127657 0.012441006969999112 0 0.0012774538115810873 0.012160712179372011 0 0.0015666194791127657 0.012441006969999112 0 0.00099135539635175477 0.012280968615602529 0 0.0012335563684966002 0.012842230816359483 0 0.0015666194791127657 0.012441006969999112 0 0.0012774538115810873 0.012160712179372011 0 0.00099135539635175477 0.012280968615602529 0 0.0010345247708798044 0.011996013799443006 0 0.0012774538115810873 0.012160712179372011 0 0.00099135539635175477 0.012280968615602529 0 0.0010345247708798044 0.011996013799443006 0 0.00099135539635175477 0.012280968615602529 0 0.0006658046865571167 0.012036623583485111 0 0.00099135539635175477 0.012280968615602529 0 0.00055018262200262798 0.012382045240975895 0 0.0012335563684966002 0.012842230816359483 0 0.00099135539635175477 0.012280968615602529 0 0.0006658046865571167 0.012036623583485111 0 0.00055018262200262798 0.012382045240975895 0 -1.1661703148323347e-05 0.012001115316759315 0 0.00032229471114466067 0.01290784474842761 0 -0.0010786050560766655 0.012647109224898591 0 0.00055018262200262798 0.012382045240975895 0 -1.1661703148323347e-05 0.012001115316759315 0 0.00032229471114466067 0.01290784474842761 0 0.0006658046865571167 0.012036623583485111 0 0.00055018262200262798 0.012382045240975895 0 -1.1661703148323347e-05 0.012001115316759315 0 0.00032229471114466067 0.01290784474842761 0 -2.8151911050519194e-05 0.0140187397641745 0 -0.0010786050560766655 0.012647109224898591 0 0.00032229471114466067 0.01290784474842761 0 0.0012335563684966002 0.012842230816359483 0 0.00096631727477856141 0.013664176714567555 0 0.00055018262200262798 0.012382045240975895 0 0.00032229471114466067 0.01290784474842761 0 0.0012335563684966002 0.012842230816359483 0 0.00096631727477856141 0.013664176714567555 0 0.0010756843923684291 0.015478264802294675 0 0.0016777148348703446 0.013428262669097336 0 0.0012335563684966002 0.012842230816359483 0 0.00096631727477856141 0.013664176714567555 0 0.0016777148348703446 0.013428262669097336 0 0.00096631727477856141 0.013664176714567555 0 -2.8151911050519194e-05 0.0140187397641745 0 0.0010756843923684291 0.015478264802294675 0 0.00032229471114466067 0.01290784474842761 0 0.00096631727477856141 0.013664176714567555 0 -2.8151911050519194e-05 0.0140187397641745 0 -2.8151911050519194e-05 0.0140187397641745 0 0.0010756843923684291 0.015478264802294675 0 -0.00018319319695400826 0.0166800632127811 0 -2.8151911050519194e-05 0.0140187397641745 0 -0.0013120192988055081 0.014575046164286986 0 -0.00018319319695400826 0.0166800632127811 0 0.0010756843923684291 0.015478264802294675 0 0.0016777148348703446 0.013428262669097336 0 0.0024850996957618224 0.015378935814908779 0 0.0017468100915917061 0.012188034637987006 0 0.0016777148348703446 0.013428262669097336 0 0.0024850996957618224 0.015378935814908779 0 0.001688933412423279 0.012475220277727709 0 0.001502387894072105 0.013538379205588275 0 0.0017468100915917061 0.012188034637987006 0 0.00071928135581916894 0.011467038159268366 0 0.001106167435395647 0.011309563943415991 0 0.0017498706220892596 0.012785925454042529 0 0.0017468100915917061 0.012188034637987006 0 0.0016777148348703446 0.013428262669097336 0 -0.0016492690634738343 0.034046632113270012 0 -0.0018420224174972993 0.034612150781518476 0 -0.0023877682610711484 0.034602182052730614 0 -0.0020838172294723222 0.033808507300684056 0 -0.0016492690634738343 0.034046632113270012 0 -0.0023877682610711484 0.034602182052730614 0 -0.0019754326000150312 0.033002720805058269 0 -0.0020838172294723222 0.033808507300684056 0 -0.0015833346361862966 0.033443284462634802 0 -0.0027741494583529373 0.033963345062000126 0 -0.0007623767065831474 0.031803779524417028 0 -0.0027683657502784727 0.033860171359831097 0 -0.0019754326000150312 0.033002720805058269 0 -0.0020838172294723222 0.033808507300684056 0 -0.0020838172294723222 0.033808507300684056 0 -0.0015833346361862966 0.033443284462634802 0 -0.0016492690634738343 0.034046632113270012 0 -0.0015833346361862966 0.033443284462634802 0 -0.0016492690634738343 0.034046632113270012 0 -0.00087207161319783147 0.033395135738724255 0 -0.0013202781797544286 0.032996648197348835 0 -0.0015833346361862966 0.033443284462634802 0 -0.00087207161319783147 0.033395135738724255 0 -0.0016492690634738343 0.034046632113270012 0 -0.00096500300974711455 0.034426078665503464 0 -0.0018420224174972993 0.034612150781518476 0 -0.0016492690634738343 0.034046632113270012 0 -0.00096500300974711455 0.034426078665503464 0 -0.00087207161319783147 0.033395135738724255 0 0.003499541279201514 0.022310593572064059 0 0.0035217000657333034 0.021209487430931241 0 0.00414892359436106 0.021630830757401999 0 1.5996933744194165e-05 0.026309430859279656 0 0.001343002648497823 0.028104189129288623 0 1.5996933744194165e-05 0.026309430859279656 0 0.0021666734290107128 0.016126569179627934 0 0.0039037337568794761 0.020711555710205307 0 0.0035217000657333034 0.021209487430931241 0 0.004166832836309935 0.021053679018921564 0 0.0035217000657333034 0.021209487430931241 0 0.004166832836309935 0.021053679018921564 0 0.00414892359436106 0.021630830757401999 0 0.0046862775581230703 0.021019378769561007 0 0.004166832836309935 0.021053679018921564 0 0.00414892359436106 0.021630830757401999 0 0.0022015246486888338 0.016495050201114046 0 0.0021666734290107128 0.016126569179627934 0 -0.0023365389379460589 0.0137096045558599 0 -0.0010786050560766655 0.012647109224898591 0 -0.0013120192988055081 0.014575046164286986 0 -2.8151911050519194e-05 0.0140187397641745 0 -0.0010786050560766655 0.012647109224898591 0 -0.0013120192988055081 0.014575046164286986 0 -0.0013120192988055081 0.014575046164286986 0 -0.001544349161072787 0.016133856726539646 0 -0.00018319319695400826 0.0166800632127811 0 -0.0013120192988055081 0.014575046164286986 0 -0.001544349161072787 0.016133856726539646 0 -0.0024147211376444283 0.015497844487907688 0 1.5996933744194165e-05 0.026309430859279656 0 -0.0019632685286957133 0.025353189842542111 0 -0.0013761332746885626 0.034196626724781805 0 -0.001376229333168626 0.034956668561866529 0 -0.0019370586532469842 0.035042535720197214 0 -0.0023365389379460589 0.0137096045558599 0 -0.0013120192988055081 0.014575046164286986 0 -0.0024147211376444283 0.015497844487907688 0 -0.00096500300974711455 0.034426078665503464 0 -0.0018420224174972993 0.034612150781518476 0 -0.0019370586532469842 0.035042535720197214 0 1.5996933744194165e-05 0.026309430859279656 0 -0.002966550207666124 0.037892732104263978 0 -0.001376229333168626 0.034956668561866529 0 -0.0019370586532469842 0.035042535720197214 0 -0.0017606339313413764 0.035326632876822674 0 -0.0019370586532469842 0.035042535720197214 0 -0.0021479138775163929 0.035399019587431094 0 -0.0017606339313413764 0.035326632876822674 0 -0.0025330652761851292 0.035490418997682592 0 -0.0022493948551766682 0.035109968833699351 0 -0.0021479138775163929 0.035399019587431094 0 -0.0019370586532469842 0.035042535720197214 0 -0.0022493948551766682 0.035109968833699351 0 -0.0021479138775163929 0.035399019587431094 0 -0.0018420224174972993 0.034612150781518476 0 -0.0022493948551766682 0.035109968833699351 0 -0.0023877682610711484 0.034602182052730614 0 -0.0018420224174972993 0.034612150781518476 0 -0.0019370586532469842 0.035042535720197214 0 -0.0022493948551766682 0.035109968833699351 0 -0.002638791878807585 0.035267492415595389 0 -0.0022493948551766682 0.035109968833699351 0 -0.0023877682610711484 0.034602182052730614 0 -0.0025113226010178122 0.035845536623823601 0 -0.002383944349762533 0.035633864266262853 0 -0.001933186191271566 0.035729550364017371 0 -0.0058876281595961043 0.02042344910655277 0 -0.0047525568367934104 0.020584052305686724 0 -0.0039959280533948781 0.019427621319013096 0 -0.0043969312709653098 0.028076442096144998 0 -0.0028717662232248826 0.027752560605812028 0 -0.0058876281595961043 0.02042344910655277 0 -0.0047525568367934104 0.020584052305686724 0 -0.0057429608931706053 0.021238865931560325 0 -0.0027387376640266182 0.03566257663776131 0 -0.0025113226010178122 0.035845536623823601 0 -0.002383944349762533 0.035633864266262853 0 -0.002383944349762533 0.035633864266262853 0 -0.0021479138775163929 0.035399019587431094 0 -0.001933186191271566 0.035729550364017371 0 -0.0025330652761851292 0.035490418997682592 0 -0.002383944349762533 0.035633864266262853 0 -0.0021479138775163929 0.035399019587431094 0 -0.0017606339313413764 0.035326632876822674 0 -0.001933186191271566 0.035729550364017371 0 -0.0014012926623040317 0.035496514558645782 0 -0.0021479138775163929 0.035399019587431094 0 -0.0017606339313413764 0.035326632876822674 0 -0.001933186191271566 0.035729550364017371 0 -0.0039959280533948781 0.019427621319013096 0 -0.0028596799820737118 0.019515745058232181 0 -0.0037228057257866942 0.021580860293645126 0 -0.0047525568367934104 0.020584052305686724 0 -0.0039959280533948781 0.019427621319013096 0 -0.0037228057257866942 0.021580860293645126 0 -0.0039959280533948781 0.019427621319013096 0 -0.0028596799820737118 0.019515745058232181 0 -0.0018719470867951378 0.018461244575971075 0 -0.0028717662232248826 0.027752560605812028 0 -0.0027141875465135608 0.023488540620221526 0 -0.0019948067927566936 0.020374180319689992 0 -0.0028596799820737118 0.019515745058232181 0 -0.0037228057257866942 0.021580860293645126 0 -0.0019948067927566936 0.020374180319689992 0 -0.0018556745711851563 0.018959424558157658 0 -0.0008689735807903018 0.020138487796246534 0 -0.0018556745711851563 0.018959424558157658 0 -0.001920420155140701 0.018543803432558986 0 -0.00091622725705056782 0.018579640076412281 0 -0.0026574407549952001 0.020886732176171003 0 -0.0027141875465135608 0.023488540620221526 0 -0.0018556745711851563 0.018959424558157658 0 -0.0028596799820737118 0.019515745058232181 0 -0.0018719470867951378 0.018461244575971075 0 -0.0019948067927566936 0.020374180319689992 0 -0.0018556745711851563 0.018959424558157658 0 -0.0028596799820737118 0.019515745058232181 0 -0.001544349161072787 0.016133856726539646 0 -0.0024147211376444283 0.015497844487907688 0 -0.0023358929166558298 0.017499434454514792 0 -0.001376229333168626 0.034956668561866529 0 -0.0017606339313413764 0.035326632876822674 0 -0.0014012926623040317 0.035496514558645782 0 -0.0019632685286957133 0.025353189842542111 0 -0.0027141875465135608 0.023488540620221526 0 -0.001544349161072787 0.016133856726539646 0 -0.0023358929166558298 0.017499434454514792 0 -0.00018319319695400826 0.0166800632127811 0 -0.001920420155140701 0.018543803432558986 0 -0.00091622725705056782 0.018579640076412281 0 -0.00018319319695400826 0.0166800632127811 0 -0.0027141875465135608 0.023488540620221526 0 0.0003718448353865803 0.015323876465390318 0 -0.0018556745711851563 0.018959424558157658 0 -0.00091622725705056782 0.018579640076412281 0 -0.0008689735807903018 0.020138487796246534 0 -0.00091622725705056782 0.018579640076412281 0 -0.0008689735807903018 0.020138487796246534 0 -0.00016274810102305138 0.019738231319150371 0 -0.0008689735807903018 0.020138487796246534 0 -8.5555476037600564e-05 0.021112575518786116 0 -0.00016274810102305138 0.019738231319150371 0 -0.0008689735807903018 0.020138487796246534 0 -8.5555476037600564e-05 0.021112575518786116 0 -0.0006460881018568583 0.022189388418562939 0 -9.5532004751547987e-07 0.023643529544308574 0 -0.0006460881018568583 0.022189388418562939 0 5.6161664675426228e-09 0.02057228474094135 0 -8.5555476037600564e-05 0.021112575518786116 0 -0.0006460881018568583 0.022189388418562939 0 5.6161664675426228e-09 0.02057228474094135 0 -9.5532004751547987e-07 0.023643529544308574 0 -0.0006460881018568583 0.022189388418562939 0 -0.00013680431324178283 0.024945853101982596 0 -0.00062011583357364118 0.022508957618611304 0 -0.0017105350795541625 0.023267639937219663 0 -0.0019948067927566936 0.020374180319689992 0 -0.0006460881018568583 0.022189388418562939 0 -0.0037228057257866942 0.021580860293645126 0 -0.0019948067927566936 0.020374180319689992 0 -0.0008689735807903018 0.020138487796246534 0 -0.0006460881018568583 0.022189388418562939 0 -9.5532004751547987e-07 0.023643529544308574 0 3.4011433492831576e-07 0.026724531993896294 0 -1.0104583951188647e-05 0.026053211289052417 0 -9.5532004751547987e-07 0.023643529544308574 0 -0.00013680431324178283 0.024945853101982596 0 -1.0104583951188647e-05 0.026053211289052417 0 9.8426508307428208e-05 0.028177837818527993 0 3.4011433492831576e-07 0.026724531993896294 0 -1.0104583951188647e-05 0.026053211289052417 0 -0.0047525568367934104 0.020584052305686724 0 -0.0037228057257866942 0.021580860293645126 0 -0.0057429608931706053 0.021238865931560325 0 -0.0017105350795541625 0.023267639937219663 0 -0.0028181395117319709 0.023904693673808639 0 -0.00013680431324178283 0.024945853101982596 0 -1.0104583951188647e-05 0.026053211289052417 0 7.0167166157973686e-05 0.027176355859998877 0 9.8426508307428208e-05 0.028177837818527993 0 -1.0104583951188647e-05 0.026053211289052417 0 7.0167166157973686e-05 0.027176355859998877 0 0.00071935405567440471 0.012113132770805887 0 -0.00041910378295788352 0.012934910849392222 0 0.00029055345710836655 0.014275271504099338 0 0.00071935405567440471 0.012113132770805887 0 0.00063823623379478088 0.012667172106365001 0 0.0008365698211092624 0.011671569607855732 0 0.00071928135581916894 0.011467038159268366 0 0.00097708247337010938 0.011221196687387887 0 0.001106167435395647 0.011309563943415991 0 0.00071935405567440471 0.012113132770805887 0 0.00071928135581916894 0.011467038159268366 0 0.00097708247337010938 0.011221196687387887 0 0.001502387894072105 0.013538379205588275 0 0.00076400243705531843 0.015680249474572475 0 0.00071935405567440471 0.012113132770805887 0 0.00071928135581916894 0.011467038159268366 0 -0.00041910378295788352 0.012934910849392222 0 0.0010756843923684291 0.015478264802294675 0 0.0024850996957618224 0.015378935814908779 0 0.0019685317215845481 0.018327239147735853 0 0.0010756843923684291 0.015478264802294675 0 0.0005471052958359652 0.018205775945708623 0 0.0019685317215845481 0.018327239147735853 0 -0.00091622725705056782 0.018579640076412281 0 -0.00018319319695400826 0.0166800632127811 0 0.0005471052958359652 0.018205775945708623 0 0.0010756843923684291 0.015478264802294675 0 -0.00018319319695400826 0.0166800632127811 0 0.0005471052958359652 0.018205775945708623 0 0.0005471052958359652 0.018205775945708623 0 -0.00016274810102305138 0.019738231319150371 0 0.00060689065521232018 0.020910858293106509 0 -0.00091622725705056782 0.018579640076412281 0 0.0005471052958359652 0.018205775945708623 0 -0.00016274810102305138 0.019738231319150371 0 0.0005471052958359652 0.018205775945708623 0 0.0019685317215845481 0.018327239147735853 0 0.00060689065521232018 0.020910858293106509 0 0.00076400243705531843 0.015680249474572475 0 1.6347479802413333e-05 0.01824525735173296 0 -0.00041910378295788352 0.012934910849392222 0 -0.00091754115902081574 0.015881681663992529 0 0.00029055345710836655 0.014275271504099338 0 -8.5555476037600564e-05 0.021112575518786116 0 -0.00016274810102305138 0.019738231319150371 0 0.00060689065521232018 0.020910858293106509 0 -8.5555476037600564e-05 0.021112575518786116 0 0.00060689065521232018 0.020910858293106509 0 5.6161664675426228e-09 0.02057228474094135 0 1.6347479802413333e-05 0.01824525735173296 0 1.4770152593213351e-07 0.020565388598060938 0 -0.00091754115902081574 0.015881681663992529 0 -3.0920637889738413e-06 0.020562523318919355 0 2.1495829710836596e-07 0.017862622815968596 0 -0.00091754115902081574 0.015881681663992529 0 2.1495829710836596e-07 0.017862622815968596 0 0.00029055345710836655 0.014275271504099338 0 2.1495829710836596e-07 0.017862622815968596 0 0.00029055345710836655 0.014275271504099338 0 7.6723219426654267e-07 0.015159375537247999 0 0.00071935405567440471 0.012113132770805887 0 0.00029055345710836655 0.014275271504099338 0 0.00063823623379478088 0.012667172106365001 0 0.00029055345710836655 0.014275271504099338 0 0.00063823623379478088 0.012667172106365001 0 0.00038223112628730859 0.013321457375658001 0 0.00029055345710836655 0.014275271504099338 0 0.00038223112628730859 0.013321457375658001 0 7.6723219426654267e-07 0.015159375537247999 0 0.00038223112628730859 0.013321457375658001 0 7.6723219426654267e-07 0.015159375537247999 0 7.2289817745611162e-07 0.012456785210804082 0 0.00038223112628730859 0.013321457375658001 0 7.2289817745611162e-07 0.012456785210804082 0 0.00060796435247546907 0.011725113772936835 0 7.2289817745611162e-07 0.012456785210804082 0 0.00060796435247546907 0.011725113772936835 0 1.5645285093232868e-06 0.0097528603864822545 0 0.00060796435247546907 0.011725113772936835 0 0.00052718464854070236 0.010289884256112403 0 0.00078866490107420506 0.010952256515011293 0 0.00063823623379478088 0.012667172106365001 0 0.00038223112628730859 0.013321457375658001 0 0.00060796435247546907 0.011725113772936835 0 0.00063823623379478088 0.012667172106365001 0 0.00060796435247546907 0.011725113772936835 0 0.0008365698211092624 0.011671569607855732 0 -1.3641271776679323e-06 0.0070563474011273337 0 0.00052718464854070236 0.010289884256112403 0 -3.6257120135628999e-05 0.0098110342258720725 0 0.00060796435247546907 0.011725113772936835 0 1.5645285093232868e-06 0.0097528603864822545 0 0.00052718464854070236 0.010289884256112403 0 -1.3641271776679323e-06 0.0070563474011273337 0 1.5645285093232868e-06 0.0097528603864822545 0 0.00052718464854070236 0.010289884256112403 0 0.00052718464854070236 0.010289884256112403 0 0.0006098153720792501 0.01016693263570837 0 -3.6257120135628999e-05 0.0098110342258720725 0 0.0006098153720792501 0.01016693263570837 0 0.00091079442975820172 0.0098441650316497056 0 -3.6257120135628999e-05 0.0098110342258720725 0 0.0006098153720792501 0.01016693263570837 0 0.00078866490107420506 0.010952256515011293 0 0.00081850307877176412 0.010476754026028922 0 0.00052718464854070236 0.010289884256112403 0 0.0006098153720792501 0.01016693263570837 0 0.00078866490107420506 0.010952256515011293 0 0.0006098153720792501 0.01016693263570837 0 0.00085918594344351292 0.0096814285306264999 0 0.00081850307877176412 0.010476754026028922 0 0.0006098153720792501 0.01016693263570837 0 0.00077112662765232987 0.00902551775534618 0 0.00091079442975820172 0.0098441650316497056 0 0.0006098153720792501 0.01016693263570837 0 0.00085918594344351292 0.0096814285306264999 0 0.00077112662765232987 0.00902551775534618 0 0.00071935405567440471 0.012113132770805887 0 0.0008365698211092624 0.011671569607855732 0 0.00097708247337010938 0.011221196687387887 0 0.0008365698211092624 0.011671569607855732 0 0.00078866490107420506 0.010952256515011293 0 0.00097708247337010938 0.011221196687387887 0 0.00060796435247546907 0.011725113772936835 0 0.0008365698211092624 0.011671569607855732 0 0.00078866490107420506 0.010952256515011293 0 0.00078866490107420506 0.010952256515011293 0 0.00081850307877176412 0.010476754026028922 0 0.00097708247337010938 0.011221196687387887 0 0.00081850307877176412 0.010476754026028922 0 0.00097708247337010938 0.011221196687387887 0 0.00096577531654189316 0.010564865040153113 0 0.00097708247337010938 0.011221196687387887 0 0.001106167435395647 0.011309563943415991 0 0.00096577531654189316 0.010564865040153113 0 0.001106167435395647 0.011309563943415991 0 0.00097458314895420737 0.011284395245156691 0 0.00096577531654189316 0.010564865040153113 0 0.0017468100915917061 0.012188034637987006 0 0.001106167435395647 0.011309563943415991 0 0.00097458314895420737 0.011284395245156691 0 0.0017468100915917061 0.012188034637987006 0 0.00097458314895420737 0.011284395245156691 0 0.0016977175025216687 0.012686228160022866 0 0.00097458314895420737 0.011284395245156691 0 0.0011746489861197385 0.010429823999938624 0 0.00066648431406075197 0.0099733578742401668 0 0.00097458314895420737 0.011284395245156691 0 0.0011746489861197385 0.010429823999938624 0 0.00096577531654189316 0.010564865040153113 0 0.0011746489861197385 0.010429823999938624 0 0.00096577531654189316 0.010564865040153113 0 0.0012007450265597037 0.00988427582759808 0 0.0011746489861197385 0.010429823999938624 0 0.0012007450265597037 0.00988427582759808 0 0.0012690807794068729 0.0099609847417089902 0 0.00085918594344351292 0.0096814285306264999 0 0.00096577531654189316 0.010564865040153113 0 0.0010593612101567891 0.0097552623611484417 0 0.00085918594344351292 0.0096814285306264999 0 0.00081850307877176412 0.010476754026028922 0 0.00096577531654189316 0.010564865040153113 0 0.00085918594344351292 0.0096814285306264999 0 0.0010593612101567891 0.0097552623611484417 0 0.0010658098737390425 0.0088126204535651093 0 0.00085918594344351292 0.0096814285306264999 0 0.00077112662765232987 0.00902551775534618 0 0.0010658098737390425 0.0088126204535651093 0 0.00077112662765232987 0.00902551775534618 0 0.0010658098737390425 0.0088126204535651093 0 0.0012483051898483487 0.0072116277312560878 0 0.0010658098737390425 0.0088126204535651093 0 0.0012086333775639863 0.0092804225675988082 0 0.0010762880915021365 0.0083300434945458666 0 0.0012086333775639863 0.0092804225675988082 0 0.0011983709423336248 0.0093716815955237828 0 0.0010762880915021365 0.0083300434945458666 0 0.0010593612101567891 0.0097552623611484417 0 0.0010658098737390425 0.0088126204535651093 0 0.0012086333775639863 0.0092804225675988082 0 0.0012086333775639863 0.0092804225675988082 0 0.0012674131723569939 0.0096768495111009389 0 0.0011983709423336248 0.0093716815955237828 0 0.00096577531654189316 0.010564865040153113 0 0.0010593612101567891 0.0097552623611484417 0 0.0012007450265597037 0.00988427582759808 0 0.0010593612101567891 0.0097552623611484417 0 0.0012086333775639863 0.0092804225675988082 0 0.0012007450265597037 0.00988427582759808 0 0.0012086333775639863 0.0092804225675988082 0 0.0012007450265597037 0.00988427582759808 0 0.0012674131723569939 0.0096768495111009389 0 0.0012007450265597037 0.00988427582759808 0 0.0012674131723569939 0.0096768495111009389 0 0.0012690807794068729 0.0099609847417089902 0 0.0012674131723569939 0.0096768495111009389 0 0.0011983709423336248 0.0093716815955237828 0 0.001301937037907631 0.0098719509450325132 0 0.0012674131723569939 0.0096768495111009389 0 0.001301937037907631 0.0098719509450325132 0 0.0012690807794068729 0.0099609847417089902 0 0.001301937037907631 0.0098719509450325132 0 0.001172014880573466 0.0098666204666772728 0 0.0012690807794068729 0.0099609847417089902 0 0.0011983709423336248 0.0093716815955237828 0 0.0010925950606525024 0.010358136643624206 0 0.00062203573194062731 0.0090189238418518624 0 0.0011983709423336248 0.0093716815955237828 0 0.00226835972887296 0.01052109665540092 0 0.0018438886060331233 0.010591497334577074 0 0.0012244314692376648 0.0094903876816894769 0 0.0018183482407344933 0.010102374878249236 0 0.0011983709423336248 0.0093716815955237828 0 0.0010925950606525024 0.010358136643624206 0 0.0018438886060331233 0.010591497334577074 0 0.0019594501820585771 0.0077769867902474591 0 0.0015741081929419116 0.0075663327523723531 0 0.0015181417648449825 0.0071632183207987563 0 0.0024104033472885063 0.010129889440907328 0 0.00075915112104250307 0.0084092564021490245 0 -0.00023682345035215335 0.010604415854643435 0 0.0021382929051819671 0.012454342541386217 0 0.0018918929452348917 0.011547779987845438 0 0.00075915112104250307 0.0084092564021490245 0 0.0015417636091845496 0.010112176058370089 0 -0.00023682345035215335 0.010604415854643435 0 0.0018438886060331233 0.010591497334577074 0 0.0018918929452348917 0.011547779987845438 0 0.0015741081929419116 0.0075663327523723531 0 0.0015181417648449825 0.0071632183207987563 0 0.0013116811402406428 0.0074013757697330221 0 0.0026029089173930718 0.012026459231718373 0 0.0018183482407344933 0.010102374878249236 0 0.0048765086577579339 0.012780568392928533 0 0.00226835972887296 0.01052109665540092 0 0.0032990646234708357 0.01247446469757049 0 0.0026097947206129529 0.01418965076456012 0 -0.00023682345035215335 0.010604415854643435 0 0.0021382929051819671 0.012454342541386217 0 0.00226835972887296 0.01052109665540092 0 0.0021339194175942575 0.011111479295768447 0 0.0032990646234708357 0.01247446469757049 0 0.00226835972887296 0.01052109665540092 0 0.0018438886060331233 0.010591497334577074 0 0.0021339194175942575 0.011111479295768447 0 0.0018438886060331233 0.010591497334577074 0 0.0021339194175942575 0.011111479295768447 0 0.0018918929452348917 0.011547779987845438 0 0.0021339194175942575 0.011111479295768447 0 0.0018918929452348917 0.011547779987845438 0 0.0032990646234708357 0.01247446469757049 0 0.0021382929051819671 0.012454342541386217 0 0.0018918929452348917 0.011547779987845438 0 0.0032990646234708357 0.01247446469757049 0 0.0029394772356120605 0.01319477842756918 0 0.0021382929051819671 0.012454342541386217 0 0.0032990646234708357 0.01247446469757049 0 0.001117012533602794 0.0096794316457132958 0 0.001301937037907631 0.0098719509450325132 0 0.001172014880573466 0.0098666204666772728 0 0.0026029089173930718 0.012026459231718373 0 0.0038993524073421826 0.012487634361038561 0 0.001117012533602794 0.0096794316457132958 0 0.001172014880573466 0.0098666204666772728 0 0.00094427984798892432 0.0098223168246882753 0 0.001172014880573466 0.0098666204666772728 0 0.00094427984798892432 0.0098223168246882753 0 0.0010973052054734065 0.0099862736799825203 0 0.001117012533602794 0.0096794316457132958 0 0.00064864557932405682 0.0096098811741999485 0 0.00094427984798892432 0.0098223168246882753 0 0.00064864557932405682 0.0096098811741999485 0 0.00094427984798892432 0.0098223168246882753 0 0.00066648431406075197 0.0099733578742401668 0 0.0011746489861197385 0.010429823999938624 0 0.00066648431406075197 0.0099733578742401668 0 0.0010973052054734065 0.0099862736799825203 0 0.00094427984798892432 0.0098223168246882753 0 0.00066648431406075197 0.0099733578742401668 0 0.0010973052054734065 0.0099862736799825203 0 0.0011510148994538388 0.011613370949828361 0 0.00077926151107981221 0.010533495140430369 0 0.0011746489861197385 0.010429823999938624 0 0.0012690807794068729 0.0099609847417089902 0 0.0010973052054734065 0.0099862736799825203 0 0.001172014880573466 0.0098666204666772728 0 0.0012690807794068729 0.0099609847417089902 0 0.0010973052054734065 0.0099862736799825203 0 0.0010330182777264062 0.0051978464005246749 0 0.00067293801238605419 0.0053681757125841984 0 0.00084393242611551129 0.0051648468573851861 0 0.0010330182777264062 0.0051978464005246749 0 0.00043423374737645973 0.0050079427817979654 0 0.00067293801238605419 0.0053681757125841984 0 0.0010330182777264062 0.0051978464005246749 0 0.00084393242611551129 0.0051648468573851861 0 0.00084081879299505993 0.0044599765480554214 0 0.00093783137594963403 0.006567004623924423 0 0.0005243434815942104 0.0055469037551504471 0 0.00075842214486823961 0.0068826376557619964 0 0.00092348453230841644 0.0058927228901178479 0 0.00048208710910810067 0.0056029752184358376 0 0.00098875591647753862 0.0073413268337645188 0 0.00093783137594963403 0.006567004623924423 0 0.0010716418061778685 0.0070500281400300742 0 0.00092348453230841644 0.0058927228901178479 0 0.00068292747016031438 0.0057466274665351775 0 0.0011191933213323048 0.0074350580700764928 0 0.00098875591647753862 0.0073413268337645188 0 0.0010716418061778685 0.0070500281400300742 0 0.0011191933213323048 0.0074350580700764928 0 0.0010716418061778685 0.0070500281400300742 0 0.0013116811402406428 0.0074013757697330221 0 0.00075915112104250307 0.0084092564021490245 0 0.00068292747016031438 0.0057466274665351775 0 0.0015181417648449825 0.0071632183207987563 0 0.0010716418061778685 0.0070500281400300742 0 0.0013116811402406428 0.0074013757697330221 0 -0.00053457541721702397 0.0050335003136424738 0 0.00043423374737645973 0.0050079427817979654 0 -8.5651266273802416e-05 0.0055666931098028432 0 0.00075915112104250307 0.0084092564021490245 0 0.00024389630825457918 0.0071531186522369589 0 0.00043423374737645973 0.0050079427817979654 0 -8.5651266273802416e-05 0.0055666931098028432 0 0.00067293801238605419 0.0053681757125841984 0 -8.5651266273802416e-05 0.0055666931098028432 0 0.00067293801238605419 0.0053681757125841984 0 0.00051543967981178382 0.006516632854285772 0 0.00024389630825457918 0.0071531186522369589 0 0.00051936172069540936 0.0067985356658280564 0 0.00062203573194062731 0.0090189238418518624 0 0.00051543967981178382 0.006516632854285772 0 0.0010762880915021365 0.0083300434945458666 0 0.0011983709423336248 0.0093716815955237828 0 0.00062203573194062731 0.0090189238418518624 0 0.0010762880915021365 0.0083300434945458666 0 0.00051543967981178382 0.006516632854285772 0 0.0010762880915021365 0.0083300434945458666 0 0.0012483051898483487 0.0072116277312560878 0 0.0010658098737390425 0.0088126204535651093 0 0.0010762880915021365 0.0083300434945458666 0 0.0012483051898483487 0.0072116277312560878 0 0.00051543967981178382 0.006516632854285772 0 0.0012483051898483487 0.0072116277312560878 0 0.00031382428321382949 0.0051270596357759299 0 0.00051543967981178382 0.006516632854285772 0 0.00055829831901175781 0.0046817939909405528 0 0.00031382428321382949 0.0051270596357759299 0 0.00051543967981178382 0.006516632854285772 0 0.00055829831901175781 0.0046817939909405528 0 0.00084393242611551129 0.0051648468573851861 0 0.00067293801238605419 0.0053681757125841984 0 0.00051543967981178382 0.006516632854285772 0 0.00084393242611551129 0.0051648468573851861 0 0.00055829831901175781 0.0046817939909405528 0 0.00084393242611551129 0.0051648468573851861 0 0.00084081879299505993 0.0044599765480554214 0 0.00055829831901175781 0.0046817939909405528 0 0.00084081879299505993 0.0044599765480554214 0 0.00062219060143982969 0.0033885360279978264 0 0.00055829831901175781 0.0046817939909405528 0 0.00014886127061568977 0.0039215939602282616 0 0.00031382428321382949 0.0051270596357759299 0 0.00055829831901175781 0.0046817939909405528 0 0.00014886127061568977 0.0039215939602282616 0 0.00062219060143982969 0.0033885360279978264 0 0.00014886127061568977 0.0039215939602282616 0 0.00031382428321382949 0.0051270596357759299 0 0.00038959380039756239 0.0033508335676423859 0 0.00037445285146552086 0.0022923812693202259 0 0.00049802946118193637 0.0031330310197225054 0 0.0012483051898483487 0.0072116277312560878 0 0.00031382428321382949 0.0051270596357759299 0 0.0011816547560812604 0.0042159038446300014 0 0.0012047965673359056 0.0072308667998159546 0 0.0009366754276715003 0.0070491828010552701 0 0.00077112662765232987 0.00902551775534618 0 0.0012483051898483487 0.0072116277312560878 0 0.00091079442975820172 0.0098441650316497056 0 0.00031382428321382949 0.0051270596357759299 0 0.00038959380039756239 0.0033508335676423859 0 0.0011816547560812604 0.0042159038446300014 0 0.0009366754276715003 0.0070491828010552701 0 0.0001555752114597906 0.006803656776182501 0 0.00038959380039756239 0.0033508335676423859 0 0.0011816547560812604 0.0042159038446300014 0 7.3446052897452302e-05 0.0037944197739802126 0 0.00038959380039756239 0.0033508335676423859 0 7.3446052897452302e-05 0.0037944197739802126 0 0.00033407535342822508 0.0037574437733762689 0 0.00038959380039756239 0.0033508335676423859 0 0.00033407535342822508 0.0037574437733762689 0 0.00022215816511249006 0.0021118570226034915 0 1.3974381825099259e-06 0.004160255703067395 0 0.00033407535342822508 0.0037574437733762689 0 0.00022215816511249006 0.0021118570226034915 0 -1.8846585232460367e-06 0.0070454467725929162 0 1.3974381825099259e-06 0.004160255703067395 0 0.00033407535342822508 0.0037574437733762689 0 -8.6690270931663765e-09 0.0070501672443256556 0 0.0001555752114597906 0.006803656776182501 0 -1.8846585232460367e-06 0.0070454467725929162 0 7.3446052897452302e-05 0.0037944197739802126 0 0.00033407535342822508 0.0037574437733762689 0 0.00035719364651910665 0.00067834868465783298 0 0.00022215816511249006 0.0021118570226034915 0 0.00042686992820429567 -0.00024183813366776099 0 0.00035719364651910665 0.00067834868465783298 0 0.00038959380039756239 0.0033508335676423859 0 0.00022215816511249006 0.0021118570226034915 0 1.3974381825099259e-06 0.004160255703067395 0 0.00022215816511249006 0.0021118570226034915 0 2.9701234617386825e-07 0.0012695338800521436 0 0.00022215816511249006 0.0021118570226034915 0 2.9701234617386825e-07 0.0012695338800521436 0 0.00042686992820429567 -0.00024183813366776099 0 8.4841835126906189e-07 -0.0016200235254117869 0 0.00042686992820429567 -0.00024183813366776099 0 0.00047139384751203334 -0.0023751089187401628 0 2.9701234617386825e-07 0.0012695338800521436 0 8.4841835126906189e-07 -0.0016200235254117869 0 0.00042686992820429567 -0.00024183813366776099 0 0.00042686992820429567 -0.00024183813366776099 0 0.00047139384751203334 -0.0023751089187401628 0 0.0007734344596593551 -0.00083412180415861714 0 8.4841835126906189e-07 -0.0016200235254117869 0 0.00047139384751203334 -0.0023751089187401628 0 4.4756590222130365e-07 -0.0045103567118732332 0 0.00047139384751203334 -0.0023751089187401628 0 4.4756590222130365e-07 -0.0045103567118732332 0 -0.00023874007275496395 -0.0046400413462262501 0 4.4756590222130365e-07 -0.0045103567118732332 0 -0.00023874007275496395 -0.0046400413462262501 0 -8.1360139681210556e-07 -0.007399533240619211 0 0.00047139384751203334 -0.0023751089187401628 0 -0.00023874007275496395 -0.0046400413462262501 0 0.00021274294747736201 -0.00067259110158199536 0 -0.00023874007275496395 -0.0046400413462262501 0 0.00021274294747736201 -0.00067259110158199536 0 -0.0014338046877008549 -0.0041716703324071389 0 0.00021274294747736201 -0.00067259110158199536 0 -0.0014338046877008549 -0.0041716703324071389 0 -0.0022476826912359482 0.0015723880383122619 0 0.00021274294747736201 -0.00067259110158199536 0 0.00064553109796923523 0.0020779681319583088 0 0.00065404762452353287 0.002770634480135154 0 0.00011815877567379409 -0.00032609511257700771 0 0.00058538990470291769 0.00091149967056853589 0 0.00014886127061568977 0.0039215939602282616 0 0.00065404762452353287 0.002770634480135154 0 0.00062219060143982969 0.0033885360279978264 0 0.00064553109796923523 0.0020779681319583088 0 0.00065404762452353287 0.002770634480135154 0 0.00062219060143982969 0.0033885360279978264 0 0.00037445285146552086 0.0022923812693202259 0 0.00058538990470291769 0.00091149967056853589 0 0.00035719364651910665 0.00067834868465783298 0 0.00042686992820429567 -0.00024183813366776099 0 0.0007734344596593551 -0.00083412180415861714 0 0.00047139384751203334 -0.0023751089187401628 0 0.00021274294747736201 -0.00067259110158199536 0 0.0007734344596593551 -0.00083412180415861714 0 -0.001894055983523546 -0.0072584738012657565 0 -0.00033306434749207271 -0.0095625643921103277 0 -0.0009971075006562542 -0.0069698469217619212 0 -0.001894055983523546 -0.0072584738012657565 0 -0.00033306434749207271 -0.0095625643921103277 0 -5.7460530503042234e-06 -0.013174959682815802 0 -0.00093994365602864509 -0.012126859093427226 0 -5.4701156022561137e-07 -0.013180909406941058 0 -0.00033306434749207271 -0.0095625643921103277 0 -0.00050567514634683799 -0.0072696066831550157 0 1.3033421856924279e-06 -0.01029030471328816 0 -0.00033306434749207271 -0.0095625643921103277 0 -5.7460530503042234e-06 -0.013174959682815802 0 1.3033421856924279e-06 -0.01029030471328816 0 -0.00033306434749207271 -0.0095625643921103277 0 -0.00050567514634683799 -0.0072696066831550157 0 -0.0009971075006562542 -0.0069698469217619212 0 -0.00050567514634683799 -0.0072696066831550157 0 -0.00037043990915118806 -0.0066329504433469966 0 -0.0014338046877008549 -0.0041716703324071389 0 -0.00050567514634683799 -0.0072696066831550157 0 1.3033421856924279e-06 -0.01029030471328816 0 -0.00037043990915118806 -0.0066329504433469966 0 1.3033421856924279e-06 -0.01029030471328816 0 -8.1360139681210556e-07 -0.007399533240619211 0 -0.00037043990915118806 -0.0066329504433469966 0 -0.00023874007275496395 -0.0046400413462262501 0 -8.1360139681210556e-07 -0.007399533240619211 0 -0.00037043990915118806 -0.0066329504433469966 0 -0.00023874007275496395 -0.0046400413462262501 0 -0.00037043990915118806 -0.0066329504433469966 0 -0.0014338046877008549 -0.0041716703324071389 0 -0.0014338046877008549 -0.0041716703324071389 0 -0.0011351919250460604 -0.005727886176175769 0 -0.00184073110854807 -0.0062401730053124552 0 -0.0015683345333004375 -0.0039907875443962459 0 -0.0019315618048387818 -0.0022300487257668694 0 -0.0014338046877008549 -0.0041716703324071389 0 -0.0011351919250460604 -0.005727886176175769 0 -0.00076678884004844901 -0.0060375415862667847 0 -0.0011351919250460604 -0.005727886176175769 0 -0.00076678884004844901 -0.0060375415862667847 0 -0.00088923892422016349 -0.0062057386671692432 0 -0.00050567514634683799 -0.0072696066831550157 0 -0.0014338046877008549 -0.0041716703324071389 0 -0.00076678884004844901 -0.0060375415862667847 0 -0.00050567514634683799 -0.0072696066831550157 0 -0.00076678884004844901 -0.0060375415862667847 0 -0.0009971075006562542 -0.0069698469217619212 0 -0.00076678884004844901 -0.0060375415862667847 0 -0.0009971075006562542 -0.0069698469217619212 0 -0.00087375088075074194 -0.0067131339370328051 0 -0.00076678884004844901 -0.0060375415862667847 0 -0.00081864325421403998 -0.0063514393363135529 0 -0.00088923892422016349 -0.0062057386671692432 0 -0.00076678884004844901 -0.0060375415862667847 0 -0.00087375088075074194 -0.0067131339370328051 0 -0.00081864325421403998 -0.0063514393363135529 0 -0.00087375088075074194 -0.0067131339370328051 0 -0.00097297135716476228 -0.0064903255938091277 0 -0.00081864325421403998 -0.0063514393363135529 0 -0.0011248308683390923 -0.0075560418083930126 0 -0.00023098144687652927 -0.0086699142824446726 0 -0.00024242857577332685 -0.011926725625556479 0 -0.0011248308683390923 -0.0075560418083930126 0 -0.0010239671257011472 -0.0064819836199483611 0 -0.00097297135716476228 -0.0064903255938091277 0 -0.0010545063788202193 -0.0076382840002571228 0 -0.00060624895221702256 -0.009216359716659444 0 -0.00087375088075074194 -0.0067131339370328051 0 -0.0011248308683390923 -0.0075560418083930126 0 -0.00097297135716476228 -0.0064903255938091277 0 -0.001894055983523546 -0.0072584738012657565 0 -0.0011248308683390923 -0.0075560418083930126 0 -0.00023098144687652927 -0.0086699142824446726 0 -0.00041627582652081942 -0.016986330876358029 0 0.00086193982570746024 -0.017324099059250218 0 0.00039423627005932263 -0.017323305154045371 0 -0.0009971075006562542 -0.0069698469217619212 0 -0.00087375088075074194 -0.0067131339370328051 0 -0.0011248308683390923 -0.0075560418083930126 0 -0.001894055983523546 -0.0072584738012657565 0 -0.0009971075006562542 -0.0069698469217619212 0 -0.0011248308683390923 -0.0075560418083930126 0 -0.00093994365602864509 -0.012126859093427226 0 0.00022957634726757383 -0.013055649784790697 0 -0.00060624895221702256 -0.009216359716659444 0 0.000171716271269037 -0.011756552113042653 0 0.00095760831503176281 -0.014554135519327528 0 -0.00024242857577332685 -0.011926725625556479 0 0.001179114237355734 -0.016046218384520566 0 -0.001214874405016384 -0.0070757664469924134 0 -0.0010239671257011472 -0.0064819836199483611 0 -0.00071420272903207531 -0.007789331808187118 0 -0.0013514378805667326 -0.0077341446602446975 0 -0.001214874405016384 -0.0070757664469924134 0 -0.0017952303910745745 -0.0072790461105766745 0 -0.0013514378805667326 -0.0077341446602446975 0 -0.001214874405016384 -0.0070757664469924134 0 -0.00071420272903207531 -0.007789331808187118 0 -0.001214874405016384 -0.0070757664469924134 0 -0.00097297135716476228 -0.0064903255938091277 0 -0.0017952303910745745 -0.0072790461105766745 0 -0.001214874405016384 -0.0070757664469924134 0 -0.0010239671257011472 -0.0064819836199483611 0 -0.00097297135716476228 -0.0064903255938091277 0 -0.00023098144687652927 -0.0086699142824446726 0 0.00095760831503176281 -0.014554135519327528 0 -0.00024242857577332685 -0.011926725625556479 0 0.00022957634726757383 -0.013055649784790697 0 0.0008871876067593885 -0.014501400143318096 0 -0.0010313007909268602 -0.0065559879850391068 0 -0.0012663183061047284 -0.0068844545223703041 0 -0.00097297135716476228 -0.0064903255938091277 0 -0.00081864325421403998 -0.0063514393363135529 0 -0.00074421611468201976 -0.0064867917372581291 0 -0.00081864325421403998 -0.0063514393363135529 0 -0.00074421611468201976 -0.0064867917372581291 0 -0.00088923892422016349 -0.0062057386671692432 0 -0.00074421611468201976 -0.0064867917372581291 0 -0.001289615209017676 -0.0066393597258437584 0 -0.0009587594351681462 -0.0070175292588582992 0 -0.00074421611468201976 -0.0064867917372581291 0 -0.001289615209017676 -0.0066393597258437584 0 -0.00088923892422016349 -0.0062057386671692432 0 -0.0011351919250460604 -0.005727886176175769 0 -0.001289615209017676 -0.0066393597258437584 0 -0.00088923892422016349 -0.0062057386671692432 0 -0.0011351919250460604 -0.005727886176175769 0 -0.001289615209017676 -0.0066393597258437584 0 -0.00184073110854807 -0.0062401730053124552 0 -0.001289615209017676 -0.0066393597258437584 0 -0.00184073110854807 -0.0062401730053124552 0 -0.0019056506950827419 -0.0069217281950551398 0 -0.001289615209017676 -0.0066393597258437584 0 -0.0015246339690672423 -0.0072091755612968787 0 -0.0019056506950827419 -0.0069217281950551398 0 -0.0025798543293946265 -0.0071164777790304464 0 -0.0020089169712766445 -0.0014320332285014939 0 -0.0043540333959481018 -0.00614011479008119 0 -0.0032756610176704875 -0.0051086900491475028 0 -0.0040909718107688337 -0.0046077923306896279 0 -0.0043540333959481018 -0.00614011479008119 0 -0.0040909718107688337 -0.0046077923306896279 0 -0.0056638439129347955 -0.0051129365120932977 0 -0.0015645545209577449 -0.0079688099539538156 0 -0.0037827067233936408 -0.0068889156880391246 0 -0.0015246339690672423 -0.0072091755612968787 0 -0.0009587594351681462 -0.0070175292588582992 0 -0.001192420359968578 -0.0074822234742382403 0 -0.0025798543293946265 -0.0071164777790304464 0 -0.0037827067233936408 -0.0068889156880391246 0 -0.001289615209017676 -0.0066393597258437584 0 -0.0015246339690672423 -0.0072091755612968787 0 -0.0009587594351681462 -0.0070175292588582992 0 -0.0013514378805667326 -0.0077341446602446975 0 -0.0017952303910745745 -0.0072790461105766745 0 -0.0023667353168794077 -0.008527069826577971 0 -0.0012663183061047284 -0.0068844545223703041 0 -0.0015645545209577449 -0.0079688099539538156 0 -0.0013514378805667326 -0.0077341446602446975 0 -0.0023667353168794077 -0.008527069826577971 0 -0.0014063866394700248 -0.0085798859075016699 0 -0.0023667353168794077 -0.008527069826577971 0 -0.0019704663182453248 -0.0094299946478125733 0 -0.0014063866394700248 -0.0085798859075016699 0 -0.0023667353168794077 -0.008527069826577971 0 -0.0019704663182453248 -0.0094299946478125733 0 -0.0027536786741768696 -0.0096050779924055345 0 -0.0019704663182453248 -0.0094299946478125733 0 -0.0014063866394700248 -0.0085798859075016699 0 -0.0014095754462776597 -0.010027193638544344 0 -0.0014063866394700248 -0.0085798859075016699 0 -0.0014095754462776597 -0.010027193638544344 0 -0.00063089610638612694 -0.0091724434242094789 0 -0.0014063866394700248 -0.0085798859075016699 0 -0.00071420272903207531 -0.007789331808187118 0 -0.00063089610638612694 -0.0091724434242094789 0 0.000171716271269037 -0.011756552113042653 0 0.00016994110542570894 -0.011339810138937872 0 -0.0013514378805667326 -0.0077341446602446975 0 -0.0014063866394700248 -0.0085798859075016699 0 -0.00071420272903207531 -0.007789331808187118 0 0.00084081879299505993 0.0044599765480554214 0 0.00055690386717631673 0.0033068654013705357 0 0.00013495225833429458 0.0042965755311291445 0 0.00055690386717631673 0.0033068654013705357 0 -9.5876623125858626e-05 0.0023465114787204 0 0.00013495225833429458 0.0042965755311291445 0 0.00084081879299505993 0.0044599765480554214 0 0.00062219060143982969 0.0033885360279978264 0 0.00055690386717631673 0.0033068654013705357 0 0.00064553109796923523 0.0020779681319583088 0 0.00062219060143982969 0.0033885360279978264 0 0.00055690386717631673 0.0033068654013705357 0 0.00064553109796923523 0.0020779681319583088 0 0.00055690386717631673 0.0033068654013705357 0 -9.5876623125858626e-05 0.0023465114787204 0 0.00021274294747736201 -0.00067259110158199536 0 -0.0022476826912359482 0.0015723880383122619 0 -9.5876623125858626e-05 0.0023465114787204 0 0.00021274294747736201 -0.00067259110158199536 0 0.00064553109796923523 0.0020779681319583088 0 -9.5876623125858626e-05 0.0023465114787204 0 -0.0022476826912359482 0.0015723880383122619 0 -9.5876623125858626e-05 0.0023465114787204 0 -0.0012454718628619741 0.0028695057227546401 0 -0.0012454718628619741 0.0028695057227546401 0 -0.00096303821199394751 0.0039956239929084146 0 -0.0019374593405266144 0.0048012018568503066 0 -0.0019315618048387818 -0.0022300487257668694 0 -0.0020089169712766445 -0.0014320332285014939 0 -0.0022476826912359482 0.0015723880383122619 0 -0.0012454718628619741 0.0028695057227546401 0 -0.0019374593405266144 0.0048012018568503066 0 -9.5876623125858626e-05 0.0023465114787204 0 -0.00096303821199394751 0.0039956239929084146 0 0.00013495225833429458 0.0042965755311291445 0 -9.5876623125858626e-05 0.0023465114787204 0 -0.0012454718628619741 0.0028695057227546401 0 -0.00096303821199394751 0.0039956239929084146 0 -0.00096303821199394751 0.0039956239929084146 0 -0.00071700108444870778 0.0050426583732498653 0 0.00013495225833429458 0.0042965755311291445 0 -0.00071700108444870778 0.0050426583732498653 0 -4.9639300634610295e-05 0.0052000620265879706 0 0.00013495225833429458 0.0042965755311291445 0 -0.00096303821199394751 0.0039956239929084146 0 -0.00071700108444870778 0.0050426583732498653 0 -0.0016987597888117726 0.0045898363046133935 0 -0.0024022821920912465 0.0038739022431125152 0 -0.0020089169712766445 -0.0014320332285014939 0 -0.0020089169712766445 -0.0014320332285014939 0 -0.0019166557705744798 5.9761091174802686e-05 0 -0.00071700108444870778 0.0050426583732498653 0 -0.0016987597888117726 0.0045898363046133935 0 -0.0014471055345359365 0.0055592380053051159 0 -0.0043540333959481018 -0.00614011479008119 0 -0.0029402413732900709 -0.0072089207647146967 0 -0.0026018537202983092 -0.0058648281139815029 0 -0.0043540333959481018 -0.00614011479008119 0 -0.0026018537202983092 -0.0058648281139815029 0 -0.0032756610176704875 -0.0051086900491475028 0 -0.0014471055345359365 0.0055592380053051159 0 -0.00085911900223681879 0.00585143187474096 0 -0.0011876132281548131 0.006397573429930809 0 -0.0019166557705744798 5.9761091174802686e-05 0 -0.0014040916699882716 -0.00060633867309117849 0 -0.0026018537202983092 -0.0058648281139815029 0 -0.0032756610176704875 -0.0051086900491475028 0 -0.0023870911441941276 -0.0046269612220633761 0 -0.00071700108444870778 0.0050426583732498653 0 -0.00022843745348555689 0.0058596957987305269 0 -4.9639300634610295e-05 0.0052000620265879706 0 -0.00071700108444870778 0.0050426583732498653 0 -0.00085911900223681879 0.00585143187474096 0 -0.00022843745348555689 0.0058596957987305269 0 -0.00071700108444870778 0.0050426583732498653 0 -0.0014471055345359365 0.0055592380053051159 0 -0.00085911900223681879 0.00585143187474096 0 -0.00085911900223681879 0.00585143187474096 0 -0.00022843745348555689 0.0058596957987305269 0 -0.00065818962585491411 0.0061710736855943235 0 -0.00022843745348555689 0.0058596957987305269 0 0.0005243434815942104 0.0055469037551504471 0 0.00021294007051997582 0.0066237055602470715 0 -0.00022843745348555689 0.0058596957987305269 0 -4.9639300634610295e-05 0.0052000620265879706 0 0.0005243434815942104 0.0055469037551504471 0 -4.9639300634610295e-05 0.0052000620265879706 0 0.00013495225833429458 0.0042965755311291445 0 0.0005243434815942104 0.0055469037551504471 0 0.0010330182777264062 0.0051978464005246749 0 0.00084081879299505993 0.0044599765480554214 0 0.0005243434815942104 0.0055469037551504471 0 0.00084081879299505993 0.0044599765480554214 0 0.00013495225833429458 0.0042965755311291445 0 0.0005243434815942104 0.0055469037551504471 0 0.0005243434815942104 0.0055469037551504471 0 0.00075842214486823961 0.0068826376557619964 0 0.00021294007051997582 0.0066237055602470715 0 0.00075842214486823961 0.0068826376557619964 0 0.00021294007051997582 0.0066237055602470715 0 0.00057117768868221572 0.0072350870982393484 0 0.00021294007051997582 0.0066237055602470715 0 -8.9667902703326741e-05 0.0072405032299248081 0 -0.00037614477024093936 0.0065847333729751279 0 -0.00022843745348555689 0.0058596957987305269 0 0.00021294007051997582 0.0066237055602470715 0 -0.00037614477024093936 0.0065847333729751279 0 0.00021294007051997582 0.0066237055602470715 0 -8.9667902703326741e-05 0.0072405032299248081 0 0.00057117768868221572 0.0072350870982393484 0 0.00086079647703879685 0.0075893102539968307 0 0.00075842214486823961 0.0068826376557619964 0 0.00057117768868221572 0.0072350870982393484 0 0.00086079647703879685 0.0075893102539968307 0 0.00057117768868221572 0.0072350870982393484 0 0.00084108147608494895 0.0074685509166412698 0 -8.9667902703326741e-05 0.0072405032299248081 0 0.00057117768868221572 0.0072350870982393484 0 0.00084108147608494895 0.0074685509166412698 0 -2.772158862392686e-05 0.003265112565225286 0 0.00093259332789968799 0.0048712574517408786 0 6.835237553676584e-05 -0.001199134537827473 0 0.0014009014812097992 0.0024917483763495668 0 -0.00035564642762821598 0.0018982861285720411 0 0.0014009014812097992 0.0024917483763495668 0 -0.00035564642762821598 0.0018982861285720411 0 0.00017045994587388234 0.0047008755929024617 0 -0.00035564642762821598 0.0018982861285720411 0 -0.0009621109629222328 0.0034860149496413928 0 0.00017045994587388234 0.0047008755929024617 0 0.0011976274785676091 0.0067071147671068938 0 0.0014009014812097992 0.0024917483763495668 0 0.0010640407654812407 0.0056454264154584717 0 0.0011781184603393234 0.0063878148497354638 0 0.00093259332789968799 0.0048712574517408786 0 0.0014009014812097992 0.0024917483763495668 0 0.0010640407654812407 0.0056454264154584717 0 0.00017045994587388234 0.0047008755929024617 0 -0.0032776941772723646 0.0004703463829106825 0 -0.0041003645104662253 0.0020582756596499107 0 -0.0022409195935420415 0.003403665484509019 0 -0.0017974947172815202 0.0011549826771025215 0 -0.0032776941772723646 0.0004703463829106825 0 -0.0022409195935420415 0.003403665484509019 0 -0.0009621109629222328 0.0034860149496413928 0 -0.0017974947172815202 0.0011549826771025215 0 -0.0022409195935420415 0.003403665484509019 0 -0.00035564642762821598 0.0018982861285720411 0 -0.0009621109629222328 0.0034860149496413928 0 -0.0017974947172815202 0.0011549826771025215 0 6.835237553676584e-05 -0.001199134537827473 0 -0.00035564642762821598 0.0018982861285720411 0 -0.0012827313412189694 -0.00053634169410109059 0 -0.00035564642762821598 0.0018982861285720411 0 -0.0017974947172815202 0.0011549826771025215 0 -0.0012827313412189694 -0.00053634169410109059 0 -0.0017974947172815202 0.0011549826771025215 0 -0.0032776941772723646 0.0004703463829106825 0 -0.0027594553222969726 -0.0015410353694578066 0 -0.0017974947172815202 0.0011549826771025215 0 -0.0012827313412189694 -0.00053634169410109059 0 -0.0027594553222969726 -0.0015410353694578066 0 -0.0032776941772723646 0.0004703463829106825 0 -0.0027594553222969726 -0.0015410353694578066 0 -0.0040553057793343604 -0.0016326356636794249 0 -0.0012827313412189694 -0.00053634169410109059 0 -0.0027594553222969726 -0.0015410353694578066 0 -0.0017612974799649536 -0.0026529904864000427 0 -0.0027594553222969726 -0.0015410353694578066 0 -0.0017612974799649536 -0.0026529904864000427 0 -0.0032434201871236429 -0.0034501553434755027 0 -0.0027594553222969726 -0.0015410353694578066 0 -0.0032434201871236429 -0.0034501553434755027 0 -0.0041023650556795167 -0.0030636964815496585 0 -2.772158862392686e-05 0.003265112565225286 0 -0.0014040916699882716 -0.00060633867309117849 0 6.835237553676584e-05 -0.001199134537827473 0 -0.0017612974799649536 -0.0026529904864000427 0 -0.0020002074242437863 -0.0042008291600582198 0 6.835237553676584e-05 -0.001199134537827473 0 -0.0012827313412189694 -0.00053634169410109059 0 -0.0017612974799649536 -0.0026529904864000427 0 -8.9667902703326741e-05 0.0072405032299248081 0 -0.00037614477024093936 0.0065847333729751279 0 -0.0011876132281548131 0.006397573429930809 0 -0.00037614477024093936 0.0065847333729751279 0 -0.00065818962585491411 0.0061710736855943235 0 -0.0011876132281548131 0.006397573429930809 0 -0.00085911900223681879 0.00585143187474096 0 -0.00065818962585491411 0.0061710736855943235 0 -0.0011876132281548131 0.006397573429930809 0 -0.00022843745348555689 0.0058596957987305269 0 -0.00037614477024093936 0.0065847333729751279 0 -0.00065818962585491411 0.0061710736855943235 0 -0.0032434201871236429 -0.0034501553434755027 0 -0.0027848189490679788 -0.0040796636333017364 0 -0.0040909718107688337 -0.0046077923306896279 0 -0.0017612974799649536 -0.0026529904864000427 0 -0.0027848189490679788 -0.0040796636333017364 0 -0.0020414520371441901 -0.0043506612658855519 0 -0.0019973288429039385 -0.0036159769706882328 0 -0.0014040916699882716 -0.00060633867309117849 0 -0.0017612974799649536 -0.0026529904864000427 0 -0.0032434201871236429 -0.0034501553434755027 0 -0.0027848189490679788 -0.0040796636333017364 0 -0.0027848189490679788 -0.0040796636333017364 0 -0.0023870911441941276 -0.0046269612220633761 0 -0.0020414520371441901 -0.0043506612658855519 0 -0.0026018537202983092 -0.0058648281139815029 0 -0.0023870911441941276 -0.0046269612220633761 0 -0.0021209750292779336 -0.0043919321932359891 0 -0.0020823311077884411 -0.001580619894050479 0 -0.0014040916699882716 -0.00060633867309117849 0 -0.0032756610176704875 -0.0051086900491475028 0 -0.0027848189490679788 -0.0040796636333017364 0 -0.0040909718107688337 -0.0046077923306896279 0 -0.0032756610176704875 -0.0051086900491475028 0 -0.0027848189490679788 -0.0040796636333017364 0 -0.0023870911441941276 -0.0046269612220633761 0 -0.0040909718107688337 -0.0046077923306896279 0 -0.0056638439129347955 -0.0051129365120932977 0 -0.0051947726895195988 -0.0040208994330801434 0 -0.0032434201871236429 -0.0034501553434755027 0 -0.0040909718107688337 -0.0046077923306896279 0 -0.0041023650556795167 -0.0030636964815496585 0 -0.0040909718107688337 -0.0046077923306896279 0 -0.0051947726895195988 -0.0040208994330801434 0 -0.0041023650556795167 -0.0030636964815496585 0 -0.0037827067233936408 -0.0068889156880391246 0 -0.0041946487972442633 -0.0074791101429244793 0 -0.0060661946949647763 -0.0054102060013485279 0 -0.0063786617993191958 -0.0045972371503663926 0 -0.0065641374989922913 -0.0043600722779643811 0 -0.0037827067233936408 -0.0068889156880391246 0 -0.0051776610662043667 -0.0039580673265739268 0 -0.0060661946949647763 -0.0054102060013485279 0 -0.0051947726895195988 -0.0040208994330801434 0 -0.0063786617993191958 -0.0045972371503663926 0 -0.0051947726895195988 -0.0040208994330801434 0 -0.0063786617993191958 -0.0045972371503663926 0 -0.0060933044386762125 -0.0035855222790612262 0 -0.0063786617993191958 -0.0045972371503663926 0 -0.0060933044386762125 -0.0035855222790612262 0 -0.0069496504709184604 -0.0060921455423432139 0 -0.0051947726895195988 -0.0040208994330801434 0 -0.0060933044386762125 -0.0035855222790612262 0 -0.005002573709568121 -0.0028162824575865817 0 -0.005002573709568121 -0.0028162824575865817 0 -0.0041023650556795167 -0.0030636964815496585 0 -0.0040553057793343604 -0.0016326356636794249 0 -0.0027594553222969726 -0.0015410353694578066 0 -0.0041023650556795167 -0.0030636964815496585 0 -0.0040553057793343604 -0.0016326356636794249 0 -0.0051947726895195988 -0.0040208994330801434 0 -0.005002573709568121 -0.0028162824575865817 0 -0.0041023650556795167 -0.0030636964815496585 0 -0.0014095754462776597 -0.010027193638544344 0 -0.0018838267209778953 -0.010106462305004161 0 -0.0018609732551868364 -0.009900152689203065 0 -0.0014095754462776597 -0.010027193638544344 0 -0.00048781538292409917 -0.010978765769450321 0 -0.00063089610638612694 -0.0091724434242094789 0 -0.0014095754462776597 -0.010027193638544344 0 -0.0018609732551868364 -0.009900152689203065 0 -0.00048781538292409917 -0.010978765769450321 0 -0.0019704663182453248 -0.0094299946478125733 0 -0.0014095754462776597 -0.010027193638544344 0 -0.0018838267209778953 -0.010106462305004161 0 -0.0019704663182453248 -0.0094299946478125733 0 -0.0027536786741768696 -0.0096050779924055345 0 -0.0018838267209778953 -0.010106462305004161 0 -0.0063786617993191958 -0.0045972371503663926 0 -0.0065641374989922913 -0.0043600722779643811 0 -0.0069496504709184604 -0.0060921455423432139 0 -0.0060933044386762125 -0.0035855222790612262 0 -0.0069496504709184604 -0.0060921455423432139 0 -0.0067449330912218424 -0.002062514341363193 0 -0.0041946487972442633 -0.0074791101429244793 0 -0.0021408298211994794 -0.009445052227097659 0 -0.0065641374989922913 -0.0043600722779643811 0 -0.0069496504709184604 -0.0060921455423432139 0 -0.0043716268342662195 -0.008909550974692532 0 -0.0065641374989922913 -0.0043600722779643811 0 -0.0043716268342662195 -0.008909550974692532 0 -0.0018609732551868364 -0.009900152689203065 0 -0.0043716268342662195 -0.008909550974692532 0 -0.0018609732551868364 -0.009900152689203065 0 -0.00276601537963081 -0.011191276764988779 0 -0.0043716268342662195 -0.008909550974692532 0 -0.00276601537963081 -0.011191276764988779 0 -0.0038461764753355441 -0.013743914146010439 0 -0.0018609732551868364 -0.009900152689203065 0 -0.0015475666475924755 -0.012480071894595305 0 -0.00276601537963081 -0.011191276764988779 0 -0.0018609732551868364 -0.009900152689203065 0 -0.0015475666475924755 -0.012480071894595305 0 -0.00066461560069308947 -0.011716953589088475 0 -0.0015475666475924755 -0.012480071894595305 0 -0.0038461764753355441 -0.013743914146010439 0 -0.002470106512149484 -0.014360319786503328 0 -0.0015475666475924755 -0.012480071894595305 0 -0.00276601537963081 -0.011191276764988779 0 -0.0038461764753355441 -0.013743914146010439 0 -0.0069496504709184604 -0.0060921455423432139 0 -0.0094696315975399212 -0.00042834355516338621 0 -0.0067449330912218424 -0.002062514341363193 0 -0.0069496504709184604 -0.0060921455423432139 0 -0.0043716268342662195 -0.008909550974692532 0 -0.0038461764753355441 -0.013743914146010439 0 -0.0068667551827330418 -0.0063448205587840869 0 -0.0069039462675287806 -0.0064590882177154784 0 -0.0094696315975399212 -0.00042834355516338621 0 -0.0067449330912218424 -0.002062514341363193 0 -0.0068200940209900574 0.00051720869725495832 0 -0.0094696315975399212 -0.00042834355516338621 0 -0.0085423180038053659 0.0014815532157827695 0 -0.010351060057285109 0.0029978352511127082 0 -0.0085423180038053659 0.0014815532157827695 0 -0.0068200940209900574 0.00051720869725495832 0 -0.0070588164739945345 0.0028651817866236053 0 -0.0094696315975399212 -0.00042834355516338621 0 -0.0085423180038053659 0.0014815532157827695 0 -0.0068200940209900574 0.00051720869725495832 0 -0.0015475666475924755 -0.012480071894595305 0 -0.002470106512149484 -0.014360319786503328 0 -0.00091413455160784527 -0.013955303671894688 0 -0.0038461764753355441 -0.013743914146010439 0 -0.002470106512149484 -0.014360319786503328 0 -0.0023526271606735972 -0.015743465137161457 0 -0.002470106512149484 -0.014360319786503328 0 -0.0017970483831698705 -0.014848832727314571 0 -0.00091413455160784527 -0.013955303671894688 0 -0.0069039462675287806 -0.0064590882177154784 0 -0.0047081007066939844 -0.0084677873170850536 0 -0.0028013618740841688 -0.016439917879316576 0 -0.0047081007066939844 -0.0084677873170850536 0 -0.002470106512149484 -0.014360319786503328 0 -0.0017970483831698705 -0.014848832727314571 0 -0.002184617214153976 -0.01522560137733348 0 -0.0032776941772723646 0.0004703463829106825 0 -0.0040553057793343604 -0.0016326356636794249 0 -0.0051691788620578704 -0.00105479732007004 0 -0.005002573709568121 -0.0028162824575865817 0 -0.0040553057793343604 -0.0016326356636794249 0 -0.0051691788620578704 -0.00105479732007004 0 -0.0060933044386762125 -0.0035855222790612262 0 -0.005002573709568121 -0.0028162824575865817 0 -0.0051691788620578704 -0.00105479732007004 0 -0.0060933044386762125 -0.0035855222790612262 0 -0.0067449330912218424 -0.002062514341363193 0 -0.0051691788620578704 -0.00105479732007004 0 -0.0067449330912218424 -0.002062514341363193 0 -0.0051691788620578704 -0.00105479732007004 0 -0.0068200940209900574 0.00051720869725495832 0 -0.0037966864569814181 0.0018312580438645397 0 -0.0072345690806827449 0.0040480442029426468 0 -0.0068200940209900574 0.00051720869725495832 0 -0.0041003645104662253 0.0020582756596499107 0 -0.0070588164739945345 0.0028651817866236053 0 -0.0051691788620578704 -0.00105479732007004 0 -0.0068200940209900574 0.00051720869725495832 0 -0.0041003645104662253 0.0020582756596499107 0 -0.0032776941772723646 0.0004703463829106825 0 -0.0051691788620578704 -0.00105479732007004 0 -0.0041003645104662253 0.0020582756596499107 0 -0.0041003645104662253 0.0020582756596499107 0 -0.0045972905874729544 0.0042203676713390235 0 -0.003135297716139236 0.0046863294445605797 0 -0.0041003645104662253 0.0020582756596499107 0 -0.0057669718451411507 0.0033182798955557085 0 -0.0045972905874729544 0.0042203676713390235 0 -0.0057669718451411507 0.0033182798955557085 0 -0.0045972905874729544 0.0042203676713390235 0 -0.0054803850714634983 0.0044852031487286146 0 -0.0045972905874729544 0.0042203676713390235 0 -0.0054803850714634983 0.0044852031487286146 0 -0.005192412918696712 0.0055098408853494684 0 -0.0045972905874729544 0.0042203676713390235 0 -0.005192412918696712 0.0055098408853494684 0 -0.0037690895181063644 0.00586846206863708 0 -0.0045972905874729544 0.0042203676713390235 0 -0.0037690895181063644 0.00586846206863708 0 -0.003135297716139236 0.0046863294445605797 0 -0.0018986491212812674 -0.015770571020302351 0 -0.001793824124362063 -0.015270865033288823 0 -0.0012921140469139066 -0.015263467642092427 0 -0.00095348870649963522 -0.011820057146894611 0 -0.0047081007066939844 -0.0084677873170850536 0 -0.0018986491212812674 -0.015770571020302351 0 -0.001793824124362063 -0.015270865033288823 0 -0.002184617214153976 -0.01522560137733348 0 -0.0017970483831698705 -0.014848832727314571 0 -0.001793824124362063 -0.015270865033288823 0 -0.0012921140469139066 -0.015263467642092427 0 -0.0017970483831698705 -0.014848832727314571 0 -0.001793824124362063 -0.015270865033288823 0 -0.002184617214153976 -0.01522560137733348 0 -0.0046884104817754681 -0.0073418674434006627 0 -0.0045283285319490715 -0.0078813552145359737 0 -0.00447961523173595 -0.0074294272950169828 0 -0.0047081007066939844 -0.0084677873170850536 0 -0.0061764613629309911 -0.0036394793264846975 0 -0.00095348870649963522 -0.011820057146894611 0 -0.0061764613629309911 -0.0036394793264846975 0 -0.0070588164739945345 0.0028651817866236053 0 -0.010351060057285109 0.0029978352511127082 0 -0.01025280758795743 0.0040912508375150255 0 -0.0072345690806827449 0.0040480442029426468 0 -0.0061764613629309911 -0.0036394793264846975 0 -0.0057669718451411507 0.0033182798955557085 0 -0.0072995146742586723 0.0040578284171392757 0 -0.0063576448153890965 0.0048946595813044239 0 -0.0085423180038053659 0.0014815532157827695 0 -0.0070588164739945345 0.0028651817866236053 0 -0.010351060057285109 0.0029978352511127082 0 -0.0057669718451411507 0.0033182798955557085 0 -0.0054803850714634983 0.0044852031487286146 0 -0.0063576448153890965 0.0048946595813044239 0 -0.0054803850714634983 0.0044852031487286146 0 -0.005192412918696712 0.0055098408853494684 0 -0.0063576448153890965 0.0048946595813044239 0 -0.005192412918696712 0.0055098408853494684 0 -0.0063576448153890965 0.0048946595813044239 0 -0.0061758115969071936 0.0058219433370513517 0 0.00022703880778695759 -0.013383401722119423 0 0.00047696917979376109 -0.012751675541667968 0 -0.00015576762902921675 -0.012677152026861769 0 -1.8749313658737454e-05 -0.0145540314858046 0 -0.00011031497601593559 -0.014328898953751945 0 -0.00015576762902921675 -0.012677152026861769 0 -0.00095348870649963522 -0.011820057146894611 0 0.00021387030914996177 -0.013637225799720251 0 0.00022703880778695759 -0.013383401722119423 0 0.0003273136347168672 -0.013414240120558986 0 0.00047696917979376109 -0.012751675541667968 0 -0.0061764613629309911 -0.0036394793264846975 0 -0.00308760499685718 -0.003565482363657765 0 -0.0072995146742586723 0.0040578284171392757 0 -0.0063576448153890965 0.0048946595813044239 0 -0.0070851060183955688 0.0058044953657616621 0 0.00047696917979376109 -0.012751675541667968 0 4.0404857840613595e-05 -0.011945588372526491 0 -0.00015576762902921675 -0.012677152026861769 0 -0.0070851060183955688 0.0058044953657616621 0 -0.0061758115969071936 0.0058219433370513517 0 -0.0060611516607875756 0.006719138683622527 0 -0.0063576448153890965 0.0048946595813044239 0 -0.0070851060183955688 0.0058044953657616621 0 -0.0061758115969071936 0.0058219433370513517 0 -0.0061758115969071936 0.0058219433370513517 0 -0.0060611516607875756 0.006719138683622527 0 -0.0053203715962309881 0.0066115963954458288 0 -0.0070851060183955688 0.0058044953657616621 0 -0.0060611516607875756 0.006719138683622527 0 -0.0067556060838777883 0.0075220080423169453 0 -0.0060611516607875756 0.006719138683622527 0 -0.005887129440519669 0.0076733240055307291 0 -0.0050699341407588298 0.0074446516005248382 0 -0.0060611516607875756 0.006719138683622527 0 -0.005887129440519669 0.0076733240055307291 0 -0.0067556060838777883 0.0075220080423169453 0 -0.005887129440519669 0.0076733240055307291 0 -0.0067556060838777883 0.0075220080423169453 0 -0.0064216644659530657 0.0082130680791767784 0 -0.00308760499685718 -0.003565482363657765 0 -0.0029633524477997186 -0.0023192418673427021 0 0.00047696917979376109 -0.012751675541667968 0 0.00081569346798439726 -0.011393817222506123 0 4.0404857840613595e-05 -0.011945588372526491 0 0.00081569346798439726 -0.011393817222506123 0 8.4442795911425825e-05 -0.011295882154272793 0 4.0404857840613595e-05 -0.011945588372526491 0 -0.0037690895181063644 0.00586846206863708 0 -0.0045286155434124441 0.0065490153608579781 0 -0.003337454938413567 0.007111864718063422 0 -0.0037690895181063644 0.00586846206863708 0 -0.003337454938413567 0.007111864718063422 0 -0.0024172250125186539 0.0063362408855262018 0 -0.005192412918696712 0.0055098408853494684 0 -0.0037690895181063644 0.00586846206863708 0 -0.0045286155434124441 0.0065490153608579781 0 -0.005192412918696712 0.0055098408853494684 0 -0.0061758115969071936 0.0058219433370513517 0 -0.0053203715962309881 0.0066115963954458288 0 -0.005192412918696712 0.0055098408853494684 0 -0.0053203715962309881 0.0066115963954458288 0 -0.0045286155434124441 0.0065490153608579781 0 -0.0045286155434124441 0.0065490153608579781 0 -0.0050699341407588298 0.0074446516005248382 0 -0.0039714798439530706 0.0080158858012894987 0 -0.0060611516607875756 0.006719138683622527 0 -0.0053203715962309881 0.0066115963954458288 0 -0.0050699341407588298 0.0074446516005248382 0 -0.0053203715962309881 0.0066115963954458288 0 -0.0045286155434124441 0.0065490153608579781 0 -0.0050699341407588298 0.0074446516005248382 0 -0.005887129440519669 0.0076733240055307291 0 -0.0050699341407588298 0.0074446516005248382 0 -0.0050480296015232642 0.0082746663139545568 0 -0.0050699341407588298 0.0074446516005248382 0 -0.0039714798439530706 0.0080158858012894987 0 -0.0050480296015232642 0.0082746663139545568 0 -0.0045286155434124441 0.0065490153608579781 0 -0.003337454938413567 0.007111864718063422 0 -0.0039714798439530706 0.0080158858012894987 0 -0.003337454938413567 0.007111864718063422 0 -0.0030283119305011541 0.0081326575933922483 0 -0.0039714798439530706 0.0080158858012894987 0 -0.003337454938413567 0.007111864718063422 0 -0.0023163920300739251 0.0076359528574078926 0 -0.0030283119305011541 0.0081326575933922483 0 -0.003337454938413567 0.007111864718063422 0 -0.0023163920300739251 0.0076359528574078926 0 -0.0024172250125186539 0.0063362408855262018 0 -0.0023163920300739251 0.0076359528574078926 0 -0.0024172250125186539 0.0063362408855262018 0 -0.0015043463042506279 0.0071478901761928672 0 -0.0024172250125186539 0.0063362408855262018 0 -0.000976685233801451 0.0062987978389443975 0 -0.0020066959347225396 0.0053626083311979671 0 -0.0024172250125186539 0.0063362408855262018 0 -0.000976685233801451 0.0062987978389443975 0 -0.0015043463042506279 0.0071478901761928672 0 -0.000976685233801451 0.0062987978389443975 0 -0.0015043463042506279 0.0071478901761928672 0 -0.00069516583115994336 0.0073535350776504057 0 -0.0015043463042506279 0.0071478901761928672 0 -0.001367187799856124 0.0081752688582111249 0 -0.00069516583115994336 0.0073535350776504057 0 -0.0023163920300739251 0.0076359528574078926 0 -0.0015043463042506279 0.0071478901761928672 0 -0.001367187799856124 0.0081752688582111249 0 4.2491360088877156e-05 0.0072310167323002264 0 -0.00069516583115994336 0.0073535350776504057 0 -0.00044450681621987468 0.0087014233966800324 0 -0.001367187799856124 0.0081752688582111249 0 -0.00069516583115994336 0.0073535350776504057 0 -0.00044450681621987468 0.0087014233966800324 0 9.0025808014371035e-05 0.008435976860429217 0 -0.00039589092296527428 0.0087369704292296242 0 -0.000572754518175862 0.0097246932026668412 0 -0.00044450681621987468 0.0087014233966800324 0 -0.00050132368158214058 0.0090634490895676479 0 4.2491360088877156e-05 0.0072310167323002264 0 0.00094907213894721975 0.007137435955535322 0 -0.00044450681621987468 0.0087014233966800324 0 -0.0010793426556082782 0.0096749847480292299 0 -0.00050132368158214058 0.0090634490895676479 0 -0.0006400242681573919 0.0088248541647801323 0 -0.0010793426556082782 0.0096749847480292299 0 -0.000572754518175862 0.0097246932026668412 0 -0.00050132368158214058 0.0090634490895676479 0 0.00094907213894721975 0.007137435955535322 0 0.00048142788967098894 0.0065645828270593613 0 0.00095675727631120745 0.0064734563176248117 0 4.2491360088877156e-05 0.0072310167323002264 0 0.00094907213894721975 0.007137435955535322 0 0.00048142788967098894 0.0065645828270593613 0 -0.000976685233801451 0.0062987978389443975 0 -0.00069516583115994336 0.0073535350776504057 0 -0.00014294116098356803 0.0067354954833021702 0 4.2491360088877156e-05 0.0072310167323002264 0 -0.00069516583115994336 0.0073535350776504057 0 -0.00014294116098356803 0.0067354954833021702 0 4.2491360088877156e-05 0.0072310167323002264 0 0.00048142788967098894 0.0065645828270593613 0 -0.00014294116098356803 0.0067354954833021702 0 0.00048142788967098894 0.0065645828270593613 0 -0.00014294116098356803 0.0067354954833021702 0 -9.1129875613293041e-05 0.0059235540232414176 0 -0.000976685233801451 0.0062987978389443975 0 -0.00014294116098356803 0.0067354954833021702 0 -9.1129875613293041e-05 0.0059235540232414176 0 -9.1129875613293041e-05 0.0059235540232414176 0 0.00017045994587388234 0.0047008755929024617 0 -0.00090497404756102739 0.0050101587788768491 0 -0.000976685233801451 0.0062987978389443975 0 -9.1129875613293041e-05 0.0059235540232414176 0 -0.00090497404756102739 0.0050101587788768491 0 -9.1129875613293041e-05 0.0059235540232414176 0 0.00074604069573025586 0.00606323044086245 0 0.00017045994587388234 0.0047008755929024617 0 0.0012101984452552164 0.0064872185821879891 0 0.00095675727631120745 0.0064734563176248117 0 0.00074604069573025586 0.00606323044086245 0 0.00048142788967098894 0.0065645828270593613 0 0.00095675727631120745 0.0064734563176248117 0 0.00074604069573025586 0.00606323044086245 0 0.00048142788967098894 0.0065645828270593613 0 -9.1129875613293041e-05 0.0059235540232414176 0 0.00074604069573025586 0.00606323044086245 0 0.0012101984452552164 0.0064872185821879891 0 0.00074604069573025586 0.00606323044086245 0 0.0010640407654812407 0.0056454264154584717 0 0.00074604069573025586 0.00606323044086245 0 0.0010640407654812407 0.0056454264154584717 0 0.00017045994587388234 0.0047008755929024617 0 -0.0009621109629222328 0.0034860149496413928 0 0.00017045994587388234 0.0047008755929024617 0 -0.00090497404756102739 0.0050101587788768491 0 -0.0022409195935420415 0.003403665484509019 0 -0.0020066959347225396 0.0053626083311979671 0 -0.00090497404756102739 0.0050101587788768491 0 -0.0009621109629222328 0.0034860149496413928 0 -0.0022409195935420415 0.003403665484509019 0 -0.00090497404756102739 0.0050101587788768491 0 -0.0041003645104662253 0.0020582756596499107 0 -0.0022409195935420415 0.003403665484509019 0 -0.003135297716139236 0.0046863294445605797 0 -0.0022409195935420415 0.003403665484509019 0 -0.0020066959347225396 0.0053626083311979671 0 -0.003135297716139236 0.0046863294445605797 0 -0.0037690895181063644 0.00586846206863708 0 -0.0024172250125186539 0.0063362408855262018 0 -0.003135297716139236 0.0046863294445605797 0 -0.0024172250125186539 0.0063362408855262018 0 -0.0020066959347225396 0.0053626083311979671 0 -0.003135297716139236 0.0046863294445605797 0 -0.000976685233801451 0.0062987978389443975 0 -0.0020066959347225396 0.0053626083311979671 0 -0.00090497404756102739 0.0050101587788768491 0 0.00079894504782509947 -0.015972550463429731 0 0.00078263978010205209 -0.015879646533950392 0 0.00077786542560632534 -0.015924826651657734 0 0.00079980738356146594 -0.015999432715350804 0 0.00078263978010205209 -0.015879646533950392 0 0.00079602310054568341 -0.015926345667073932 0 0.00079980738356146594 -0.015999432715350804 0 0.00077194657815667631 -0.01614884464523085 0 0.0007866694706261814 -0.016071782604758743 0 0.00079980738356146594 -0.015999432715350804 0 0.00079894504782509947 -0.015972550463429731 0 0.0007866694706261814 -0.016071782604758743 0 0.00079980738356146594 -0.015999432715350804 0 0.00079894504782509947 -0.015972550463429731 0 0.00078263978010205209 -0.015879646533950392 0 0.00078263978010205209 -0.015879646533950392 0 0.00069388295559386006 -0.015836658835706046 0 0.00071210041422436305 -0.015762448609416613 0 0.00078263978010205209 -0.015879646533950392 0 0.00077617886204204623 -0.015733741526174645 0 0.00071210041422436305 -0.015762448609416613 0 0.00078263978010205209 -0.015879646533950392 0 0.00077617886204204623 -0.015733741526174645 0 0.00079602310054568341 -0.015926345667073932 0 0.00077617886204204623 -0.015733741526174645 0 0.00071210041422436305 -0.015762448609416613 0 0.00071404824917941192 -0.015572516942387737 0 0.00077617886204204623 -0.015733741526174645 0 0.00078583001165861044 -0.015763192273236016 0 0.00075775250389693014 -0.015497441048274095 0 0.00077617886204204623 -0.015733741526174645 0 0.00071404824917941192 -0.015572516942387737 0 0.00075775250389693014 -0.015497441048274095 0 0.00077617886204204623 -0.015733741526174645 0 0.00079602310054568341 -0.015926345667073932 0 0.00078583001165861044 -0.015763192273236016 0 0.00079602310054568341 -0.015926345667073932 0 0.00078029391278469423 -0.016001420064884347 0 0.00078583001165861044 -0.015763192273236016 0 0.00079980738356146594 -0.015999432715350804 0 0.00079602310054568341 -0.015926345667073932 0 0.00077194657815667631 -0.01614884464523085 0 0.00079602310054568341 -0.015926345667073932 0 0.00077194657815667631 -0.01614884464523085 0 0.00078029391278469423 -0.016001420064884347 0 0.00077194657815667631 -0.01614884464523085 0 0.00078029391278469423 -0.016001420064884347 0 0.00072846518289039627 -0.016227656588231495 0 0.00077194657815667631 -0.01614884464523085 0 0.00066707167058599503 -0.016453624545989802 0 0.00072846518289039627 -0.016227656588231495 0 0.00077194657815667631 -0.01614884464523085 0 0.00066707167058599503 -0.016453624545989802 0 0.00071573564786305075 -0.016294240172267858 0 0.00066707167058599503 -0.016453624545989802 0 0.00061470236046050797 -0.016556131238646903 0 0.00052521150361232148 -0.016959072654846519 0 0.00066707167058599503 -0.016453624545989802 0 0.00071573564786305075 -0.016294240172267858 0 0.00052521150361232148 -0.016959072654846519 0 0.00020380591444077391 -0.017105843308165974 0 0.0005162770144203359 -0.016925660410378626 0 0.00071573564786305075 -0.016294240172267858 0 0.00061216357874192839 -0.01605466966533365 0 0.00052521150361232148 -0.016959072654846519 0 0.00071573564786305075 -0.016294240172267858 0 0.0007440840042120477 -0.016029456625885022 0 0.00061216357874192839 -0.01605466966533365 0 0.00071573564786305075 -0.016294240172267858 0 0.0007866694706261814 -0.016071782604758743 0 0.0007440840042120477 -0.016029456625885022 0 0.00077194657815667631 -0.01614884464523085 0 0.00071573564786305075 -0.016294240172267858 0 0.0007866694706261814 -0.016071782604758743 0 0.00020380591444077391 -0.017105843308165974 0 0.00036833081130276796 -0.017520507069592618 0 0.0007440840042120477 -0.016029456625885022 0 0.00061216357874192839 -0.01605466966533365 0 0.00077922126722363609 -0.015946837797030922 0 0.0007440840042120477 -0.016029456625885022 0 0.00077922126722363609 -0.015946837797030922 0 0.00079712511921480544 -0.015978341832137782 0 0.0007866694706261814 -0.016071782604758743 0 0.0007440840042120477 -0.016029456625885022 0 0.00079712511921480544 -0.015978341832137782 0 -0.00015948956180011439 -0.018138782176348876 0 0.00010320215022478058 -0.01873692021639381 0 0.00053199984293478676 -0.017952290412549594 0 -0.00015948956180011439 -0.018138782176348876 0 0.00010320215022478058 -0.01873692021639381 0 -0.00063883021661602216 -0.0189867522391679 0 0.00049989030557032427 -0.018832441274462885 0 0.00054433164965061846 -0.019024446197986229 0 0.00046041959581669952 -0.019018497969654984 0 0.00049989030557032427 -0.018832441274462885 0 0.0004572392416432117 -0.019061662962256504 0 0.00046041959581669952 -0.019018497969654984 0 0.00016978542761611067 -0.018942494981480932 0 0.00036833081130276796 -0.017520507069592618 0 0.00077922126722363609 -0.015946837797030922 0 0.00079881566209067994 -0.015973403992324251 0 0.00079712511921480544 -0.015978341832137782 0 0.00077922126722363609 -0.015946837797030922 0 0.00079881566209067994 -0.015973403992324251 0 0.0008070099084254743 -0.016013347537966374 0 0.00036833081130276796 -0.017520507069592618 0 0.00099705162926523919 -0.016017235948052384 0 0.00079881566209067994 -0.015973403992324251 0 0.00078039510909472969 -0.015962348956002449 0 0.0008070099084254743 -0.016013347537966374 0 0.00079881566209067994 -0.015973403992324251 0 0.00079712511921480544 -0.015978341832137782 0 0.00078039510909472969 -0.015962348956002449 0 0.00079894504782509947 -0.015972550463429731 0 0.00079712511921480544 -0.015978341832137782 0 0.00077786542560632534 -0.015924826651657734 0 0.00079894504782509947 -0.015972550463429731 0 0.0007866694706261814 -0.016071782604758743 0 0.00079712511921480544 -0.015978341832137782 0 0.00079712511921480544 -0.015978341832137782 0 0.00077786542560632534 -0.015924826651657734 0 0.00078039510909472969 -0.015962348956002449 0 0.00069388295559386006 -0.015836658835706046 0 0.00077786542560632534 -0.015924826651657734 0 0.00069312280440502957 -0.015933896754680866 0 0.00078263978010205209 -0.015879646533950392 0 0.00069388295559386006 -0.015836658835706046 0 0.00077786542560632534 -0.015924826651657734 0 0.00069312280440502957 -0.015933896754680866 0 0.00061194448014507334 -0.016039402484231084 0 0.0007469045544101203 -0.016112066475376684 0 0.00069312280440502957 -0.015933896754680866 0 0.00078039510909472969 -0.015962348956002449 0 0.0007469045544101203 -0.016112066475376684 0 0.00078039510909472969 -0.015962348956002449 0 0.0007469045544101203 -0.016112066475376684 0 0.0008070099084254743 -0.016013347537966374 0 0.00077786542560632534 -0.015924826651657734 0 0.00069312280440502957 -0.015933896754680866 0 0.00078039510909472969 -0.015962348956002449 0 0.00069312280440502957 -0.015933896754680866 0 0.00055765891844888459 -0.015894523270724173 0 0.00061194448014507334 -0.016039402484231084 0 0.00055765891844888459 -0.015894523270724173 0 0.00035376743509916276 -0.016032380114433798 0 0.00061194448014507334 -0.016039402484231084 0 0.00069312280440502957 -0.015933896754680866 0 0.00055765891844888459 -0.015894523270724173 0 0.00058702335992955339 -0.015742021035683774 0 0.00055765891844888459 -0.015894523270724173 0 0.00035376743509916276 -0.016032380114433798 0 0.00022577428098014809 -0.01554868678313984 0 -0.00025275426267863047 -0.0146326070890443 0 0.00035953081482821754 -0.016148172163291955 0 0.00042904896088494156 -0.015532108316783286 0 -0.00010561356248751522 -0.015951280150617711 0 0.00055765891844888459 -0.015894523270724173 0 0.00022577428098014809 -0.01554868678313984 0 0.00058702335992955339 -0.015742021035683774 0 0.00022577428098014809 -0.01554868678313984 0 0.00058702335992955339 -0.015742021035683774 0 -0.00022339218028549854 -0.014758857535167806 0 0.00069388295559386006 -0.015836658835706046 0 0.00069312280440502957 -0.015933896754680866 0 0.00058702335992955339 -0.015742021035683774 0 0.00069388295559386006 -0.015836658835706046 0 0.00058702335992955339 -0.015742021035683774 0 0.00060535458120885438 -0.0157661167238697 0 4.0404857840613595e-05 -0.011945588372526491 0 -0.00060316805015939276 -0.011266356420051043 0 -0.00069133988823151798 -0.012041974533021523 0 8.4442795911425825e-05 -0.011295882154272793 0 4.0404857840613595e-05 -0.011945588372526491 0 -0.00060316805015939276 -0.011266356420051043 0 -0.00060316805015939276 -0.011266356420051043 0 -0.00069133988823151798 -0.012041974533021523 0 -0.0013276174665986088 -0.011549553433144987 0 -0.002125368751398763 -0.011171809397478012 0 -0.0013276174665986088 -0.011549553433144987 0 -0.0013287218347523084 -0.012551679832297855 0 -0.00025275426267863047 -0.0146326070890443 0 -0.00092697287225139489 -0.013720983555220681 0 0.00033188601168960348 -0.016213036410487425 0 0.00022577428098014809 -0.01554868678313984 0 -0.00032519181778259469 -0.015252983573538766 0 -0.00069133988823151798 -0.012041974533021523 0 -0.0013276174665986088 -0.011549553433144987 0 -0.0013287218347523084 -0.012551679832297855 0 -0.002125368751398763 -0.011171809397478012 0 -0.0013276174665986088 -0.011549553433144987 0 -0.0015992519406144688 -0.01078617543116844 0 -0.00060316805015939276 -0.011266356420051043 0 -0.0013276174665986088 -0.011549553433144987 0 -0.0015992519406144688 -0.01078617543116844 0 0.00022577428098014809 -0.01554868678313984 0 -0.00032519181778259469 -0.015252983573538766 0 -0.00022339218028549854 -0.014758857535167806 0 -0.00011031497601593559 -0.014328898953751945 0 -0.0013287218347523084 -0.012551679832297855 0 -0.00015576762902921675 -0.012677152026861769 0 -0.00069133988823151798 -0.012041974533021523 0 -0.0013287218347523084 -0.012551679832297855 0 -0.00015576762902921675 -0.012677152026861769 0 4.0404857840613595e-05 -0.011945588372526491 0 -0.00069133988823151798 -0.012041974533021523 0 -0.00015576762902921675 -0.012677152026861769 0 -0.00011031497601593559 -0.014328898953751945 0 -0.00032519181778259469 -0.015252983573538766 0 -0.00022339218028549854 -0.014758857535167806 0 -1.8749313658737454e-05 -0.0145540314858046 0 -0.00011031497601593559 -0.014328898953751945 0 -0.00022339218028549854 -0.014758857535167806 0 -0.00095348870649963522 -0.011820057146894611 0 -0.00010561356248751522 -0.015951280150617711 0 -0.0018986491212812674 -0.015770571020302351 0 -0.00014227212793956081 -0.016073918106205492 0 -0.00083333523102831284 -0.015523037919904177 0 -5.3649229772897873e-05 -0.014451464255522118 0 -0.00092697287225139489 -0.013720983555220681 0 -0.00014227212793956081 -0.016073918106205492 0 0.00010973122582998492 -0.015697195855202958 0 0.00035619710794392311 -0.015777096164820845 0 -0.00014227212793956081 -0.016073918106205492 0 -0.00020687065715011379 -0.015483150182172493 0 -0.00083333523102831284 -0.015523037919904177 0 -0.00014227212793956081 -0.016073918106205492 0 0.00010973122582998492 -0.015697195855202958 0 -0.00020687065715011379 -0.015483150182172493 0 0.00010973122582998492 -0.015697195855202958 0 0.00012156787002876893 -0.015401970946993481 0 -0.00020687065715011379 -0.015483150182172493 0 0.00012156787002876893 -0.015401970946993481 0 -2.9453342867876683e-05 -0.015038936621302174 0 -0.00020687065715011379 -0.015483150182172493 0 0.00012156787002876893 -0.015401970946993481 0 -2.9453342867876683e-05 -0.015038936621302174 0 0.00037002803075669212 -0.015202543084269052 0 -2.9453342867876683e-05 -0.015038936621302174 0 -0.00020687065715011379 -0.015483150182172493 0 -0.0005793667330164494 -0.015075274527581487 0 -0.00020687065715011379 -0.015483150182172493 0 -0.00083333523102831284 -0.015523037919904177 0 -0.0005793667330164494 -0.015075274527581487 0 -0.0018986491212812674 -0.015770571020302351 0 -0.00083333523102831284 -0.015523037919904177 0 -0.0012921140469139066 -0.015263467642092427 0 -0.00083333523102831284 -0.015523037919904177 0 -0.0005793667330164494 -0.015075274527581487 0 -0.0012921140469139066 -0.015263467642092427 0 -0.0005793667330164494 -0.015075274527581487 0 -0.0012921140469139066 -0.015263467642092427 0 -0.00100379839612894 -0.014708088732056692 0 -0.0017970483831698705 -0.014848832727314571 0 -0.0012921140469139066 -0.015263467642092427 0 -0.00100379839612894 -0.014708088732056692 0 0.00058925506581706903 -0.015667476172119634 0 0.00060535458120885438 -0.0157661167238697 0 0.00035619710794392311 -0.015777096164820845 0 0.00058925506581706903 -0.015667476172119634 0 0.00071210041422436305 -0.015762448609416613 0 0.00071404824917941192 -0.015572516942387737 0 0.00058925506581706903 -0.015667476172119634 0 0.00071210041422436305 -0.015762448609416613 0 0.00060535458120885438 -0.0157661167238697 0 0.00069388295559386006 -0.015836658835706046 0 0.00071210041422436305 -0.015762448609416613 0 0.00060535458120885438 -0.0157661167238697 0 0.00058702335992955339 -0.015742021035683774 0 -0.00014227212793956081 -0.016073918106205492 0 0.00035619710794392311 -0.015777096164820845 0 0.00058702335992955339 -0.015742021035683774 0 0.00060535458120885438 -0.0157661167238697 0 0.00035619710794392311 -0.015777096164820845 0 0.00010973122582998492 -0.015697195855202958 0 0.00035619710794392311 -0.015777096164820845 0 0.0003797872469418226 -0.015548267713974074 0 0.00058925506581706903 -0.015667476172119634 0 0.00035619710794392311 -0.015777096164820845 0 0.0003797872469418226 -0.015548267713974074 0 0.00058925506581706903 -0.015667476172119634 0 0.0003797872469418226 -0.015548267713974074 0 0.00059325339338652211 -0.015416276065925738 0 0.0003797872469418226 -0.015548267713974074 0 0.00037002803075669212 -0.015202543084269052 0 0.00059325339338652211 -0.015416276065925738 0 0.00010973122582998492 -0.015697195855202958 0 0.00012156787002876893 -0.015401970946993481 0 0.0003797872469418226 -0.015548267713974074 0 0.00012156787002876893 -0.015401970946993481 0 0.0003797872469418226 -0.015548267713974074 0 0.00037002803075669212 -0.015202543084269052 0 0.00037002803075669212 -0.015202543084269052 0 0.00059325339338652211 -0.015416276065925738 0 0.00069350562657544894 -0.015040667675454608 0 0.00059325339338652211 -0.015416276065925738 0 0.00071404824917941192 -0.015572516942387737 0 0.00070670391501255903 -0.015352928840381967 0 0.00058925506581706903 -0.015667476172119634 0 0.00059325339338652211 -0.015416276065925738 0 0.00071404824917941192 -0.015572516942387737 0 0.00071404824917941192 -0.015572516942387737 0 0.00070670391501255903 -0.015352928840381967 0 0.00075775250389693014 -0.015497441048274095 0 0.00070670391501255903 -0.015352928840381967 0 0.00069501641859321501 -0.015198486696584353 0 0.00075775250389693014 -0.015497441048274095 0 0.00069501641859321501 -0.015198486696584353 0 0.00069350562657544894 -0.015040667675454608 0 0.00089201893006547012 -0.014486607005014694 0 0.00059325339338652211 -0.015416276065925738 0 0.00070670391501255903 -0.015352928840381967 0 0.00069350562657544894 -0.015040667675454608 0 0.00070670391501255903 -0.015352928840381967 0 0.00069501641859321501 -0.015198486696584353 0 0.00069350562657544894 -0.015040667675454608 0 0.00037002803075669212 -0.015202543084269052 0 0.00069350562657544894 -0.015040667675454608 0 0.0002712660272366991 -0.01473758435597519 0 -2.9453342867876683e-05 -0.015038936621302174 0 0.00037002803075669212 -0.015202543084269052 0 0.0002712660272366991 -0.01473758435597519 0 0.0002712660272366991 -0.01473758435597519 0 0.00058233971807988773 -0.014641078572609432 0 0.00021598102283061445 -0.014059641138137411 0 0.00069350562657544894 -0.015040667675454608 0 0.0002712660272366991 -0.01473758435597519 0 0.00058233971807988773 -0.014641078572609432 0 0.00069350562657544894 -0.015040667675454608 0 0.00058233971807988773 -0.014641078572609432 0 0.00089201893006547012 -0.014486607005014694 0 0.00058233971807988773 -0.014641078572609432 0 0.00089201893006547012 -0.014486607005014694 0 0.00021598102283061445 -0.014059641138137411 0 0.00089201893006547012 -0.014486607005014694 0 0.00021598102283061445 -0.014059641138137411 0 1.7664215517584148e-05 -0.013142585245800411 0 0.00069501641859321501 -0.015198486696584353 0 0.00055921409187064612 -0.01514979726272353 0 0.00075437760929779351 -0.015588645832291749 0 0.00069501641859321501 -0.015198486696584353 0 0.00089201893006547012 -0.014486607005014694 0 0.00055921409187064612 -0.01514979726272353 0 -0.00091413455160784527 -0.013955303671894688 0 -0.00027526364207237328 -0.01438147977734033 0 -0.00034167266943519603 -0.013030585611024929 0 -0.0017970483831698705 -0.014848832727314571 0 -0.00091413455160784527 -0.013955303671894688 0 -0.00100379839612894 -0.014708088732056692 0 -0.00091413455160784527 -0.013955303671894688 0 -0.00100379839612894 -0.014708088732056692 0 -0.00027526364207237328 -0.01438147977734033 0 -0.0005793667330164494 -0.015075274527581487 0 -0.00100379839612894 -0.014708088732056692 0 -0.00027526364207237328 -0.01438147977734033 0 -2.9453342867876683e-05 -0.015038936621302174 0 -0.0005793667330164494 -0.015075274527581487 0 -0.00027526364207237328 -0.01438147977734033 0 -2.9453342867876683e-05 -0.015038936621302174 0 0.0002712660272366991 -0.01473758435597519 0 -0.00027526364207237328 -0.01438147977734033 0 0.0002712660272366991 -0.01473758435597519 0 0.00021598102283061445 -0.014059641138137411 0 -0.00027526364207237328 -0.01438147977734033 0 0.00021598102283061445 -0.014059641138137411 0 -0.00027526364207237328 -0.01438147977734033 0 -0.00034167266943519603 -0.013030585611024929 0 0.00021598102283061445 -0.014059641138137411 0 -0.00034167266943519603 -0.013030585611024929 0 1.7664215517584148e-05 -0.013142585245800411 0 -0.00091413455160784527 -0.013955303671894688 0 -0.00034167266943519603 -0.013030585611024929 0 -0.00084589968740924942 -0.012798814359483483 0 -0.00034167266943519603 -0.013030585611024929 0 -0.00084589968740924942 -0.012798814359483483 0 -0.00066461560069308947 -0.011716953589088475 0 -0.0015475666475924755 -0.012480071894595305 0 -0.00084589968740924942 -0.012798814359483483 0 -0.00066461560069308947 -0.011716953589088475 0 -0.0015475666475924755 -0.012480071894595305 0 -0.00091413455160784527 -0.013955303671894688 0 -0.00084589968740924942 -0.012798814359483483 0 -0.00034167266943519603 -0.013030585611024929 0 -0.00066461560069308947 -0.011716953589088475 0 -0.00029653772542737402 -0.012079305240424209 0 -0.00066461560069308947 -0.011716953589088475 0 -0.00029653772542737402 -0.012079305240424209 0 -0.00048781538292409917 -0.010978765769450321 0 -0.0018609732551868364 -0.009900152689203065 0 -0.00066461560069308947 -0.011716953589088475 0 -0.00048781538292409917 -0.010978765769450321 0 -0.00034167266943519603 -0.013030585611024929 0 -0.00029653772542737402 -0.012079305240424209 0 1.7664215517584148e-05 -0.013142585245800411 0 -0.00029653772542737402 -0.012079305240424209 0 -0.00026357131198582952 -0.012258306563805261 0 -0.00020854309102133508 -0.012829909284849703 0 -0.00029653772542737402 -0.012079305240424209 0 -0.00048781538292409917 -0.010978765769450321 0 -0.00020854309102133508 -0.012829909284849703 0 -0.00048781538292409917 -0.010978765769450321 0 0.001153643016559906 -0.013369286471306373 0 -0.00020854309102133508 -0.012829909284849703 0 -0.0003076940043754552 -0.01105706897403463 0 0.00016994110542570894 -0.011339810138937872 0 0.00055921409187064612 -0.01514979726272353 0 0.00096905802853306823 -0.016608751744755543 0 0.000204610194883539 -0.016613105727735257 0 0.00089201893006547012 -0.014486607005014694 0 0.00055921409187064612 -0.01514979726272353 0 0.00096905802853306823 -0.016608751744755543 0 0.00081003133334151163 -0.014524502532507538 0 0.00034263520386123783 -0.014500817517130237 0 0.00089201893006547012 -0.014486607005014694 0 1.7664215517584148e-05 -0.013142585245800411 0 -0.00026357131198582952 -0.012258306563805261 0 -0.00029653772542737402 -0.012079305240424209 0 1.7664215517584148e-05 -0.013142585245800411 0 -0.00026357131198582952 -0.012258306563805261 0 0.00096905802853306823 -0.016608751744755543 0 0.000204610194883539 -0.016613105727735257 0 0.00037524533259630061 -0.017133874504856181 0 0.000204610194883539 -0.016613105727735257 0 4.1135683714267506e-05 -0.017261933400367187 0 0.00037524533259630061 -0.017133874504856181 0 0.000204610194883539 -0.016613105727735257 0 -0.00018187276521955113 -0.016927375130145458 0 4.1135683714267506e-05 -0.017261933400367187 0 -0.00018187276521955113 -0.016927375130145458 0 -0.00026846482924679016 -0.017341688895710406 0 4.1135683714267506e-05 -0.017261933400367187 0 -0.00018187276521955113 -0.016927375130145458 0 -0.00022482296738303114 -0.016329879744948147 0 -0.00042535249717081785 -0.017113524812505335 0 0.000204610194883539 -0.016613105727735257 0 -0.00018187276521955113 -0.016927375130145458 0 -0.00022482296738303114 -0.016329879744948147 0 0.00055921409187064612 -0.01514979726272353 0 0.000204610194883539 -0.016613105727735257 0 -0.00022482296738303114 -0.016329879744948147 0 0.00057500955087361975 -0.015308548446729105 0 0.0003005854207209363 -0.016141231355894674 0 0.00055921409187064612 -0.01514979726272353 0 0.00082639001021561219 -0.01603519102486833 0 0.00075437760929779351 -0.015588645832291749 0 0.00082639001021561219 -0.01603519102486833 0 0.00078003883476634116 -0.01596412460482333 0 0.00073910990589759256 -0.016286862681491838 0 0.00082639001021561219 -0.01603519102486833 0 0.00078003883476634116 -0.01596412460482333 0 0.00075437760929779351 -0.015588645832291749 0 0.00078003883476634116 -0.01596412460482333 0 0.00078029391278469423 -0.016001420064884347 0 0.00072846518289039627 -0.016227656588231495 0 0.00078003883476634116 -0.01596412460482333 0 0.00078029391278469423 -0.016001420064884347 0 0.00078583001165861044 -0.015763192273236016 0 0.00078003883476634116 -0.01596412460482333 0 0.00078583001165861044 -0.015763192273236016 0 0.00075437760929779351 -0.015588645832291749 0 0.00078583001165861044 -0.015763192273236016 0 0.00075775250389693014 -0.015497441048274095 0 0.00075437760929779351 -0.015588645832291749 0 0.00069501641859321501 -0.015198486696584353 0 0.00075775250389693014 -0.015497441048274095 0 0.00075437760929779351 -0.015588645832291749 0 0.00066707167058599503 -0.016453624545989802 0 0.00061470236046050797 -0.016556131238646903 0 0.00072846518289039627 -0.016227656588231495 0 0.00061470236046050797 -0.016556131238646903 0 0.00072846518289039627 -0.016227656588231495 0 0.00073910990589759256 -0.016286862681491838 0 0.00078003883476634116 -0.01596412460482333 0 0.00072846518289039627 -0.016227656588231495 0 0.00073910990589759256 -0.016286862681491838 0 0.00061470236046050797 -0.016556131238646903 0 0.00073910990589759256 -0.016286862681491838 0 0.00058642364221338965 -0.016582983919897935 0 0.00015550332314201676 -0.016921600984438716 0 -0.00012658705416782347 -0.017614599332608314 0 0.00073910990589759256 -0.016286862681491838 0 0.00058642364221338965 -0.016582983919897935 0 0.00074656645981945014 -0.016729875598140483 0 0.00058642364221338965 -0.016582983919897935 0 0.00074656645981945014 -0.016729875598140483 0 0.00024093728150230328 -0.017519196364173234 0 0.00082639001021561219 -0.01603519102486833 0 0.00073910990589759256 -0.016286862681491838 0 0.00074656645981945014 -0.016729875598140483 0 0.0003005854207209363 -0.016141231355894674 0 0.00015550332314201676 -0.016921600984438716 0 -0.00042535249717081785 -0.017113524812505335 0 -0.00026846482924679016 -0.017341688895710406 0 -0.00041009458155743134 -0.017547302317519622 0 -0.00018187276521955113 -0.016927375130145458 0 -0.00042535249717081785 -0.017113524812505335 0 -0.00026846482924679016 -0.017341688895710406 0 -0.00042535249717081785 -0.017113524812505335 0 -0.00041009458155743134 -0.017547302317519622 0 -0.00048744940309346316 -0.017714366198198623 0 -0.00041009458155743134 -0.017547302317519622 0 -0.00034306152856623242 -0.017688917047470418 0 -0.00043403191351413947 -0.017853595197430974 0 -0.00034306152856623242 -0.017688917047470418 0 -0.00039382641191945813 -0.01793830254930642 0 -0.00043403191351413947 -0.017853595197430974 0 -0.00034306152856623242 -0.017688917047470418 0 -0.00039382641191945813 -0.01793830254930642 0 -0.0002722037020610613 -0.017903307395775725 0 -0.00039382641191945813 -0.01793830254930642 0 -0.0002722037020610613 -0.017903307395775725 0 -0.00040537423089296557 -0.018149042859323804 0 -0.00034306152856623242 -0.017688917047470418 0 -0.0002722037020610613 -0.017903307395775725 0 -0.00010610704692890799 -0.017604799009521995 0 -0.0002722037020610613 -0.017903307395775725 0 -0.00010610704692890799 -0.017604799009521995 0 2.2574119892068761e-07 -0.017896504914879426 0 -0.00026846482924679016 -0.017341688895710406 0 -0.00041009458155743134 -0.017547302317519622 0 -0.00034306152856623242 -0.017688917047470418 0 -0.00026846482924679016 -0.017341688895710406 0 -0.00034306152856623242 -0.017688917047470418 0 -0.00010610704692890799 -0.017604799009521995 0 -0.00026846482924679016 -0.017341688895710406 0 4.1135683714267506e-05 -0.017261933400367187 0 -0.00010610704692890799 -0.017604799009521995 0 4.1135683714267506e-05 -0.017261933400367187 0 0.00025309541191365797 -0.017502502003903977 0 0.00037524533259630061 -0.017133874504856181 0 4.1135683714267506e-05 -0.017261933400367187 0 0.00025309541191365797 -0.017502502003903977 0 -0.00010610704692890799 -0.017604799009521995 0 0.00025309541191365797 -0.017502502003903977 0 -0.00010610704692890799 -0.017604799009521995 0 2.2574119892068761e-07 -0.017896504914879426 0 0.00025309541191365797 -0.017502502003903977 0 2.2574119892068761e-07 -0.017896504914879426 0 0.00022217752235925229 -0.017899901589902914 0 2.2574119892068761e-07 -0.017896504914879426 0 0.00022217752235925229 -0.017899901589902914 0 1.9516266010088286e-05 -0.01884734873885504 0 2.2574119892068761e-07 -0.017896504914879426 0 -0.0005085094454123076 -0.018688555279781995 0 1.9516266010088286e-05 -0.01884734873885504 0 2.2574119892068761e-07 -0.017896504914879426 0 -0.0005085094454123076 -0.018688555279781995 0 -0.00092075240918607147 -0.018259577659557193 0 -0.0005085094454123076 -0.018688555279781995 0 -0.0011764039133766817 -0.018946943790379474 0 -0.00092075240918607147 -0.018259577659557193 0 -0.0011764039133766817 -0.018946943790379474 0 -0.00092075240918607147 -0.018259577659557193 0 -0.0021895368880671729 -0.018603313850475537 0 -0.00089461136238309273 -0.017893342424620824 0 0.000211918558818602 -0.021195310027209698 0 -0.00030200882282508382 -0.018158030718051651 0 -0.00040537423089296557 -0.018149042859323804 0 -0.00044261228672130891 -0.018359659809898062 0 -0.0002722037020610613 -0.017903307395775725 0 -0.00030200882282508382 -0.018158030718051651 0 -0.00040537423089296557 -0.018149042859323804 0 -0.0002722037020610613 -0.017903307395775725 0 2.2574119892068761e-07 -0.017896504914879426 0 -0.00030200882282508382 -0.018158030718051651 0 7.5947931509944141e-05 -0.017999321360458596 0 -0.00089461136238309273 -0.017893342424620824 0 0.001179114237355734 -0.016046218384520566 0 0.00062445751533835286 -0.014674258473007778 0 0.001153643016559906 -0.013369286471306373 0 0.001179114237355734 -0.016046218384520566 0 0.00062445751533835286 -0.014674258473007778 0 0.00093726483183703636 -0.015556957286854542 0 0.00062445751533835286 -0.014674258473007778 0 0.00038187424468248313 -0.015796243588508087 0 0.00093726483183703636 -0.015556957286854542 0 0.00062445751533835286 -0.014674258473007778 0 0.001153643016559906 -0.013369286471306373 0 -0.00020854309102133508 -0.012829909284849703 0 0.00062445751533835286 -0.014674258473007778 0 -0.00020854309102133508 -0.012829909284849703 0 -0.0010007757328954318 -0.013991644046832457 0 0.00062445751533835286 -0.014674258473007778 0 -0.0010007757328954318 -0.013991644046832457 0 0.00038187424468248313 -0.015796243588508087 0 -0.00023214799553908776 -0.015661567977191915 0 -0.00017709453880886402 -0.016767811370331526 0 0.00034263520386123783 -0.014500817517130237 0 -0.00023214799553908776 -0.015661567977191915 0 -0.00026357131198582952 -0.012258306563805261 0 -0.00020854309102133508 -0.012829909284849703 0 -0.0010007757328954318 -0.013991644046832457 0 0.00096905802853306823 -0.016608751744755543 0 0.00039066765003522652 -0.017379132565085838 0 0.00037524533259630061 -0.017133874504856181 0 0.00025309541191365797 -0.017502502003903977 0 0.00039066765003522652 -0.017379132565085838 0 0.00037524533259630061 -0.017133874504856181 0 0.00025309541191365797 -0.017502502003903977 0 0.00039066765003522652 -0.017379132565085838 0 -0.00013348635257555666 -0.016892642965989576 0 0.00025309541191365797 -0.017502502003903977 0 0.00022217752235925229 -0.017899901589902914 0 -0.00013348635257555666 -0.016892642965989576 0 0.00022217752235925229 -0.017899901589902914 0 -0.00013348635257555666 -0.016892642965989576 0 0.00024641312704251888 -0.017915226048561793 0 -0.00013348635257555666 -0.016892642965989576 0 0.000302450983660946 -0.017430728913140233 0 0.00024641312704251888 -0.017915226048561793 0 -0.0010007757328954318 -0.013991644046832457 0 -0.00013348635257555666 -0.016892642965989576 0 0.00038187424468248313 -0.015796243588508087 0 -0.00013348635257555666 -0.016892642965989576 0 0.00038187424468248313 -0.015796243588508087 0 0.00034614027038642179 -0.016635150394880654 0 0.00038187424468248313 -0.015796243588508087 0 0.00034614027038642179 -0.016635150394880654 0 0.00065938057304244194 -0.01572734761287415 0 -0.00013348635257555666 -0.016892642965989576 0 0.00034614027038642179 -0.016635150394880654 0 0.000302450983660946 -0.017430728913140233 0 0.00086193982570746024 -0.017324099059250218 0 0.00095760831503176281 -0.014554135519327528 0 0.00054980516606964935 -0.016283723034701658 0 0.00034614027038642179 -0.016635150394880654 0 0.00054980516606964935 -0.016283723034701658 0 0.00065938057304244194 -0.01572734761287415 0 0.00034614027038642179 -0.016635150394880654 0 0.00054980516606964935 -0.016283723034701658 0 0.00042095011812850124 -0.017183459886146064 0 0.00095760831503176281 -0.014554135519327528 0 0.00054980516606964935 -0.016283723034701658 0 0.00065938057304244194 -0.01572734761287415 0 0.00095760831503176281 -0.014554135519327528 0 0.00065938057304244194 -0.01572734761287415 0 0.00093726483183703636 -0.015556957286854542 0 0.00038187424468248313 -0.015796243588508087 0 0.00065938057304244194 -0.01572734761287415 0 0.00093726483183703636 -0.015556957286854542 0 0.00095760831503176281 -0.014554135519327528 0 0.001179114237355734 -0.016046218384520566 0 0.00093726483183703636 -0.015556957286854542 0 0.00039223973102645704 -0.017405118089629874 0 0.00039423627005932263 -0.017323305154045371 0 0.00042095011812850124 -0.017183459886146064 0 -0.00041627582652081942 -0.016986330876358029 0 0.00039223973102645704 -0.017405118089629874 0 0.00039423627005932263 -0.017323305154045371 0 0.00086193982570746024 -0.017324099059250218 0 0.00039423627005932263 -0.017323305154045371 0 0.00042095011812850124 -0.017183459886146064 0 0.00086193982570746024 -0.017324099059250218 0 0.00054980516606964935 -0.016283723034701658 0 0.00042095011812850124 -0.017183459886146064 0 0.00034614027038642179 -0.016635150394880654 0 0.00042095011812850124 -0.017183459886146064 0 0.000302450983660946 -0.017430728913140233 0 0.00039223973102645704 -0.017405118089629874 0 0.00042095011812850124 -0.017183459886146064 0 0.000302450983660946 -0.017430728913140233 0 0.00039223973102645704 -0.017405118089629874 0 0.000302450983660946 -0.017430728913140233 0 0.00037161459875167556 -0.017800055605037685 0 0.00039223973102645704 -0.017405118089629874 0 0.00037161459875167556 -0.017800055605037685 0 0.00040102570016962134 -0.017189022619049255 0 0.00037161459875167556 -0.017800055605037685 0 0.00031956360480269466 -0.018375826040603196 0 0.00023439860706232305 -0.018249274408910134 0 0.00037161459875167556 -0.017800055605037685 0 0.00024641312704251888 -0.017915226048561793 0 0.00031956360480269466 -0.018375826040603196 0 0.000302450983660946 -0.017430728913140233 0 0.00037161459875167556 -0.017800055605037685 0 0.00024641312704251888 -0.017915226048561793 0 0.00022217752235925229 -0.017899901589902914 0 0.00024641312704251888 -0.017915226048561793 0 0.00038000280750278463 -0.018987988577748263 0 0.00031956360480269466 -0.018375826040603196 0 0.00038000280750278463 -0.018987988577748263 0 0.00037684104967088773 -0.01901936822447102 0 0.00024641312704251888 -0.017915226048561793 0 0.00031956360480269466 -0.018375826040603196 0 0.00038000280750278463 -0.018987988577748263 0 0.00023439860706232305 -0.018249274408910134 0 0.00037684104967088773 -0.01901936822447102 0 0.00042234596716495427 -0.018914166583846728 0 0.00031956360480269466 -0.018375826040603196 0 0.00023439860706232305 -0.018249274408910134 0 0.00037684104967088773 -0.01901936822447102 0 0.00023439860706232305 -0.018249274408910134 0 6.9194952411673593e-07 -0.01816923663566045 0 0.00042234596716495427 -0.018914166583846728 0 5.0210724607148318e-07 -0.018173452467136884 0 0.00033455042456528611 -0.020335689619128301 0 -7.3396090775107136e-07 -0.018173884234965444 0 0.00019342316303544001 -0.021709206171186889 0 5.9386298660739825e-07 -0.020969264630289922 0 0.00023439860706232305 -0.018249274408910134 0 6.9194952411673593e-07 -0.01816923663566045 0 0.00040102570016962134 -0.017189022619049255 0 0.00037161459875167556 -0.017800055605037685 0 0.00023439860706232305 -0.018249274408910134 0 0.00040102570016962134 -0.017189022619049255 0 0.00039223973102645704 -0.017405118089629874 0 0.00040102570016962134 -0.017189022619049255 0 0.00027011118444805857 -0.01623333358232476 0 0.00040102570016962134 -0.017189022619049255 0 1.500672207000414e-06 -0.015677596112272842 0 0.00027011118444805857 -0.01623333358232476 0 6.9194952411673593e-07 -0.01816923663566045 0 0.00040102570016962134 -0.017189022619049255 0 1.500672207000414e-06 -0.015677596112272842 0 -0.00041627582652081942 -0.016986330876358029 0 -2.7297571192124936e-06 -0.013186067921623005 0 0.00027011118444805857 -0.01623333358232476 0 -2.7297571192124936e-06 -0.013186067921623005 0 1.500672207000414e-06 -0.015677596112272842 0 0.00027011118444805857 -0.01623333358232476 0 -0.00041627582652081942 -0.016986330876358029 0 0.00039223973102645704 -0.017405118089629874 0 0.00027011118444805857 -0.01623333358232476 0 -0.00050234826872564494 -0.02077142323470195 0 0.00015957058185410927 -0.019964508357145517 0 0.00026116149937509828 -0.022008063137542992 0 -0.00050234826872564494 -0.02077142323470195 0 -0.00048145953950551996 -0.019559973935896226 0 0.00015957058185410927 -0.019964508357145517 0 -0.00050234826872564494 -0.02077142323470195 0 -0.0014019075268733557 -0.020323986922016375 0 -0.00087019596791348204 -0.022172380987397836 0 -0.0014019075268733557 -0.020323986922016375 0 -0.00087019596791348204 -0.022172380987397836 0 -0.0026609626338186341 -0.021255331776366661 0 -0.00050234826872564494 -0.02077142323470195 0 -0.0014019075268733557 -0.020323986922016375 0 -0.00048145953950551996 -0.019559973935896226 0 -0.0011764039133766817 -0.018946943790379474 0 -0.0014019075268733557 -0.020323986922016375 0 -0.002728220170891906 -0.019860009663563553 0 -0.0011764039133766817 -0.018946943790379474 0 -0.0014019075268733557 -0.020323986922016375 0 -0.00048145953950551996 -0.019559973935896226 0 -0.00048145953950551996 -0.019559973935896226 0 1.9516266010088286e-05 -0.01884734873885504 0 0.00015957058185410927 -0.019964508357145517 0 -0.0005085094454123076 -0.018688555279781995 0 -0.0011764039133766817 -0.018946943790379474 0 -0.00048145953950551996 -0.019559973935896226 0 -0.0005085094454123076 -0.018688555279781995 0 -0.00048145953950551996 -0.019559973935896226 0 1.9516266010088286e-05 -0.01884734873885504 0 1.9516266010088286e-05 -0.01884734873885504 0 0.00038000280750278463 -0.018987988577748263 0 0.00015957058185410927 -0.019964508357145517 0 0.00022217752235925229 -0.017899901589902914 0 1.9516266010088286e-05 -0.01884734873885504 0 0.00038000280750278463 -0.018987988577748263 0 0.00038000280750278463 -0.018987988577748263 0 0.0004755850623354378 -0.019929531705327585 0 0.00037684104967088773 -0.01901936822447102 0 0.00038000280750278463 -0.018987988577748263 0 0.00015957058185410927 -0.019964508357145517 0 0.0004755850623354378 -0.019929531705327585 0 0.00015957058185410927 -0.019964508357145517 0 0.0004755850623354378 -0.019929531705327585 0 0.00026116149937509828 -0.022008063137542992 0 0.00033455042456528611 -0.020335689619128301 0 0.00016134246922517272 -0.021714037770921499 0 0.0004755850623354378 -0.019929531705327585 0 0.00042234596716495427 -0.018914166583846728 0 0.00026116149937509828 -0.022008063137542992 0 0.0004755850623354378 -0.019929531705327585 0 0.00037684104967088773 -0.01901936822447102 0 0.00042234596716495427 -0.018914166583846728 0 0.00019342316303544001 -0.021709206171186889 0 5.9386298660739825e-07 -0.020969264630289922 0 1.0402845127307562e-06 -0.023763047427082365 0 0.00019342316303544001 -0.021709206171186889 0 1.0402845127307562e-06 -0.023763047427082365 0 0.00026116149937509828 -0.022008063137542992 0 1.0402845127307562e-06 -0.023763047427082365 0 -5.8867328282220056e-05 -0.024011077510618734 0 0.00026116149937509828 -0.022008063137542992 0 1.0402845127307562e-06 -0.023763047427082365 0 -5.8867328282220056e-05 -0.024011077510618734 0 -5.4200346477489054e-07 -0.02655896736669482 0 -5.8867328282220056e-05 -0.024011077510618734 0 0.00026116149937509828 -0.022008063137542992 0 -0.00087019596791348204 -0.022172380987397836 0 -0.00050234826872564494 -0.02077142323470195 0 0.00026116149937509828 -0.022008063137542992 0 -0.00087019596791348204 -0.022172380987397836 0 -5.8867328282220056e-05 -0.024011077510618734 0 -0.00087019596791348204 -0.022172380987397836 0 -0.00071577638904065516 -0.024326859876458527 0 -0.00087019596791348204 -0.022172380987397836 0 -0.00071577638904065516 -0.024326859876458527 0 -0.0022024908769432187 -0.022863128601562359 0 -0.00071577638904065516 -0.024326859876458527 0 -5.4200346477489054e-07 -0.02655896736669482 0 -0.00028457414853481889 -0.026917493149090182 0 -5.8867328282220056e-05 -0.024011077510618734 0 -0.00071577638904065516 -0.024326859876458527 0 -5.4200346477489054e-07 -0.02655896736669482 0 -5.4200346477489054e-07 -0.02655896736669482 0 -0.00028457414853481889 -0.026917493149090182 0 -2.6942504417907166e-06 -0.029351997547908751 0 -0.0011688804683868508 -0.025576526303242867 0 -0.0019538133042141894 -0.029450409678783162 0 -0.00049335311084403206 -0.02468351587153908 0 -0.0011688804683868508 -0.025576526303242867 0 -0.0025848234857702105 -0.02428305263120557 0 -0.0039674921832266044 -0.024563351188214545 0 -0.0036059112276192102 -0.022762386274716044 0 -4.1415123421587045e-06 -0.029992508247427305 0 -4.9919615059547246e-09 -0.0293570882368158 0 -1.2770394408072903e-08 -0.031061579059033107 0 -0.00028457414853481889 -0.026917493149090182 0 -0.00091895091339218803 -0.028306878781418895 0 -2.6942504417907166e-06 -0.029351997547908751 0 -0.0019538133042141894 -0.029450409678783162 0 -1.0652525681876005e-06 -0.029356596063321614 0 -0.0019538133042141894 -0.029450409678783162 0 -0.0031195996222279708 -0.028991963480475853 0 -0.0039674921832266044 -0.024563351188214545 0 -0.0036059112276192102 -0.022762386274716044 0 -0.0051198020360148219 -0.022756712890612811 0 -0.00087019596791348204 -0.022172380987397836 0 -0.0022024908769432187 -0.022863128601562359 0 -0.0026609626338186341 -0.021255331776366661 0 -0.00071577638904065516 -0.024326859876458527 0 -0.0025848234857702105 -0.02428305263120557 0 -0.0022024908769432187 -0.022863128601562359 0 -0.0025848234857702105 -0.02428305263120557 0 -0.0036059112276192102 -0.022762386274716044 0 -0.0022024908769432187 -0.022863128601562359 0 -0.0036059112276192102 -0.022762386274716044 0 -0.0022024908769432187 -0.022863128601562359 0 -0.0026609626338186341 -0.021255331776366661 0 -0.0036059112276192102 -0.022762386274716044 0 -0.0044354025279065845 -0.020773013793147613 0 -0.0051198020360148219 -0.022756712890612811 0 -0.0036059112276192102 -0.022762386274716044 0 -0.0026609626338186341 -0.021255331776366661 0 -0.0044354025279065845 -0.020773013793147613 0 -0.0026609626338186341 -0.021255331776366661 0 -0.0044354025279065845 -0.020773013793147613 0 -0.002728220170891906 -0.019860009663563553 0 -0.0044354025279065845 -0.020773013793147613 0 -0.0038470436315487175 -0.019503006928680369 0 -0.002728220170891906 -0.019860009663563553 0 -0.0044354025279065845 -0.020773013793147613 0 -0.0038470436315487175 -0.019503006928680369 0 -0.0053777806713775139 -0.020293303918246377 0 -0.0038470436315487175 -0.019503006928680369 0 -0.002728220170891906 -0.019860009663563553 0 -0.0028916331693442134 -0.018516418533309015 0 -0.0014019075268733557 -0.020323986922016375 0 -0.0026609626338186341 -0.021255331776366661 0 -0.002728220170891906 -0.019860009663563553 0 -0.0053777806713775139 -0.020293303918246377 0 -0.0061069684019734345 -0.021166489499719575 0 -0.0070571653475768083 -0.019849847482911333 0 -0.0036071556306336073 -0.028077185977200152 0 0.0015040040643626317 -0.028937602605402301 0 0.00021980410499618615 -0.035954282453388026 0 0.00083890214283348873 -0.035851951134962104 0 0.00079402463154277841 -0.035610341413497261 0 -0.0053777806713775139 -0.020293303918246377 0 -0.0070571653475768083 -0.019849847482911333 0 -0.0050674960489803687 -0.019200749067498479 0 -0.0044354025279065845 -0.020773013793147613 0 -0.0053777806713775139 -0.020293303918246377 0 -0.0061069684019734345 -0.021166489499719575 0 -0.0038470436315487175 -0.019503006928680369 0 -0.0053777806713775139 -0.020293303918246377 0 -0.0050674960489803687 -0.019200749067498479 0 -0.0036071556306336073 -0.028077185977200152 0 -0.0031195996222279708 -0.028991963480475853 0 -0.0044354025279065845 -0.020773013793147613 0 -0.0061069684019734345 -0.021166489499719575 0 -0.0051198020360148219 -0.022756712890612811 0 0.00021980410499618615 -0.035954282453388026 0 0.00047835940046578459 -0.035420567901980962 0 0.00083890214283348873 -0.035851951134962104 0 0.00021980410499618615 -0.035954282453388026 0 0.00047835940046578459 -0.035420567901980962 0 -0.0010042587815712242 -0.035352345688436766 0 -4.1415123421587045e-06 -0.029992508247427305 0 -1.2770394408072903e-08 -0.031061579059033107 0 3.7617407298619994e-09 -0.032766073646260142 0 -0.002478760079561619 -0.033516045291820264 0 -0.0010042587815712242 -0.035352345688436766 0 -1.9680103735052351e-06 -0.032773045523292396 0 -0.0019538133042141894 -0.029450409678783162 0 7.294836608157808e-07 -0.032767790196478519 0 0.00047835940046578459 -0.035420567901980962 0 -0.0010042587815712242 -0.035352345688436766 0 -1.9680103735052351e-06 -0.032773045523292396 0 0.00047835940046578459 -0.035420567901980962 0 -1.9680103735052351e-06 -0.032773045523292396 0 2.4084933929588253e-06 -0.036128015357352557 0 0.00047835940046578459 -0.035420567901980962 0 2.4084933929588253e-06 -0.036128015357352557 0 0.00016881718659861227 -0.037697499949253629 0 0.00047835940046578459 -0.035420567901980962 0 0.00016881718659861227 -0.037697499949253629 0 0.00083890214283348873 -0.035851951134962104 0 2.4084933929588253e-06 -0.036128015357352557 0 0.00016881718659861227 -0.037697499949253629 0 -2.6628478043941942e-06 -0.040660125920944895 0 0.00016881718659861227 -0.037697499949253629 0 -2.6628478043941942e-06 -0.040660125920944895 0 -0.00073249150667157052 -0.040820082387607627 0 0.00016881718659861227 -0.037697499949253629 0 -0.00073249150667157052 -0.040820082387607627 0 -0.0024618402204706555 -0.036597450889421491 0 -0.00073249150667157052 -0.040820082387607627 0 -0.00034329823620888569 -0.044435482249653629 0 5.4734889710729964e-05 -0.043734857006107256 0 -0.00085380476083530762 -0.040648257160177177 0 -0.0013224758789774993 -0.040314029779908514 0 0.00016881718659861227 -0.037697499949253629 0 -0.0024618402204706555 -0.036597450889421491 0 0.00073218088957441546 -0.034771577681345575 0 -0.0024618402204706555 -0.036597450889421491 0 0.00073218088957441546 -0.034771577681345575 0 -0.0036707945210764275 -0.03212888120519871 0 -0.00034329823620888569 -0.044435482249653629 0 0.00091100917203840778 -0.043894597774745962 0 9.5151447498459998e-05 -0.044535596624965638 0 -0.0013224758789774993 -0.040314029779908514 0 -0.0013456491292898021 -0.037821303352521443 0 0.00016881718659861227 -0.037697499949253629 0 0.00083890214283348873 -0.035851951134962104 0 0.00073218088957441546 -0.034771577681345575 0 0.00083890214283348873 -0.035851951134962104 0 0.00073218088957441546 -0.034771577681345575 0 0.00079402463154277841 -0.035610341413497261 0 0.0015768626564865201 -0.035782070163172808 0 0.0015040040643626317 -0.028937602605402301 0 0.0044107397537119682 -0.028899326036079868 0 0.0043393187438354975 -0.027948744422735816 0 0.0029056589067922326 -0.027898683828390759 0 0.00073218088957441546 -0.034771577681345575 0 0.0070661065481973026 -0.033291933668816144 0 0.0029056589067922326 -0.027898683828390759 0 0.0015040040643626317 -0.028937602605402301 0 0.0045089629601541177 -0.029169466687613173 0 0.00073218088957441546 -0.034771577681345575 0 0.0029056589067922326 -0.027898683828390759 0 -0.0008278273702846152 -0.029660806718822545 0 0.0029056589067922326 -0.027898683828390759 0 -0.00010853351677136595 -0.026016409379975292 0 -0.0008278273702846152 -0.029660806718822545 0 0.0029056589067922326 -0.027898683828390759 0 -0.00010853351677136595 -0.026016409379975292 0 0.0028639195837378592 -0.02497733239606598 0 0.00073511109468406602 -0.022401293158366146 0 0.0020565990343479339 -0.022827586164646835 0 0.0043393187438354975 -0.027948744422735816 0 0.0029056589067922326 -0.027898683828390759 0 0.005099200025420296 -0.026841183657255845 0 0.0029056589067922326 -0.027898683828390759 0 0.0028639195837378592 -0.02497733239606598 0 0.005099200025420296 -0.026841183657255845 0 -0.0013456491292898021 -0.037821303352521443 0 -0.00081322872853779123 -0.033521080003561875 0 0.00091100917203840778 -0.043894597774745962 0 0.00079301538594873542 -0.042834235656138919 0 0.00012073117870256168 -0.043725416974159555 0 0.00073218088957441546 -0.034771577681345575 0 -0.0036707945210764275 -0.03212888120519871 0 -0.0008278273702846152 -0.029660806718822545 0 -0.0036707945210764275 -0.03212888120519871 0 -0.0008278273702846152 -0.029660806718822545 0 -0.0038948312823949517 -0.025311522503913424 0 -0.00010853351677136595 -0.026016409379975292 0 -0.0008278273702846152 -0.029660806718822545 0 -0.0038948312823949517 -0.025311522503913424 0 0.00091100917203840778 -0.043894597774745962 0 0.0021471524399823364 -0.041714949437228518 0 0.00079301538594873542 -0.042834235656138919 0 0.0021471524399823364 -0.041714949437228518 0 0.00079301538594873542 -0.042834235656138919 0 3.8042994404815977e-05 -0.04148534350257703 0 0.0028069122349752961 -0.03894302110136777 0 0.0010794963023693692 -0.04114377019499111 0 0.0021471524399823364 -0.041714949437228518 0 0.001463544846519102 -0.03754455196358833 0 3.8042994404815977e-05 -0.04148534350257703 0 0.003986481416492064 -0.038116879544397186 0 0.0019311080577102679 -0.041391272433858657 0 0.0021611287180456035 -0.038564433910360324 0 0.0021471524399823364 -0.041714949437228518 0 0.0030134753501471698 -0.037671723068456668 0 0.001463544846519102 -0.03754455196358833 0 -0.0038948312823949517 -0.025311522503913424 0 -0.0023921295454912565 -0.02174609666488558 0 -0.0028500769242799811 -0.019252739059015429 0 -0.00081322872853779123 -0.033521080003561875 0 -0.00013014687941056432 -0.028164225204475035 0 -0.00010853351677136595 -0.026016409379975292 0 -0.0038948312823949517 -0.025311522503913424 0 -0.0023921295454912565 -0.02174609666488558 0 0.0030134753501471698 -0.037671723068456668 0 0.001463544846519102 -0.03754455196358833 0 0.0037305717886446784 -0.03279304215759702 0 -0.0023921295454912565 -0.02174609666488558 0 -0.0028500769242799811 -0.019252739059015429 0 -0.0014569830211762671 -0.019766171411341221 0 -0.0020073026305025181 -0.018813412829954541 0 -0.0028500769242799811 -0.019252739059015429 0 -0.0014569830211762671 -0.019766171411341221 0 0.003986481416492064 -0.038116879544397186 0 0.003165536824382695 -0.036653552573163779 0 0.0045191433024843039 -0.036122511317693881 0 0.0021611287180456035 -0.038564433910360324 0 0.0016403828375902683 -0.036976043341921408 0 0.003165536824382695 -0.036653552573163779 0 0.003986481416492064 -0.038116879544397186 0 0.0021611287180456035 -0.038564433910360324 0 0.003165536824382695 -0.036653552573163779 0 -0.00067880283189809755 -0.01911483077695315 0 -0.00092180471652816875 -0.019846305269154464 0 -0.00058557429850029507 -0.018995128848762366 0 -0.00067880283189809755 -0.01911483077695315 0 -0.00092180471652816875 -0.019846305269154464 0 -0.00094140710499028806 -0.019299444127737164 0 -0.0023921295454912565 -0.02174609666488558 0 -0.00092180471652816875 -0.019846305269154464 0 -0.0014569830211762671 -0.019766171411341221 0 -0.00092180471652816875 -0.019846305269154464 0 -0.0014569830211762671 -0.019766171411341221 0 -0.00094140710499028806 -0.019299444127737164 0 -0.0023180271228718033 -0.021649687858312547 0 0.00073511109468406602 -0.022401293158366146 0 -0.00010853351677136595 -0.026016409379975292 0 -0.0023921295454912565 -0.02174609666488558 0 0.0028639195837378592 -0.02497733239606598 0 -0.0014569830211762671 -0.019766171411341221 0 -0.0012960021957343474 -0.018759023306205134 0 -0.00094140710499028806 -0.019299444127737164 0 -0.0020073026305025181 -0.018813412829954541 0 -0.0014569830211762671 -0.019766171411341221 0 -0.0012960021957343474 -0.018759023306205134 0 -0.00067880283189809755 -0.01911483077695315 0 -0.00094140710499028806 -0.019299444127737164 0 -0.00063264392889454571 -0.018702872869362969 0 -0.0012960021957343474 -0.018759023306205134 0 -0.00094140710499028806 -0.019299444127737164 0 -0.00089107714425006642 -0.018569483320371932 0 -0.00094140710499028806 -0.019299444127737164 0 -0.00063264392889454571 -0.018702872869362969 0 -0.00089107714425006642 -0.018569483320371932 0 -0.00067880283189809755 -0.01911483077695315 0 -0.00063264392889454571 -0.018702872869362969 0 -0.00052314838539294214 -0.018653168439297305 0 -0.00067880283189809755 -0.01911483077695315 0 -0.00052314838539294214 -0.018653168439297305 0 -0.00058557429850029507 -0.018995128848762366 0 -0.00052314838539294214 -0.018653168439297305 0 -0.00048018555062545408 -0.018501116688313984 0 -0.00058557429850029507 -0.018995128848762366 0 -0.00052314838539294214 -0.018653168439297305 0 -0.00048018555062545408 -0.018501116688313984 0 -0.00045064452126326757 -0.018294430038201252 0 -0.00063264392889454571 -0.018702872869362969 0 -0.00052314838539294214 -0.018653168439297305 0 -0.00040123700198200769 -0.018154097838783925 0 -0.00052314838539294214 -0.018653168439297305 0 -0.00045064452126326757 -0.018294430038201252 0 -0.00040123700198200769 -0.018154097838783925 0 -0.00044674379716096413 -0.018023279350797727 0 -0.00045064452126326757 -0.018294430038201252 0 -0.00044538637919078417 -0.018151695267466846 0 -0.00044674379716096413 -0.018023279350797727 0 -0.00045064452126326757 -0.018294430038201252 0 -0.00040123700198200769 -0.018154097838783925 0 -0.00044674379716096413 -0.018023279350797727 0 -0.00043403191351413947 -0.017853595197430974 0 -0.00044538637919078417 -0.018151695267466846 0 -0.00044674379716096413 -0.018023279350797727 0 -0.00043403191351413947 -0.017853595197430974 0 -0.00048744940309346316 -0.017714366198198623 0 -0.00039382641191945813 -0.01793830254930642 0 -0.00043403191351413947 -0.017853595197430974 0 -0.00044538637919078417 -0.018151695267466846 0 -0.00039382641191945813 -0.01793830254930642 0 -0.00044538637919078417 -0.018151695267466846 0 -0.00040537423089296557 -0.018149042859323804 0 -0.00048018555062545408 -0.018501116688313984 0 -0.00045064452126326757 -0.018294430038201252 0 -0.00044538637919078417 -0.018151695267466846 0 -0.00048018555062545408 -0.018501116688313984 0 -0.00044538637919078417 -0.018151695267466846 0 -0.00046054718653202578 -0.01834993054628872 0 -0.00048018555062545408 -0.018501116688313984 0 -0.00046054718653202578 -0.01834993054628872 0 -0.0004782428540459785 -0.018542762748197935 0 -0.00046054718653202578 -0.01834993054628872 0 -0.00044261228672130891 -0.018359659809898062 0 -0.0004782428540459785 -0.018542762748197935 0 -0.00044538637919078417 -0.018151695267466846 0 -0.00046054718653202578 -0.01834993054628872 0 -0.00040537423089296557 -0.018149042859323804 0 -0.00046054718653202578 -0.01834993054628872 0 -0.00040537423089296557 -0.018149042859323804 0 -0.00044261228672130891 -0.018359659809898062 0 -0.0024809578469173117 -0.018245011967530006 0 0.000211918558818602 -0.021195310027209698 0 -0.0011764039133766817 -0.018946943790379474 0 -0.002728220170891906 -0.019860009663563553 0 -0.0028916331693442134 -0.018516418533309015 0 0.000211918558818602 -0.021195310027209698 0 0.0033277570072277759 -0.023368635180593105 0 0.000211918558818602 -0.021195310027209698 0 0.00014722830627961143 -0.023379501987143725 0 -0.0038470436315487175 -0.019503006928680369 0 -0.0028916331693442134 -0.018516418533309015 0 -0.0050674960489803687 -0.019200749067498479 0 0.0064025099370943177 -0.027755033691817328 0 0.0058265239086057975 -0.028144571147915198 0 0.0059427806391491311 -0.027623782528918454 0 0.0058265239086057975 -0.028144571147915198 0 0.0051918367498542143 -0.027894735761988806 0 0.0059427806391491311 -0.027623782528918454 0 0.0015040040643626317 -0.028937602605402301 0 0.00014722830627961143 -0.023379501987143725 0 0.0044107397537119682 -0.028899326036079868 0 0.0058265239086057975 -0.028144571147915198 0 0.0051918367498542143 -0.027894735761988806 0 0.0044107397537119682 -0.028899326036079868 0 0.0043393187438354975 -0.027948744422735816 0 0.0051918367498542143 -0.027894735761988806 0 0.0051918367498542143 -0.027894735761988806 0 0.005099200025420296 -0.026841183657255845 0 0.0059427806391491311 -0.027623782528918454 0 0.0043393187438354975 -0.027948744422735816 0 0.0051918367498542143 -0.027894735761988806 0 0.005099200025420296 -0.026841183657255845 0 0.0020565990343479339 -0.022827586164646835 0 0.0033277570072277759 -0.023368635180593105 0 -0.00048018555062545408 -0.018501116688313984 0 -0.00058557429850029507 -0.018995128848762366 0 -0.0004782428540459785 -0.018542762748197935 0 5.4520378835380864e-05 -0.053629919823914331 0 -5.8365648149192004e-08 -0.054995558135229994 0 5.1781665519204217e-07 -0.054997219916413591 0 -5.8365648149192004e-08 -0.054995558135229994 0 -6.2465783518688887e-05 -0.049761416103891197 0 3.8898798264858735e-07 -0.046769363639280942 0 -5.8365648149192004e-08 -0.054995558135229994 0 -6.2465783518688887e-05 -0.049761416103891197 0 -0.00032561205123350255 -0.051559488663547141 0 5.4520378835380864e-05 -0.053629919823914331 0 -5.8365648149192004e-08 -0.054995558135229994 0 -0.00032561205123350255 -0.051559488663547141 0 -6.2465783518688887e-05 -0.049761416103891197 0 0.00011601366823913073 -0.049217567615489663 0 -0.00032561205123350255 -0.051559488663547141 0 0.00011601366823913073 -0.049217567615489663 0 -0.00032561205123350255 -0.051559488663547141 0 -0.00036674050444673146 -0.049103078434355456 0 5.4520378835380864e-05 -0.053629919823914331 0 -0.00032561205123350255 -0.051559488663547141 0 -0.00089620867456586043 -0.05397455868265516 0 -0.00037768420524846383 -0.05148493329333264 0 -0.00058031909660246305 -0.051550256362708428 0 0.00011601366823913073 -0.049217567615489663 0 -0.00036674050444673146 -0.049103078434355456 0 -0.00015072217938339526 -0.048979200471751014 0 0.00011601366823913073 -0.049217567615489663 0 -0.00028102896421012565 -0.04888030765728358 0 -0.00015072217938339526 -0.048979200471751014 0 -0.0014951511447886296 -0.044389210877257793 0 -0.00044042807302069223 -0.047028747000415955 0 -0.00024053574092327542 -0.044751296692245729 0 -0.00086283778971794607 -0.046482127645102261 0 -0.0005273854407205473 -0.046933673210615236 0 -6.2465783518688887e-05 -0.049761416103891197 0 0.00011601366823913073 -0.049217567615489663 0 -0.00044042807302069223 -0.047028747000415955 0 0.00011601366823913073 -0.049217567615489663 0 -0.00028102896421012565 -0.04888030765728358 0 -0.00044042807302069223 -0.047028747000415955 0 -6.2465783518688887e-05 -0.049761416103891197 0 -0.00044042807302069223 -0.047028747000415955 0 3.8898798264858735e-07 -0.046769363639280942 0 -0.00044042807302069223 -0.047028747000415955 0 3.8898798264858735e-07 -0.046769363639280942 0 -4.0015647234264016e-05 -0.045485428403116528 0 3.8898798264858735e-07 -0.046769363639280942 0 -4.0015647234264016e-05 -0.045485428403116528 0 4.5024993437298166e-06 -0.043442703553544765 0 -0.00044042807302069223 -0.047028747000415955 0 -4.0015647234264016e-05 -0.045485428403116528 0 5.6836967762115957e-05 -0.044881492917976253 0 -2.6628478043941942e-06 -0.040660125920944895 0 3.8898798264858735e-07 -0.046769363639280942 0 4.5024993437298166e-06 -0.043442703553544765 0 -4.0015647234264016e-05 -0.045485428403116528 0 4.5024993437298166e-06 -0.043442703553544765 0 5.6836967762115957e-05 -0.044881492917976253 0 -2.6628478043941942e-06 -0.040660125920944895 0 -0.00073249150667157052 -0.040820082387607627 0 4.5024993437298166e-06 -0.043442703553544765 0 4.5024993437298166e-06 -0.043442703553544765 0 5.4734889710729964e-05 -0.043734857006107256 0 5.6836967762115957e-05 -0.044881492917976253 0 -0.00073249150667157052 -0.040820082387607627 0 4.5024993437298166e-06 -0.043442703553544765 0 5.4734889710729964e-05 -0.043734857006107256 0 5.4734889710729964e-05 -0.043734857006107256 0 5.6836967762115957e-05 -0.044881492917976253 0 9.5151447498459998e-05 -0.044535596624965638 0 -0.00034329823620888569 -0.044435482249653629 0 5.4734889710729964e-05 -0.043734857006107256 0 9.5151447498459998e-05 -0.044535596624965638 0 5.6836967762115957e-05 -0.044881492917976253 0 -0.00024053574092327542 -0.044751296692245729 0 9.5151447498459998e-05 -0.044535596624965638 0 -0.00044042807302069223 -0.047028747000415955 0 5.6836967762115957e-05 -0.044881492917976253 0 -0.00024053574092327542 -0.044751296692245729 0 -0.00024053574092327542 -0.044751296692245729 0 9.5151447498459998e-05 -0.044535596624965638 0 0.00012073117870256168 -0.043725416974159555 0 0.00091100917203840778 -0.043894597774745962 0 9.5151447498459998e-05 -0.044535596624965638 0 0.00012073117870256168 -0.043725416974159555 0 -0.00024053574092327542 -0.044751296692245729 0 0.00012073117870256168 -0.043725416974159555 0 -0.00068263991821131402 -0.042850761993398136 0 -0.0014951511447886296 -0.044389210877257793 0 -0.00024053574092327542 -0.044751296692245729 0 -0.00068263991821131402 -0.042850761993398136 0 -0.00068263991821131402 -0.042850761993398136 0 -0.00043438084242195934 -0.040856727886597582 0 -0.0020631884936122774 -0.042338166389344227 0 0.00014010438953063352 -0.0436170085181374 0 0.0010794963023693692 -0.04114377019499111 0 0.00012073117870256168 -0.043725416974159555 0 -0.00068263991821131402 -0.042850761993398136 0 0.0019311080577102679 -0.041391272433858657 0 0.00079301538594873542 -0.042834235656138919 0 0.00012073117870256168 -0.043725416974159555 0 3.8042994404815977e-05 -0.04148534350257703 0 -0.00068263991821131402 -0.042850761993398136 0 0.0019311080577102679 -0.041391272433858657 0 -0.00043438084242195934 -0.040856727886597582 0 0.0019311080577102679 -0.041391272433858657 0 0.0010491378896100611 -0.039666277607033708 0 -0.00043438084242195934 -0.040856727886597582 0 0.0019311080577102679 -0.041391272433858657 0 0.0010491378896100611 -0.039666277607033708 0 0.0021611287180456035 -0.038564433910360324 0 0.0010491378896100611 -0.039666277607033708 0 -8.4355406774967782e-05 -0.039193579688869835 0 -0.00043438084242195934 -0.040856727886597582 0 0.0010491378896100611 -0.039666277607033708 0 0.0011470412083429775 -0.038167129636368279 0 0.0021611287180456035 -0.038564433910360324 0 0.0011470412083429775 -0.038167129636368279 0 4.0718106738792337e-05 -0.037954997234406831 0 -8.4355406774967782e-05 -0.039193579688869835 0 0.0010491378896100611 -0.039666277607033708 0 0.0011470412083429775 -0.038167129636368279 0 -8.4355406774967782e-05 -0.039193579688869835 0 4.0718106738792337e-05 -0.037954997234406831 0 0.0016403828375902683 -0.036976043341921408 0 6.4823442457251175e-05 -0.036054493195923416 0 0.0011470412083429775 -0.038167129636368279 0 4.0718106738792337e-05 -0.037954997234406831 0 0.0016403828375902683 -0.036976043341921408 0 0.0011470412083429775 -0.038167129636368279 0 0.0021611287180456035 -0.038564433910360324 0 0.0016403828375902683 -0.036976043341921408 0 -0.0031114682362988213 -0.042157644913804658 0 -0.0027008446414876525 -0.032387128429424809 0 -0.009155886610343918 -0.035036907863274749 0 -0.0075227586415190723 -0.030686244764185616 0 -0.0049477701180582652 -0.030405883465939192 0 4.0718106738792337e-05 -0.037954997234406831 0 -8.4355406774967782e-05 -0.039193579688869835 0 -0.0022638137054482436 -0.039354158197506726 0 4.0718106738792337e-05 -0.037954997234406831 0 -0.0022638137054482436 -0.039354158197506726 0 6.4823442457251175e-05 -0.036054493195923416 0 -8.4355406774967782e-05 -0.039193579688869835 0 -0.00043438084242195934 -0.040856727886597582 0 -0.0022638137054482436 -0.039354158197506726 0 6.8531410731503887e-05 -0.048227293599802719 0 -0.00010800456314564662 -0.048478593938080503 0 -3.7114840152684684e-05 -0.048683286542456516 0 -0.00043438084242195934 -0.040856727886597582 0 -0.0022638137054482436 -0.039354158197506726 0 -0.0020631884936122774 -0.042338166389344227 0 -0.0031114682362988213 -0.042157644913804658 0 -0.00085367214228221301 -0.045773583725647979 0 0.00015506451404244544 -0.048185168716543221 0 -0.00019004901792968296 -0.04821912097188627 0 -0.00010800456314564662 -0.048478593938080503 0 -0.0031114682362988213 -0.042157644913804658 0 -0.00062542678339378051 -0.048822459566175612 0 -0.0031114682362988213 -0.042157644913804658 0 -0.0029500337445822204 -0.039237500849689147 0 0.00015506451404244544 -0.048185168716543221 0 -5.4514169377595689e-05 -0.047972716389033422 0 0.00020530603768329411 -0.047710179159846391 0 0.00015506451404244544 -0.048185168716543221 0 -5.4514169377595689e-05 -0.047972716389033422 0 -0.00019004901792968296 -0.04821912097188627 0 -0.009155886610343918 -0.035036907863274749 0 -0.0086907616683222725 -0.030673529737080076 0 -0.0075227586415190723 -0.030686244764185616 0 -5.4514169377595689e-05 -0.047972716389033422 0 -0.00019004901792968296 -0.04821912097188627 0 -0.00039057049092242085 -0.047772778868616285 0 -0.00019004901792968296 -0.04821912097188627 0 -0.0004711068843853816 -0.048313530577306182 0 -0.00039057049092242085 -0.047772778868616285 0 -0.00019004901792968296 -0.04821912097188627 0 -0.00030140466307938054 -0.048543200122291796 0 -0.0004711068843853816 -0.048313530577306182 0 -0.00019004901792968296 -0.04821912097188627 0 -0.00010800456314564662 -0.048478593938080503 0 -0.00030140466307938054 -0.048543200122291796 0 -0.00010800456314564662 -0.048478593938080503 0 -0.00019994325014063364 -0.04877680836526558 0 -3.7114840152684684e-05 -0.048683286542456516 0 -0.00010800456314564662 -0.048478593938080503 0 -0.00030140466307938054 -0.048543200122291796 0 -0.00019994325014063364 -0.04877680836526558 0 -0.00028102896421012565 -0.04888030765728358 0 -0.00019994325014063364 -0.04877680836526558 0 -3.7114840152684684e-05 -0.048683286542456516 0 -0.00086283778971794607 -0.046482127645102261 0 -0.00085367214228221301 -0.045773583725647979 0 -0.0014951511447886296 -0.044389210877257793 0 -0.00068263991821131402 -0.042850761993398136 0 -0.0020631884936122774 -0.042338166389344227 0 -0.00028102896421012565 -0.04888030765728358 0 -0.00019994325014063364 -0.04877680836526558 0 -0.00015072217938339526 -0.048979200471751014 0 -0.00036674050444673146 -0.049103078434355456 0 -0.00015072217938339526 -0.048979200471751014 0 -0.00041746819832161423 -0.048749828051081703 0 -0.00019994325014063364 -0.04877680836526558 0 -0.00015072217938339526 -0.048979200471751014 0 -0.00041746819832161423 -0.048749828051081703 0 -0.00058031909660246305 -0.051550256362708428 0 -0.00053704510872609724 -0.051572105979568093 0 -0.00089620867456586043 -0.05397455868265516 0 -0.00069915820615977107 -0.05471563885415489 0 -0.0002134371769703565 -0.054727841019982473 0 -0.00069915820615977107 -0.05471563885415489 0 -0.00032231815236263237 -0.054927899797796831 0 -0.0002134371769703565 -0.054727841019982473 0 -0.00030140466307938054 -0.048543200122291796 0 -0.00019994325014063364 -0.04877680836526558 0 -0.00041746819832161423 -0.048749828051081703 0 -0.00053704510872609724 -0.051572105979568093 0 -0.0006580822876607953 -0.052186443582402278 0 -0.00030140466307938054 -0.048543200122291796 0 -0.00041746819832161423 -0.048749828051081703 0 -0.0004711068843853816 -0.048313530577306182 0 -0.00061106469684744718 -0.054898017195567674 0 -0.00038030120595416457 -0.055094470988473802 0 -0.00063532435723233881 -0.055025938629193888 0 -0.0006580822876607953 -0.052186443582402278 0 -0.00021136273445326821 -0.048573229853589805 0 -0.00061106469684744718 -0.054898017195567674 0 -0.00032231815236263237 -0.054927899797796831 0 -0.00038030120595416457 -0.055094470988473802 0 -0.00069915820615977107 -0.05471563885415489 0 -0.00061106469684744718 -0.054898017195567674 0 -0.00032231815236263237 -0.054927899797796831 0 -0.00032231815236263237 -0.054927899797796831 0 -2.6830196842385235e-07 -0.055000622613353804 0 -0.0002134371769703565 -0.054727841019982473 0 -0.00032231815236263237 -0.054927899797796831 0 -0.0001860603271336292 -0.055026868915315018 0 -0.00038030120595416457 -0.055094470988473802 0 -0.00032231815236263237 -0.054927899797796831 0 -0.0001860603271336292 -0.055026868915315018 0 -2.6830196842385235e-07 -0.055000622613353804 0 -2.6830196842385235e-07 -0.055000622613353804 0 -2.3040301464116314e-05 -0.055014817998598017 0 1.8820231076352751e-08 -0.054999791629190685 0 -0.0001860603271336292 -0.055026868915315018 0 -2.6830196842385235e-07 -0.055000622613353804 0 -2.3040301464116314e-05 -0.055014817998598017 0 -2.6830196842385235e-07 -0.055000622613353804 0 -0.0002134371769703565 -0.054727841019982473 0 5.1781665519204217e-07 -0.054997219916413591 0 5.4520378835380864e-05 -0.053629919823914331 0 -0.00089620867456586043 -0.05397455868265516 0 -0.0002134371769703565 -0.054727841019982473 0 5.4520378835380864e-05 -0.053629919823914331 0 -0.0002134371769703565 -0.054727841019982473 0 5.1781665519204217e-07 -0.054997219916413591 0 1.4978985002327633e-08 -0.054999907319053111 0 -0.0001222320949914605 -0.05465043174898758 0 -5.5608851620494506e-09 -0.054999956777758575 0 -5.1105444886942003e-06 -0.054963002363766209 0 -4.5197660674251472e-06 -0.054972893070001902 0 -0.0001222320949914605 -0.05465043174898758 0 -0.0017169223478863879 -0.048145232447145851 0 -0.0034807815398708365 -0.041220693424528991 0 -0.0041361289587831321 -0.042737425713447644 0 -0.0028351291738951279 -0.041711761295072883 0 1.1347192752283046e-05 -0.054918325533107555 0 4.4070706442532148e-05 -0.054854843558281512 0 8.0163039007906688e-06 -0.05495969780520947 0 -5.1105444886942003e-06 -0.054963002363766209 0 2.9007853719492141e-06 -0.054914262032084764 0 -5.9026039968200242e-06 -0.054934523411322871 0 -0.0017169223478863879 -0.048145232447145851 0 -0.0020792818659450432 -0.048585873158981996 0 -2.3247375961316184e-08 -0.054999750268795423 0 1.1347192752283046e-05 -0.054918325533107555 0 8.0163039007906688e-06 -0.05495969780520947 0 -0.0020792818659450432 -0.048585873158981996 0 -0.0019851534370950437 -0.050891296949082135 0 8.0163039007906688e-06 -0.05495969780520947 0 3.473627171855456e-09 -0.054999991711389445 0 -3.7355145842924999e-07 -0.054987123880487702 0 -2.3247375961316184e-08 -0.054999750268795423 0 8.0163039007906688e-06 -0.05495969780520947 0 3.473627171855456e-09 -0.054999991711389445 0 -0.0001860603271336292 -0.055026868915315018 0 -2.3040301464116314e-05 -0.055014817998598017 0 -7.4773063978764043e-05 -0.055102521791057568 0 -2.3040301464116314e-05 -0.055014817998598017 0 1.8820231076352751e-08 -0.054999791629190685 0 -1.0049846715619357e-05 -0.054992330291502967 0 -0.0016532621344278601 -0.054234417975399601 0 -0.0019851534370950437 -0.050891296949082135 0 -0.00038908121126394384 -0.052227862134200866 0 -0.0019851534370950437 -0.050891296949082135 0 -0.0019851534370950437 -0.050891296949082135 0 -0.0020443433545191052 -0.049664972531194729 0 -0.0047777976165664588 -0.044306749684047277 0 -0.0032816055886206522 -0.043238727880980647 0 -0.0031415909336655694 -0.044276020886824287 0 -0.0001860603271336292 -0.055026868915315018 0 -7.4773063978764043e-05 -0.055102521791057568 0 -0.00038030120595416457 -0.055094470988473802 0 -0.0041361289587831321 -0.042737425713447644 0 -0.0047777976165664588 -0.044306749684047277 0 -0.0032816055886206522 -0.043238727880980647 0 -0.0032816055886206522 -0.043238727880980647 0 -0.00223532960847938 -0.043299243420844048 0 -0.0026567846400197886 -0.042504318374110679 0 -0.0041361289587831321 -0.042737425713447644 0 -0.0032816055886206522 -0.043238727880980647 0 -0.0026567846400197886 -0.042504318374110679 0 -0.0032816055886206522 -0.043238727880980647 0 -0.0031415909336655694 -0.044276020886824287 0 -0.00223532960847938 -0.043299243420844048 0 -0.0020443433545191052 -0.049664972531194729 0 -0.00021136273445326821 -0.048573229853589805 0 -0.0031415909336655694 -0.044276020886824287 0 -0.00223532960847938 -0.043299243420844048 0 -0.0014950139204867028 -0.044268045711626493 0 -0.00223532960847938 -0.043299243420844048 0 -0.0012396012040126574 -0.043207315428843998 0 -0.0014950139204867028 -0.044268045711626493 0 -0.00223532960847938 -0.043299243420844048 0 -0.0016365664328806062 -0.04246868767047797 0 -0.0026567846400197886 -0.042504318374110679 0 -0.00223532960847938 -0.043299243420844048 0 -0.0016365664328806062 -0.04246868767047797 0 -0.0012396012040126574 -0.043207315428843998 0 -0.0026567846400197886 -0.042504318374110679 0 -0.0028351291738951279 -0.041711761295072883 0 -0.0017903671873051605 -0.041530452658467658 0 -0.0016365664328806062 -0.04246868767047797 0 -0.0026567846400197886 -0.042504318374110679 0 -0.0017903671873051605 -0.041530452658467658 0 -0.0041361289587831321 -0.042737425713447644 0 -0.0026567846400197886 -0.042504318374110679 0 -0.0028351291738951279 -0.041711761295072883 0 -0.0017169223478863879 -0.048145232447145851 0 -0.0021586823091884759 -0.040250521228701319 0 -0.0034807815398708365 -0.041220693424528991 0 -0.0028351291738951279 -0.041711761295072883 0 -0.0023142133230032612 -0.040817647643373603 0 -0.0028351291738951279 -0.041711761295072883 0 -0.0017903671873051605 -0.041530452658467658 0 -0.0023142133230032612 -0.040817647643373603 0 -0.0017903671873051605 -0.041530452658467658 0 -0.00096261576399504648 -0.041164874661083761 0 -0.0011830378955571227 -0.040437789896994362 0 -0.00096261576399504648 -0.041164874661083761 0 -0.00038810418860285828 -0.041427735156361493 0 -0.0010927622090590304 -0.0418317807143034 0 -0.0017903671873051605 -0.041530452658467658 0 -0.00096261576399504648 -0.041164874661083761 0 -0.0010927622090590304 -0.0418317807143034 0 -0.00096261576399504648 -0.041164874661083761 0 -0.00038810418860285828 -0.041427735156361493 0 -0.00037101181945379858 -0.04060140221116345 0 -0.00038810418860285828 -0.041427735156361493 0 0.00043326697623545334 -0.040735042244995273 0 -0.00037101181945379858 -0.04060140221116345 0 -0.00038810418860285828 -0.041427735156361493 0 -0.00063422671887520459 -0.042462136480954142 0 -0.0010927622090590304 -0.0418317807143034 0 -0.00038810418860285828 -0.041427735156361493 0 -0.00063422671887520459 -0.042462136480954142 0 0.00029161854677805529 -0.041849903389557963 0 -0.00063422671887520459 -0.042462136480954142 0 0.00012162466707157434 -0.042955369159211658 0 0.00029161854677805529 -0.041849903389557963 0 -0.0016365664328806062 -0.04246868767047797 0 -0.0017903671873051605 -0.041530452658467658 0 -0.0010927622090590304 -0.0418317807143034 0 -0.0016365664328806062 -0.04246868767047797 0 -0.00063422671887520459 -0.042462136480954142 0 -0.0010927622090590304 -0.0418317807143034 0 -0.00063422671887520459 -0.042462136480954142 0 -0.0012396012040126574 -0.043207315428843998 0 -0.00062904585212085538 -0.043367004362587849 0 -0.0016365664328806062 -0.04246868767047797 0 -0.00063422671887520459 -0.042462136480954142 0 -0.0012396012040126574 -0.043207315428843998 0 -0.0008859193642245291 -0.042080237945007572 0 -0.00021136273445326821 -0.048573229853589805 0 -0.0012396012040126574 -0.043207315428843998 0 -0.001463434174129952 -0.043994650163437191 0 -0.00062904585212085538 -0.043367004362587849 0 -0.00021136273445326821 -0.048573229853589805 0 -0.0029500337445822204 -0.039237500849689147 0 -0.001463434174129952 -0.043994650163437191 0 -5.3689223262718541e-05 -0.043979429749421858 0 -0.00062904585212085538 -0.043367004362587849 0 -5.3689223262718541e-05 -0.043979429749421858 0 -0.00062904585212085538 -0.043367004362587849 0 0.00012162466707157434 -0.042955369159211658 0 -5.4514169377595689e-05 -0.047972716389033422 0 -0.00039057049092242085 -0.047772778868616285 0 0.00020530603768329411 -0.047710179159846391 0 -0.00063422671887520459 -0.042462136480954142 0 -0.00062904585212085538 -0.043367004362587849 0 0.00012162466707157434 -0.042955369159211658 0 -0.0080629061883575864 -0.026618295286529127 0 -0.0049475030851697018 -0.027021331764890095 0 -0.004172600713433546 -0.023791840423362461 0 -0.0080629061883575864 -0.026618295286529127 0 -0.0068204000712913833 -0.029059353584207814 0 -0.0049475030851697018 -0.027021331764890095 0 -0.0029500337445822204 -0.039237500849689147 0 -0.0039999467190116531 -0.034456447623714047 0 -0.0086564297337173197 -0.030649081139745678 0 -0.0080629061883575864 -0.026618295286529127 0 -0.0068204000712913833 -0.029059353584207814 0 -0.0068204000712913833 -0.029059353584207814 0 -0.0049477701180582652 -0.030405883465939192 0 -0.0049475030851697018 -0.027021331764890095 0 -0.0068204000712913833 -0.029059353584207814 0 -0.0075227586415190723 -0.030686244764185616 0 -0.0049477701180582652 -0.030405883465939192 0 -0.0086564297337173197 -0.030649081139745678 0 -0.0068204000712913833 -0.029059353584207814 0 -0.0075227586415190723 -0.030686244764185616 0 -0.0029500337445822204 -0.039237500849689147 0 -0.0064905633306984283 -0.036903253443203131 0 0.0016403828375902683 -0.036976043341921408 0 6.4823442457251175e-05 -0.036054493195923416 0 0.0027873461445661329 -0.035134805778853834 0 6.4823442457251175e-05 -0.036054493195923416 0 0.0027873461445661329 -0.035134805778853834 0 0.0031975539826626831 -0.032014017046346287 0 -0.0027008446414876525 -0.032387128429424809 0 0.0009830085695517023 -0.029141661946472566 0 -0.0049477701180582652 -0.030405883465939192 0 -0.0049475030851697018 -0.027021331764890095 0 -0.0012152197504245179 -0.026000319316847695 0 -0.0049475030851697018 -0.027021331764890095 0 -0.004172600713433546 -0.023791840423362461 0 -0.0012152197504245179 -0.026000319316847695 0 -0.004172600713433546 -0.023791840423362461 0 -0.0074732708467283972 -0.022880423869141304 0 -0.0053030330362714949 -0.021572374576228171 0 -0.0039999467190116531 -0.034456447623714047 0 -0.003689234506975838 -0.032411827422043904 0 -0.0080629061883575864 -0.026618295286529127 0 -0.004172600713433546 -0.023791840423362461 0 -0.0074732708467283972 -0.022880423869141304 0 -0.003689234506975838 -0.032411827422043904 0 -0.0012851943166053504 -0.030396911834099951 0 -0.0074732708467283972 -0.022880423869141304 0 -0.0053030330362714949 -0.021572374576228171 0 -0.0069090445345240401 -0.019391665713639594 0 -0.00038810418860285828 -0.041427735156361493 0 0.00029161854677805529 -0.041849903389557963 0 0.00043326697623545334 -0.040735042244995273 0 -0.0010315228210596554 -0.019260948269932146 0 -0.0012851943166053504 -0.030396911834099951 0 -0.004172600713433546 -0.023791840423362461 0 -0.0026670851557119199 -0.020268030160343974 0 -0.0053030330362714949 -0.021572374576228171 0 -0.0026670851557119199 -0.020268030160343974 0 -0.0053030330362714949 -0.021572374576228171 0 -0.0069090445345240401 -0.019391665713639594 0 0.001435325329888332 -0.020560631026880199 0 0.0018757512706592656 -0.02136906636819776 0 0.0026109520902933359 -0.020908594013512579 0 0.001435325329888332 -0.020560631026880199 0 0.0018757512706592656 -0.02136906636819776 0 0.0011399654047204784 -0.021459790496690265 0 0.0018757512706592656 -0.02136906636819776 0 0.0026109520902933359 -0.020908594013512579 0 0.0025491205070759678 -0.021746982728763745 0 -0.0012851943166053504 -0.030396911834099951 0 0.0014388953916043194 -0.030456199643804173 0 0.00016961956487315867 -0.039825156741062205 0 -8.3352470579141895e-05 -0.039475457323060612 0 0.00031253725923274149 -0.039122396781737276 0 0.0014388953916043194 -0.030456199643804173 0 0.0014403452723410768 -0.029851492864304927 0 0.0025491205070759678 -0.021746982728763745 0 0.0018379452551628569 -0.022226170544972269 0 0.0024601746150455547 -0.022654999832624 0 0.00031253725923274149 -0.039122396781737276 0 0.0001202454537536766 -0.038686107732800207 0 0.00049312227521900679 -0.038142525584246259 0 0.00031253725923274149 -0.039122396781737276 0 0.0001202454537536766 -0.038686107732800207 0 -0.00020493555568670523 -0.038996311153798806 0 -8.3352470579141895e-05 -0.039475457323060612 0 0.00031253725923274149 -0.039122396781737276 0 -0.00020493555568670523 -0.038996311153798806 0 0.0018757512706592656 -0.02136906636819776 0 0.0018379452551628569 -0.022226170544972269 0 0.0011399654047204784 -0.021459790496690265 0 0.0018379452551628569 -0.022226170544972269 0 0.0014700004467626698 -0.022778693110205077 0 0.0011399654047204784 -0.021459790496690265 0 0.0018757512706592656 -0.02136906636819776 0 0.0025491205070759678 -0.021746982728763745 0 0.0018379452551628569 -0.022226170544972269 0 0.0014700004467626698 -0.022778693110205077 0 0.0021930980542806473 -0.023094425603334343 0 0.0021517123969022264 -0.024370107928407415 0 0.0018379452551628569 -0.022226170544972269 0 0.0014700004467626698 -0.022778693110205077 0 0.0021930980542806473 -0.023094425603334343 0 0.0018379452551628569 -0.022226170544972269 0 0.0021930980542806473 -0.023094425603334343 0 0.0027828344455531917 -0.022778572416770924 0 0.00094986286658033624 -0.022650700469519943 0 0.0014403452723410768 -0.029851492864304927 0 0.0013219374105426563 -0.018861429790447824 0 0.0012505709921417866 -0.018706803362970648 0 0.0014924377484108044 -0.018754310268794955 0 0.001224989823855613 -0.020086323002173143 0 0.0012382135522205065 -0.025841446230633447 0 0.0021930980542806473 -0.023094425603334343 0 0.0021517123969022264 -0.024370107928407415 0 0.0027130098270690345 -0.023405685208574206 0 0.0021517123969022264 -0.024370107928407415 0 0.0023157387311611216 -0.024341634708670529 0 0.0027130098270690345 -0.023405685208574206 0 -0.00022630854284596145 -0.031365921079998714 0 0.0011116151786784185 -0.030437098447049869 0 0.00073738956480025623 -0.033321048751130511 0 0.0017369981539538323 -0.027583441396723297 0 0.0017759230317559989 -0.027663955042019565 0 0.0012980627795040971 -0.028016563628528435 0 8.0035691191335492e-05 -0.030635458305543112 0 -0.00022630854284596145 -0.031365921079998714 0 0.0011116151786784185 -0.030437098447049869 0 0.001159586027240044 -0.02808177024562732 0 0.0008278176569891675 -0.029299695052134596 0 0.0012382135522205065 -0.025841446230633447 0 0.001159586027240044 -0.02808177024562732 0 0.0022486221635323583 -0.027328241071727623 0 0.0011134489624895899 -0.027548597251137855 0 0.0016857139530847252 -0.026194478513688394 0 0.0012382135522205065 -0.025841446230633447 0 0.0008278176569891675 -0.029299695052134596 0 0.00016210209635937544 -0.033210585526929369 0 0.00010380179428523282 -0.033670116802261257 0 -0.0009663196853802881 -0.033471292622707066 0 -0.0013871686210111759 -0.037737659061677892 0 -0.0025830132141996891 -0.038016502113359635 0 -0.0019409272032186505 -0.037433805912752631 0 -0.0013871686210111759 -0.037737659061677892 0 -0.0015886174559948244 -0.037345935595632151 0 -0.0019409272032186505 -0.037433805912752631 0 -0.00042876863117243951 -0.032284298565850841 0 -0.00022746946060985326 -0.035054224822357032 0 0.001159586027240044 -0.02808177024562732 0 -0.00042876863117243951 -0.032284298565850841 0 -0.00042876863117243951 -0.032284298565850841 0 0.0013890093885093489 -0.02904057287418127 0 0.001159586027240044 -0.02808177024562732 0 0.0013890093885093489 -0.02904057287418127 0 5.5455421591986463e-05 -0.030300901645131495 0 0.00043440384880542263 -0.030228794429206625 0 0.00058946744781305247 -0.029018524791969463 0 0.00010380179428523282 -0.033670116802261257 0 -1.9431467935440729e-05 -0.033966436562049167 0 -0.0009663196853802881 -0.033471292622707066 0 0.0021457065880137885 -0.029555890632776503 0 0.0018285222140568247 -0.031947683794605795 0 0.0012714652436021713 -0.031627792449929221 0 0.0013890093885093489 -0.02904057287418127 0 0.0014403452723410768 -0.029851492864304927 0 0.0021930980542806473 -0.023094425603334343 0 0.0027130098270690345 -0.023405685208574206 0 0.0027828344455531917 -0.022778572416770924 0 0.0013890093885093489 -0.02904057287418127 0 0.0010150721721108224 -0.03323827096545752 0 0.0001202454537536766 -0.038686107732800207 0 0.00049312227521900679 -0.038142525584246259 0 0.00037376149095006144 -0.038069656389003961 0 0.0014403452723410768 -0.029851492864304927 0 0.0010150721721108224 -0.03323827096545752 0 -0.00049286174209681275 -0.038997385474930153 0 0.0010150721721108224 -0.03323827096545752 0 0.0001202454537536766 -0.038686107732800207 0 0.00026828339905193632 -0.038310947538257589 0 -0.0002692863770823123 -0.038391464290683686 0 0.00026828339905193632 -0.038310947538257589 0 -0.0002692863770823123 -0.038391464290683686 0 -0.00068491867673658145 -0.037824932210485294 0 0.0001202454537536766 -0.038686107732800207 0 -0.0002692863770823123 -0.038391464290683686 0 -0.00031868826724244001 -0.038678246282643394 0 0.0010150721721108224 -0.03323827096545752 0 -0.0018802207263427856 -0.037401124023335335 0 -0.0002692863770823123 -0.038391464290683686 0 -0.00071947987865709627 -0.038443208501536839 0 -0.00031868826724244001 -0.038678246282643394 0 -0.0002692863770823123 -0.038391464290683686 0 -0.00071947987865709627 -0.038443208501536839 0 -0.00068491867673658145 -0.037824932210485294 0 -0.0025830132141996891 -0.038016502113359635 0 -0.0025441516359203734 -0.037178559824580008 0 -0.0019409272032186505 -0.037433805912752631 0 -0.00042876863117243951 -0.032284298565850841 0 -0.0018802207263427856 -0.037401124023335335 0 -0.0018802207263427856 -0.037401124023335335 0 -0.0020354206707371585 -0.043556612421483461 0 -0.0025830132141996891 -0.038016502113359635 0 -0.003498549952009771 -0.037543632447586316 0 -0.0025441516359203734 -0.037178559824580008 0 -0.0018802207263427856 -0.037401124023335335 0 -0.0016028112818421291 -0.040041498304279673 0 -0.0030389142832776151 -0.040429027365395297 0 -0.0014016505551479308 -0.040130474120411423 0 -0.00083695560735274255 -0.041740228336668787 0 -0.00068491867673658145 -0.037824932210485294 0 -0.0013684987435389493 -0.037980271999533001 0 -0.0011730163693928553 -0.038382250327170707 0 -0.0016028112818421291 -0.040041498304279673 0 -0.0016747783711268446 -0.038311353424659078 0 -0.0013363282630306287 -0.038089314671727777 0 -0.0011730163693928553 -0.038382250327170707 0 -0.0014805825756118757 -0.038408534590585637 0 -0.00071947987865709627 -0.038443208501536839 0 -0.00068491867673658145 -0.037824932210485294 0 -0.0011730163693928553 -0.038382250327170707 0 -0.00071947987865709627 -0.038443208501536839 0 -0.0011730163693928553 -0.038382250327170707 0 -0.00087140378200691916 -0.03869577145682053 0 -0.0011730163693928553 -0.038382250327170707 0 -0.0011363989240072898 -0.038835007066488902 0 -0.00087140378200691916 -0.03869577145682053 0 -0.0011730163693928553 -0.038382250327170707 0 -0.0013927062772455063 -0.038664787035231053 0 -0.0014805825756118757 -0.038408534590585637 0 -0.0011730163693928553 -0.038382250327170707 0 -0.0011363989240072898 -0.038835007066488902 0 -0.0013927062772455063 -0.038664787035231053 0 -0.0011363989240072898 -0.038835007066488902 0 -0.0014775920219150763 -0.038968565564703052 0 -0.0013927062772455063 -0.038664787035231053 0 -0.0011363989240072898 -0.038835007066488902 0 -0.0011788241773805818 -0.039050255470278482 0 -0.0014775920219150763 -0.038968565564703052 0 -0.0011363989240072898 -0.038835007066488902 0 -0.0011788241773805818 -0.039050255470278482 0 -0.00091719829806180932 -0.039055780005854551 0 -0.0011788241773805818 -0.039050255470278482 0 -0.0012361344882087081 -0.039297276502234635 0 -0.0014775920219150763 -0.038968565564703052 0 -0.0011788241773805818 -0.039050255470278482 0 -0.0012361344882087081 -0.039297276502234635 0 -0.00091719829806180932 -0.039055780005854551 0 -0.0012361344882087081 -0.039297276502234635 0 -0.00091719829806180932 -0.039055780005854551 0 -0.00061815107996621502 -0.039134299849797015 0 -0.00091719829806180932 -0.039055780005854551 0 -0.00087140378200691916 -0.03869577145682053 0 -0.00063863555102769713 -0.038844401419275483 0 -0.0011363989240072898 -0.038835007066488902 0 -0.00091719829806180932 -0.039055780005854551 0 -0.00087140378200691916 -0.03869577145682053 0 -0.00071947987865709627 -0.038443208501536839 0 -0.00087140378200691916 -0.03869577145682053 0 -0.00063863555102769713 -0.038844401419275483 0 -0.00071947987865709627 -0.038443208501536839 0 -0.00063863555102769713 -0.038844401419275483 0 -0.00031868826724244001 -0.038678246282643394 0 -0.00063863555102769713 -0.038844401419275483 0 -0.00031868826724244001 -0.038678246282643394 0 -0.00020493555568670523 -0.038996311153798806 0 0.0001202454537536766 -0.038686107732800207 0 -0.00031868826724244001 -0.038678246282643394 0 -0.00020493555568670523 -0.038996311153798806 0 -8.3352470579141895e-05 -0.039475457323060612 0 -0.00020493555568670523 -0.038996311153798806 0 -0.00061815107996621502 -0.039134299849797015 0 -0.00063863555102769713 -0.038844401419275483 0 -0.00020493555568670523 -0.038996311153798806 0 -0.00061815107996621502 -0.039134299849797015 0 -0.00091719829806180932 -0.039055780005854551 0 -0.00063863555102769713 -0.038844401419275483 0 -0.00061815107996621502 -0.039134299849797015 0 7.1289838150073815e-05 -0.039718817343429566 0 -0.0015020909428665897 -0.038691018642407753 0 -8.3352470579141895e-05 -0.039475457323060612 0 -0.0012361344882087081 -0.039297276502234635 0 -0.00061815107996621502 -0.039134299849797015 0 -8.3352470579141895e-05 -0.039475457323060612 0 -0.0010069890397799554 -0.039701690884743228 0 -0.00060327270943860256 -0.039674759914023153 0 -8.3352470579141895e-05 -0.039475457323060612 0 -0.00060327270943860256 -0.039674759914023153 0 -0.00039357126788572668 -0.039767328575698431 0 0.00016961956487315867 -0.039825156741062205 0 -8.3352470579141895e-05 -0.039475457323060612 0 -0.00039357126788572668 -0.039767328575698431 0 -0.0012851943166053504 -0.030396911834099951 0 0.00025801113217651192 -0.039979140095141356 0 -0.00096261576399504648 -0.041164874661083761 0 -0.00037101181945379858 -0.04060140221116345 0 -0.0011830378955571227 -0.040437789896994362 0 0.00025801113217651192 -0.039979140095141356 0 -0.0010101152429267425 -0.040083901834592262 0 -0.0010069890397799554 -0.039701690884743228 0 -0.00086397785546432745 -0.03991260370520372 0 -0.0016491248486130408 -0.039968696419104138 0 -0.00066916478596544863 -0.039855434430217385 0 -0.0010101152429267425 -0.040083901834592262 0 -0.00060327270943860256 -0.039674759914023153 0 -0.00039357126788572668 -0.039767328575698431 0 -0.00081901523299047487 -0.039759150019587949 0 -0.0010069890397799554 -0.039701690884743228 0 -0.00060327270943860256 -0.039674759914023153 0 -0.00086397785546432745 -0.03991260370520372 0 -0.00068931017179900162 -0.040194396302215107 0 -0.0019358172055226552 -0.040598363005659784 0 -0.0016491248486130408 -0.039968696419104138 0 -0.0017903671873051605 -0.041530452658467658 0 -0.0011830378955571227 -0.040437789896994362 0 -0.0023142133230032612 -0.040817647643373603 0 -0.0019358172055226552 -0.040598363005659784 0 -0.0016491248486130408 -0.039968696419104138 0 -0.0025045716238905444 -0.039667611221101413 0 -0.0010101152429267425 -0.040083901834592262 0 -0.0021586823091884759 -0.040250521228701319 0 -0.0010101152429267425 -0.040083901834592262 0 -0.0014894871724908064 -0.039965773793646256 0 -0.0030990131328904758 -0.041041483190302416 0 -0.0019358172055226552 -0.040598363005659784 0 -0.0025045716238905444 -0.039667611221101413 0 -0.0017169223478863879 -0.048145232447145851 0 -0.0010712633634055366 -0.045303576201941247 0 -0.0010069890397799554 -0.039701690884743228 0 -0.0016491248486130408 -0.039968696419104138 0 -0.0025045716238905444 -0.039667611221101413 0 -0.0012361344882087081 -0.039297276502234635 0 -0.0022621028442906545 -0.039201368627738521 0 -0.0014775920219150763 -0.038968565564703052 0 -0.0015020909428665897 -0.038691018642407753 0 -0.0010712633634055366 -0.045303576201941247 0 -0.0022621028442906545 -0.039201368627738521 0 -0.0016885127853583715 -0.038736088663092562 0 -0.0014775920219150763 -0.038968565564703052 0 -0.0016885127853583715 -0.038736088663092562 0 -0.0014775920219150763 -0.038968565564703052 0 -0.0013927062772455063 -0.038664787035231053 0 -0.0022621028442906545 -0.039201368627738521 0 -0.0016885127853583715 -0.038736088663092562 0 -0.0018338536886151227 -0.038199774141229423 0 -0.0016885127853583715 -0.038736088663092562 0 -0.0013927062772455063 -0.038664787035231053 0 -0.0014805825756118757 -0.038408534590585637 0 -0.0016885127853583715 -0.038736088663092562 0 -0.0018338536886151227 -0.038199774141229423 0 -0.0014805825756118757 -0.038408534590585637 0 -0.0016028112818421291 -0.040041498304279673 0 -0.00051818075414126986 -0.044109086610988925 0 -0.0013363282630306287 -0.038089314671727777 0 -0.0018338536886151227 -0.038199774141229423 0 -0.0014805825756118757 -0.038408534590585637 0 -0.0001335247063014324 -0.048857456022214432 0 -5.5348980242973475e-05 -0.048666224480936028 0 -0.00019977101443834942 -0.048729768194946968 0 -0.00051818075414126986 -0.044109086610988925 0 -0.0015916015044716762 -0.04474464229302081 0 -0.0016379858007399108 -0.042746632756499765 0 -0.00067383374586873471 -0.042569132102268557 0 -0.0011825886901979214 -0.043729574504199419 0 -5.5348980242973475e-05 -0.048666224480936028 0 -0.00019977101443834942 -0.048729768194946968 0 -7.2361515367084953e-05 -0.048633590411702433 0 -0.0014016505551479308 -0.040130474120411423 0 -0.00075146536789275911 -0.041546158638572306 0 -0.00083695560735274255 -0.041740228336668787 0 -0.0016028112818421291 -0.040041498304279673 0 -0.0015916015044716762 -0.04474464229302081 0 -0.0015916015044716762 -0.04474464229302081 0 -0.0020354206707371585 -0.043556612421483461 0 -0.0001335247063014324 -0.048857456022214432 0 -0.00019977101443834942 -0.048729768194946968 0 -0.00046868565067141593 -0.048972080147069413 0 -0.00019977101443834942 -0.048729768194946968 0 -0.00042816279182144229 -0.048755034059398787 0 -0.00019357033899077643 -0.048579016709265371 0 0.00016705731275058476 -0.047367825898182267 0 -0.00098573091784617795 -0.047641392322752329 0 -0.00064506740836890644 -0.048040263215825663 0 -0.00051818075414126986 -0.044109086610988925 0 -0.00022699687909478623 -0.051692950196603839 0 -0.00028741449398753225 -0.048425044392424517 0 0.00016705731275058476 -0.047367825898182267 0 -0.00064506740836890644 -0.048040263215825663 0 -0.0010712633634055366 -0.045303576201941247 0 -0.00051818075414126986 -0.044109086610988925 0 -0.00022699687909478623 -0.051692950196603839 0 -0.00056291508501763365 -0.051983790966218614 0 6.3737351991708728e-06 -0.054983993715094541 0 1.8743746095354846e-06 -0.054994793111186893 0 3.4960035581271118e-06 -0.054990345252161447 0 0.00017891611398034236 -0.054949156602754005 0 0.0002260047132719533 -0.054762374754048972 0 0.00010050861149258486 -0.054871255096764354 0 -0.00022699687909478623 -0.051692950196603839 0 0.00017728324652231228 -0.052632714542393516 0 -0.00019977101443834942 -0.048729768194946968 0 -0.00046868565067141593 -0.048972080147069413 0 -0.00042816279182144229 -0.048755034059398787 0 0.00017728324652231228 -0.052632714542393516 0 -0.00014571842366575726 -0.054966604629172119 0 1.8743746095354846e-06 -0.054994793111186893 0 3.7158281848928742e-11 -0.055000000172510291 0 3.7029167273294618e-09 -0.054999978681607137 0 0.00017891611398034236 -0.054949156602754005 0 -4.2461090284299905e-09 -0.054999643595805815 0 8.3866414131374206e-09 -0.055000298491007585 0 -0.00014571842366575726 -0.054966604629172119 0 1.1952384328219656e-07 -0.054999884535010687 0 0.00017891611398034236 -0.054949156602754005 0 0.00010050861149258486 -0.054871255096764354 0 -4.2461090284299905e-09 -0.054999643595805815 0 -0.00022699687909478623 -0.051692950196603839 0 -1.7838699218611023e-07 -0.055000993086339531 0 -1.0955083016342896e-05 -0.054946758996548141 0 4.6916480439931437e-09 -0.054999922812580843 0 -7.7463156078065399e-06 -0.054952081219970896 0 4.6916480439931437e-09 -0.054999922812580843 0 -9.1253350999622027e-09 -0.05499991383098593 0 -4.2729966485740742e-06 -0.054966199213332026 0 4.6916480439931437e-09 -0.054999922812580843 0 -7.7463156078065399e-06 -0.054952081219970896 0 -4.2729966485740742e-06 -0.054966199213332026 0 -7.7463156078065399e-06 -0.054952081219970896 0 -6.9230676293469668e-06 -0.054923103440811451 0 -4.2729966485740742e-06 -0.054966199213332026 0 -1.0955083016342896e-05 -0.054946758996548141 0 -7.7463156078065399e-06 -0.054952081219970896 0 -8.9538181268809224e-06 -0.054947413262302458 0 -0.00098573091784617795 -0.047641392322752329 0 -0.00064506740836890644 -0.048040263215825663 0 -0.0011174985237952138 -0.048331392135833866 0 -0.0010712633634055366 -0.045303576201941247 0 -0.00056291508501763365 -0.051983790966218614 0 2.5255561516898841e-06 -0.054841947756236444 0 -9.039319674819069e-06 -0.054932927234981478 0 -6.9230676293469668e-06 -0.054923103440811451 0 -0.00028741449398753225 -0.048425044392424517 0 -0.00064506740836890644 -0.048040263215825663 0 -0.0011174985237952138 -0.048331392135833866 0 -7.7463156078065399e-06 -0.054952081219970896 0 -9.039319674819069e-06 -0.054932927234981478 0 -6.9230676293469668e-06 -0.054923103440811451 0 -0.00026779834453558954 -0.052328074806261136 0 -0.00056291508501763365 -0.051983790966218614 0 2.9007853719492141e-06 -0.054914262032084764 0 2.5255561516898841e-06 -0.054841947756236444 0 -5.9026039968200242e-06 -0.054934523411322871 0 -6.9230676293469668e-06 -0.054923103440811451 0 -5.9026039968200242e-06 -0.054934523411322871 0 -4.2729966485740742e-06 -0.054966199213332026 0 2.5255561516898841e-06 -0.054841947756236444 0 -6.9230676293469668e-06 -0.054923103440811451 0 -5.9026039968200242e-06 -0.054934523411322871 0 -5.5608851620494506e-09 -0.054999956777758575 0 -4.5197660674251472e-06 -0.054972893070001902 0 -9.1253350999622027e-09 -0.05499991383098593 0 -5.1105444886942003e-06 -0.054963002363766209 0 -5.9026039968200242e-06 -0.054934523411322871 0 -4.5197660674251472e-06 -0.054972893070001902 0 -4.5197660674251472e-06 -0.054972893070001902 0 -9.1253350999622027e-09 -0.05499991383098593 0 -4.2729966485740742e-06 -0.054966199213332026 0 -5.9026039968200242e-06 -0.054934523411322871 0 -4.5197660674251472e-06 -0.054972893070001902 0 -4.2729966485740742e-06 -0.054966199213332026 0 0.0013924211785847696 -0.01687464663821581 0 0.00088908021067615154 -0.016496828057841584 0 0.0015768539695044602 -0.016440700220185404 0 0.0013924211785847696 -0.01687464663821581 0 0.0018931588658593821 -0.016985914131302463 0 0.0015768539695044602 -0.016440700220185404 0 0.0013924211785847696 -0.01687464663821581 0 0.0018931588658593821 -0.016985914131302463 0 0.0016923555216248561 -0.017265250389574643 0 0.0018931588658593821 -0.016985914131302463 0 0.0015768539695044602 -0.016440700220185404 0 0.0020709088971456939 -0.016732010925629367 0 0.0018931588658593821 -0.016985914131302463 0 0.0019801858033210475 -0.017374510564653552 0 0.0022027496864114654 -0.017250958435890074 0 0.0018931588658593821 -0.016985914131302463 0 0.0016923555216248561 -0.017265250389574643 0 0.0019801858033210475 -0.017374510564653552 0 0.0019801858033210475 -0.017374510564653552 0 0.0021141384802784496 -0.017670314755963746 0 0.0018658537101497905 -0.017662123552868923 0 0.0016923555216248561 -0.017265250389574643 0 0.0019801858033210475 -0.017374510564653552 0 0.0018658537101497905 -0.017662123552868923 0 0.0016923555216248561 -0.017265250389574643 0 0.0013716390864626626 -0.017230359785315563 0 0.0016193125725019292 -0.017640303849570518 0 0.0016923555216248561 -0.017265250389574643 0 0.0016193125725019292 -0.017640303849570518 0 0.0018658537101497905 -0.017662123552868923 0 0.0013716390864626626 -0.017230359785315563 0 0.0010343215627957405 -0.016923340734583552 0 0.0011818200028888381 -0.017444321985763438 0 0.0013924211785847696 -0.01687464663821581 0 0.0016923555216248561 -0.017265250389574643 0 0.0013716390864626626 -0.017230359785315563 0 0.0013924211785847696 -0.01687464663821581 0 0.0013716390864626626 -0.017230359785315563 0 0.0010343215627957405 -0.016923340734583552 0 0.0010343215627957405 -0.016923340734583552 0 0.00074562311958705039 -0.016884104194404299 0 0.0011818200028888381 -0.017444321985763438 0 0.0010343215627957405 -0.016923340734583552 0 0.00074562311958705039 -0.016884104194404299 0 0.00072066787179633231 -0.016690265177565323 0 0.00061470236046050797 -0.016556131238646903 0 0.00074562311958705039 -0.016884104194404299 0 0.00052521150361232148 -0.016959072654846519 0 0.00061470236046050797 -0.016556131238646903 0 0.00074562311958705039 -0.016884104194404299 0 0.00072066787179633231 -0.016690265177565323 0 0.00058642364221338965 -0.016582983919897935 0 0.00072066787179633231 -0.016690265177565323 0 0.00088908021067615154 -0.016496828057841584 0 0.00061470236046050797 -0.016556131238646903 0 0.00058642364221338965 -0.016582983919897935 0 0.00072066787179633231 -0.016690265177565323 0 0.0013924211785847696 -0.01687464663821581 0 0.0010343215627957405 -0.016923340734583552 0 0.00088908021067615154 -0.016496828057841584 0 0.0010343215627957405 -0.016923340734583552 0 0.00072066787179633231 -0.016690265177565323 0 0.00088908021067615154 -0.016496828057841584 0 0.00060976030724032779 -0.016624337842927474 0 0.00044873507818201519 -0.016813583901866123 0 0.00058642364221338965 -0.016582983919897935 0 -2.6917252081990698e-05 -0.017180074240749146 0 0.00024093728150230328 -0.017519196364173234 0 -0.00041009458155743134 -0.017547302317519622 0 -0.00043403191351413947 -0.017853595197430974 0 -0.00048744940309346316 -0.017714366198198623 0 -2.6917252081990698e-05 -0.017180074240749146 0 0.00024093728150230328 -0.017519196364173234 0 -0.00040123700198200769 -0.018154097838783925 0 -0.00012658705416782347 -0.017614599332608314 0 -0.00039976695648518518 -0.018082517051729113 0 -0.00044674379716096413 -0.018023279350797727 0 -0.00048744940309346316 -0.017714366198198623 0 -0.00040123700198200769 -0.018154097838783925 0 0.00044873507818201519 -0.016813583901866123 0 0.00059483867400806571 -0.017206961212230355 0 -2.6917252081990698e-05 -0.017180074240749146 0 -0.00040123700198200769 -0.018154097838783925 0 -0.00053898330369162104 -0.017700190466902438 0 -0.00053898330369162104 -0.017700190466902438 0 -0.00069295673353794317 -0.018208375412408526 0 -0.0010258563840004711 -0.01791314701065989 0 0.00059483867400806571 -0.017206961212230355 0 0.00028176991932144044 -0.015958731996690997 0 0.0015768539695044602 -0.016440700220185404 0 0.0023920238398829315 -0.016451082631036208 0 0.0020709088971456939 -0.016732010925629367 0 -0.00040123700198200769 -0.018154097838783925 0 -0.00053898330369162104 -0.017700190466902438 0 -0.00069295673353794317 -0.018208375412408526 0 -0.00063264392889454571 -0.018702872869362969 0 -0.00069295673353794317 -0.018208375412408526 0 -0.00089107714425006642 -0.018569483320371932 0 -0.00063264392889454571 -0.018702872869362969 0 -0.00040123700198200769 -0.018154097838783925 0 -0.00069295673353794317 -0.018208375412408526 0 -0.0012960021957343474 -0.018759023306205134 0 -0.00089107714425006642 -0.018569483320371932 0 -0.0010258563840004711 -0.01791314701065989 0 -0.00069295673353794317 -0.018208375412408526 0 -0.00089107714425006642 -0.018569483320371932 0 -0.0010258563840004711 -0.01791314701065989 0 -0.0012960021957343474 -0.018759023306205134 0 -0.0016693476899291787 -0.01834786861455007 0 -0.0010258563840004711 -0.01791314701065989 0 -0.0016693476899291787 -0.01834786861455007 0 -0.0010258563840004711 -0.01791314701065989 0 -0.0021752029662176382 -0.018003053247335542 0 -0.0020073026305025181 -0.018813412829954541 0 -0.0012960021957343474 -0.018759023306205134 0 -0.0016693476899291787 -0.01834786861455007 0 0.002714522681037973 -0.016705547597946225 0 0.0030229900580021713 -0.016567786412132583 0 0.0027979561403405364 -0.017078495230261184 0 0.00028176991932144044 -0.015958731996690997 0 0.002862832095726808 -0.027325911000791792 0 0.002714522681037973 -0.016705547597946225 0 0.0023920238398829315 -0.016451082631036208 0 0.0030359228498970242 -0.016519378347295232 0 0.002714522681037973 -0.016705547597946225 0 0.0023920238398829315 -0.016451082631036208 0 0.0024127010860960567 -0.016764290166493723 0 0.0023920238398829315 -0.016451082631036208 0 0.0020709088971456939 -0.016732010925629367 0 0.0024127010860960567 -0.016764290166493723 0 0.0016403828375902683 -0.036976043341921408 0 0.0027873461445661329 -0.035134805778853834 0 0.003165536824382695 -0.036653552573163779 0 0.0027873461445661329 -0.035134805778853834 0 0.003165536824382695 -0.036653552573163779 0 0.0037569841968543498 -0.03563826705669712 0 0.003165536824382695 -0.036653552573163779 0 0.0037569841968543498 -0.03563826705669712 0 0.0045191433024843039 -0.036122511317693881 0 0.0037569841968543498 -0.03563826705669712 0 0.0045191433024843039 -0.036122511317693881 0 0.0046616228995322549 -0.034937423735381418 0 0.0037569841968543498 -0.03563826705669712 0 0.0046616228995322549 -0.034937423735381418 0 0.0039321912852009703 -0.034868242373475654 0 0.0046616228995322549 -0.034937423735381418 0 0.0039321912852009703 -0.034868242373475654 0 0.0044847149439227229 -0.034421139948927794 0 0.0027873461445661329 -0.035134805778853834 0 0.0039321912852009703 -0.034868242373475654 0 0.0040953430933877554 -0.033675639004058698 0 0.0027873461445661329 -0.035134805778853834 0 0.0037569841968543498 -0.03563826705669712 0 0.0039321912852009703 -0.034868242373475654 0 0.0044847149439227229 -0.034421139948927794 0 0.0052545680232373992 -0.034192110270041667 0 0.0040953430933877554 -0.033675639004058698 0 0.0039321912852009703 -0.034868242373475654 0 0.0044847149439227229 -0.034421139948927794 0 0.0040953430933877554 -0.033675639004058698 0 -0.0020073026305025181 -0.018813412829954541 0 -0.0028500769242799811 -0.019252739059015429 0 -0.0021752029662176382 -0.018003053247335542 0 0.0028069122349752961 -0.03894302110136777 0 0.002862832095726808 -0.027325911000791792 0 -0.00013014687941056432 -0.028164225204475035 0 0.002862832095726808 -0.027325911000791792 0 -0.0020073026305025181 -0.018813412829954541 0 -0.0016693476899291787 -0.01834786861455007 0 -0.0021752029662176382 -0.018003053247335542 0 0.003986481416492064 -0.038116879544397186 0 0.0045191433024843039 -0.036122511317693881 0 0.0062778995351529107 -0.03403946578561725 0 0.0045191433024843039 -0.036122511317693881 0 0.0046616228995322549 -0.034937423735381418 0 0.0062778995351529107 -0.03403946578561725 0 0.0046616228995322549 -0.034937423735381418 0 0.0052545680232373992 -0.034192110270041667 0 0.0062778995351529107 -0.03403946578561725 0 0.0046616228995322549 -0.034937423735381418 0 0.0044847149439227229 -0.034421139948927794 0 0.0052545680232373992 -0.034192110270041667 0 0.0043675748985329459 -0.029171367936966092 0 0.002862832095726808 -0.027325911000791792 0 0.0043948964408035487 -0.026795706478154019 0 0.0060793326799853265 -0.022393619541473123 0 0.0064765989148105069 -0.033514647241834991 0 0.0066079929230120384 -0.032548883756499773 0 0.0088281087391256091 -0.028450937660901628 0 0.002714522681037973 -0.016705547597946225 0 0.0030359228498970242 -0.016519378347295232 0 0.0030229900580021713 -0.016567786412132583 0 0.002862832095726808 -0.027325911000791792 0 0.0043948964408035487 -0.026795706478154019 0 0.0043948964408035487 -0.026795706478154019 0 0.0045269852452285621 -0.030207582929068843 0 0.0064623099901736404 -0.033495476602806371 0 0.0066079929230120384 -0.032548883756499773 0 0.0059476355043044478 -0.032883055113373902 0 0.0066079929230120384 -0.032548883756499773 0 0.0056932329836972585 -0.031160419836018676 0 0.0070419885369501804 -0.029950074072814303 0 0.00583920214870741 -0.032344886108762239 0 0.0056932329836972585 -0.031160419836018676 0 0.00511230097110329 -0.032783651978805124 0 0.0066079929230120384 -0.032548883756499773 0 0.00583920214870741 -0.032344886108762239 0 0.0056932329836972585 -0.031160419836018676 0 0.00583920214870741 -0.032344886108762239 0 0.00511230097110329 -0.032783651978805124 0 0.0059476355043044478 -0.032883055113373902 0 0.0066079929230120384 -0.032548883756499773 0 0.00583920214870741 -0.032344886108762239 0 0.0059476355043044478 -0.032883055113373902 0 0.00511230097110329 -0.032783651978805124 0 0.0059476355043044478 -0.032883055113373902 0 0.0057428688167357241 -0.033476914674499557 0 0.0052545680232373992 -0.034192110270041667 0 0.0063819659380646813 -0.033999365722074397 0 0.0057428688167357241 -0.033476914674499557 0 0.0064623099901736404 -0.033495476602806371 0 0.0059476355043044478 -0.032883055113373902 0 0.0057428688167357241 -0.033476914674499557 0 0.0063819659380646813 -0.033999365722074397 0 0.0064623099901736404 -0.033495476602806371 0 0.0057428688167357241 -0.033476914674499557 0 0.0052545680232373992 -0.034192110270041667 0 0.00511230097110329 -0.032783651978805124 0 0.0057428688167357241 -0.033476914674499557 0 0.0052545680232373992 -0.034192110270041667 0 0.00511230097110329 -0.032783651978805124 0 0.0040953430933877554 -0.033675639004058698 0 0.0027873461445661329 -0.035134805778853834 0 0.0040953430933877554 -0.033675639004058698 0 0.0031975539826626831 -0.032014017046346287 0 0.00511230097110329 -0.032783651978805124 0 0.0040953430933877554 -0.033675639004058698 0 0.0031975539826626831 -0.032014017046346287 0 0.0056932329836972585 -0.031160419836018676 0 0.00511230097110329 -0.032783651978805124 0 0.0031975539826626831 -0.032014017046346287 0 -0.0012152197504245179 -0.026000319316847695 0 -0.00090719467362696882 -0.022568077550161363 0 0.0020317191035296727 -0.021610631286477264 0 -0.004172600713433546 -0.023791840423362461 0 -0.0012152197504245179 -0.026000319316847695 0 -0.00090719467362696882 -0.022568077550161363 0 0.0056932329836972585 -0.031160419836018676 0 0.0031975539826626831 -0.032014017046346287 0 0.007101386553870998 -0.027626453125504064 0 0.0066079929230120384 -0.032548883756499773 0 0.0070419885369501804 -0.029950074072814303 0 0.0088281087391256091 -0.028450937660901628 0 0.0009830085695517023 -0.029141661946472566 0 0.0046865260791359685 -0.024703532610586568 0 0.0056932329836972585 -0.031160419836018676 0 0.0070419885369501804 -0.029950074072814303 0 0.007101386553870998 -0.027626453125504064 0 0.0070419885369501804 -0.029950074072814303 0 0.007101386553870998 -0.027626453125504064 0 0.0088281087391256091 -0.028450937660901628 0 -0.00090719467362696882 -0.022568077550161363 0 0.0020317191035296727 -0.021610631286477264 0 0.0013347606859476038 -0.020885739049188348 0 0.0020317191035296727 -0.021610631286477264 0 0.0013347606859476038 -0.020885739049188348 0 0.0018339438575495962 -0.020622895002397553 0 0.0013347606859476038 -0.020885739049188348 0 0.0018339438575495962 -0.020622895002397553 0 0.0016072631781413682 -0.0203135866936991 0 0.0018339438575495962 -0.020622895002397553 0 0.0016072631781413682 -0.0203135866936991 0 0.0019089336879230356 -0.020101126560484926 0 0.0013347606859476038 -0.020885739049188348 0 0.0016072631781413682 -0.0203135866936991 0 0.0012388881934697333 -0.020550302560466083 0 -0.004172600713433546 -0.023791840423362461 0 -0.0026670851557119199 -0.020268030160343974 0 -0.00090719467362696882 -0.022568077550161363 0 -0.0010315228210596554 -0.019260948269932146 0 0.0014913652520463934 -0.021140989505386731 0 0.001435325329888332 -0.020560631026880199 0 0.0013347606859476038 -0.020885739049188348 0 0.0012388881934697333 -0.020550302560466083 0 -0.0026670851557119199 -0.020268030160343974 0 -0.00090719467362696882 -0.022568077550161363 0 0.0013347606859476038 -0.020885739049188348 0 0.0018931588658593821 -0.016985914131302463 0 0.0023885454847124019 -0.017030534475013504 0 0.0020709088971456939 -0.016732010925629367 0 0.0018931588658593821 -0.016985914131302463 0 0.0023885454847124019 -0.017030534475013504 0 0.0022027496864114654 -0.017250958435890074 0 0.0023885454847124019 -0.017030534475013504 0 0.002578642049710016 -0.017122177616015737 0 0.0025330882404273119 -0.017450949708350049 0 0.0023885454847124019 -0.017030534475013504 0 0.0025830867627027682 -0.016948442877095724 0 0.002578642049710016 -0.017122177616015737 0 0.0023885454847124019 -0.017030534475013504 0 0.0020709088971456939 -0.016732010925629367 0 0.0024127010860960567 -0.016764290166493723 0 0.0023885454847124019 -0.017030534475013504 0 0.0024127010860960567 -0.016764290166493723 0 0.0025830867627027682 -0.016948442877095724 0 0.002714522681037973 -0.016705547597946225 0 0.0025830867627027682 -0.016948442877095724 0 0.0027979561403405364 -0.017078495230261184 0 0.002714522681037973 -0.016705547597946225 0 0.0024127010860960567 -0.016764290166493723 0 0.0025830867627027682 -0.016948442877095724 0 0.0025830867627027682 -0.016948442877095724 0 0.0027979561403405364 -0.017078495230261184 0 0.002578642049710016 -0.017122177616015737 0 0.0060793326799853265 -0.022393619541473123 0 0.0057929447709068986 -0.020636344670460518 0 0.0046865260791359685 -0.024703532610586568 0 0.0057929447709068986 -0.020636344670460518 0 0.0027979561403405364 -0.017078495230261184 0 0.0025330882404273119 -0.017450949708350049 0 0.0025974809403795191 -0.018043986294741091 0 0.0020317191035296727 -0.021610631286477264 0 0.0022139575640287004 -0.020160708201820619 0 0.0026489902780508761 -0.019153010521244494 0 0.007101386553870998 -0.027626453125504064 0 0.0088281087391256091 -0.028450937660901628 0 0.011151498131134278 -0.023287608555248522 0 0.0027979561403405364 -0.017078495230261184 0 0.002578642049710016 -0.017122177616015737 0 0.0025330882404273119 -0.017450949708350049 0 0.0018339438575495962 -0.020622895002397553 0 0.0022139575640287004 -0.020160708201820619 0 0.0019089336879230356 -0.020101126560484926 0 0.0020317191035296727 -0.021610631286477264 0 0.0018339438575495962 -0.020622895002397553 0 0.0022139575640287004 -0.020160708201820619 0 0.002472923309068795 -0.017724444540023854 0 0.0025330882404273119 -0.017450949708350049 0 0.0025974809403795191 -0.018043986294741091 0 0.002472923309068795 -0.017724444540023854 0 0.0025330882404273119 -0.017450949708350049 0 0.0022685302350772098 -0.017527123728741326 0 0.002472923309068795 -0.017724444540023854 0 0.0022685302350772098 -0.017527123728741326 0 0.0023007772166848107 -0.017737292226250867 0 0.0025330882404273119 -0.017450949708350049 0 0.0022027496864114654 -0.017250958435890074 0 0.0022685302350772098 -0.017527123728741326 0 0.0023885454847124019 -0.017030534475013504 0 0.0025330882404273119 -0.017450949708350049 0 0.0022027496864114654 -0.017250958435890074 0 0.0019801858033210475 -0.017374510564653552 0 0.0022027496864114654 -0.017250958435890074 0 0.0022685302350772098 -0.017527123728741326 0 0.0019801858033210475 -0.017374510564653552 0 0.0022685302350772098 -0.017527123728741326 0 0.0021141384802784496 -0.017670314755963746 0 0.0022685302350772098 -0.017527123728741326 0 0.0023007772166848107 -0.017737292226250867 0 0.0021141384802784496 -0.017670314755963746 0 0.0021141384802784496 -0.017670314755963746 0 0.0022458092359807945 -0.017898140201064065 0 0.0020487810351649555 -0.017901652447935977 0 0.0023007772166848107 -0.017737292226250867 0 0.0021141384802784496 -0.017670314755963746 0 0.0022458092359807945 -0.017898140201064065 0 0.0023007772166848107 -0.017737292226250867 0 0.0022458092359807945 -0.017898140201064065 0 0.0024072142475222158 -0.017888972532937857 0 0.0022458092359807945 -0.017898140201064065 0 0.0020487810351649555 -0.017901652447935977 0 0.0021733537792099716 -0.018166538895754428 0 0.0022458092359807945 -0.017898140201064065 0 0.0021733537792099716 -0.018166538895754428 0 0.0023695605366144345 -0.018073132620151026 0 0.0020487810351649555 -0.017901652447935977 0 0.0021733537792099716 -0.018166538895754428 0 0.0019437595855266642 -0.018109127218144384 0 0.0021733537792099716 -0.018166538895754428 0 0.0021132910751887868 -0.01832124965419105 0 0.0019437595855266642 -0.018109127218144384 0 0.0021733537792099716 -0.018166538895754428 0 0.0022496724466054981 -0.018484797825260607 0 0.0021132910751887868 -0.01832124965419105 0 0.0021733537792099716 -0.018166538895754428 0 0.0022496724466054981 -0.018484797825260607 0 0.0023873077140061311 -0.01847815002486056 0 0.0022496724466054981 -0.018484797825260607 0 0.0021132910751887868 -0.01832124965419105 0 0.002113089499782578 -0.018470832411737734 0 0.0021132910751887868 -0.01832124965419105 0 0.002113089499782578 -0.018470832411737734 0 0.0019437595855266642 -0.018109127218144384 0 0.0024123529822426752 -0.018739334495488886 0 0.0024204755157962304 -0.018931010281679803 0 0.0023050216070717475 -0.018801231645252728 0 0.0024123529822426752 -0.018739334495488886 0 0.0023050216070717475 -0.018801231645252728 0 0.0022681026402372882 -0.018617788529317825 0 0.0024123529822426752 -0.018739334495488886 0 0.002383310281572867 -0.01860923008557424 0 0.0022681026402372882 -0.018617788529317825 0 0.0022496724466054981 -0.018484797825260607 0 0.002383310281572867 -0.01860923008557424 0 0.0022681026402372882 -0.018617788529317825 0 0.0022496724466054981 -0.018484797825260607 0 0.002383310281572867 -0.01860923008557424 0 0.0023873077140061311 -0.01847815002486056 0 0.0024123529822426752 -0.018739334495488886 0 0.002383310281572867 -0.01860923008557424 0 0.0025231148201312627 -0.018634495897725759 0 0.0021733537792099716 -0.018166538895754428 0 0.0023873077140061311 -0.01847815002486056 0 0.0023695605366144345 -0.018073132620151026 0 0.002383310281572867 -0.01860923008557424 0 0.0025231148201312627 -0.018634495897725759 0 0.0023873077140061311 -0.01847815002486056 0 0.0048082625561950577 -0.020389377595461243 0 0.0057929447709068986 -0.020636344670460518 0 0.0025231148201312627 -0.018634495897725759 0 0.0023873077140061311 -0.01847815002486056 0 0.0026838685661725284 -0.018442691130527412 0 0.0024123529822426752 -0.018739334495488886 0 0.0025231148201312627 -0.018634495897725759 0 0.0024204755157962304 -0.018931010281679803 0 0.0053095541105572996 -0.020266086315271974 0 0.0057929447709068986 -0.020636344670460518 0 0.0025231148201312627 -0.018634495897725759 0 0.0026489902780508761 -0.019153010521244494 0 0.0024204755157962304 -0.018931010281679803 0 0.0025974809403795191 -0.018043986294741091 0 0.0023695605366144345 -0.018073132620151026 0 0.0024072142475222158 -0.017888972532937857 0 0.0023873077140061311 -0.01847815002486056 0 0.0025974809403795191 -0.018043986294741091 0 0.0023695605366144345 -0.018073132620151026 0 0.0022458092359807945 -0.017898140201064065 0 0.0023695605366144345 -0.018073132620151026 0 0.0024072142475222158 -0.017888972532937857 0 0.002472923309068795 -0.017724444540023854 0 0.0025974809403795191 -0.018043986294741091 0 0.0024072142475222158 -0.017888972532937857 0 0.002472923309068795 -0.017724444540023854 0 0.0023007772166848107 -0.017737292226250867 0 0.0024072142475222158 -0.017888972532937857 0 0.0022139575640287004 -0.020160708201820619 0 0.0026489902780508761 -0.019153010521244494 0 0.0023729488854898782 -0.019321830756124571 0 0.0022139575640287004 -0.020160708201820619 0 0.0022166710415925882 -0.019503866129325913 0 0.0023729488854898782 -0.019321830756124571 0 0.0026489902780508761 -0.019153010521244494 0 0.0023729488854898782 -0.019321830756124571 0 0.0024204755157962304 -0.018931010281679803 0 0.0019089336879230356 -0.020101126560484926 0 0.0020591690168260783 -0.019780989272647358 0 0.0018420336817050365 -0.019674034988037697 0 0.0022139575640287004 -0.020160708201820619 0 0.0019089336879230356 -0.020101126560484926 0 0.0020591690168260783 -0.019780989272647358 0 0.0022139575640287004 -0.020160708201820619 0 0.0022166710415925882 -0.019503866129325913 0 0.0020591690168260783 -0.019780989272647358 0 0.0022166710415925882 -0.019503866129325913 0 0.0020591690168260783 -0.019780989272647358 0 0.0020752273015638934 -0.019403921068079956 0 0.0020591690168260783 -0.019780989272647358 0 0.0020752273015638934 -0.019403921068079956 0 0.0018420336817050365 -0.019674034988037697 0 0.0020752273015638934 -0.019403921068079956 0 0.0019480633295391714 -0.019128605660408717 0 0.0018420336817050365 -0.019674034988037697 0 0.0020752273015638934 -0.019403921068079956 0 0.0022316845154409536 -0.019061057811308804 0 0.0019480633295391714 -0.019128605660408717 0 0.0022166710415925882 -0.019503866129325913 0 0.0020752273015638934 -0.019403921068079956 0 0.0022316845154409536 -0.019061057811308804 0 0.0023729488854898782 -0.019321830756124571 0 0.0024204755157962304 -0.018931010281679803 0 0.0022316845154409536 -0.019061057811308804 0 0.0022166710415925882 -0.019503866129325913 0 0.0023729488854898782 -0.019321830756124571 0 0.0022316845154409536 -0.019061057811308804 0 0.0024204755157962304 -0.018931010281679803 0 0.0022316845154409536 -0.019061057811308804 0 0.0023050216070717475 -0.018801231645252728 0 0.0022316845154409536 -0.019061057811308804 0 0.0023050216070717475 -0.018801231645252728 0 0.0021062384905462255 -0.018825152385999102 0 0.0023050216070717475 -0.018801231645252728 0 0.0021062384905462255 -0.018825152385999102 0 0.0022030431585471975 -0.018714260443013556 0 0.0021062384905462255 -0.018825152385999102 0 0.0019480633295391714 -0.019128605660408717 0 0.00180430012700836 -0.018871363414676472 0 0.0022316845154409536 -0.019061057811308804 0 0.0021062384905462255 -0.018825152385999102 0 0.0019480633295391714 -0.019128605660408717 0 0.0021062384905462255 -0.018825152385999102 0 0.00180430012700836 -0.018871363414676472 0 0.0019677762067496067 -0.018751815317599337 0 0.0021062384905462255 -0.018825152385999102 0 0.0020942249634491577 -0.018707710476897836 0 0.0019677762067496067 -0.018751815317599337 0 0.0021062384905462255 -0.018825152385999102 0 0.0020942249634491577 -0.018707710476897836 0 0.0022030431585471975 -0.018714260443013556 0 0.0021457301396407397 -0.018620735047204913 0 0.0018070627818773477 -0.018538179716539569 0 0.0019589942953827755 -0.018400901164451925 0 0.0020942249634491577 -0.018707710476897836 0 0.0021457301396407397 -0.018620735047204913 0 0.0022030431585471975 -0.018714260443013556 0 0.002113089499782578 -0.018470832411737734 0 0.0019589942953827755 -0.018400901164451925 0 0.0019437595855266642 -0.018109127218144384 0 0.0021457301396407397 -0.018620735047204913 0 0.002113089499782578 -0.018470832411737734 0 0.0022681026402372882 -0.018617788529317825 0 0.0021457301396407397 -0.018620735047204913 0 0.002113089499782578 -0.018470832411737734 0 0.0019589942953827755 -0.018400901164451925 0 0.0022496724466054981 -0.018484797825260607 0 0.002113089499782578 -0.018470832411737734 0 0.0022681026402372882 -0.018617788529317825 0 0.0023050216070717475 -0.018801231645252728 0 0.0022681026402372882 -0.018617788529317825 0 0.0022030431585471975 -0.018714260443013556 0 0.0021457301396407397 -0.018620735047204913 0 0.0022681026402372882 -0.018617788529317825 0 0.0022030431585471975 -0.018714260443013556 0 0.0012349069371218515 -0.020518611201609808 0 0.001249962071652912 -0.020541498425920287 0 0.001435325329888332 -0.020560631026880199 0 0.0012388881934697333 -0.020550302560466083 0 0.0011399654047204784 -0.021459790496690265 0 0.0012388881934697333 -0.020550302560466083 0 0.0014736289842032472 -0.019798655807531235 0 0.0011793353731832234 -0.019173174813412967 0 0.0014736289842032472 -0.019798655807531235 0 0.001619611800654493 -0.019172426699498622 0 0.0011793353731832234 -0.019173174813412967 0 0.0016072631781413682 -0.0203135866936991 0 0.0012388881934697333 -0.020550302560466083 0 0.0014736289842032472 -0.019798655807531235 0 0.0016072631781413682 -0.0203135866936991 0 0.0014736289842032472 -0.019798655807531235 0 0.0018420336817050365 -0.019674034988037697 0 0.0016072631781413682 -0.0203135866936991 0 0.0019089336879230356 -0.020101126560484926 0 0.0018420336817050365 -0.019674034988037697 0 0.0014736289842032472 -0.019798655807531235 0 0.0018420336817050365 -0.019674034988037697 0 0.001619611800654493 -0.019172426699498622 0 0.0019480633295391714 -0.019128605660408717 0 0.0018420336817050365 -0.019674034988037697 0 0.001619611800654493 -0.019172426699498622 0 0.0019480633295391714 -0.019128605660408717 0 0.00180430012700836 -0.018871363414676472 0 0.001619611800654493 -0.019172426699498622 0 0.00180430012700836 -0.018871363414676472 0 0.001619611800654493 -0.019172426699498622 0 0.0015232461630157563 -0.018868404610166482 0 0.001224989823855613 -0.020086323002173143 0 0.001249962071652912 -0.020541498425920287 0 0.0013219374105426563 -0.018861429790447824 0 0.0011793353731832234 -0.019173174813412967 0 0.0015232461630157563 -0.018868404610166482 0 0.001619611800654493 -0.019172426699498622 0 0.0011793353731832234 -0.019173174813412967 0 0.0015232461630157563 -0.018868404610166482 0 0.0013219374105426563 -0.018861429790447824 0 0.0015232461630157563 -0.018868404610166482 0 0.0014924377484108044 -0.018754310268794955 0 0.00180430012700836 -0.018871363414676472 0 0.0015232461630157563 -0.018868404610166482 0 0.0018113243552719375 -0.018716583825947916 0 0.0015232461630157563 -0.018868404610166482 0 0.0018113243552719375 -0.018716583825947916 0 0.0014924377484108044 -0.018754310268794955 0 0.0018113243552719375 -0.018716583825947916 0 0.0019450615093172985 -0.018759085751006307 0 0.0016129415413170891 -0.018611531176420885 0 0.0018113243552719375 -0.018716583825947916 0 0.0014924377484108044 -0.018754310268794955 0 0.0016129415413170891 -0.018611531176420885 0 0.0012382135522205065 -0.025841446230633447 0 0.0012953730539271267 -0.022838282036136165 0 0.0012505709921417866 -0.018706803362970648 0 0.0014924377484108044 -0.018754310268794955 0 0.0016129415413170891 -0.018611531176420885 0 0.0021457301396407397 -0.018620735047204913 0 0.0019970803146996769 -0.018675146459147949 0 0.0018070627818773477 -0.018538179716539569 0 0.0020942249634491577 -0.018707710476897836 0 0.0021457301396407397 -0.018620735047204913 0 0.0019970803146996769 -0.018675146459147949 0 0.0020942249634491577 -0.018707710476897836 0 0.0019970803146996769 -0.018675146459147949 0 0.0019700555179163865 -0.018725205989000425 0 0.0018113243552719375 -0.018716583825947916 0 0.0019677762067496067 -0.018751815317599337 0 0.0019700555179163865 -0.018725205989000425 0 0.0020942249634491577 -0.018707710476897836 0 0.0019677762067496067 -0.018751815317599337 0 0.0019700555179163865 -0.018725205989000425 0 0.00180430012700836 -0.018871363414676472 0 0.0018113243552719375 -0.018716583825947916 0 0.0019677762067496067 -0.018751815317599337 0 0.0018113243552719375 -0.018716583825947916 0 0.0019700555179163865 -0.018725205989000425 0 0.0019450615093172985 -0.018759085751006307 0 0.0019700555179163865 -0.018725205989000425 0 0.0019064743995701318 -0.018785914089578085 0 0.0019450615093172985 -0.018759085751006307 0 0.0019970803146996769 -0.018675146459147949 0 0.0019700555179163865 -0.018725205989000425 0 0.0019064743995701318 -0.018785914089578085 0 0.0019970803146996769 -0.018675146459147949 0 0.0019064743995701318 -0.018785914089578085 0 0.001731590564709622 -0.018763173634939637 0 0.0019064743995701318 -0.018785914089578085 0 0.001731590564709622 -0.018763173634939637 0 0.0017446965232555756 -0.019087212122169867 0 0.001731590564709622 -0.018763173634939637 0 0.0014905803870466246 -0.018894305803085952 0 0.0017446965232555756 -0.019087212122169867 0 0.0012016640577908629 -0.018863308711857096 0 0.0014905803870466246 -0.018894305803085952 0 0.0014282675586053659 -0.018676803513437631 0 0.0012016640577908629 -0.018863308711857096 0 0.0014905803870466246 -0.018894305803085952 0 0.0013011292977628819 -0.019064815499500575 0 0.001731590564709622 -0.018763173634939637 0 0.0014905803870466246 -0.018894305803085952 0 0.0014282675586053659 -0.018676803513437631 0 0.0014282675586053659 -0.018676803513437631 0 0.0014520909565220357 -0.018386265966705999 0 0.00089061967015027842 -0.018563764013882052 0 0.0014282675586053659 -0.018676803513437631 0 0.0014520909565220357 -0.018386265966705999 0 0.0018070627818773477 -0.018538179716539569 0 0.0019970803146996769 -0.018675146459147949 0 0.001731590564709622 -0.018763173634939637 0 0.0018070627818773477 -0.018538179716539569 0 0.001731590564709622 -0.018763173634939637 0 0.0014282675586053659 -0.018676803513437631 0 0.0018070627818773477 -0.018538179716539569 0 0.0018070627818773477 -0.018538179716539569 0 0.0016893956327469033 -0.018077115484138075 0 0.0014200248242538175 -0.018048852564499545 0 0.0018070627818773477 -0.018538179716539569 0 0.0019589942953827755 -0.018400901164451925 0 0.0016893956327469033 -0.018077115484138075 0 0.0019589942953827755 -0.018400901164451925 0 0.0016893956327469033 -0.018077115484138075 0 0.0019437595855266642 -0.018109127218144384 0 0.0014200248242538175 -0.018048852564499545 0 0.0011818200028888381 -0.017444321985763438 0 0.0010394115301041963 -0.017886346804167456 0 0.0014520909565220357 -0.018386265966705999 0 0.0014200248242538175 -0.018048852564499545 0 0.0010394115301041963 -0.017886346804167456 0 0.0014520909565220357 -0.018386265966705999 0 0.0018070627818773477 -0.018538179716539569 0 0.0014200248242538175 -0.018048852564499545 0 0.0013716390864626626 -0.017230359785315563 0 0.0011818200028888381 -0.017444321985763438 0 0.0016193125725019292 -0.017640303849570518 0 0.0016893956327469033 -0.018077115484138075 0 0.0014200248242538175 -0.018048852564499545 0 0.0011818200028888381 -0.017444321985763438 0 0.0016893956327469033 -0.018077115484138075 0 0.0011818200028888381 -0.017444321985763438 0 0.0016193125725019292 -0.017640303849570518 0 0.0016193125725019292 -0.017640303849570518 0 0.0018658537101497905 -0.017662123552868923 0 0.0019437595855266642 -0.018109127218144384 0 0.0020487810351649555 -0.017901652447935977 0 0.0018658537101497905 -0.017662123552868923 0 0.0019437595855266642 -0.018109127218144384 0 0.0021141384802784496 -0.017670314755963746 0 0.0020487810351649555 -0.017901652447935977 0 0.0018658537101497905 -0.017662123552868923 0 0.0016893956327469033 -0.018077115484138075 0 0.0016193125725019292 -0.017640303849570518 0 0.0019437595855266642 -0.018109127218144384 0 0.00074562311958705039 -0.016884104194404299 0 0.0011818200028888381 -0.017444321985763438 0 0.00052521150361232148 -0.016959072654846519 0 0.0011818200028888381 -0.017444321985763438 0 0.00052521150361232148 -0.016959072654846519 0 0.0010394115301041963 -0.017886346804167456 0 0.00052521150361232148 -0.016959072654846519 0 0.0010394115301041963 -0.017886346804167456 0 0.00053199984293478676 -0.017952290412549594 0 -0.00015948956180011439 -0.018138782176348876 0 0.00052521150361232148 -0.016959072654846519 0 0.00053199984293478676 -0.017952290412549594 0 0.00010320215022478058 -0.01873692021639381 0 0.00053199984293478676 -0.017952290412549594 0 0.00090090772163826092 -0.018449869880439777 0 0.0014520909565220357 -0.018386265966705999 0 0.0010394115301041963 -0.017886346804167456 0 0.00090090772163826092 -0.018449869880439777 0 0.0013979985137898821 -0.018386104009547447 0 0.00094664924425376384 -0.018497464613530041 0 0.0010394115301041963 -0.017886346804167456 0 0.00053199984293478676 -0.017952290412549594 0 0.00090090772163826092 -0.018449869880439777 0 0.00089061967015027842 -0.018563764013882052 0 0.00091991225076380517 -0.018946738542079459 0 0.00071055314841019868 -0.018894884968778392 0 0.0012016640577908629 -0.018863308711857096 0 0.0014282675586053659 -0.018676803513437631 0 0.00089061967015027842 -0.018563764013882052 0 0.0012016640577908629 -0.018863308711857096 0 0.00089061967015027842 -0.018563764013882052 0 0.00091991225076380517 -0.018946738542079459 0 0.00016978542761611067 -0.018942494981480932 0 0.00094664924425376384 -0.018497464613530041 0 0.00049989030557032427 -0.018832441274462885 0 0.00089061967015027842 -0.018563764013882052 0 0.00071055314841019868 -0.018894884968778392 0 0.00049989030557032427 -0.018832441274462885 0 0.00071055314841019868 -0.018894884968778392 0 0.00054433164965061846 -0.019024446197986229 0 0.00091991225076380517 -0.018946738542079459 0 0.00071055314841019868 -0.018894884968778392 0 0.00074309873061066017 -0.019036217582185551 0 0.00071055314841019868 -0.018894884968778392 0 0.00054433164965061846 -0.019024446197986229 0 0.00074309873061066017 -0.019036217582185551 0 0.00054433164965061846 -0.019024446197986229 0 0.00074309873061066017 -0.019036217582185551 0 0.00064626404052409842 -0.019104233444077464 0 0.00074309873061066017 -0.019036217582185551 0 0.00064626404052409842 -0.019104233444077464 0 0.00084239335283052129 -0.019153006879062656 0 0.00064626404052409842 -0.019104233444077464 0 0.00084239335283052129 -0.019153006879062656 0 0.00071842926859460113 -0.019201457843398596 0 0.00054433164965061846 -0.019024446197986229 0 0.00064626404052409842 -0.019104233444077464 0 0.00049071130032565433 -0.019098909661200966 0 0.0010685493390323419 -0.019062121640491227 0 0.0011330602009540776 -0.019165963721791142 0 0.0013011292977628819 -0.019064815499500575 0 0.0012016640577908629 -0.018863308711857096 0 0.00091991225076380517 -0.018946738542079459 0 0.0010685493390323419 -0.019062121640491227 0 0.00091991225076380517 -0.018946738542079459 0 0.00074309873061066017 -0.019036217582185551 0 0.00084239335283052129 -0.019153006879062656 0 0.00091991225076380517 -0.018946738542079459 0 0.0010685493390323419 -0.019062121640491227 0 0.00084239335283052129 -0.019153006879062656 0 0.00084239335283052129 -0.019153006879062656 0 0.0010064392544850739 -0.019186194710071307 0 0.0010820277774718121 -0.019425656212624699 0 -9.1981724152168418e-05 -0.01994064691294618 0 -0.00048034016333144147 -0.023030174384318574 0 0.0010685493390323419 -0.019062121640491227 0 0.00084239335283052129 -0.019153006879062656 0 0.0010064392544850739 -0.019186194710071307 0 0.0010064392544850739 -0.019186194710071307 0 0.0011203050065879785 -0.019329143048965762 0 0.0010820277774718121 -0.019425656212624699 0 0.0010064392544850739 -0.019186194710071307 0 0.0010926475497363035 -0.01924067515368787 0 0.0011203050065879785 -0.019329143048965762 0 0.0010926475497363035 -0.01924067515368787 0 0.0011330602009540776 -0.019165963721791142 0 0.0011203050065879785 -0.019329143048965762 0 0.0010685493390323419 -0.019062121640491227 0 0.0010064392544850739 -0.019186194710071307 0 0.0011330602009540776 -0.019165963721791142 0 0.0010064392544850739 -0.019186194710071307 0 0.0010926475497363035 -0.01924067515368787 0 0.0011330602009540776 -0.019165963721791142 0 -0.00062520879566938773 -0.022385026075698294 0 5.1969860910577226e-05 -0.019247471924385567 0 0.00089780417185092041 -0.019297230794564996 0 0.00082877045778311875 -0.019224209312395778 0 0.00064380430555029198 -0.01926270552791752 0 -0.0017032953067037254 -0.019478998085216626 0 -0.0016214960033191892 -0.019260226904590678 0 -0.0007156203752225486 -0.01928062831460859 0 -0.00062520879566938773 -0.022385026075698294 0 -0.0010567116648936249 -0.025462612260910483 0 -0.00048034016333144147 -0.023030174384318574 0 -0.0010567116648936249 -0.025462612260910483 0 -0.00092085910112733275 -0.023847833008313463 0 -0.00094481949347065036 -0.02390915379104841 0 -0.00086141669768017822 -0.023906124085926551 0 -0.0014649777780584143 -0.028123539635671404 0 -0.0014844761352127841 -0.028171665993356781 0 -0.0014159693805202911 -0.028243516011517835 0 -0.00093088835633472664 -0.023555833410000008 0 -0.00048034016333144147 -0.023030174384318574 0 -0.00048034016333144147 -0.023030174384318574 0 -0.00062520879566938773 -0.022385026075698294 0 0.00090971631752982186 -0.019242699189929362 0 0.00089780417185092041 -0.019297230794564996 0 0.00082877045778311875 -0.019224209312395778 0 0.00084239335283052129 -0.019153006879062656 0 0.00090971631752982186 -0.019242699189929362 0 0.00082877045778311875 -0.019224209312395778 0 0.00084239335283052129 -0.019153006879062656 0 0.00082877045778311875 -0.019224209312395778 0 0.00071842926859460113 -0.019201457843398596 0 -0.00081736303084579292 -0.02487987987348881 0 -0.00099520037351051431 -0.024896600440972003 0 -0.00092654781010379774 -0.024952150328261515 0 -0.0013449381798009987 -0.023222221652593165 0 -0.0010517148137274114 -0.027508076786507324 0 -0.00062520879566938773 -0.022385026075698294 0 -0.0013449381798009987 -0.023222221652593165 0 -0.00083931714790625497 -0.024938467772537699 0 -0.00081736303084579292 -0.02487987987348881 0 -0.00092654781010379774 -0.024952150328261515 0 -0.0012057219929255028 -0.019129563775090019 0 -0.00024365013454459179 -0.018730788209053724 0 -1.1465614897686299e-05 -0.019045418544863846 0 0.00049071130032565433 -0.019098909661200966 0 0.00064380430555029198 -0.01926270552791752 0 0.00028313460326142296 -0.019059681178979278 0 -0.0016214960033191892 -0.019260226904590678 0 -0.0007156203752225486 -0.01928062831460859 0 -1.1465614897686299e-05 -0.019045418544863846 0 5.1969860910577226e-05 -0.019247471924385567 0 0.00023099732863468065 -0.019125642355775168 0 -0.0013449381798009987 -0.023222221652593165 0 -8.8815222226119284e-05 -0.018020147248312267 0 0.00064626404052409842 -0.019104233444077464 0 0.00049071130032565433 -0.019098909661200966 0 0.00064380430555029198 -0.01926270552791752 0 0.00082877045778311875 -0.019224209312395778 0 0.00071842926859460113 -0.019201457843398596 0 0.00064380430555029198 -0.01926270552791752 0 0.00064626404052409842 -0.019104233444077464 0 0.00071842926859460113 -0.019201457843398596 0 0.00064380430555029198 -0.01926270552791752 0 -0.0012057219929255028 -0.019129563775090019 0 -0.00024365013454459179 -0.018730788209053724 0 -0.00054598997103766421 -0.018525959469717031 0 -0.00024365013454459179 -0.018730788209053724 0 -0.00054598997103766421 -0.018525959469717031 0 -6.9318785742644997e-05 -0.018253388773787859 0 -0.0011620673579459662 -0.029530807906561658 0 -0.0012970325603794571 -0.030032855926199892 0 -0.0010095658722819433 -0.029816144422121712 0 -0.0012057219929255028 -0.019129563775090019 0 -0.00054598997103766421 -0.018525959469717031 0 -0.00075212752286351811 -0.018011420472050999 0 -0.0013449381798009987 -0.023222221652593165 0 -0.0010468554285983545 -0.024301071653509695 0 -0.0012970325603794571 -0.030032855926199892 0 -0.0009642444084964327 -0.030032006075457161 0 -0.0010095658722819433 -0.029816144422121712 0 -0.0012970325603794571 -0.030032855926199892 0 -0.0009642444084964327 -0.030032006075457161 0 -0.0010684800010495076 -0.030344984622444813 0 -0.00075212752286351811 -0.018011420472050999 0 -6.9318785742644997e-05 -0.018253388773787859 0 -0.00010917111692014756 -0.017637845935434947 0 -0.00054598997103766421 -0.018525959469717031 0 -0.00075212752286351811 -0.018011420472050999 0 -6.9318785742644997e-05 -0.018253388773787859 0 -0.0009642444084964327 -0.030032006075457161 0 -0.00065431805410709942 -0.029921246970463927 0 -0.00076080449367373906 -0.030322275076723335 0 -0.0010095658722819433 -0.029816144422121712 0 -0.00065431805410709942 -0.029921246970463927 0 -0.00096632911968584905 -0.02954612000383898 0 -0.0009642444084964327 -0.030032006075457161 0 -0.0010095658722819433 -0.029816144422121712 0 -0.00065431805410709942 -0.029921246970463927 0 -0.0011620673579459662 -0.029530807906561658 0 -0.0010095658722819433 -0.029816144422121712 0 -0.00096632911968584905 -0.02954612000383898 0 -0.0011889649644174767 -0.029464783786759315 0 -0.0012855161286451841 -0.028689351793900277 0 -0.00091681799230558785 -0.029036816724889475 0 -0.00091764618671937915 -0.029970222703462775 0 -0.0010517148137274114 -0.027508076786507324 0 -0.0011889649644174767 -0.029464783786759315 0 -0.0012855161286451841 -0.028689351793900277 0 -0.0020031281512252076 -0.028689142119890137 0 -0.0012295264174699873 -0.028434591239147523 0 -0.0011367648085775434 -0.028606448447128393 0 -0.0016442916685634281 -0.028561675630149972 0 -0.0012295264174699873 -0.028434591239147523 0 -0.0011367648085775434 -0.028606448447128393 0 -0.0005904585278299284 -0.028388926611053762 0 -0.0012759452250969815 -0.028499375237093397 0 -0.00058033957520617796 -0.028355132374380202 0 -0.0010779209790364656 -0.028284165281927669 0 -0.00099722496213624275 -0.028093435031015936 0 -0.0005904585278299284 -0.028388926611053762 0 -0.0012759452250969815 -0.028499375237093397 0 -0.0010567116648936249 -0.025462612260910483 0 -0.0014649777780584143 -0.028123539635671404 0 -0.0010779209790364656 -0.028284165281927669 0 -0.00099722496213624275 -0.028093435031015936 0 -0.001338623736599308 -0.028674276227935034 0 -0.0010517148137274114 -0.027508076786507324 0 -0.0014649777780584143 -0.028123539635671404 0 -0.0010779209790364656 -0.028284165281927669 0 -0.0014159693805202911 -0.028243516011517835 0 -0.0012295264174699873 -0.028434591239147523 0 -0.0016442916685634281 -0.028561675630149972 0 -0.0017616007955858048 -0.028443575478518324 0 -0.0010517148137274114 -0.027508076786507324 0 -0.0010567116648936249 -0.025462612260910483 0 0.0011203050065879785 -0.019329143048965762 0 0.0013011292977628819 -0.019064815499500575 0 0.0017446965232555756 -0.019087212122169867 0 0.0014905803870466246 -0.018894305803085952 0 0.0013011292977628819 -0.019064815499500575 0 0.0017446965232555756 -0.019087212122169867 0 -0.00093088835633472664 -0.023555833410000008 0 0.00053164604469778571 -0.023585170305647253 0 0.0011330602009540776 -0.019165963721791142 0 0.0011203050065879785 -0.019329143048965762 0 0.0013011292977628819 -0.019064815499500575 0 0.0012016640577908629 -0.018863308711857096 0 0.0010685493390323419 -0.019062121640491227 0 0.0013011292977628819 -0.019064815499500575 0 0.0019064743995701318 -0.018785914089578085 0 0.0017446965232555756 -0.019087212122169867 0 0.0019450615093172985 -0.018759085751006307 0 -0.00099722496213624275 -0.028093435031015936 0 -0.00022359932064808547 -0.027951039721402508 0 -0.0005904585278299284 -0.028388926611053762 0 0.00053164604469778571 -0.023585170305647253 0 0.00077845068421923973 -0.023411306193225422 0 -0.00022359932064808547 -0.027951039721402508 0 -0.0003298156190335079 -0.028473085724231424 0 -0.0005904585278299284 -0.028388926611053762 0 -0.00022359932064808547 -0.027951039721402508 0 -8.3648211181848453e-05 -0.028468837200045002 0 0.00030220513956752491 -0.028332943499163474 0 -0.00022359932064808547 -0.027951039721402508 0 -0.0003298156190335079 -0.028473085724231424 0 -8.3648211181848453e-05 -0.028468837200045002 0 -8.3648211181848453e-05 -0.028468837200045002 0 0.00012182468776468806 -0.028708082814871683 0 0.00030220513956752491 -0.028332943499163474 0 -8.3648211181848453e-05 -0.028468837200045002 0 0.00012182468776468806 -0.028708082814871683 0 -0.00014360337605032604 -0.02892004968547271 0 -0.0003298156190335079 -0.028473085724231424 0 -0.0005420817031151036 -0.028666400949841617 0 -0.00014360337605032604 -0.02892004968547271 0 -0.0003298156190335079 -0.028473085724231424 0 -8.3648211181848453e-05 -0.028468837200045002 0 -0.00014360337605032604 -0.02892004968547271 0 -0.0012855161286451841 -0.028689351793900277 0 -0.0005420817031151036 -0.028666400949841617 0 -0.00091681799230558785 -0.029036816724889475 0 -0.001338623736599308 -0.028674276227935034 0 -0.00055524343556316526 -0.028657518414642178 0 -0.0011367648085775434 -0.028606448447128393 0 -0.0005420817031151036 -0.028666400949841617 0 -0.0005904585278299284 -0.028388926611053762 0 -0.0003298156190335079 -0.028473085724231424 0 -0.0005420817031151036 -0.028666400949841617 0 -0.0005904585278299284 -0.028388926611053762 0 0.00075372424513055658 -0.02775917833925548 0 0.0012980627795040971 -0.028016563628528435 0 0.00085754282505611965 -0.0284010778277352 0 0.0017369981539538323 -0.027583441396723297 0 0.00075372424513055658 -0.02775917833925548 0 0.0012980627795040971 -0.028016563628528435 0 0.00075372424513055658 -0.02775917833925548 0 0.00030220513956752491 -0.028332943499163474 0 0.00085754282505611965 -0.0284010778277352 0 -0.00022359932064808547 -0.027951039721402508 0 0.00075372424513055658 -0.02775917833925548 0 0.00030220513956752491 -0.028332943499163474 0 0.00077845068421923973 -0.023411306193225422 0 0.0012953730539271267 -0.022838282036136165 0 0.00012182468776468806 -0.028708082814871683 0 0.00030220513956752491 -0.028332943499163474 0 0.00040958744642400746 -0.028708145336015671 0 0.00012182468776468806 -0.028708082814871683 0 0.00040958744642400746 -0.028708145336015671 0 0.00038719611881733582 -0.029166298517202628 0 0.00040958744642400746 -0.028708145336015671 0 0.0007358818049624041 -0.028740756504058319 0 0.00038719611881733582 -0.029166298517202628 0 0.00030220513956752491 -0.028332943499163474 0 0.00040958744642400746 -0.028708145336015671 0 0.00085754282505611965 -0.0284010778277352 0 0.00040958744642400746 -0.028708145336015671 0 0.00085754282505611965 -0.0284010778277352 0 0.0007358818049624041 -0.028740756504058319 0 0.0007358818049624041 -0.028740756504058319 0 0.0008539630995982408 -0.02909732785633919 0 0.0013649175670662386 -0.028678545352697954 0 0.00085754282505611965 -0.0284010778277352 0 0.0007358818049624041 -0.028740756504058319 0 0.0013649175670662386 -0.028678545352697954 0 0.0012980627795040971 -0.028016563628528435 0 0.00085754282505611965 -0.0284010778277352 0 0.0013649175670662386 -0.028678545352697954 0 0.0008539630995982408 -0.02909732785633919 0 0.00091646651970610227 -0.029701506445650071 0 0.0013649175670662386 -0.028678545352697954 0 -0.00061964659825050757 -0.033966373687080498 0 -0.00087757629585536378 -0.034083945425344139 0 -0.00085602368668397338 -0.034027101541289177 0 0.0008539630995982408 -0.02909732785633919 0 0.00038719611881733582 -0.029166298517202628 0 0.00091646651970610227 -0.029701506445650071 0 0.00017306823637110397 -0.031739763952182996 0 0.00015632807048853101 -0.031695087426387152 0 0.00038719611881733582 -0.029166298517202628 0 0.00026509119857526226 -0.029886302253562761 0 -5.4205146336037696e-05 -0.029504967087748669 0 0.0007358818049624041 -0.028740756504058319 0 0.0008539630995982408 -0.02909732785633919 0 0.00038719611881733582 -0.029166298517202628 0 0.00038719611881733582 -0.029166298517202628 0 0.00026509119857526226 -0.029886302253562761 0 0.00091646651970610227 -0.029701506445650071 0 0.00026509119857526226 -0.029886302253562761 0 0.00091646651970610227 -0.029701506445650071 0 0.00037291109682801676 -0.030627545462113007 0 -0.00061964659825050757 -0.033966373687080498 0 -0.00073387390128106986 -0.033433007694957134 0 -0.0010493487153840739 -0.033909361747981918 0 -0.0011889649644174767 -0.029464783786759315 0 -0.00052780726707924981 -0.029309464319587614 0 -0.00091681799230558785 -0.029036816724889475 0 -0.0005420817031151036 -0.028666400949841617 0 -0.00052780726707924981 -0.029309464319587614 0 -0.00091681799230558785 -0.029036816724889475 0 -0.0005420817031151036 -0.028666400949841617 0 -0.00052780726707924981 -0.029309464319587614 0 -0.00014360337605032604 -0.02892004968547271 0 0.00012182468776468806 -0.028708082814871683 0 0.00038719611881733582 -0.029166298517202628 0 -0.00014360337605032604 -0.02892004968547271 0 0.00038719611881733582 -0.029166298517202628 0 -0.00014360337605032604 -0.02892004968547271 0 -5.4205146336037696e-05 -0.029504967087748669 0 -0.00052780726707924981 -0.029309464319587614 0 -0.00014360337605032604 -0.02892004968547271 0 -5.4205146336037696e-05 -0.029504967087748669 0 0.00026509119857526226 -0.029886302253562761 0 -5.4205146336037696e-05 -0.029504967087748669 0 -0.00033820749437390074 -0.030233252732983929 0 -0.00052780726707924981 -0.029309464319587614 0 -5.4205146336037696e-05 -0.029504967087748669 0 -0.00033820749437390074 -0.030233252732983929 0 -0.0011889649644174767 -0.029464783786759315 0 -0.00052780726707924981 -0.029309464319587614 0 -0.00033820749437390074 -0.030233252732983929 0 -0.00091764618671937915 -0.029970222703462775 0 -0.00038919143799138616 -0.030112634741654268 0 -0.00065431805410709942 -0.029921246970463927 0 -0.00033820749437390074 -0.030233252732983929 0 -0.00076080449367373906 -0.030322275076723335 0 -0.00033820749437390074 -0.030233252732983929 0 -0.00057103579181261668 -0.030875796628156427 0 -0.00076080449367373906 -0.030322275076723335 0 -0.00033820749437390074 -0.030233252732983929 0 -0.00057103579181261668 -0.030875796628156427 0 0.00037291109682801676 -0.030627545462113007 0 -0.00057103579181261668 -0.030875796628156427 0 0.00037291109682801676 -0.030627545462113007 0 -0.00014599946923212623 -0.031484218157933667 0 0.00026509119857526226 -0.029886302253562761 0 -0.00033820749437390074 -0.030233252732983929 0 0.00037291109682801676 -0.030627545462113007 0 -0.00061964659825050757 -0.033966373687080498 0 -0.00073387390128106986 -0.033433007694957134 0 -0.00017436476219239268 -0.032918797346611725 0 0.00017306823637110397 -0.031739763952182996 0 6.7002818115478391e-05 -0.031782151473322709 0 -0.00073387390128106986 -0.033433007694957134 0 -0.00017436476219239268 -0.032918797346611725 0 -0.0011015680229350797 -0.032836586528029808 0 -0.00017436476219239268 -0.032918797346611725 0 -0.00062948353251645445 -0.0321451373098849 0 -0.00014599946923212623 -0.031484218157933667 0 6.7002818115478391e-05 -0.031782151473322709 0 -0.00010107932778132868 -0.031526816831020842 0 -0.00017436476219239268 -0.032918797346611725 0 -0.00062948353251645445 -0.0321451373098849 0 -0.0011015680229350797 -0.032836586528029808 0 -0.00062948353251645445 -0.0321451373098849 0 -0.00068626588291091748 -0.031636153152762629 0 -0.0013835232572158658 -0.031827865672136642 0 -0.00062948353251645445 -0.0321451373098849 0 -0.00068626588291091748 -0.031636153152762629 0 -0.00014599946923212623 -0.031484218157933667 0 -0.00068626588291091748 -0.031636153152762629 0 -0.00014599946923212623 -0.031484218157933667 0 -0.00055641131136004911 -0.031432880437085496 0 -0.00057103579181261668 -0.030875796628156427 0 -0.00014599946923212623 -0.031484218157933667 0 -0.00061936685495239761 -0.031209476272960897 0 -0.00014599946923212623 -0.031484218157933667 0 -0.00051836342117383928 -0.0313675485045865 0 -0.00055641131136004911 -0.031432880437085496 0 -0.00014599946923212623 -0.031484218157933667 0 -0.00061936685495239761 -0.031209476272960897 0 -0.00051836342117383928 -0.0313675485045865 0 -0.00061936685495239761 -0.031209476272960897 0 -0.00082003657562114559 -0.030940977647676535 0 -0.00089997148072249258 -0.031101942367183603 0 -0.00057103579181261668 -0.030875796628156427 0 -0.00061936685495239761 -0.031209476272960897 0 -0.00082003657562114559 -0.030940977647676535 0 -0.00057103579181261668 -0.030875796628156427 0 -0.00082003657562114559 -0.030940977647676535 0 -0.0008638732496241546 -0.030653413808585078 0 -0.00082003657562114559 -0.030940977647676535 0 -0.0010904518248795168 -0.030767184700808022 0 -0.0008638732496241546 -0.030653413808585078 0 -0.00082003657562114559 -0.030940977647676535 0 -0.0010904518248795168 -0.030767184700808022 0 -0.00089997148072249258 -0.031101942367183603 0 -0.0010904518248795168 -0.030767184700808022 0 -0.0013406216541922132 -0.030454837205265171 0 -0.0013481459950469132 -0.03073729108788845 0 -0.0010904518248795168 -0.030767184700808022 0 -0.0011775360401987661 -0.030959241277602908 0 -0.0013481459950469132 -0.03073729108788845 0 -0.0010904518248795168 -0.030767184700808022 0 -0.0011775360401987661 -0.030959241277602908 0 -0.00089997148072249258 -0.031101942367183603 0 -0.0010904518248795168 -0.030767184700808022 0 -0.0013406216541922132 -0.030454837205265171 0 -0.0010684800010495076 -0.030344984622444813 0 -0.00075212752286351811 -0.018011420472050999 0 -0.00043792231676320333 -0.01704388825194543 0 -0.00010917111692014756 -0.017637845935434947 0 -0.0012970325603794571 -0.030032855926199892 0 -0.0013406216541922132 -0.030454837205265171 0 -0.0010684800010495076 -0.030344984622444813 0 -0.0010468554285983545 -0.024301071653509695 0 -0.000809651942987694 -0.023488034371781735 0 -0.0010684800010495076 -0.030344984622444813 0 -0.00076080449367373906 -0.030322275076723335 0 -0.0008638732496241546 -0.030653413808585078 0 -0.0009642444084964327 -0.030032006075457161 0 -0.0010684800010495076 -0.030344984622444813 0 -0.00076080449367373906 -0.030322275076723335 0 -0.00057103579181261668 -0.030875796628156427 0 -0.00076080449367373906 -0.030322275076723335 0 -0.0008638732496241546 -0.030653413808585078 0 -0.0010904518248795168 -0.030767184700808022 0 -0.0010684800010495076 -0.030344984622444813 0 -0.0008638732496241546 -0.030653413808585078 0 4.7670920620242501e-08 -0.0549998544742758 0 -3.1454311688743284e-05 -0.054866611884485959 0 -9.4660021057691717e-08 -0.054999736198691786 0 4.7670920620242501e-08 -0.0549998544742758 0 -3.1454311688743284e-05 -0.054866611884485959 0 -3.0537021144124411e-05 -0.054979835473586688 0 -6.3151858844829543e-05 -0.05468273448193773 0 -3.1454311688743284e-05 -0.054866611884485959 0 -3.0537021144124411e-05 -0.054979835473586688 0 -4.3884252818457753e-05 -0.054686474791599111 0 -1.3859718317299546e-05 -0.054611014793059992 0 -6.3151858844829543e-05 -0.05468273448193773 0 7.5544819359373719e-05 -0.054136481640716487 0 8.9118793081559914e-06 -0.054202709245338453 0 -6.3151858844829543e-05 -0.05468273448193773 0 -3.1454311688743284e-05 -0.054866611884485959 0 -4.7655466361223074e-05 -0.054835450273658694 0 -3.1454311688743284e-05 -0.054866611884485959 0 -4.7655466361223074e-05 -0.054835450273658694 0 -3.4915482761652255e-05 -0.054892948502735413 0 -6.3151858844829543e-05 -0.05468273448193773 0 -4.7655466361223074e-05 -0.054835450273658694 0 2.4717242454439606e-05 -0.054857226993392641 0 -4.7655466361223074e-05 -0.054835450273658694 0 -2.5824884660908869e-05 -0.05488695822155485 0 2.4717242454439606e-05 -0.054857226993392641 0 -4.7655466361223074e-05 -0.054835450273658694 0 -2.5824884660908869e-05 -0.05488695822155485 0 -3.4915482761652255e-05 -0.054892948502735413 0 -2.5824884660908869e-05 -0.05488695822155485 0 -3.4915482761652255e-05 -0.054892948502735413 0 -3.550562746735987e-05 -0.054902525173089696 0 -3.4915482761652255e-05 -0.054892948502735413 0 -9.4660021057691717e-08 -0.054999736198691786 0 -3.550562746735987e-05 -0.054902525173089696 0 -3.1454311688743284e-05 -0.054866611884485959 0 -3.4915482761652255e-05 -0.054892948502735413 0 -9.4660021057691717e-08 -0.054999736198691786 0 8.7596937458249634e-10 -0.054999995489450018 0 2.6933092519883078e-06 -0.054993292726196186 0 3.7029167273294618e-09 -0.054999978681607137 0 -5.6839125801088087e-08 -0.054999942323161133 0 3.4892165224801469e-05 -0.054979885445649038 0 2.6933092519883078e-06 -0.054993292726196186 0 3.7029167273294618e-09 -0.054999978681607137 0 3.4960035581271118e-06 -0.054990345252161447 0 1.8743746095354846e-06 -0.054994793111186893 0 3.7029167273294618e-09 -0.054999978681607137 0 3.4960035581271118e-06 -0.054990345252161447 0 6.3737351991708728e-06 -0.054983993715094541 0 3.4960035581271118e-06 -0.054990345252161447 0 5.1290980257176102e-06 -0.054983576196178989 0 0.00017728324652231228 -0.052632714542393516 0 0.00018350822128246886 -0.053908362334234822 0 2.6933092519883078e-06 -0.054993292726196186 0 3.4960035581271118e-06 -0.054990345252161447 0 5.1290980257176102e-06 -0.054983576196178989 0 -2.5824884660908869e-05 -0.05488695822155485 0 -1.1278417409452398e-05 -0.054924792961633308 0 2.4717242454439606e-05 -0.054857226993392641 0 3.4892165224801469e-05 -0.054979885445649038 0 0.00018350822128246886 -0.053908362334234822 0 -2.5824884660908869e-05 -0.05488695822155485 0 -3.550562746735987e-05 -0.054902525173089696 0 -1.1278417409452398e-05 -0.054924792961633308 0 0.00018350822128246886 -0.053908362334234822 0 0.0001936606070529732 -0.054163931116317766 0 -0.0001055099970480137 -0.053133629491591026 0 -6.0676928412415095e-05 -0.052527796401024396 0 -0.00050684033138875795 -0.052267924652185563 0 0.00059351234494356712 -0.05253606184567941 0 -0.0001055099970480137 -0.053133629491591026 0 0.00036724730527015102 -0.053695686246790261 0 0.00059351234494356712 -0.05253606184567941 0 -0.0001055099970480137 -0.053133629491591026 0 -6.0676928412415095e-05 -0.052527796401024396 0 0.00021569364844357039 -0.052239223623531852 0 0.00017342637545342282 -0.052464505770073978 0 1.5980942129507011e-05 -0.052363452080417205 0 0.00018350822128246886 -0.053908362334234822 0 0.00010519385088350971 -0.050507970488398168 0 0.00017728324652231228 -0.052632714542393516 0 0.00010519385088350971 -0.050507970488398168 0 0.00059351234494356712 -0.05253606184567941 0 -6.0676928412415095e-05 -0.052527796401024396 0 -0.00020050523634965991 -0.052066277004326381 0 -6.0676928412415095e-05 -0.052527796401024396 0 -0.00020050523634965991 -0.052066277004326381 0 -0.00050684033138875795 -0.052267924652185563 0 -0.00036180602328337983 -0.050098138017858805 0 4.9672757182680699e-05 -0.050941644619138235 0 -0.00082469190483365127 -0.051560015758562353 0 -0.00056034042695525174 -0.049986009895316881 0 -0.00036180602328337983 -0.050098138017858805 0 -0.00082469190483365127 -0.051560015758562353 0 -0.0017470170252543787 -0.044404590583251982 0 -0.0017940250377518788 -0.044514638691857018 0 -0.0016541054200051579 -0.044595654041406731 0 -0.0015916015044716762 -0.04474464229302081 0 -0.00060445700900942914 -0.046570637602810945 0 -0.0020354206707371585 -0.043556612421483461 0 -0.00060445700900942914 -0.046570637602810945 0 -0.00019977101443834942 -0.048729768194946968 0 -0.00019357033899077643 -0.048579016709265371 0 -7.2361515367084953e-05 -0.048633590411702433 0 -0.00060445700900942914 -0.046570637602810945 0 -0.00020583130483299751 -0.051225911641412061 0 0.00010519385088350971 -0.050507970488398168 0 -0.00060445700900942914 -0.046570637602810945 0 0.00073693108529820103 -0.049372896734434943 0 -0.00095261448311944707 -0.048387873598172502 0 -0.00020603526285365367 -0.049995334354544139 0 0.00010519385088350971 -0.050507970488398168 0 -0.00020583130483299751 -0.051225911641412061 0 -0.00020583130483299751 -0.051225911641412061 0 -0.00066840610739602238 -0.051471594919326465 0 0.0001130635471125208 -0.052163820726706854 0 -0.00026451896980167537 -0.051236415308449877 0 -0.0003552329796771902 -0.05182735615307961 0 -0.00082469190483365127 -0.051560015758562353 0 -0.0003552329796771902 -0.05182735615307961 0 -0.00071493842964779047 -0.051963038206338415 0 -0.00026451896980167537 -0.051236415308449877 0 -0.00082469190483365127 -0.051560015758562353 0 -0.0003552329796771902 -0.05182735615307961 0 1.6267659880458695e-05 -0.052684358724260964 0 -0.00020583130483299751 -0.051225911641412061 0 0.0001130635471125208 -0.052163820726706854 0 -0.0003552329796771902 -0.05182735615307961 0 -0.00063777086998801432 -0.052460200912228791 0 -0.00071493842964779047 -0.051963038206338415 0 -0.00063777086998801432 -0.052460200912228791 0 -0.0011966389890439306 -0.051790755351041003 0 -0.0003552329796771902 -0.05182735615307961 0 -0.00071493842964779047 -0.051963038206338415 0 -0.00063777086998801432 -0.052460200912228791 0 -0.00063777086998801432 -0.052460200912228791 0 -0.00018999440813947946 -0.052909943997963844 0 -0.00068694895617213674 -0.0533020844015639 0 0.0001130635471125208 -0.052163820726706854 0 -0.00063777086998801432 -0.052460200912228791 0 -0.00018999440813947946 -0.052909943997963844 0 -0.0001055099970480137 -0.053133629491591026 0 0.00036724730527015102 -0.053695686246790261 0 0.00030869093899785351 -0.053996771917699728 0 1.6267659880458695e-05 -0.052684358724260964 0 0.0002047803971656496 -0.053810513888608781 0 0.0001130635471125208 -0.052163820726706854 0 -0.00018999440813947946 -0.052909943997963844 0 0.00046363022956841601 -0.053111849326326906 0 -6.3151858844829543e-05 -0.05468273448193773 0 2.4717242454439606e-05 -0.054857226993392641 0 5.7726584768159929e-05 -0.054764990932249999 0 0.0001936606070529732 -0.054163931116317766 0 0.0002047803971656496 -0.053810513888608781 0 0.0002047803971656496 -0.053810513888608781 0 0.00012193282624491608 -0.054149690937110959 0 -6.3151858844829543e-05 -0.05468273448193773 0 5.7726584768159929e-05 -0.054764990932249999 0 7.5544819359373719e-05 -0.054136481640716487 0 -0.00018999440813947946 -0.052909943997963844 0 0.00046363022956841601 -0.053111849326326906 0 -0.00023345061528724415 -0.053576269183355729 0 0.00046363022956841601 -0.053111849326326906 0 -0.00023345061528724415 -0.053576269183355729 0 7.5544819359373719e-05 -0.054136481640716487 0 -0.00023345061528724415 -0.053576269183355729 0 -0.00050372998921770912 -0.054047883822797405 0 7.5544819359373719e-05 -0.054136481640716487 0 -0.00068694895617213674 -0.0533020844015639 0 -0.00023345061528724415 -0.053576269183355729 0 -0.00050372998921770912 -0.054047883822797405 0 -0.00068694895617213674 -0.0533020844015639 0 -0.001085057526585763 -0.053718313478343903 0 -0.00050372998921770912 -0.054047883822797405 0 -0.00018999440813947946 -0.052909943997963844 0 -0.00068694895617213674 -0.0533020844015639 0 -0.00023345061528724415 -0.053576269183355729 0 -0.00068694895617213674 -0.0533020844015639 0 -0.001085057526585763 -0.053718313478343903 0 -0.0014824037409514586 -0.052936829110292433 0 -0.001085057526585763 -0.053718313478343903 0 -0.0014824037409514586 -0.052936829110292433 0 -0.0017033300072421523 -0.053803515874121417 0 -0.0026695231204589259 -0.035646202275503844 0 -0.001850638013965182 -0.03527071356089187 0 -0.0022771985505042279 -0.034891090775839635 0 -0.002221800510131888 -0.044520338352134863 0 -0.0010679361981502692 -0.04329486452169188 0 -0.002804743363838375 -0.033753480218359444 0 -0.0010679361981502692 -0.04329486452169188 0 -0.0023002244264074506 -0.035970029081389375 0 -0.0026695231204589259 -0.035646202275503844 0 -0.001850638013965182 -0.03527071356089187 0 -0.00063777086998801432 -0.052460200912228791 0 -0.00068694895617213674 -0.0533020844015639 0 -0.0014824037409514586 -0.052936829110292433 0 -0.0023002244264074506 -0.035970029081389375 0 -0.0026695231204589259 -0.035646202275503844 0 -0.0031063002045518002 -0.036584819515355242 0 -0.002221800510131888 -0.044520338352134863 0 -0.00211907108099735 -0.044157794915741962 0 -0.00063777086998801432 -0.052460200912228791 0 -0.0014824037409514586 -0.052936829110292433 0 -0.0011966389890439306 -0.051790755351041003 0 -0.00082469190483365127 -0.051560015758562353 0 -0.00071493842964779047 -0.051963038206338415 0 -0.0011966389890439306 -0.051790755351041003 0 -0.00056034042695525174 -0.049986009895316881 0 -0.00082469190483365127 -0.051560015758562353 0 -0.0011966389890439306 -0.051790755351041003 0 -0.0020354206707371585 -0.043556612421483461 0 -0.00211907108099735 -0.044157794915741962 0 -0.003498549952009771 -0.037543632447586316 0 -0.0031063002045518002 -0.036584819515355242 0 -0.0025441516359203734 -0.037178559824580008 0 -0.0025441516359203734 -0.037178559824580008 0 -0.0019332146493361258 -0.036966618992067095 0 -0.0019409272032186505 -0.037433805912752631 0 -0.0025441516359203734 -0.037178559824580008 0 -0.0021847271863494407 -0.036513730003452476 0 -0.0019332146493361258 -0.036966618992067095 0 -0.0031063002045518002 -0.036584819515355242 0 -0.0025441516359203734 -0.037178559824580008 0 -0.0021847271863494407 -0.036513730003452476 0 -0.0023002244264074506 -0.035970029081389375 0 -0.0031063002045518002 -0.036584819515355242 0 -0.0021847271863494407 -0.036513730003452476 0 -0.0023002244264074506 -0.035970029081389375 0 -0.0021847271863494407 -0.036513730003452476 0 -0.0017581646312580092 -0.035932304098875212 0 -0.0015796537745730885 -0.036572285055077765 0 -0.0014359151833001995 -0.037125279297787396 0 -0.0011436215254112809 -0.036157727965736262 0 -0.0021847271863494407 -0.036513730003452476 0 -0.0015796537745730885 -0.036572285055077765 0 -0.0017581646312580092 -0.035932304098875212 0 -0.0015796537745730885 -0.036572285055077765 0 -0.0011436215254112809 -0.036157727965736262 0 -0.0017581646312580092 -0.035932304098875212 0 -0.0021847271863494407 -0.036513730003452476 0 -0.0015796537745730885 -0.036572285055077765 0 -0.0019332146493361258 -0.036966618992067095 0 -0.0015796537745730885 -0.036572285055077765 0 -0.0019332146493361258 -0.036966618992067095 0 -0.0016555605120060846 -0.036945370090077048 0 -0.0014359151833001995 -0.037125279297787396 0 -0.00134008368716047 -0.037324569204587502 0 -0.0011436215254112809 -0.036157727965736262 0 -0.0019332146493361258 -0.036966618992067095 0 -0.0016833883829872496 -0.037128777054957394 0 -0.0016555605120060846 -0.036945370090077048 0 -0.0015796537745730885 -0.036572285055077765 0 -0.0016555605120060846 -0.036945370090077048 0 -0.0014359151833001995 -0.037125279297787396 0 -0.0016833883829872496 -0.037128777054957394 0 -0.0016555605120060846 -0.036945370090077048 0 -0.0014359151833001995 -0.037125279297787396 0 -0.0016833883829872496 -0.037128777054957394 0 -0.0014359151833001995 -0.037125279297787396 0 -0.0015886174559948244 -0.037345935595632151 0 -0.0013871686210111759 -0.037737659061677892 0 -0.0013354299989242373 -0.037318874276314584 0 -0.0015886174559948244 -0.037345935595632151 0 -0.0014359151833001995 -0.037125279297787396 0 -0.0013354299989242373 -0.037318874276314584 0 -0.0015886174559948244 -0.037345935595632151 0 -0.00025034561079767759 -0.036047161639824556 0 -0.00022746946060985326 -0.035054224822357032 0 -0.0016833883829872496 -0.037128777054957394 0 -0.0015886174559948244 -0.037345935595632151 0 -0.0019409272032186505 -0.037433805912752631 0 -0.0019332146493361258 -0.036966618992067095 0 -0.0016833883829872496 -0.037128777054957394 0 -0.0019409272032186505 -0.037433805912752631 0 0.0008278176569891675 -0.029299695052134596 0 0.00015632807048853101 -0.031695087426387152 0 0.0017759230317559989 -0.027663955042019565 0 0.0012980627795040971 -0.028016563628528435 0 0.0013649175670662386 -0.028678545352697954 0 -0.00077746937798143698 -0.033781357744783858 0 -0.00074217846113433289 -0.033867223037026585 0 -0.00087757629585536378 -0.034083945425344139 0 0.0008278176569891675 -0.029299695052134596 0 -0.00022746946060985326 -0.035054224822357032 0 -0.00022746946060985326 -0.035054224822357032 0 -0.0011232810202179591 -0.035230445046687854 0 -0.00074217846113433289 -0.033867223037026585 0 -0.00087757629585536378 -0.034083945425344139 0 -0.00084263441261380877 -0.034108321722980152 0 -0.0011436215254112809 -0.036157727965736262 0 -0.0013175921938408163 -0.035519104062428204 0 -0.0010493487153840739 -0.033909361747981918 0 -0.00087757629585536378 -0.034083945425344139 0 -0.00084263441261380877 -0.034108321722980152 0 -0.00085602368668397338 -0.034027101541289177 0 -0.0011232810202179591 -0.035230445046687854 0 -0.0009859081657675147 -0.033924964810550441 0 -0.00084263441261380877 -0.034108321722980152 0 -0.00085602368668397338 -0.034027101541289177 0 -0.0010493487153840739 -0.033909361747981918 0 -0.0013175921938408163 -0.035519104062428204 0 -0.0017581646312580092 -0.035932304098875212 0 -0.001850638013965182 -0.03527071356089187 0 -0.0011436215254112809 -0.036157727965736262 0 -0.0013175921938408163 -0.035519104062428204 0 -0.0017581646312580092 -0.035932304098875212 0 -0.0023002244264074506 -0.035970029081389375 0 -0.0017581646312580092 -0.035932304098875212 0 -0.001850638013965182 -0.03527071356089187 0 -0.001058982040394335 -0.035826559058637054 0 -0.002804743363838375 -0.033753480218359444 0 -0.002084406920691625 -0.034343007940087961 0 -0.0010493487153840739 -0.033909361747981918 0 -0.0017337017915512124 -0.033414410559058479 0 -0.0013175921938408163 -0.035519104062428204 0 -0.002084406920691625 -0.034343007940087961 0 -0.0010493487153840739 -0.033909361747981918 0 -0.00061964659825050757 -0.033966373687080498 0 -0.00085602368668397338 -0.034027101541289177 0 -0.0010493487153840739 -0.033909361747981918 0 -0.00073387390128106986 -0.033433007694957134 0 -0.0010493487153840739 -0.033909361747981918 0 -0.0011015680229350797 -0.032836586528029808 0 -0.0010493487153840739 -0.033909361747981918 0 -0.0017337017915512124 -0.033414410559058479 0 -0.0011015680229350797 -0.032836586528029808 0 -0.002084406920691625 -0.034343007940087961 0 -0.0017337017915512124 -0.033414410559058479 0 -0.002541977417072253 -0.033645914516100564 0 -0.0017337017915512124 -0.033414410559058479 0 -0.0019312903563406302 -0.032632532955575312 0 -0.002541977417072253 -0.033645914516100564 0 -0.0017337017915512124 -0.033414410559058479 0 -0.0019312903563406302 -0.032632532955575312 0 -0.0011015680229350797 -0.032836586528029808 0 -0.00062948353251645445 -0.0321451373098849 0 -0.0011015680229350797 -0.032836586528029808 0 -0.0013835232572158658 -0.031827865672136642 0 -0.0012984626778813758 -0.042000868140340569 0 -0.0011239213527608782 -0.042439606099469743 0 -0.00068626588291091748 -0.031636153152762629 0 -0.0013835232572158658 -0.031827865672136642 0 -0.00089558489517249521 -0.031491998524114766 0 -0.0012116515386433155 -0.051994280117154318 0 0.00026828431182195317 -0.051619730303833558 0 -0.00084863288623011326 -0.05307270610989568 0 -0.001144386963233557 -0.040884511599974895 0 -0.0012984626778813758 -0.042000868140340569 0 -0.0019312903563406302 -0.032632532955575312 0 -0.0011015680229350797 -0.032836586528029808 0 -0.0013835232572158658 -0.031827865672136642 0 -0.00052658692538176742 -0.050061859094109276 0 -0.0012116515386433155 -0.051994280117154318 0 0.00026828431182195317 -0.051619730303833558 0 -0.00052658692538176742 -0.050061859094109276 0 0.00026828431182195317 -0.051619730303833558 0 0.0016295982820892616 -0.049873564773739637 0 0.00026828431182195317 -0.051619730303833558 0 0.00082870387161540905 -0.05300575423809703 0 -0.00084863288623011326 -0.05307270610989568 0 0.00026828431182195317 -0.051619730303833558 0 0.001634681272442657 -0.051870046421113342 0 0.00082870387161540905 -0.05300575423809703 0 0.001634681272442657 -0.051870046421113342 0 0.002478632828128578 -0.052936754358630697 0 0.00082870387161540905 -0.05300575423809703 0 0.001634681272442657 -0.051870046421113342 0 0.0016295982820892616 -0.049873564773739637 0 0.0028651954291408406 -0.051461676904085249 0 0.00026828431182195317 -0.051619730303833558 0 0.001634681272442657 -0.051870046421113342 0 0.0016295982820892616 -0.049873564773739637 0 -0.00052658692538176742 -0.050061859094109276 0 0.0016295982820892616 -0.049873564773739637 0 0.00024497450737478527 -0.048174437628580737 0 -0.001144386963233557 -0.040884511599974895 0 -0.0010679361981502692 -0.04329486452169188 0 0.0007562229074132091 -0.053538403117463558 0 -0.0010679361981502692 -0.04329486452169188 0 -0.001085057526585763 -0.053718313478343903 0 -0.0009218611605510236 -0.054493339714856349 0 -0.00050372998921770912 -0.054047883822797405 0 -0.001085057526585763 -0.053718313478343903 0 -0.0009218611605510236 -0.054493339714856349 0 -0.0017033300072421523 -0.053803515874121417 0 -0.00050372998921770912 -0.054047883822797405 0 7.5544819359373719e-05 -0.054136481640716487 0 -0.00019447716953232362 -0.054444581482290103 0 7.5544819359373719e-05 -0.054136481640716487 0 -0.00019447716953232362 -0.054444581482290103 0 8.9118793081559914e-06 -0.054202709245338453 0 -0.0009218611605510236 -0.054493339714856349 0 -0.00050372998921770912 -0.054047883822797405 0 -0.00019447716953232362 -0.054444581482290103 0 -0.0009218611605510236 -0.054493339714856349 0 -0.00019447716953232362 -0.054444581482290103 0 -0.00042760316129672314 -0.054814269609592368 0 0.0007562229074132091 -0.053538403117463558 0 0.0012383080942227394 -0.052909061820731802 0 0.0028651954291408406 -0.051461676904085249 0 0.004039215501746676 -0.05290283745106323 0 0.002478632828128578 -0.052936754358630697 0 0.001634681272442657 -0.051870046421113342 0 0.0028651954291408406 -0.051461676904085249 0 0.002478632828128578 -0.052936754358630697 0 0.0012383080942227394 -0.052909061820731802 0 0.00091376605330708151 -0.054025101310054592 0 -0.00042760316129672314 -0.054814269609592368 0 -0.00012437790527530365 -0.05476616054475518 0 -0.00015636794205795389 -0.055004833274367934 0 -0.00019447716953232362 -0.054444581482290103 0 -0.00012437790527530365 -0.05476616054475518 0 -4.4895154036569906e-05 -0.054542352251535905 0 -0.00019447716953232362 -0.054444581482290103 0 -0.00042760316129672314 -0.054814269609592368 0 -0.00012437790527530365 -0.05476616054475518 0 -0.00012437790527530365 -0.05476616054475518 0 -3.4495073961875758e-06 -0.054765638135661737 0 -4.4895154036569906e-05 -0.054542352251535905 0 -3.4495073961875758e-06 -0.054765638135661737 0 0.00013435222556850169 -0.054692021543716426 0 -4.4895154036569906e-05 -0.054542352251535905 0 -3.4495073961875758e-06 -0.054765638135661737 0 2.8413879177721754e-05 -0.054875836797547387 0 0.00013435222556850169 -0.054692021543716426 0 -0.00012437790527530365 -0.05476616054475518 0 -3.4495073961875758e-06 -0.054765638135661737 0 -3.1882862808636512e-05 -0.054881258792838755 0 -0.00012437790527530365 -0.05476616054475518 0 -3.1882862808636512e-05 -0.054881258792838755 0 -0.00015636794205795389 -0.055004833274367934 0 -3.1882862808636512e-05 -0.054881258792838755 0 8.8142049338575737e-06 -0.054964598727738935 0 -0.00015636794205795389 -0.055004833274367934 0 -3.4495073961875758e-06 -0.054765638135661737 0 -3.1882862808636512e-05 -0.054881258792838755 0 2.8413879177721754e-05 -0.054875836797547387 0 -3.1882862808636512e-05 -0.054881258792838755 0 2.8413879177721754e-05 -0.054875836797547387 0 8.8142049338575737e-06 -0.054964598727738935 0 2.218042741218304e-05 -0.054973013471212251 0 5.1727295670598175e-05 -0.05483671909411697 0 8.6515055023811182e-06 -0.054995190369608871 0 -4.9712833260284926e-08 -0.055000029840122415 0 2.0306183026941795e-07 -0.054999896183354866 0 8.6515055023811182e-06 -0.054995190369608871 0 2.8413879177721754e-05 -0.054875836797547387 0 0.00013435222556850169 -0.054692021543716426 0 8.6515055023811182e-06 -0.054995190369608871 0 2.8413879177721754e-05 -0.054875836797547387 0 8.8142049338575737e-06 -0.054964598727738935 0 -4.9712833260284926e-08 -0.055000029840122415 0 -4.1954010897649018e-06 -0.055002464922977105 0 -1.1401976195581864e-08 -0.055000009981728729 0 8.6515055023811182e-06 -0.054995190369608871 0 -4.9712833260284926e-08 -0.055000029840122415 0 -4.1954010897649018e-06 -0.055002464922977105 0 -4.1954010897649018e-06 -0.055002464922977105 0 -1.1401976195581864e-08 -0.055000009981728729 0 -3.0537021144124411e-05 -0.054979835473586688 0 5.1727295670598175e-05 -0.05483671909411697 0 -1.3859718317299546e-05 -0.054611014793059992 0 0.00013435222556850169 -0.054692021543716426 0 -4.4895154036569906e-05 -0.054542352251535905 0 8.9118793081559914e-06 -0.054202709245338453 0 -0.00019447716953232362 -0.054444581482290103 0 -4.4895154036569906e-05 -0.054542352251535905 0 8.9118793081559914e-06 -0.054202709245338453 0 4.7670920620242501e-08 -0.0549998544742758 0 -1.1401976195581864e-08 -0.055000009981728729 0 -3.0537021144124411e-05 -0.054979835473586688 0 -5.628141269344507e-05 -0.054810340516636392 0 4.0979231879996736e-07 -0.054998751760790367 0 -1.2074402038662211e-07 -0.055000033103269022 0 -5.628141269344507e-05 -0.054810340516636392 0 -0.00013425188848569447 -0.054547187746892385 0 -0.00015392459023574325 -0.054714087333606179 0 -5.628141269344507e-05 -0.054810340516636392 0 -0.00013425188848569447 -0.054547187746892385 0 4.0979231879996736e-07 -0.054998751760790367 0 -0.00013425188848569447 -0.054547187746892385 0 4.0979231879996736e-07 -0.054998751760790367 0 -5.532460527708602e-06 -0.054247103911929183 0 3.224894777023342e-09 -0.054999989614414505 0 1.7826660610307125e-06 -0.05499768155640776 0 2.7429789288003411e-06 -0.054994095583133541 0 1.0254244902282573e-07 -0.05499987623360808 0 -0.00016214262744500792 -0.054631634849569635 0 -2.2183084371884756e-09 -0.055000000862380237 0 3.224894777023342e-09 -0.054999989614414505 0 2.7429789288003411e-06 -0.054994095583133541 0 1.5800333269869464e-07 -0.054999985738248901 0 -0.0001646329571132057 -0.054989202856731381 0 1.7826660610307125e-06 -0.05499768155640776 0 5.4994991176524014e-06 -0.054997423516649338 0 2.7429789288003411e-06 -0.054994095583133541 0 8.6515055023811182e-06 -0.054995190369608871 0 2.0306183026941795e-07 -0.054999896183354866 0 8.8142049338575737e-06 -0.054964598727738935 0 3.224894777023342e-09 -0.054999989614414505 0 1.7826660610307125e-06 -0.05499768155640776 0 -3.0246121228914833e-10 -0.055000002029495572 0 1.7826660610307125e-06 -0.05499768155640776 0 -3.0246121228914833e-10 -0.055000002029495572 0 5.4994991176524014e-06 -0.054997423516649338 0 -0.0001646329571132057 -0.054989202856731381 0 0.00091376605330708151 -0.054025101310054592 0 -0.00016214262744500792 -0.054631634849569635 0 0.00091376605330708151 -0.054025101310054592 0 5.4994991176524014e-06 -0.054997423516649338 0 2.7429789288003411e-06 -0.054994095583133541 0 1.8024392320225977e-05 -0.054990428970354062 0 -0.00013425188848569447 -0.054547187746892385 0 -5.532460527708602e-06 -0.054247103911929183 0 -0.00027856705020341355 -0.054074985113431631 0 0.00091376605330708151 -0.054025101310054592 0 0.0012437885268598591 -0.053260709239826239 0 -0.00027856705020341355 -0.054074985113431631 0 -0.00016323781521239975 -0.053808840930814707 0 -0.00040525208446344496 -0.053701470217644827 0 -5.532460527708602e-06 -0.054247103911929183 0 -0.00027856705020341355 -0.054074985113431631 0 -0.00016323781521239975 -0.053808840930814707 0 -0.00027856705020341355 -0.054074985113431631 0 -0.00040525208446344496 -0.053701470217644827 0 -0.00051153385716653794 -0.053894244853581241 0 -0.00027856705020341355 -0.054074985113431631 0 -0.00036607012150210528 -0.054273566052236696 0 -0.00051153385716653794 -0.053894244853581241 0 -0.00013425188848569447 -0.054547187746892385 0 -0.00036607012150210528 -0.054273566052236696 0 -0.00027189090559773786 -0.054507974880074105 0 -0.00013425188848569447 -0.054547187746892385 0 -0.00027856705020341355 -0.054074985113431631 0 -0.00036607012150210528 -0.054273566052236696 0 -0.00013425188848569447 -0.054547187746892385 0 -0.00027189090559773786 -0.054507974880074105 0 -0.00015392459023574325 -0.054714087333606179 0 -0.00027189090559773786 -0.054507974880074105 0 -0.00045417119484621692 -0.054368161434703056 0 -0.00029613240024554185 -0.054626607384352162 0 -0.00036607012150210528 -0.054273566052236696 0 -0.00045417119484621692 -0.054368161434703056 0 -0.00054000245769941595 -0.05413335040077541 0 -0.00036607012150210528 -0.054273566052236696 0 -0.00027189090559773786 -0.054507974880074105 0 -0.00045417119484621692 -0.054368161434703056 0 -0.00045417119484621692 -0.054368161434703056 0 -0.00065125396552849545 -0.054170867489522469 0 -0.00054000245769941595 -0.05413335040077541 0 -0.00045417119484621692 -0.054368161434703056 0 -0.00065125396552849545 -0.054170867489522469 0 -0.00060937080256700203 -0.054323448860853607 0 -0.00065125396552849545 -0.054170867489522469 0 -0.00076515047069256915 -0.054195741377363771 0 -0.00060937080256700203 -0.054323448860853607 0 -0.00065125396552849545 -0.054170867489522469 0 -0.00080729476082830017 -0.054050314965732954 0 -0.00076515047069256915 -0.054195741377363771 0 -0.00065125396552849545 -0.054170867489522469 0 -0.00080729476082830017 -0.054050314965732954 0 -0.00071485964363066253 -0.053940635104096218 0 -0.00036607012150210528 -0.054273566052236696 0 -0.00054000245769941595 -0.05413335040077541 0 -0.00051153385716653794 -0.053894244853581241 0 -0.00071485964363066253 -0.053940635104096218 0 -0.00054000245769941595 -0.05413335040077541 0 -0.00051153385716653794 -0.053894244853581241 0 -0.00065125396552849545 -0.054170867489522469 0 -0.00071485964363066253 -0.053940635104096218 0 -0.00054000245769941595 -0.05413335040077541 0 -0.00051153385716653794 -0.053894244853581241 0 -0.00059509950750173256 -0.053498536033521157 0 -0.00067066702002524352 -0.053732791186727601 0 -0.00040525208446344496 -0.053701470217644827 0 -0.00051153385716653794 -0.053894244853581241 0 -0.00059509950750173256 -0.053498536033521157 0 0.0012437885268598591 -0.053260709239826239 0 3.4010777223001664e-05 -0.053241533618655593 0 -0.00073745896604048011 -0.053477495998906367 0 -0.00059509950750173256 -0.053498536033521157 0 -0.00067066702002524352 -0.053732791186727601 0 3.4010777223001664e-05 -0.053241533618655593 0 -0.00078479703511675233 -0.053118723193404625 0 -0.00073745896604048011 -0.053477495998906367 0 -0.00059509950750173256 -0.053498536033521157 0 -0.00084863288623011326 -0.05307270610989568 0 -0.00071485964363066253 -0.053940635104096218 0 -0.00051153385716653794 -0.053894244853581241 0 -0.00067066702002524352 -0.053732791186727601 0 -0.00073745896604048011 -0.053477495998906367 0 -0.00067066702002524352 -0.053732791186727601 0 -0.00093260467480020255 -0.053674718553399149 0 -0.00071485964363066253 -0.053940635104096218 0 -0.00067066702002524352 -0.053732791186727601 0 -0.00093260467480020255 -0.053674718553399149 0 -0.00073745896604048011 -0.053477495998906367 0 -0.00093260467480020255 -0.053674718553399149 0 -0.00084863288623011326 -0.05307270610989568 0 -0.0012116515386433155 -0.051994280117154318 0 -0.00084863288623011326 -0.05307270610989568 0 -0.0013012895486150774 -0.053365789172815807 0 -0.00093260467480020255 -0.053674718553399149 0 -0.00084863288623011326 -0.05307270610989568 0 -0.0013012895486150774 -0.053365789172815807 0 -0.0011239213527608782 -0.042439606099469743 0 -0.00082748127126710939 -0.042389816785336321 0 -0.00093260467480020255 -0.053674718553399149 0 -0.0013012895486150774 -0.053365789172815807 0 -0.0011917123150007062 -0.053769904696557486 0 -0.00093260467480020255 -0.053674718553399149 0 -0.00095530577781129285 -0.053892611344002486 0 -0.0011917123150007062 -0.053769904696557486 0 -0.00095530577781129285 -0.053892611344002486 0 -0.0010601011647357738 -0.053884855687589488 0 -0.0011917123150007062 -0.053769904696557486 0 -0.0010601011647357738 -0.053884855687589488 0 -0.0011917123150007062 -0.053769904696557486 0 -0.0010351555473175078 -0.05385380622487581 0 -0.00071485964363066253 -0.053940635104096218 0 -0.00093260467480020255 -0.053674718553399149 0 -0.00095530577781129285 -0.053892611344002486 0 -0.00080729476082830017 -0.054050314965732954 0 -0.00071485964363066253 -0.053940635104096218 0 -0.00095530577781129285 -0.053892611344002486 0 -0.00080729476082830017 -0.054050314965732954 0 -0.00092610953226920424 -0.054016371583637091 0 -0.00076515047069256915 -0.054195741377363771 0 -0.00080729476082830017 -0.054050314965732954 0 -0.00095530577781129285 -0.053892611344002486 0 -0.00092610953226920424 -0.054016371583637091 0 -0.00095530577781129285 -0.053892611344002486 0 -0.00092610953226920424 -0.054016371583637091 0 -0.0010601011647357738 -0.053884855687589488 0 -0.00092610953226920424 -0.054016371583637091 0 -0.0010601011647357738 -0.053884855687589488 0 -0.0010053739488577985 -0.053966720712659511 0 -0.0010601011647357738 -0.053884855687589488 0 -0.0010053739488577985 -0.053966720712659511 0 -0.0011356381613879659 -0.053704756850558331 0 -0.0010053739488577985 -0.053966720712659511 0 -0.00079680930981938271 -0.054267874256939144 0 -0.0011164549360125533 -0.054076874388526708 0 -0.0010053739488577985 -0.053966720712659511 0 -0.0011164549360125533 -0.054076874388526708 0 -0.0011356381613879659 -0.053704756850558331 0 -0.0010053739488577985 -0.053966720712659511 0 -0.00087452440718123795 -0.054108890472920848 0 -0.00079680930981938271 -0.054267874256939144 0 -0.00092610953226920424 -0.054016371583637091 0 -0.0010053739488577985 -0.053966720712659511 0 -0.00087452440718123795 -0.054108890472920848 0 -0.00092610953226920424 -0.054016371583637091 0 -0.00087452440718123795 -0.054108890472920848 0 -0.00076515047069256915 -0.054195741377363771 0 -0.00087452440718123795 -0.054108890472920848 0 -0.00079680930981938271 -0.054267874256939144 0 -0.00076515047069256915 -0.054195741377363771 0 0.00069588336126420334 -0.046220738808780207 0 0.0013710219867699455 -0.046228588630645905 0 0.0009188302686395373 -0.04587656779725785 0 0.00069588336126420334 -0.046220738808780207 0 0.0009188302686395373 -0.04587656779725785 0 0.00066008984164492052 -0.045944054906040616 0 0.0013710219867699455 -0.046228588630645905 0 0.0012419815695239114 -0.045687716726875577 0 0.0009188302686395373 -0.04587656779725785 0 -0.00093944461844836468 -0.04758893485859169 0 -0.0010185796251525601 -0.037499332188159831 0 0.00027494910671105115 -0.050310378455819919 0 -0.00093944461844836468 -0.04758893485859169 0 -0.001137140736557849 -0.036630409502730429 0 -0.0011204079616825278 -0.035972649812524106 0 -0.0022306409685754289 -0.033027938272902568 0 -0.0011204079616825278 -0.035972649812524106 0 -0.0022306409685754289 -0.033027938272902568 0 -0.00046963473358362274 -0.033991956623349924 0 0.0012419815695239114 -0.045687716726875577 0 0.0010917126056647108 -0.045092104884643339 0 0.00098218548611927808 -0.045539282925419894 0 -0.0022306409685754289 -0.033027938272902568 0 -0.00094202670974101541 -0.030133434607440054 0 -0.00031361307867115067 -0.03145789445523204 0 -0.0022306409685754289 -0.033027938272902568 0 0.00018517002700522286 -0.0327203806231905 0 -0.00046963473358362274 -0.033991956623349924 0 0.0012419815695239114 -0.045687716726875577 0 0.00098218548611927808 -0.045539282925419894 0 0.0009188302686395373 -0.04587656779725785 0 -0.002995331091014112 -0.029361310683241122 0 -0.00094202670974101541 -0.030133434607440054 0 -0.00023878362800956664 -0.028969284867722715 0 0.0018477415444333449 -0.038373900502960738 0 -0.00042899671639839374 -0.028572412081328838 0 0.0013370061441890673 -0.033571328121527917 0 0.00032526172449712297 -0.034093257603177857 0 0.0022243270849842283 -0.033837796477970424 0 -0.0022306409685754289 -0.033027938272902568 0 -0.0032532687655664233 -0.02960795892256406 0 -0.00094202670974101541 -0.030133434607440054 0 -0.0010185796251525601 -0.037499332188159831 0 0.0019887596100469553 -0.041161944886431927 0 -0.0032532687655664233 -0.02960795892256406 0 -0.002995331091014112 -0.029361310683241122 0 -0.00094202670974101541 -0.030133434607440054 0 0.0019887596100469553 -0.041161944886431927 0 0.0018477415444333449 -0.038373900502960738 0 0.0011564547202059941 -0.045395840319729985 0 0.00075397412637821706 -0.045797622605969729 0 0.00054149684794279999 -0.045513489841106508 0 0.0037731355883140701 -0.044001726613729399 0 0.0048140302794210136 -0.044662986514710075 0 0.0029484094337425223 -0.044848673446250535 0 0.0019887596100469553 -0.041161944886431927 0 0.0019268839495500179 -0.045643653956518558 0 0.0019887596100469553 -0.041161944886431927 0 0.0003005167202191524 -0.046304068451702408 0 0.0010917126056647108 -0.045092104884643339 0 0.00066274934792287716 -0.045591500848309686 0 0.00098218548611927808 -0.045539282925419894 0 0.00066274934792287716 -0.045591500848309686 0 0.00098218548611927808 -0.045539282925419894 0 0.0009188302686395373 -0.04587656779725785 0 0.00066274934792287716 -0.045591500848309686 0 0.0009188302686395373 -0.04587656779725785 0 0.00066008984164492052 -0.045944054906040616 0 0.00066274934792287716 -0.045591500848309686 0 0.00038953699272912374 -0.046065612670026769 0 0.00066008984164492052 -0.045944054906040616 0 0.0003005167202191524 -0.046304068451702408 0 0.00060629810207554139 -0.045813300923502963 0 0.00075397412637821706 -0.045797622605969729 0 0.00033827884114901726 -0.045799588680585694 0 0.00038953699272912374 -0.046065612670026769 0 0.00075397412637821706 -0.045797622605969729 0 0.00054149684794279999 -0.045513489841106508 0 0.00033827884114901726 -0.045799588680585694 0 0.0019268839495500179 -0.045643653956518558 0 0.00054735940550577954 -0.044961060586291055 0 0.0023244043633031462 -0.043746884342472703 0 0.0029484094337425223 -0.044848673446250535 0 0.0011366737181274979 -0.04517259373742976 0 0.00054149684794279999 -0.045513489841106508 0 0.00033827884114901726 -0.045799588680585694 0 6.8885442169924944e-05 -0.045658995938908369 0 0.00033827884114901726 -0.045799588680585694 0 0.0001827228823714247 -0.04599059610273179 0 6.8885442169924944e-05 -0.045658995938908369 0 0.00033827884114901726 -0.045799588680585694 0 0.0001827228823714247 -0.04599059610273179 0 0.00038953699272912374 -0.046065612670026769 0 -0.00062372441571638534 -0.052409345437668703 0 -0.0002024982608774069 -0.054388111912128757 0 0.0001827228823714247 -0.04599059610273179 0 0.00018679344121860133 -0.04624764027232818 0 0.00038953699272912374 -0.046065612670026769 0 0.00027494910671105115 -0.050310378455819919 0 -0.00062372441571638534 -0.052409345437668703 0 0.00069588336126420334 -0.046220738808780207 0 0.00038953699272912374 -0.046065612670026769 0 0.00066008984164492052 -0.045944054906040616 0 -0.00079680930981938271 -0.054267874256939144 0 -0.00063130038868031179 -0.054410006158545174 0 -0.0006776700127176839 -0.054365622151093779 0 0.00069588336126420334 -0.046220738808780207 0 0.00018679344121860133 -0.04624764027232818 0 0.00038953699272912374 -0.046065612670026769 0 -0.00076515047069256915 -0.054195741377363771 0 -0.00060937080256700203 -0.054323448860853607 0 -0.0006776700127176839 -0.054365622151093779 0 -0.00079680930981938271 -0.054267874256939144 0 -0.00076515047069256915 -0.054195741377363771 0 -0.0006776700127176839 -0.054365622151093779 0 -0.00060937080256700203 -0.054323448860853607 0 -0.00049247134367500704 -0.054498845759006452 0 -0.0006776700127176839 -0.054365622151093779 0 -0.00045417119484621692 -0.054368161434703056 0 -0.00060937080256700203 -0.054323448860853607 0 -0.00049247134367500704 -0.054498845759006452 0 -0.00055807133802852264 -0.054627881361547809 0 -0.00049247134367500704 -0.054498845759006452 0 -0.0006776700127176839 -0.054365622151093779 0 -0.00049247134367500704 -0.054498845759006452 0 -0.00029613240024554185 -0.054626607384352162 0 -0.00040140677409321177 -0.054703631514653683 0 -0.00045417119484621692 -0.054368161434703056 0 -0.00049247134367500704 -0.054498845759006452 0 -0.00029613240024554185 -0.054626607384352162 0 -0.00018068144631336926 -0.054773909319556086 0 -0.00029613240024554185 -0.054626607384352162 0 -0.00015392459023574325 -0.054714087333606179 0 -0.00027189090559773786 -0.054507974880074105 0 -0.00029613240024554185 -0.054626607384352162 0 -0.00015392459023574325 -0.054714087333606179 0 -0.00018068144631336926 -0.054773909319556086 0 -0.00029613240024554185 -0.054626607384352162 0 -0.00026364917104200469 -0.054773352813540239 0 -0.00026364917104200469 -0.054773352813540239 0 -0.00015902815195981951 -0.054864411783883134 0 -0.00033942996979519806 -0.054875779734509855 0 -0.00018068144631336926 -0.054773909319556086 0 -0.00026364917104200469 -0.054773352813540239 0 -0.00015902815195981951 -0.054864411783883134 0 -0.00026364917104200469 -0.054773352813540239 0 -0.00040140677409321177 -0.054703631514653683 0 -0.00033942996979519806 -0.054875779734509855 0 0.0001827228823714247 -0.04599059610273179 0 0.00018679344121860133 -0.04624764027232818 0 -7.4159638664236832e-05 -0.045991687005599427 0 -0.00062372441571638534 -0.052409345437668703 0 -0.00022823400742944585 -0.05031563623520989 0 -0.00054907610308993124 -0.054683135492953838 0 -0.00040140677409321177 -0.054703631514653683 0 -0.00033942996979519806 -0.054875779734509855 0 -0.00029613240024554185 -0.054626607384352162 0 -0.00026364917104200469 -0.054773352813540239 0 -0.00040140677409321177 -0.054703631514653683 0 -0.00055807133802852264 -0.054627881361547809 0 -0.00049247134367500704 -0.054498845759006452 0 -0.00040140677409321177 -0.054703631514653683 0 -0.00062372441571638534 -0.052409345437668703 0 -0.00037676707082229277 -0.054024483144216297 0 -7.4159638664236832e-05 -0.045991687005599427 0 6.8885442169924944e-05 -0.045658995938908369 0 -0.00033336858337373307 -0.045771505679321929 0 0.0001827228823714247 -0.04599059610273179 0 -7.4159638664236832e-05 -0.045991687005599427 0 6.8885442169924944e-05 -0.045658995938908369 0 0.00020586612968151113 -0.043796336973803682 0 0.0011366737181274979 -0.04517259373742976 0 -0.00070984216248551877 -0.045490026332038351 0 0.00054735940550577954 -0.044961060586291055 0 -0.00016586669965606128 -0.049506563674474001 0 0.00020586612968151113 -0.043796336973803682 0 -0.00070984216248551877 -0.045490026332038351 0 -0.0010744279118975644 -0.045163964692173264 0 -0.00016586669965606128 -0.049506563674474001 0 0.00059906779686427509 -0.051513185073333564 0 -0.00022823400742944585 -0.05031563623520989 0 -0.00016586669965606128 -0.049506563674474001 0 -0.00033942996979519806 -0.054875779734509855 0 -0.00019963531501567306 -0.054982753596379337 0 -0.00016545078306026893 -0.054929338074267413 0 -0.00015902815195981951 -0.054864411783883134 0 -0.00033942996979519806 -0.054875779734509855 0 -0.00016545078306026893 -0.054929338074267413 0 -0.00015902815195981951 -0.054864411783883134 0 -0.00016545078306026893 -0.054929338074267413 0 -5.5579817372317478e-05 -0.054945227613294602 0 -0.00016545078306026893 -0.054929338074267413 0 -0.00013182423557851723 -0.054978474231252662 0 -5.5579817372317478e-05 -0.054945227613294602 0 -0.00017574426702150601 -0.053781397914080382 0 -0.00010735415742347008 -0.055077110575742237 0 -0.00019963531501567306 -0.054982753596379337 0 -0.00016545078306026893 -0.054929338074267413 0 -0.00013182423557851723 -0.054978474231252662 0 0.00045607173767177404 -0.051650113969644931 0 0.00019636074212316373 -0.05141344004610017 0 -0.00011074944072863988 -0.051734836471626314 0 0.00040725565401230734 -0.055029173676173937 0 0.00037217778195610123 -0.055134549615874259 0 0.0001946407317205258 -0.055054427063171991 0 -0.00016586669965606128 -0.049506563674474001 0 -0.00017574426702150601 -0.053781397914080382 0 0.00040725565401230734 -0.055029173676173937 0 0.00041473984787812932 -0.055093000177964466 0 0.00037217778195610123 -0.055134549615874259 0 0.00059906779686427509 -0.051513185073333564 0 -0.00017574426702150601 -0.053781397914080382 0 0.001191620686896014 -0.055669446333881413 0 0.00059906779686427509 -0.051513185073333564 0 -0.00017574426702150601 -0.053781397914080382 0 4.6072170702709257e-07 -0.055000576433282378 0 0.00037217778195610123 -0.055134549615874259 0 0.0001946407317205258 -0.055054427063171991 0 -2.3492992158967316e-07 -0.054999971962428396 0 9.76828586898954e-07 -0.05500086715557008 0 0.00040725565401230734 -0.055029173676173937 0 0.0001946407317205258 -0.055054427063171991 0 9.76828586898954e-07 -0.05500086715557008 0 0.0001946407317205258 -0.055054427063171991 0 -2.3492992158967316e-07 -0.054999971962428396 0 5.4453296239081995e-06 -0.054981842607481367 0 -6.3862804621826302e-09 -0.054999977859382577 0 1.7797609662864421e-06 -0.05499751340426539 0 -6.3862804621826302e-09 -0.054999977859382577 0 1.7797609662864421e-06 -0.05499751340426539 0 3.9793441498619809e-09 -0.05500000997892894 0 -0.00010735415742347008 -0.055077110575742237 0 8.327509285506221e-08 -0.054999882246650381 0 -5.5579817372317478e-05 -0.054945227613294602 0 -2.3694727278327774e-08 -0.054999694113985823 0 -7.0828625030843129e-05 -0.054878208041951794 0 -0.00015902815195981951 -0.054864411783883134 0 -5.5579817372317478e-05 -0.054945227613294602 0 -7.0828625030843129e-05 -0.054878208041951794 0 -0.00018068144631336926 -0.054773909319556086 0 -0.00015902815195981951 -0.054864411783883134 0 -7.0828625030843129e-05 -0.054878208041951794 0 -5.628141269344507e-05 -0.054810340516636392 0 -7.0828625030843129e-05 -0.054878208041951794 0 -0.00015392459023574325 -0.054714087333606179 0 -0.00018068144631336926 -0.054773909319556086 0 -7.0828625030843129e-05 -0.054878208041951794 0 -0.00015392459023574325 -0.054714087333606179 0 -2.3694727278327774e-08 -0.054999694113985823 0 -7.0828625030843129e-05 -0.054878208041951794 0 -1.2074402038662211e-07 -0.055000033103269022 0 -5.628141269344507e-05 -0.054810340516636392 0 -7.0828625030843129e-05 -0.054878208041951794 0 -1.2074402038662211e-07 -0.055000033103269022 0 -0.00078529787347048714 -0.031382381302431643 0 -0.00091282953704064512 -0.031375132554559364 0 -0.00085546151862373777 -0.03127474957464247 0 -0.00078529787347048714 -0.031382381302431643 0 -0.00085546151862373777 -0.03127474957464247 0 -0.00064969175358628884 -0.031367627528153356 0 -0.00078529787347048714 -0.031382381302431643 0 -0.00069054016540439625 -0.03144111390227259 0 -0.00079457384922750518 -0.031454617996070085 0 -0.00078529787347048714 -0.031382381302431643 0 -0.00091282953704064512 -0.031375132554559364 0 -0.00079457384922750518 -0.031454617996070085 0 0.0011891120318062924 -0.011260750106017138 0 0.00095933247905438874 -0.011215835505846783 0 0.0011156109202662945 -0.011329348786563479 0 0.00016748166347117991 -0.02140527029044352 0 -0.0001397750571135365 -0.021118690259886285 0 0.0011891120318062924 -0.011260750106017138 0 0.00095933247905438874 -0.011215835505846783 0 0.0008476349543241297 -0.011047247279919481 0 0.00095933247905438874 -0.011215835505846783 0 0.0008476349543241297 -0.011047247279919481 0 0.0006542458615178509 -0.010838362305459245 0 0.00095933247905438874 -0.011215835505846783 0 0.00082128150642814084 -0.011350332487670005 0 0.0006542458615178509 -0.010838362305459245 0 0.0008476349543241297 -0.011047247279919481 0 0.0006542458615178509 -0.010838362305459245 0 0.00064612726766226239 -0.011260052739765727 0 -0.0001397750571135365 -0.021118690259886285 0 -0.00026420367256153253 -0.021474887605867753 0 -0.00091282953704064512 -0.031375132554559364 0 -0.0010755521248113486 -0.031258444889098479 0 -0.00085546151862373777 -0.03127474957464247 0 -0.0010755521248113486 -0.031258444889098479 0 -0.0010382342917747949 -0.031143789242538016 0 -0.00085546151862373777 -0.03127474957464247 0 -0.0010382342917747949 -0.031143789242538016 0 -0.0011775360401987661 -0.030959241277602908 0 -0.0012549446403426641 -0.031089852506094355 0 -0.0010755521248113486 -0.031258444889098479 0 -0.0010382342917747949 -0.031143789242538016 0 -0.0012549446403426641 -0.031089852506094355 0 -0.0010382342917747949 -0.031143789242538016 0 -0.0011775360401987661 -0.030959241277602908 0 -0.00089997148072249258 -0.031101942367183603 0 -0.0010382342917747949 -0.031143789242538016 0 -0.00089997148072249258 -0.031101942367183603 0 -0.00085546151862373777 -0.03127474957464247 0 -0.00089997148072249258 -0.031101942367183603 0 -0.00085546151862373777 -0.03127474957464247 0 -0.00072557988162377579 -0.031261707474985884 0 -0.00085546151862373777 -0.03127474957464247 0 -0.00072557988162377579 -0.031261707474985884 0 -0.00064969175358628884 -0.031367627528153356 0 -0.00061936685495239761 -0.031209476272960897 0 -0.00089997148072249258 -0.031101942367183603 0 -0.00072557988162377579 -0.031261707474985884 0 -0.00061936685495239761 -0.031209476272960897 0 -0.00072557988162377579 -0.031261707474985884 0 -0.00051836342117383928 -0.0313675485045865 0 -0.00051836342117383928 -0.0313675485045865 0 -0.00064969175358628884 -0.031367627528153356 0 -0.00060012241173114703 -0.031435777743321847 0 -0.00072557988162377579 -0.031261707474985884 0 -0.00051836342117383928 -0.0313675485045865 0 -0.00064969175358628884 -0.031367627528153356 0 -0.00068626588291091748 -0.031636153152762629 0 -0.00089558489517249521 -0.031491998524114766 0 -0.00055641131136004911 -0.031432880437085496 0 -0.00055641131136004911 -0.031432880437085496 0 -0.00066904290423238559 -0.031473539731022765 0 -0.00060012241173114703 -0.031435777743321847 0 -0.00051836342117383928 -0.0313675485045865 0 -0.00055641131136004911 -0.031432880437085496 0 -0.00060012241173114703 -0.031435777743321847 0 -0.00089558489517249521 -0.031491998524114766 0 -0.00055641131136004911 -0.031432880437085496 0 -0.00066904290423238559 -0.031473539731022765 0 -0.00066904290423238559 -0.031473539731022765 0 -0.00060012241173114703 -0.031435777743321847 0 -0.00060905323124086481 -0.0315553274292956 0 -0.00082748127126710939 -0.042389816785336321 0 -0.0011583091239846168 -0.043750855101393239 0 -0.00060012241173114703 -0.031435777743321847 0 -0.00060905323124086481 -0.0315553274292956 0 -0.00063137227199684968 -0.031526125842365485 0 -0.0011917123150007062 -0.053769904696557486 0 -0.00082468776044631621 -0.053879272621767976 0 -0.0010351555473175078 -0.05385380622487581 0 -0.0010601011647357738 -0.053884855687589488 0 -0.0010351555473175078 -0.05385380622487581 0 -0.0011356381613879659 -0.053704756850558331 0 -0.00082468776044631621 -0.053879272621767976 0 -0.0010351555473175078 -0.05385380622487581 0 -0.0011356381613879659 -0.053704756850558331 0 -0.00078529787347048714 -0.031382381302431643 0 -0.00064969175358628884 -0.031367627528153356 0 -0.00069054016540439625 -0.03144111390227259 0 -0.00064969175358628884 -0.031367627528153356 0 -0.00060012241173114703 -0.031435777743321847 0 -0.00069054016540439625 -0.03144111390227259 0 -0.00060012241173114703 -0.031435777743321847 0 -0.00069054016540439625 -0.03144111390227259 0 -0.00063137227199684968 -0.031526125842365485 0 -0.00069054016540439625 -0.03144111390227259 0 -0.00067910981448128255 -0.031528442482511597 0 -0.00079457384922750518 -0.031454617996070085 0 -0.0005939835036455405 -0.028841922686760533 0 0.00030220553582486809 -0.020872328149703901 0 -0.00069054016540439625 -0.03144111390227259 0 -0.00067910981448128255 -0.031528442482511597 0 -0.00063137227199684968 -0.031526125842365485 0 -0.0005939835036455405 -0.028841922686760533 0 0.00014031308075893687 -0.034072490844640112 0 -0.00067910981448128255 -0.031528442482511597 0 -0.00063137227199684968 -0.031526125842365485 0 -0.00060884902689236796 -0.031604593468261347 0 -3.1822926191760318e-05 -0.025414181616369717 0 0.00023586904623393187 -0.025763476123611486 0 -0.00018380563638402435 -0.025738555839775402 0 -3.1822926191760318e-05 -0.025414181616369717 0 0.00023586904623393187 -0.025763476123611486 0 0.00054857040528908285 -0.025613525936701586 0 0.00023586904623393187 -0.025763476123611486 0 0.00060398142447192502 -0.025629545628329711 0 0.0003450372411514537 -0.026178036210213487 0 -3.1822926191760318e-05 -0.025414181616369717 0 -0.00018380563638402435 -0.025738555839775402 0 -0.00074645516005674621 -0.025202732162188539 0 -0.00093944461844836468 -0.04758893485859169 0 -0.00061382692278395053 -0.055375012039872565 0 -0.0014903017346052671 -0.052606646593437327 0 -0.0011356381613879659 -0.053704756850558331 0 -3.7233891000632271e-05 -0.052599417580828964 0 -0.00082468776044631621 -0.053879272621767976 0 -0.0011356381613879659 -0.053704756850558331 0 -3.7233891000632271e-05 -0.052599417580828964 0 -0.00063137227199684968 -0.031526125842365485 0 -0.00060884902689236796 -0.031604593468261347 0 -0.00060254046676466158 -0.031611567359488585 0 -0.00060905323124086481 -0.0315553274292956 0 -0.00063137227199684968 -0.031526125842365485 0 -0.00060254046676466158 -0.031611567359488585 0 -0.0011583091239846168 -0.043750855101393239 0 0.0015985885364753296 -0.037244579954774586 0 0.0032394188813086541 -0.036622053558109664 0 0.0019066252884622126 -0.034627899546943029 0 0.0029627922105122813 -0.033560113608472594 0 0.0015985885364753296 -0.037244579954774586 0 0.0022619194239295597 -0.023867003022330982 0 0.00023586904623393187 -0.025763476123611486 0 0.00054857040528908285 -0.025613525936701586 0 0.00060398142447192502 -0.025629545628329711 0 0.00014031308075893687 -0.034072490844640112 0 0.0015985885364753296 -0.037244579954774586 0 0.0032394188813086541 -0.036622053558109664 0 0.0019066252884622126 -0.034627899546943029 0 0.0010289609183113664 -0.035413023423975599 0 -0.00026935926793075028 -0.035960426868492608 0 0.0015985885364753296 -0.037244579954774586 0 -0.0011204079616825278 -0.035972649812524106 0 0.0032394188813086541 -0.036622053558109664 0 0.0010289609183113664 -0.035413023423975599 0 -0.001137140736557849 -0.036630409502730429 0 -0.0011204079616825278 -0.035972649812524106 0 0.0030940606794784878 -0.036833383963909616 0 -0.00093944461844836468 -0.04758893485859169 0 0.0015985885364753296 -0.037244579954774586 0 0.0019066252884622126 -0.034627899546943029 0 0.0010289609183113664 -0.035413023423975599 0 0.00071634216848570837 -0.034152641339811024 0 0.0010289609183113664 -0.035413023423975599 0 2.3918762548830375e-05 -0.034933403364493833 0 0.00071634216848570837 -0.034152641339811024 0 -0.0011204079616825278 -0.035972649812524106 0 2.3918762548830375e-05 -0.034933403364493833 0 -0.00046963473358362274 -0.033991956623349924 0 -0.0011204079616825278 -0.035972649812524106 0 0.0010289609183113664 -0.035413023423975599 0 2.3918762548830375e-05 -0.034933403364493833 0 2.3918762548830375e-05 -0.034933403364493833 0 -0.00046963473358362274 -0.033991956623349924 0 0.00071634216848570837 -0.034152641339811024 0 -0.0022306409685754289 -0.033027938272902568 0 0.00018517002700522286 -0.0327203806231905 0 -0.00031361307867115067 -0.03145789445523204 0 0.00018517002700522286 -0.0327203806231905 0 0.0010799442145591855 -0.031271249476589866 0 -0.00031361307867115067 -0.03145789445523204 0 0.00018517002700522286 -0.0327203806231905 0 -0.00046963473358362274 -0.033991956623349924 0 0.00071634216848570837 -0.034152641339811024 0 0.00018517002700522286 -0.0327203806231905 0 0.00071634216848570837 -0.034152641339811024 0 0.0016293185739217342 -0.033238700986589112 0 0.0019066252884622126 -0.034627899546943029 0 0.00071634216848570837 -0.034152641339811024 0 0.0016293185739217342 -0.033238700986589112 0 0.0016293185739217342 -0.033238700986589112 0 0.0025884040535444166 -0.032062261626288412 0 0.0010799442145591855 -0.031271249476589866 0 0.00018517002700522286 -0.0327203806231905 0 0.0016293185739217342 -0.033238700986589112 0 0.0010799442145591855 -0.031271249476589866 0 0.0032394188813086541 -0.036622053558109664 0 0.0029627922105122813 -0.033560113608472594 0 0.0052244241075299876 -0.032059102136584243 0 0.0016293185739217342 -0.033238700986589112 0 0.0025884040535444166 -0.032062261626288412 0 0.0029627922105122813 -0.033560113608472594 0 0.0019066252884622126 -0.034627899546943029 0 0.0016293185739217342 -0.033238700986589112 0 0.0029627922105122813 -0.033560113608472594 0 0.0025884040535444166 -0.032062261626288412 0 0.003130926263641132 -0.03028745124561228 0 0.0052244241075299876 -0.032059102136584243 0 0.0025884040535444166 -0.032062261626288412 0 0.0029627922105122813 -0.033560113608472594 0 0.0052244241075299876 -0.032059102136584243 0 0.0068254002233757846 -0.027773024783040192 0 0.0033803868720378352 -0.028301551236402791 0 0.003130926263641132 -0.03028745124561228 0 0.0053094215835042327 -0.031599441636848212 0 0.0022619194239295597 -0.023867003022330982 0 0.0033803868720378352 -0.028301551236402791 0 0.003130926263641132 -0.03028745124561228 0 0.0015564606345900333 -0.029757445595419953 0 0.0025884040535444166 -0.032062261626288412 0 0.003130926263641132 -0.03028745124561228 0 0.0010799442145591855 -0.031271249476589866 0 0.0033803868720378352 -0.028301551236402791 0 0.0015564606345900333 -0.029757445595419953 0 -0.0002023509956212744 -0.028829865682142901 0 0.0010799442145591855 -0.031271249476589866 0 0.0015564606345900333 -0.029757445595419953 0 0.00023443351492881853 -0.030294463167677598 0 0.003130926263641132 -0.03028745124561228 0 0.0010799442145591855 -0.031271249476589866 0 0.0015564606345900333 -0.029757445595419953 0 0.0015564606345900333 -0.029757445595419953 0 -0.0002023509956212744 -0.028829865682142901 0 0.00023443351492881853 -0.030294463167677598 0 -0.00094202670974101541 -0.030133434607440054 0 -0.0002023509956212744 -0.028829865682142901 0 0.00023443351492881853 -0.030294463167677598 0 -0.00084089703260601095 -0.029582577906678828 0 -0.00042899671639839374 -0.028572412081328838 0 0.0010799442145591855 -0.031271249476589866 0 0.00023443351492881853 -0.030294463167677598 0 -0.00031361307867115067 -0.03145789445523204 0 -0.00094202670974101541 -0.030133434607440054 0 0.00023443351492881853 -0.030294463167677598 0 -0.00031361307867115067 -0.03145789445523204 0 0.0013807492544881173 -0.011588354903145996 0 0.0013723636053021024 -0.011630321114058265 0 0.0014466565725888556 -0.01171934237633067 0 0.0013807492544881173 -0.011588354903145996 0 0.0013723636053021024 -0.011630321114058265 0 0.0013211303177335062 -0.011573495299905357 0 0.00023586904623393187 -0.025763476123611486 0 -0.00018380563638402435 -0.025738555839775402 0 0.0003450372411514537 -0.026178036210213487 0 6.3128830696057341e-06 -0.017444946475105836 0 0.0022619194239295597 -0.023867003022330982 0 0.0044700430054170435 -0.018081840852180266 0 0.0022619194239295597 -0.023867003022330982 0 0.0068254002233757846 -0.027773024783040192 0 0.003130926263641132 -0.03028745124561228 0 0.0050540375694276786 -0.031843050847709956 0 0.0014170667342690117 -0.011720716814099204 0 0.0014466565725888556 -0.01171934237633067 0 0.0013821788371735659 -0.011658917841811986 0 0.0013723636053021024 -0.011630321114058265 0 0.0014466565725888556 -0.01171934237633067 0 0.0013821788371735659 -0.011658917841811986 0 0.0013723636053021024 -0.011630321114058265 0 0.0013821788371735659 -0.011658917841811986 0 0.0013429924681214555 -0.011597180058485328 0 0.0013429924681214555 -0.011597180058485328 0 0.0012925378319359742 -0.011515342747778401 0 0.0013211303177335062 -0.011573495299905357 0 0.0013503149159486529 -0.011622036224495355 0 0.0013429924681214555 -0.011597180058485328 0 0.0012925378319359742 -0.011515342747778401 0 0.0013503149159486529 -0.011622036224495355 0 0.0013821788371735659 -0.011658917841811986 0 0.0013429924681214555 -0.011597180058485328 0 0.0013046438066951209 -0.011580617414714877 0 0.0012925378319359742 -0.011515342747778401 0 0.0012486254252238494 -0.011338622811742628 0 0.0012925378319359742 -0.011515342747778401 0 0.0012048773011098469 -0.011492100062815284 0 0.0012486254252238494 -0.011338622811742628 0 0.0012925378319359742 -0.011515342747778401 0 0.0012586695638894352 -0.01152698563331543 0 0.0012048773011098469 -0.011492100062815284 0 0.0012925378319359742 -0.011515342747778401 0 0.0012586695638894352 -0.01152698563331543 0 0.0013211303177335062 -0.011573495299905357 0 0.0012586695638894352 -0.01152698563331543 0 0.0011745185705876932 -0.01150875372653176 0 0.0012048773011098469 -0.011492100062815284 0 0.0013723636053021024 -0.011630321114058265 0 0.0013429924681214555 -0.011597180058485328 0 0.0013211303177335062 -0.011573495299905357 0 0.0012586695638894352 -0.01152698563331543 0 0.0013211303177335062 -0.011573495299905357 0 0.0012974501960173503 -0.011525967402334747 0 0.0013807492544881173 -0.011588354903145996 0 0.0012974501960173503 -0.011525967402334747 0 0.0013099240219666089 -0.01148451048757395 0 0.0013807492544881173 -0.011588354903145996 0 0.0013211303177335062 -0.011573495299905357 0 0.0012974501960173503 -0.011525967402334747 0 6.3128830696057341e-06 -0.017444946475105836 0 0.00030220553582486809 -0.020872328149703901 0 0.0012974501960173503 -0.011525967402334747 0 0.0012697513220143331 -0.011480031818584311 0 0.0013099240219666089 -0.01148451048757395 0 0.0012586695638894352 -0.01152698563331543 0 0.0012974501960173503 -0.011525967402334747 0 0.0012341386718284948 -0.011497869716346218 0 0.0012586695638894352 -0.01152698563331543 0 0.0012341386718284948 -0.011497869716346218 0 0.0011745185705876932 -0.01150875372653176 0 0.0012341386718284948 -0.011497869716346218 0 0.0012697513220143331 -0.011480031818584311 0 0.0012019389860014704 -0.01143459162938845 0 0.0012974501960173503 -0.011525967402334747 0 0.0012341386718284948 -0.011497869716346218 0 0.0012697513220143331 -0.011480031818584311 0 0.0011891120318062924 -0.011260750106017138 0 0.0012019389860014704 -0.01143459162938845 0 0.0011156109202662945 -0.011329348786563479 0 0.0011891120318062924 -0.011260750106017138 0 0.0012897624131587365 -0.011457230884552536 0 0.0012019389860014704 -0.01143459162938845 0 0.0012697513220143331 -0.011480031818584311 0 0.0012897624131587365 -0.011457230884552536 0 0.0012019389860014704 -0.01143459162938845 0 0.00016748166347117991 -0.02140527029044352 0 0.00030220553582486809 -0.020872328149703901 0 0.0012697513220143331 -0.011480031818584311 0 0.0012897624131587365 -0.011457230884552536 0 0.0013099240219666089 -0.01148451048757395 0 0.0011891120318062924 -0.011260750106017138 0 0.0012897624131587365 -0.011457230884552536 0 0.0013586661784578563 -0.01150183224427331 0 0.0003997841639473767 -0.017584673496796464 0 0.00030220553582486809 -0.020872328149703901 0 0.00095933247905438874 -0.011215835505846783 0 0.00082128150642814084 -0.011350332487670005 0 0.0011004277082638358 -0.01143126750625466 0 0.00095933247905438874 -0.011215835505846783 0 0.0011156109202662945 -0.011329348786563479 0 0.0011004277082638358 -0.01143126750625466 0 0.0012019389860014704 -0.01143459162938845 0 0.0011156109202662945 -0.011329348786563479 0 0.0011004277082638358 -0.01143126750625466 0 0.0011004277082638358 -0.01143126750625466 0 0.0011745185705876932 -0.01150875372653176 0 0.0011218104313411989 -0.011544227312012921 0 0.0012341386718284948 -0.011497869716346218 0 0.0011004277082638358 -0.01143126750625466 0 0.0011745185705876932 -0.01150875372653176 0 0.0012341386718284948 -0.011497869716346218 0 0.0012019389860014704 -0.01143459162938845 0 0.0011004277082638358 -0.01143126750625466 0 0.00082128150642814084 -0.011350332487670005 0 0.0011004277082638358 -0.01143126750625466 0 0.0011218104313411989 -0.011544227312012921 0 0.00025136035048988761 -0.0094804080017282903 0 0.00091717037994689331 -0.0099248348531291233 0 0.00041962652789353242 -0.0095958337031485218 0 0.00057735248518080617 -0.010446310399559226 0 0.00098679008308999948 -0.010748880041839418 0 0.00091717037994689331 -0.0099248348531291233 0 0.00072296299692486922 -0.010763459366489373 0 0.00012189251701797196 -0.010065627831885682 0 0.00091717037994689331 -0.0099248348531291233 0 0.00012189251701797196 -0.010065627831885682 0 0.00041962652789353242 -0.0095958337031485218 0 0.0011745185705876932 -0.01150875372653176 0 0.0011218104313411989 -0.011544227312012921 0 0.0012048773011098469 -0.011492100062815284 0 0.00098679008308999948 -0.010748880041839418 0 0.0012358901624280147 -0.01127226988200997 0 0.0011218104313411989 -0.011544227312012921 0 0.0012048773011098469 -0.011492100062815284 0 0.0012486254252238494 -0.011338622811742628 0 0.00091717037994689331 -0.0099248348531291233 0 0.0012486254252238494 -0.011338622811742628 0 0.00072296299692486922 -0.010763459366489373 0 0.00088148545655429979 -0.011363772040744093 0 0.0012486254252238494 -0.011338622811742628 0 0.00072296299692486922 -0.010763459366489373 0 0.00088148545655429979 -0.011363772040744093 0 0.00072296299692486922 -0.010763459366489373 0 0.00030872553947548065 -0.011079260938935987 0 -0.00012366763184827947 -0.008579374278470624 0 0.00012510682010642745 -0.0089312569737175305 0 0.00072296299692486922 -0.010763459366489373 0 0.00030872553947548065 -0.011079260938935987 0 0.00012189251701797196 -0.010065627831885682 0 -0.00034775932084748817 -0.0063667301649582841 0 0.00090471976793242393 -0.0067673150044587904 0 -4.0896383745057958e-06 -0.0076670512443241272 0 0.00046233842452068663 -0.0057434223241939362 0 -0.00034775932084748817 -0.0063667301649582841 0 0.00090471976793242393 -0.0067673150044587904 0 0.0014116618184457804 -0.0055531157783410114 0 0.00090471976793242393 -0.0067673150044587904 0 0.0021110298873502089 -0.0066348776584464406 0 0.00046233842452068663 -0.0057434223241939362 0 0.0014116618184457804 -0.0055531157783410114 0 0.00090471976793242393 -0.0067673150044587904 0 0.00090471976793242393 -0.0067673150044587904 0 0.00098849238041388084 -0.0079439625378842863 0 -4.0896383745057958e-06 -0.0076670512443241272 0 0.00090471976793242393 -0.0067673150044587904 0 0.00098849238041388084 -0.0079439625378842863 0 0.0018788914210153232 -0.0075741454464319036 0 0.00098849238041388084 -0.0079439625378842863 0 0.0018788914210153232 -0.0075741454464319036 0 0.0015486826414441324 -0.0085811895132423387 0 0.0029557253151801439 -0.0062789334946480009 0 0.0021110298873502089 -0.0066348776584464406 0 0.0031555050718989567 -0.0072404677468516461 0 0.0029557253151801439 -0.0062789334946480009 0 0.0031555050718989567 -0.0072404677468516461 0 0.003443186000776058 -0.0070575064363208127 0 0.0014116618184457804 -0.0055531157783410114 0 0.0029557253151801439 -0.0062789334946480009 0 0.0021110298873502089 -0.0066348776584464406 0 0.00090471976793242393 -0.0067673150044587904 0 0.0021110298873502089 -0.0066348776584464406 0 0.0018788914210153232 -0.0075741454464319036 0 0.0021110298873502089 -0.0066348776584464406 0 0.0018788914210153232 -0.0075741454464319036 0 0.0031555050718989567 -0.0072404677468516461 0 0.0018788914210153232 -0.0075741454464319036 0 0.0031555050718989567 -0.0072404677468516461 0 0.0024954256173399074 -0.00836829663431881 0 0.0031555050718989567 -0.0072404677468516461 0 0.0024954256173399074 -0.00836829663431881 0 0.0037161664369977161 -0.0077605131451321469 0 0.0024954256173399074 -0.00836829663431881 0 0.0028936366106126934 -0.0095561951877395426 0 0.0037161664369977161 -0.0077605131451321469 0 0.0018788914210153232 -0.0075741454464319036 0 0.0024954256173399074 -0.00836829663431881 0 0.0015486826414441324 -0.0085811895132423387 0 0.0024954256173399074 -0.00836829663431881 0 0.0015486826414441324 -0.0085811895132423387 0 0.0018013678629879655 -0.01000462244628483 0 0.0024954256173399074 -0.00836829663431881 0 0.0028936366106126934 -0.0095561951877395426 0 0.0018013678629879655 -0.01000462244628483 0 0.00098849238041388084 -0.0079439625378842863 0 -4.0896383745057958e-06 -0.0076670512443241272 0 0.00049216765163539479 -0.009221523994144264 0 0.00012510682010642745 -0.0089312569737175305 0 0.00040703125541445789 -0.0092302774784544604 0 0.00025136035048988761 -0.0094804080017282903 0 0.00049216765163539479 -0.009221523994144264 0 0.00041962652789353242 -0.0095958337031485218 0 0.00012189251701797196 -0.010065627831885682 0 0.00049216765163539479 -0.009221523994144264 0 0.00041962652789353242 -0.0095958337031485218 0 0.00098849238041388084 -0.0079439625378842863 0 0.0015486826414441324 -0.0085811895132423387 0 0.00049216765163539479 -0.009221523994144264 0 0.00049216765163539479 -0.009221523994144264 0 0.0008139445579287061 -0.0099900238887616483 0 0.0018013678629879655 -0.01000462244628483 0 0.0015486826414441324 -0.0085811895132423387 0 0.00049216765163539479 -0.009221523994144264 0 0.0018013678629879655 -0.01000462244628483 0 0.00025136035048988761 -0.0094804080017282903 0 0.00049216765163539479 -0.009221523994144264 0 0.0008139445579287061 -0.0099900238887616483 0 0.00025136035048988761 -0.0094804080017282903 0 0.0008139445579287061 -0.0099900238887616483 0 0.0006542458615178509 -0.010838362305459245 0 0.00057735248518080617 -0.010446310399559226 0 0.00065031865597819417 -0.010814137006934958 0 0.0006542458615178509 -0.010838362305459245 0 0.0012872502388100002 -0.011105097123981078 0 0.00064612726766226239 -0.011260052739765727 0 0.0006542458615178509 -0.010838362305459245 0 0.0012872502388100002 -0.011105097123981078 0 0.0011785481824590437 -0.01047212747577656 0 0.0008139445579287061 -0.0099900238887616483 0 0.0011785481824590437 -0.01047212747577656 0 0.0018013678629879655 -0.01000462244628483 0 0.0012872502388100002 -0.011105097123981078 0 0.0011785481824590437 -0.01047212747577656 0 0.0018013678629879655 -0.01000462244628483 0 0.0008139445579287061 -0.0099900238887616483 0 0.0006542458615178509 -0.010838362305459245 0 0.0011785481824590437 -0.01047212747577656 0 0.0013659352069516207 -0.01015593434440863 0 0.0016129376796166061 -0.010618132176701657 0 0.0028936366106126934 -0.0095561951877395426 0 0.0018013678629879655 -0.01000462244628483 0 0.0023158647225859563 -0.010989303688038526 0 0.00098222270012567016 -0.011849665260848657 0 0.0018013678629879655 -0.01000462244628483 0 0.0023158647225859563 -0.010989303688038526 0 0.0028936366106126934 -0.0095561951877395426 0 0.0023158647225859563 -0.010989303688038526 0 0.0034395260465949332 -0.010736179484380663 0 0.0023158647225859563 -0.010989303688038526 0 0.0034395260465949332 -0.010736179484380663 0 0.0027712046396380905 -0.011617732430923974 0 0.0034395260465949332 -0.010736179484380663 0 0.0027712046396380905 -0.011617732430923974 0 0.003572869384802948 -0.011614678692674962 0 0.0023158647225859563 -0.010989303688038526 0 0.0027712046396380905 -0.011617732430923974 0 0.0021229755829415163 -0.012098649035145565 0 0.0027712046396380905 -0.011617732430923974 0 0.0021229755829415163 -0.012098649035145565 0 0.0028954204150063844 -0.012571061846599653 0 0.0027712046396380905 -0.011617732430923974 0 0.0028954204150063844 -0.012571061846599653 0 0.003572869384802948 -0.011614678692674962 0 0.0028954204150063844 -0.012571061846599653 0 0.0039076597152480639 -0.012383239190518048 0 0.003572869384802948 -0.011614678692674962 0 0.00098222270012567016 -0.011849665260848657 0 0.0023158647225859563 -0.010989303688038526 0 0.0021229755829415163 -0.012098649035145565 0 0.00098222270012567016 -0.011849665260848657 0 0.0019262072787797695 -0.013245459940923346 0 0.001114386548001332 -0.01349583831036962 0 0.00098222270012567016 -0.011849665260848657 0 0.0021229755829415163 -0.012098649035145565 0 0.0019262072787797695 -0.013245459940923346 0 0.0021229755829415163 -0.012098649035145565 0 0.0019262072787797695 -0.013245459940923346 0 0.0028954204150063844 -0.012571061846599653 0 0.0028954204150063844 -0.012571061846599653 0 0.0034749555486744128 -0.013249832340250513 0 0.0039076597152480639 -0.012383239190518048 0 0.0019262072787797695 -0.013245459940923346 0 0.0028954204150063844 -0.012571061846599653 0 0.0027156637172336432 -0.013592317908505919 0 0.0028954204150063844 -0.012571061846599653 0 0.0027156637172336432 -0.013592317908505919 0 0.0034749555486744128 -0.013249832340250513 0 0.0027156637172336432 -0.013592317908505919 0 0.00332101774281704 -0.014349611763866565 0 0.0034749555486744128 -0.013249832340250513 0 0.0019262072787797695 -0.013245459940923346 0 0.0027156637172336432 -0.013592317908505919 0 0.0023971803927064078 -0.014379597884017407 0 0.0027156637172336432 -0.013592317908505919 0 0.0023971803927064078 -0.014379597884017407 0 0.00332101774281704 -0.014349611763866565 0 0.0019262072787797695 -0.013245459940923346 0 0.0023971803927064078 -0.014379597884017407 0 0.0015344358109470339 -0.014372009658309703 0 0.0019262072787797695 -0.013245459940923346 0 0.0015344358109470339 -0.014372009658309703 0 0.001114386548001332 -0.01349583831036962 0 0.0015344358109470339 -0.014372009658309703 0 0.00082168926174703736 -0.014199580424888284 0 0.0010799398317756885 -0.014745383380478832 0 0.00082168926174703736 -0.014199580424888284 0 0.0010799398317756885 -0.014745383380478832 0 0.00059807157253165732 -0.015060324358406393 0 0.00082168926174703736 -0.014199580424888284 0 0.00034186501818327407 -0.013838519732855095 0 0.00059807157253165732 -0.015060324358406393 0 0.0015344358109470339 -0.014372009658309703 0 0.00082168926174703736 -0.014199580424888284 0 0.001114386548001332 -0.01349583831036962 0 0.00082168926174703736 -0.014199580424888284 0 0.000270141894205523 -0.013755523746687995 0 0.001114386548001332 -0.01349583831036962 0 -0.00047229136869454046 -0.015206535737531271 0 0.00079339836222414029 -0.01873734079320663 0 -0.0011775360401987661 -0.030959241277602908 0 -0.0013964709665801104 -0.030900786709980102 0 -0.0013481459950469132 -0.03073729108788845 0 -0.0011775360401987661 -0.030959241277602908 0 -0.0013964709665801104 -0.030900786709980102 0 -0.0012549446403426641 -0.031089852506094355 0 0.00079339836222414029 -0.01873734079320663 0 -0.00026420367256153253 -0.021474887605867753 0 0.0013659352069516207 -0.01015593434440863 0 0.00079339836222414029 -0.01873734079320663 0 0.0012872502388100002 -0.011105097123981078 0 0.0010707080167203262 -0.011741279463539157 0 0.00064612726766226239 -0.011260052739765727 0 0.00098222270012567016 -0.011849665260848657 0 0.000270141894205523 -0.013755523746687995 0 0.001114386548001332 -0.01349583831036962 0 0.00037592640447305082 -0.00071857587537873494 0 0.0021254033947330545 -0.0043396793290178138 0 0.0013918634854815132 -0.00090202163997389075 0 0.0038196546908092648 -0.00070709093281720267 0 0.0022533664794569179 -0.002468738046795549 0 -0.00043136215911592976 -0.00092600774958809045 0 -0.00079539549348460166 -0.0012882659541774153 0 -0.0011369636438276821 -0.00095808303331700658 0 0.0013918634854815132 -0.00090202163997389075 0 0.0022533664794569179 -0.002468738046795549 0 0.0012614396041025161 -0.0018930096290525025 0 0.0013918634854815132 -0.00090202163997389075 0 0.00070627486511548176 -0.001449637796873837 0 0.0012614396041025161 -0.0018930096290525025 0 0.00037592640447305082 -0.00071857587537873494 0 3.3564410982545216e-05 -0.0011021442840651228 0 0.0013918634854815132 -0.00090202163997389075 0 0.00070627486511548176 -0.001449637796873837 0 -0.00017591596515100554 -0.0012707555824903588 0 -0.00043136215911592976 -0.00092600774958809045 0 -1.9254556556650785e-05 -0.0012953660262793312 0 0.00012631051483806988 -0.00097440612232667259 0 0.00070627486511548176 -0.001449637796873837 0 0.00021102471029177034 -0.001559750842683153 0 -0.00017591596515100554 -0.0012707555824903588 0 -1.9254556556650785e-05 -0.0012953660262793312 0 -0.00043580243373356382 -0.0014963260692886244 0 0.00017355794338780396 -0.0017180035293581021 0 -0.00043136215911592976 -0.00092600774958809045 0 -1.9254556556650785e-05 -0.0012953660262793312 0 -0.00043580243373356382 -0.0014963260692886244 0 -0.00043580243373356382 -0.0014963260692886244 0 -0.00079539549348460166 -0.0012882659541774153 0 -0.0012196236291142262 -0.0018252908431286975 0 -0.00043136215911592976 -0.00092600774958809045 0 -0.00043580243373356382 -0.0014963260692886244 0 -0.00079539549348460166 -0.0012882659541774153 0 0.002071069214347891 -0.0070988040369389443 0 0.0020691238715743522 -0.0081819640919812246 0 0.0019241661571268854 -0.0081988163139596875 0 0.0021254033947330545 -0.0043396793290178138 0 0.00010184183569040802 -0.0042614876868737588 0 0.0034968478632950869 -0.009495711517864925 0 0.003359625948215891 -0.0122781583695594 0 -0.00079539549348460166 -0.0012882659541774153 0 -0.0011369636438276821 -0.00095808303331700658 0 -0.0012196236291142262 -0.0018252908431286975 0 0.002071069214347891 -0.0070988040369389443 0 0.001780805655400059 -0.0071326708768475614 0 0.0019241661571268854 -0.0081988163139596875 0 0.00332101774281704 -0.014349611763866565 0 0.0038850859017456859 -0.0139024615135877 0 0.0034749555486744128 -0.013249832340250513 0 0.0038850859017456859 -0.0139024615135877 0 0.0043066587144903207 -0.013229658045693289 0 0.0044003078712897001 -0.014753193068687895 0 0.00332101774281704 -0.014349611763866565 0 0.0038850859017456859 -0.0139024615135877 0 0.0044003078712897001 -0.014753193068687895 0 0.0037874344234473528 -0.012918796585922066 0 0.0034968478632950869 -0.009495711517864925 0 0.0038850859017456859 -0.0139024615135877 0 0.0034749555486744128 -0.013249832340250513 0 0.0043066587144903207 -0.013229658045693289 0 0.0034749555486744128 -0.013249832340250513 0 0.0039076597152480639 -0.012383239190518048 0 0.0047145819343996399 -0.013115628079205631 0 0.0036445627904005784 -0.0058798937157660295 0 0.003718718212704942 -0.005883017270188284 0 0.0037787870472331345 -0.0061019658902572698 0 0.0021254033947330545 -0.0043396793290178138 0 0.0034968478632950869 -0.009495711517864925 0 0.0038196546908092648 -0.00070709093281720267 0 0.0039321081292326646 -0.0035315669094717226 0 0.0022533664794569179 -0.002468738046795549 0 0.0036445627904005784 -0.0058798937157660295 0 0.0036411508417576711 -0.0061289667180406049 0 0.0037787870472331345 -0.0061019658902572698 0 0.0021254033947330545 -0.0043396793290178138 0 0.003914730657364536 -0.0046210911484380491 0 0.0039076597152480639 -0.012383239190518048 0 0.0047145819343996399 -0.013115628079205631 0 0.0044443533095021468 -0.011407017528444726 0 0.0034968478632950869 -0.009495711517864925 0 0.0041769575260393208 -0.008772966944415924 0 0.0039076597152480639 -0.012383239190518048 0 0.0044443533095021468 -0.011407017528444726 0 0.003572869384802948 -0.011614678692674962 0 0.0034395260465949332 -0.010736179484380663 0 0.0044443533095021468 -0.011407017528444726 0 0.003572869384802948 -0.011614678692674962 0 0.0036411508417576711 -0.0061289667180406049 0 0.0037787870472331345 -0.0061019658902572698 0 0.0038969962795570899 -0.0064436773014045342 0 0.0028936366106126934 -0.0095561951877395426 0 0.0034395260465949332 -0.010736179484380663 0 0.0041907933730406773 -0.0097085523262689516 0 0.0034395260465949332 -0.010736179484380663 0 0.0044443533095021468 -0.011407017528444726 0 0.0041907933730406773 -0.0097085523262689516 0 0.0041769575260393208 -0.008772966944415924 0 0.0039969864678394747 -0.008078517626623356 0 0.0039321081292326646 -0.0035315669094717226 0 0.0027052996459157198 -0.0050344211355532126 0 0.0035567267843811881 -0.0065198070427367307 0 0.003914730657364536 -0.0046210911484380491 0 0.0035842817795653493 -0.0064789633006194216 0 0.0036411508417576711 -0.0061289667180406049 0 0.0038969962795570899 -0.0064436773014045342 0 0.0035567267843811881 -0.0065198070427367307 0 0.0039321081292326646 -0.0035315669094717226 0 0.0027052996459157198 -0.0050344211355532126 0 0.0026113059909648631 -0.0037539882607514831 0 0.0027052996459157198 -0.0050344211355532126 0 0.0016134734053143576 -0.0039830514316952035 0 0.00170503128718005 -0.005377184971960396 0 0.0027052996459157198 -0.0050344211355532126 0 0.0016134734053143576 -0.0039830514316952035 0 0.0026113059909648631 -0.0037539882607514831 0 0.0016134734053143576 -0.0039830514316952035 0 0.0026113059909648631 -0.0037539882607514831 0 0.0022533664794569179 -0.002468738046795549 0 0.0039321081292326646 -0.0035315669094717226 0 0.0026113059909648631 -0.0037539882607514831 0 0.0022533664794569179 -0.002468738046795549 0 0.0016134734053143576 -0.0039830514316952035 0 0.0022533664794569179 -0.002468738046795549 0 0.0010954841288583986 -0.0027059200313429583 0 0.0022533664794569179 -0.002468738046795549 0 0.0012614396041025161 -0.0018930096290525025 0 0.0010954841288583986 -0.0027059200313429583 0 0.00021102471029177034 -0.001559750842683153 0 0.00048549106618218945 -0.0026727133299073256 0 -0.00019624562219330765 -0.0035121602023238611 0 0.00021102471029177034 -0.001559750842683153 0 0.00079660160592250745 -0.00202472678281432 0 0.00048549106618218945 -0.0026727133299073256 0 0.00070627486511548176 -0.001449637796873837 0 0.00021102471029177034 -0.001559750842683153 0 0.00079660160592250745 -0.00202472678281432 0 0.00070627486511548176 -0.001449637796873837 0 0.00079660160592250745 -0.00202472678281432 0 0.0012614396041025161 -0.0018930096290525025 0 0.00079660160592250745 -0.00202472678281432 0 0.0012614396041025161 -0.0018930096290525025 0 0.0010954841288583986 -0.0027059200313429583 0 0.00079660160592250745 -0.00202472678281432 0 0.0010954841288583986 -0.0027059200313429583 0 0.00048549106618218945 -0.0026727133299073256 0 0.0016134734053143576 -0.0039830514316952035 0 0.0010954841288583986 -0.0027059200313429583 0 0.00065867704548987465 -0.0034853458919525226 0 0.0010954841288583986 -0.0027059200313429583 0 0.00048549106618218945 -0.0026727133299073256 0 0.00065867704548987465 -0.0034853458919525226 0 0.00048549106618218945 -0.0026727133299073256 0 -0.00019624562219330765 -0.0035121602023238611 0 0.00065867704548987465 -0.0034853458919525226 0 -0.00019624562219330765 -0.0035121602023238611 0 0.00065867704548987465 -0.0034853458919525226 0 0.00057825075985714258 -0.0046366728742877417 0 -0.00019624562219330765 -0.0035121602023238611 0 0.00057825075985714258 -0.0046366728742877417 0 -0.0012962734988221643 -0.0047719374129903767 0 0.0016134734053143576 -0.0039830514316952035 0 0.00065867704548987465 -0.0034853458919525226 0 0.00057825075985714258 -0.0046366728742877417 0 0.0016134734053143576 -0.0039830514316952035 0 0.00057825075985714258 -0.0046366728742877417 0 0.00170503128718005 -0.005377184971960396 0 0.00057825075985714258 -0.0046366728742877417 0 0.00094003558294942992 -0.0065798553176938711 0 -0.0012962734988221643 -0.0047719374129903767 0 0.0020987547472246112 -0.0065177438808551227 0 -0.0015945700891222552 -0.00024883795714989289 0 0.0023104322736147748 -0.0051189774249738159 0 0.0015028859279563858 -0.0051819157198945733 0 0.001173849141683033 -0.0039838744011431674 0 0.00057825075985714258 -0.0046366728742877417 0 0.00094003558294942992 -0.0065798553176938711 0 0.00170503128718005 -0.005377184971960396 0 0.00094003558294942992 -0.0065798553176938711 0 0.00170503128718005 -0.005377184971960396 0 0.0025948831838559492 -0.0065536231755324763 0 0.0027052996459157198 -0.0050344211355532126 0 0.00170503128718005 -0.005377184971960396 0 0.0025948831838559492 -0.0065536231755324763 0 0.00094003558294942992 -0.0065798553176938711 0 0.0025948831838559492 -0.0065536231755324763 0 0.0028872727164587445 -0.0076010330885558034 0 0.0020987547472246112 -0.0065177438808551227 0 0.0028785935747311039 -0.0067187680225806847 0 0.0023104322736147748 -0.0051189774249738159 0 0.003239611452668518 -0.0062220911180762848 0 0.0023866380754828296 -0.0063938866303471656 0 0.0023104322736147748 -0.0051189774249738159 0 0.0023866380754828296 -0.0063938866303471656 0 0.0015028859279563858 -0.0051819157198945733 0 0.0023866380754828296 -0.0063938866303471656 0 0.0015028859279563858 -0.0051819157198945733 0 0.0012964755983890738 -0.0060793711609087664 0 0.0028936366106126934 -0.0095561951877395426 0 0.0041907933730406773 -0.0097085523262689516 0 0.0037161664369977161 -0.0077605131451321469 0 0.0039969864678394747 -0.008078517626623356 0 0.003785823946220014 -0.0077562080300080452 0 0.0038969962795570899 -0.0064436773014045342 0 0.0035567267843811881 -0.0065198070427367307 0 0.0035019460234647034 -0.0073886670900339142 0 0.0027052996459157198 -0.0050344211355532126 0 0.0025948831838559492 -0.0065536231755324763 0 0.0035567267843811881 -0.0065198070427367307 0 0.0025948831838559492 -0.0065536231755324763 0 0.0035567267843811881 -0.0065198070427367307 0 0.0035019460234647034 -0.0073886670900339142 0 0.0028872727164587445 -0.0076010330885558034 0 0.0035019460234647034 -0.0073886670900339142 0 0.003658904954482537 -0.0072279580519550067 0 0.0025948831838559492 -0.0065536231755324763 0 0.0028872727164587445 -0.0076010330885558034 0 0.0035019460234647034 -0.0073886670900339142 0 0.0038969962795570899 -0.0064436773014045342 0 0.0035019460234647034 -0.0073886670900339142 0 0.0037161664369977161 -0.0077605131451321469 0 0.0035019460234647034 -0.0073886670900339142 0 0.0037161664369977161 -0.0077605131451321469 0 0.003658904954482537 -0.0072279580519550067 0 0.0031555050718989567 -0.0072404677468516461 0 0.0037161664369977161 -0.0077605131451321469 0 0.003658904954482537 -0.0072279580519550067 0 0.0031555050718989567 -0.0072404677468516461 0 0.003658904954482537 -0.0072279580519550067 0 0.003443186000776058 -0.0070575064363208127 0 0.0028785935747311039 -0.0067187680225806847 0 0.0036150437465706105 -0.0072395122721711511 0 0.003239611452668518 -0.0062220911180762848 0 0.0033155240593183348 -0.00697561866401291 0 0.003658904954482537 -0.0072279580519550067 0 0.0033155240593183348 -0.00697561866401291 0 0.0036916368049919905 -0.007087853077990802 0 0.0029878852739797573 -0.0073683976363054203 0 0.0033155240593183348 -0.00697561866401291 0 0.003658904954482537 -0.0072279580519550067 0 0.0036916368049919905 -0.007087853077990802 0 0.0026667923932113397 -0.0046711716669906823 0 0.0024491200873247372 -0.0049897995248805059 0 0.002791744761651178 -0.0049382306254877753 0 0.0029891670437411301 -0.0059954763777807403 0 0.0029729325407276048 -0.0063858024037907043 0 0.0024382530628211082 -0.0057530609693243655 0 0.0029891670437411301 -0.0059954763777807403 0 0.0029557253151801439 -0.0062789334946480009 0 0.0036916368049919905 -0.007087853077990802 0 0.003443186000776058 -0.0070575064363208127 0 0.003658904954482537 -0.0072279580519550067 0 0.0036916368049919905 -0.007087853077990802 0 0.003443186000776058 -0.0070575064363208127 0 0.0023866380754828296 -0.0063938866303471656 0 0.0029878852739797573 -0.0073683976363054203 0 0.0016965760070397939 -0.0072083399288353405 0 0.0023866380754828296 -0.0063938866303471656 0 0.0016965760070397939 -0.0072083399288353405 0 0.0012964755983890738 -0.0060793711609087664 0 0.003239611452668518 -0.0062220911180762848 0 0.0033155240593183348 -0.00697561866401291 0 0.0023866380754828296 -0.0063938866303471656 0 0.0033155240593183348 -0.00697561866401291 0 0.0023866380754828296 -0.0063938866303471656 0 0.0029878852739797573 -0.0073683976363054203 0 0.0031118152270697432 -0.004603519112261709 0 0.002791744761651178 -0.0049382306254877753 0 0.0032072370879837413 -0.0049895431444425455 0 0.0029729325407276048 -0.0063858024037907043 0 0.0022221571211055186 -0.003751478771500655 0 0.0028896135754466804 -0.0034249135690606145 0 0.0022221571211055186 -0.003751478771500655 0 0.0017456173979665305 -0.0023977956295776356 0 0.0027177953862234615 -0.0024567953985736952 0 0.0023795050183076363 -0.0011253125922779871 0 0.0023795050183076363 -0.0011253125922779871 0 0.0011313419499743471 -0.00087744844826145689 0 0.0014180412217069068 -0.001625987686174256 0 0.0017456173979665305 -0.0023977956295776356 0 0.0023795050183076363 -0.0011253125922779871 0 0.0014180412217069068 -0.001625987686174256 0 0.0013858096462778767 -0.0018938862583107151 0 -0.00038130119575705554 -0.0015035882714387464 0 0.00091762292594646229 -0.00012851836201888226 0 -0.00038130119575705554 -0.0015035882714387464 0 0.00091762292594646229 -0.00012851836201888226 0 3.2686348184748935e-05 6.4610255108680091e-05 0 0.0022221571211055186 -0.003751478771500655 0 0.00043999227651887615 0.0018264731133930602 0 0.0022221571211055186 -0.003751478771500655 0 0.0013952218380894131 -0.004014460747161986 0 0.00043999227651887615 0.0018264731133930602 0 -0.0011628175248938658 0.0029927113351685838 0 -0.0019444885247547239 0.0070544658305198927 0 -0.0014605306403800819 0.0069624413884290743 0 -0.0021348711579277963 0.0054259199253190935 0 -0.0030407365814701048 0.0095306984117141287 0 -0.0042899350439464332 0.010246162106657309 0 -0.0051570085627235113 0.016475335006981211 0 -0.0065567252654672404 0.013095592774373326 0 -0.0051557943231999373 0.014167902296062122 0 -0.0051570085627235113 0.016475335006981211 0 -0.0033826813377624844 0.016224359049029465 0 -0.0051557943231999373 0.014167902296062122 0 0.00043999227651887615 0.0018264731133930602 0 -0.0030407365814701048 0.0095306984117141287 0 0.00079958373308540616 -0.0020576064603802678 0 0.0014778724172210278 0.00039135780698122967 0 3.2609642845333964e-05 -0.0015860161816084006 0 0.00079958373308540616 -0.0020576064603802678 0 0.0011313419499743471 -0.00087744844826145689 0 0.0014180412217069068 -0.001625987686174256 0 0.0014778724172210278 0.00039135780698122967 0 0.00083771651678043102 0.00053956816061359451 0 3.2609642845333964e-05 -0.0015860161816084006 0 0.00086547910542996841 -0.0026733293871959991 0 0.00043999227651887615 0.0018264731133930602 0 -0.005205808466885134 0.016515578867696681 0 -0.0035030291917303676 0.020523954034131549 0 -0.0036176130334339193 0.018412873725618749 0 -0.0035030291917303676 0.020523954034131549 0 -0.0028033821447937955 0.019727470502484176 0 -0.0036176130334339193 0.018412873725618749 0 -0.0030407365814701048 0.0095306984117141287 0 -0.0016537645202635558 0.0094410994278474897 0 -0.0017889332518366125 0.021485378128627951 0 -0.0035030291917303676 0.020523954034131549 0 -0.0028033821447937955 0.019727470502484176 0 -0.0028033821447937955 0.019727470502484176 0 -0.00067460108498316931 0.02038455679355659 0 -0.00059675953091352602 0.018064708703089686 0 -0.0017889332518366125 0.021485378128627951 0 -0.0028033821447937955 0.019727470502484176 0 -0.00067460108498316931 0.02038455679355659 0 -0.0017220975417654774 0.019623603252975453 0 -0.00062707834564749575 0.021305981765039447 0 -0.0028033821447937955 0.019727470502484176 0 -0.0028316011785667092 0.017966120047686038 0 -0.00081769749107606993 0.018007759402362655 0 -0.0028033821447937955 0.019727470502484176 0 -0.0028316011785667092 0.017966120047686038 0 -0.0036176130334339193 0.018412873725618749 0 -0.0028316011785667092 0.017966120047686038 0 -0.0036176130334339193 0.018412873725618749 0 -0.0037395598831986101 0.01734324328540086 0 0.0036107316025066885 0.029494575689847372 0 0.0036428941471961253 0.029528919923947898 0 0.0035828502599239286 0.029587378090182793 0 0.0033442394034033838 0.025590798354374739 0 -0.00062707834564749575 0.021305981765039447 0 0.0024521107666035514 0.020997912391886517 0 -0.00067460108498316931 0.02038455679355659 0 -0.00059675953091352602 0.018064708703089686 0 0.0036428941471961253 0.029528919923947898 0 0.0035894797263827469 0.029631512875228017 0 0.0035828502599239286 0.029587378090182793 0 -0.00062707834564749575 0.021305981765039447 0 0.0018243056230148986 0.02241820900499954 0 -0.0019991593066205362 0.017007032942005978 0 -0.0015812239903590676 0.015372239942597071 0 -0.0028119923686183764 0.014766036775828262 0 -0.0019991593066205362 0.017007032942005978 0 -0.00016017927780129863 0.015398138273403847 0 -0.0015812239903590676 0.015372239942597071 0 -0.0015812239903590676 0.015372239942597071 0 -0.0028119923686183764 0.014766036775828262 0 -0.0023714162427976001 0.013596066319370192 0 -0.00016017927780129863 0.015398138273403847 0 -0.0015812239903590676 0.015372239942597071 0 -0.00090459740149325567 0.013396213615250535 0 -0.00081769749107606993 0.018007759402362655 0 -0.0033826813377624844 0.016224359049029465 0 -0.0051557943231999373 0.014167902296062122 0 -0.0019991593066205362 0.017007032942005978 0 -0.0028119923686183764 0.014766036775828262 0 -0.0051557943231999373 0.014167902296062122 0 -0.00062707834564749575 0.021305981765039447 0 -0.0055774175012966746 0.012936583975356247 0 -0.0028316011785667092 0.017966120047686038 0 -0.0033826813377624844 0.016224359049029465 0 -0.0037395598831986101 0.01734324328540086 0 -0.005205808466885134 0.016515578867696681 0 -0.0033826813377624844 0.016224359049029465 0 -0.0037395598831986101 0.01734324328540086 0 -0.005205808466885134 0.016515578867696681 0 -0.0036176130334339193 0.018412873725618749 0 -0.0037395598831986101 0.01734324328540086 0 -0.0030407365814701048 0.0095306984117141287 0 -0.0046468977425040284 0.013285546792741368 0 -0.0028316011785667092 0.017966120047686038 0 -0.00081769749107606993 0.018007759402362655 0 -0.0033826813377624844 0.016224359049029465 0 -0.0028119923686183764 0.014766036775828262 0 -0.0037461055165523053 0.013398210065210754 0 -0.0051557943231999373 0.014167902296062122 0 -0.0037461055165523053 0.013398210065210754 0 -0.0051557943231999373 0.014167902296062122 0 -0.0049463285905212047 0.012327224929341437 0 -0.0028119923686183764 0.014766036775828262 0 -0.0037461055165523053 0.013398210065210754 0 -0.0023714162427976001 0.013596066319370192 0 -0.0037461055165523053 0.013398210065210754 0 -0.0023714162427976001 0.013596066319370192 0 -0.0033493073868818466 0.012180644360188975 0 -0.0023714162427976001 0.013596066319370192 0 -0.0033493073868818466 0.012180644360188975 0 -0.0019000068711704898 0.011888465016883978 0 -0.0037461055165523053 0.013398210065210754 0 -0.0033493073868818466 0.012180644360188975 0 -0.0049463285905212047 0.012327224929341437 0 -0.00016017927780129863 0.015398138273403847 0 -0.00090459740149325567 0.013396213615250535 0 0.00017583386850384403 0.014003299306517844 0 -0.0015812239903590676 0.015372239942597071 0 -0.0023714162427976001 0.013596066319370192 0 -0.00090459740149325567 0.013396213615250535 0 -0.0023714162427976001 0.013596066319370192 0 -0.00090459740149325567 0.013396213615250535 0 -0.0019000068711704898 0.011888465016883978 0 -0.00090459740149325567 0.013396213615250535 0 -0.0006342798202204448 0.010936463164492554 0 -0.0019000068711704898 0.011888465016883978 0 -0.00094934822943494362 0.01352320496475971 0 0.0011117261905224205 0.010855761757178489 0 -0.00090459740149325567 0.013396213615250535 0 -0.0006342798202204448 0.010936463164492554 0 0.00078098189115503186 0.011003052353539017 0 -0.0019000068711704898 0.011888465016883978 0 -0.0015397603510889418 0.010585874427069916 0 -0.0027902281351628406 0.010742225254211086 0 -0.0006342798202204448 0.010936463164492554 0 -0.0019000068711704898 0.011888465016883978 0 -0.0015397603510889418 0.010585874427069916 0 -0.0020450053312073293 0.0095422190499948583 0 -0.0015397603510889418 0.010585874427069916 0 -0.00081322700018302072 0.0096455582448367085 0 -0.0020450053312073293 0.0095422190499948583 0 -0.0015397603510889418 0.010585874427069916 0 -0.0027902281351628406 0.010742225254211086 0 -0.0006342798202204448 0.010936463164492554 0 -0.00081322700018302072 0.0096455582448367085 0 0.00054997764937819466 0.0092613245526142075 0 -0.0006342798202204448 0.010936463164492554 0 -0.0015397603510889418 0.010585874427069916 0 -0.00081322700018302072 0.0096455582448367085 0 -0.0033493073868818466 0.012180644360188975 0 -0.0041155234466230973 0.010847068759456114 0 -0.0049463285905212047 0.012327224929341437 0 -0.0033493073868818466 0.012180644360188975 0 -0.0019000068711704898 0.011888465016883978 0 -0.0027902281351628406 0.010742225254211086 0 -0.0033493073868818466 0.012180644360188975 0 -0.0041155234466230973 0.010847068759456114 0 -0.0027902281351628406 0.010742225254211086 0 -0.0041155234466230973 0.010847068759456114 0 -0.0027902281351628406 0.010742225254211086 0 -0.0033522567878771169 0.0095323505025683691 0 -0.0020450053312073293 0.0095422190499948583 0 -0.0027902281351628406 0.010742225254211086 0 -0.0033522567878771169 0.0095323505025683691 0 -0.0041155234466230973 0.010847068759456114 0 -0.0033522567878771169 0.0095323505025683691 0 -0.0047798939910048662 0.0094921926846669533 0 -0.0041155234466230973 0.010847068759456114 0 -0.0047798939910048662 0.0094921926846669533 0 -0.0054535662759820523 0.010733351540190221 0 -0.0077582502203121344 0.010087672948552123 0 -0.0065567252654672404 0.013095592774373326 0 -0.0061942996681884016 0.011820704641494147 0 -0.0047798939910048662 0.0094921926846669533 0 -0.0055771318726743685 0.009825823038486137 0 -0.0054535662759820523 0.010733351540190221 0 -0.0047798939910048662 0.0094921926846669533 0 -0.0055771318726743685 0.009825823038486137 0 -0.0061315433162628507 0.009135898115739045 0 -0.0055771318726743685 0.009825823038486137 0 -0.0054535662759820523 0.010733351540190221 0 -0.0065651390103695102 0.01004926645749024 0 -0.0054535662759820523 0.010733351540190221 0 -0.0049463285905212047 0.012327224929341437 0 -0.0061942996681884016 0.011820704641494147 0 -0.0041155234466230973 0.010847068759456114 0 -0.0054535662759820523 0.010733351540190221 0 -0.0049463285905212047 0.012327224929341437 0 -0.0064827767566030111 0.010703934962690995 0 -0.0077582502203121344 0.010087672948552123 0 -0.0061942996681884016 0.011820704641494147 0 -0.0054535662759820523 0.010733351540190221 0 -0.0064827767566030111 0.010703934962690995 0 -0.0061942996681884016 0.011820704641494147 0 -0.0064827767566030111 0.010703934962690995 0 -0.0065651390103695102 0.01004926645749024 0 -0.0077582502203121344 0.010087672948552123 0 -0.0054535662759820523 0.010733351540190221 0 -0.0064827767566030111 0.010703934962690995 0 -0.0065651390103695102 0.01004926645749024 0 -0.0055771318726743685 0.009825823038486137 0 -0.0065651390103695102 0.01004926645749024 0 -0.0061315433162628507 0.009135898115739045 0 -0.0065651390103695102 0.01004926645749024 0 -0.0070537557039747701 0.0095617244051673586 0 -0.0061315433162628507 0.009135898115739045 0 -0.0018314151865282849 0.002193589363422171 0 -0.0015945700891222552 -0.00024883795714989289 0 -0.0018314151865282849 0.002193589363422171 0 -0.0042899350439464332 0.010246162106657309 0 -0.0070537557039747701 0.0095617244051673586 0 -0.0077582502203121344 0.010087672948552123 0 -0.008392278033138946 0.0085340496959342496 0 -0.0065651390103695102 0.01004926645749024 0 -0.0070537557039747701 0.0095617244051673586 0 -0.0077582502203121344 0.010087672948552123 0 0.0015028859279563858 -0.0051819157198945733 0 0.00088773591067922253 -0.0046586512548954734 0 0.001173849141683033 -0.0039838744011431674 0 -0.0018314151865282849 0.002193589363422171 0 -0.0011628175248938658 0.0029927113351685838 0 0.0015028859279563858 -0.0051819157198945733 0 0.00088773591067922253 -0.0046586512548954734 0 0.0012964755983890738 -0.0060793711609087664 0 -0.0018314151865282849 0.002193589363422171 0 0.0013952218380894131 -0.004014460747161986 0 0.00044827797296904698 0.0017316307699556282 0 0.00091762292594646229 -0.00012851836201888226 0 3.2686348184748935e-05 6.4610255108680091e-05 0 -0.0019444885247547239 0.0070544658305198927 0 -0.0023901110660428421 0.0054847960565474509 0 -0.0021348711579277963 0.0054259199253190935 0 -0.0028740162524200723 0.0036867311107885016 0 -0.0023901110660428421 0.0054847960565474509 0 -0.0021348711579277963 0.0054259199253190935 0 -0.0065567252654672404 0.013095592774373326 0 -0.0051557943231999373 0.014167902296062122 0 -0.0049463285905212047 0.012327224929341437 0 -0.0065567252654672404 0.013095592774373326 0 -0.0049463285905212047 0.012327224929341437 0 -0.0061942996681884016 0.011820704641494147 0 0.0031522951963709588 0.029873020151304965 0 0.0032647560561092715 0.029932020521220223 0 0.0030264183944806455 0.030165448287386414 0 0.0028138280318432056 0.03005569243275857 0 0.0031522951963709588 0.029873020151304965 0 0.0030264183944806455 0.030165448287386414 0 0.0050489819230997999 0.029099082748658262 0 0.0042841770944035754 0.02934018608711671 0 0.0032664455051038734 0.029508306581186406 0 0.0029219425769045938 0.029714485839848034 0 0.0031522951963709588 0.029873020151304965 0 0.0032664455051038734 0.029508306581186406 0 0.0031522951963709588 0.029873020151304965 0 0.0033436405214975866 0.029688842021452933 0 0.0031522951963709588 0.029873020151304965 0 0.0033341053413211319 0.029809948799356722 0 0.0032647560561092715 0.029932020521220223 0 0.0031522951963709588 0.029873020151304965 0 0.0033436405214975866 0.029688842021452933 0 0.0033341053413211319 0.029809948799356722 0 0.0033341053413211319 0.029809948799356722 0 0.0034143977612312213 0.02988616074090826 0 0.0032647560561092715 0.029932020521220223 0 0.0033341053413211319 0.029809948799356722 0 0.0034510909701084402 0.029799751683876139 0 0.0034143977612312213 0.02988616074090826 0 0.0034510909701084402 0.029799751683876139 0 0.003559040713448521 0.02992561152790706 0 0.0034143977612312213 0.02988616074090826 0 0.0034510909701084402 0.029799751683876139 0 0.0035634639626837398 0.029685215553224262 0 0.003559040713448521 0.02992561152790706 0 0.0034510909701084402 0.029799751683876139 0 0.0034385802459174367 0.029707335609686938 0 0.0035634639626837398 0.029685215553224262 0 0.0034385802459174367 0.029707335609686938 0 0.0034928610864527702 0.029580209484118096 0 0.0035634639626837398 0.029685215553224262 0 0.0033341053413211319 0.029809948799356722 0 0.0034510909701084402 0.029799751683876139 0 0.0034385802459174367 0.029707335609686938 0 0.0033436405214975866 0.029688842021452933 0 0.0033341053413211319 0.029809948799356722 0 0.0034385802459174367 0.029707335609686938 0 0.0033436405214975866 0.029688842021452933 0 0.0034385802459174367 0.029707335609686938 0 0.0034928610864527702 0.029580209484118096 0 0.0032664455051038734 0.029508306581186406 0 0.0033436405214975866 0.029688842021452933 0 0.0034928610864527702 0.029580209484118096 0 0.0034928610864527702 0.029580209484118096 0 0.0035828502599239286 0.029587378090182793 0 0.0035634639626837398 0.029685215553224262 0 0.0036107316025066885 0.029494575689847372 0 0.0034928610864527702 0.029580209484118096 0 0.0035828502599239286 0.029587378090182793 0 0.0035894797263827469 0.029631512875228017 0 0.0035828502599239286 0.029587378090182793 0 0.0035634639626837398 0.029685215553224262 0 0.0035894797263827469 0.029631512875228017 0 0.0035634639626837398 0.029685215553224262 0 0.003566567722871694 0.029632775332595129 0 0.0034610301755035079 0.030549318681135858 0 0.0036288980971202413 0.025201534701958926 0 0.0018243056230148986 0.02241820900499954 0 0.0036288980971202413 0.025201534701958926 0 -0.00016017927780129863 0.015398138273403847 0 0.00017583386850384403 0.014003299306517844 0 0.0012546894379454878 0.014037657344009311 0 0.0036288980971202413 0.025201534701958926 0 0.0025612316888701382 0.02083007039941329 0 0.0012546894379454878 0.014037657344009311 0 0.00043915997133508675 0.013240721266782605 0 0.0011728257089307955 0.012492294709271696 0 -0.00090459740149325567 0.013396213615250535 0 0.00017583386850384403 0.014003299306517844 0 0.00043915997133508675 0.013240721266782605 0 0.00017583386850384403 0.014003299306517844 0 0.0012546894379454878 0.014037657344009311 0 0.00043915997133508675 0.013240721266782605 0 -0.00090459740149325567 0.013396213615250535 0 0.00043915997133508675 0.013240721266782605 0 0.00036522918262832279 0.012295574089375457 0 0.00036522918262832279 0.012295574089375457 0 0.0011728257089307955 0.012492294709271696 0 0.0012124025526484561 0.011314181937807461 0 0.0025612316888701382 0.02083007039941329 0 0.00090103093730263095 0.016565372550914531 0 0.00078098189115503186 0.011003052353539017 0 0.0023708289749858401 0.0087997303234499894 0 0.00054997764937819466 0.0092613245526142075 0 -0.0006342798202204448 0.010936463164492554 0 0.00078098189115503186 0.011003052353539017 0 0.00054997764937819466 0.0092613245526142075 0 0.0011117261905224205 0.010855761757178489 0 0.00090103093730263095 0.016565372550914531 0 0.00043915997133508675 0.013240721266782605 0 0.00036522918262832279 0.012295574089375457 0 0.0011728257089307955 0.012492294709271696 0 0.0039671731925643786 0.029197275706567206 0 0.003793841748568122 0.029386564979528733 0 0.0038127520543537897 0.029375467169841331 0 0.0039671731925643786 0.029197275706567206 0 0.0037886042736978349 0.029160804691749895 0 0.003793841748568122 0.029386564979528733 0 0.003793841748568122 0.029386564979528733 0 0.0034332841005998505 0.029581861331745916 0 0.0032770193188094423 0.029922450619135264 0 0.0037886042736978349 0.029160804691749895 0 0.003793841748568122 0.029386564979528733 0 0.0036399277094968769 0.029327604132313962 0 0.003793841748568122 0.029386564979528733 0 0.0036399277094968769 0.029327604132313962 0 0.0034332841005998505 0.029581861331745916 0 0.0036399277094968769 0.029327604132313962 0 0.0035401925782043205 0.029106059885030622 0 0.0034332841005998505 0.029581861331745916 0 0.0037886042736978349 0.029160804691749895 0 0.0036399277094968769 0.029327604132313962 0 0.0035401925782043205 0.029106059885030622 0 0.0040303188160048641 0.028675131560182008 0 0.0039671731925643786 0.029197275706567206 0 0.0037886042736978349 0.029160804691749895 0 0.0036288980971202413 0.025201534701958926 0 0.0031859447301652269 0.03000530360676874 0 0.003559040713448521 0.02992561152790706 0 0.0033487278444565118 0.029962653540823125 0 0.0034223910041026105 0.029988442636863458 0 0.0040303188160048641 0.028675131560182008 0 0.0037886042736978349 0.029160804691749895 0 0.0035401925782043205 0.029106059885030622 0 0.003559040713448521 0.02992561152790706 0 0.0034223910041026105 0.029988442636863458 0 0.0034143977612312213 0.02988616074090826 0 0.0034223910041026105 0.029988442636863458 0 0.0034143977612312213 0.02988616074090826 0 0.0032647560561092715 0.029932020521220223 0 0.0032647560561092715 0.029932020521220223 0 0.0028207086699102287 0.030719575990407762 0 0.0022578773744443966 0.030218377703769492 0 0.0034223910041026105 0.029988442636863458 0 0.0032647560561092715 0.029932020521220223 0 0.0028207086699102287 0.030719575990407762 0 0.0033487278444565118 0.029962653540823125 0 0.0034223910041026105 0.029988442636863458 0 0.0030388171115583629 0.029783630397187059 0 0.0033503255601599904 0.030020109010751892 0 0.0029096930142839253 0.030265269277586694 0 0.0033487278444565118 0.029962653540823125 0 0.0029877946814679764 0.029889264309164311 0 0.0030388171115583629 0.029783630397187059 0 0.0035401925782043205 0.029106059885030622 0 0.0034332841005998505 0.029581861331745916 0 0.0029877946814679764 0.029889264309164311 0 0.0031859447301652269 0.03000530360676874 0 0.0031922447464251772 0.02969636445513741 0 0.0034332841005998505 0.029581861331745916 0 0.0029877946814679764 0.029889264309164311 0 0.0032770193188094423 0.029922450619135264 0 0.0022073355087126006 0.030679712169717141 0 0.0029096930142839253 0.030265269277586694 0 0.0023186897128839299 0.03011000825401746 0 0.0029877946814679764 0.029889264309164311 0 0.0030388171115583629 0.029783630397187059 0 0.0020849195833813417 0.031232924549966484 0 0.0028207086699102287 0.030719575990407762 0 0.0022659726522304049 0.030745866901927089 0 0.0028207086699102287 0.030719575990407762 0 0.0022659726522304049 0.030745866901927089 0 0.0022578773744443966 0.030218377703769492 0 0.0032282265240284216 0.029968624020063454 0 0.0026489483136712456 0.030192203307997854 0 0.0027715117439180825 0.029635460514881074 0 0.0034129043730737104 0.029340431291086409 0 0.0032475328319194669 0.029643001045819878 0 0.002471739088845223 0.031302019969918084 0 0.0026201838257279273 0.030589471528845124 0 0.0032310032142790399 0.030444006685438094 0 0.0035088834923470355 0.029645057710172406 0 0.0030870340599990147 0.030083603879964303 0 0.0027715117439180825 0.029635460514881074 0 0.0032475328319194669 0.029643001045819878 0 0.0030421111280623768 0.029845546230892285 0 0.0021823850658049993 0.030845989099910619 0 0.002471739088845223 0.031302019969918084 0 0.0026201838257279273 0.030589471528845124 0 0.0023186897128839299 0.03011000825401746 0 0.0021823850658049993 0.030845989099910619 0 0.0026201838257279273 0.030589471528845124 0 0.0023186897128839299 0.03011000825401746 0 0.0029877946814679764 0.029889264309164311 0 0.0028877465274767828 0.030253432668930217 0 0.0023186897128839299 0.03011000825401746 0 0.0026201838257279273 0.030589471528845124 0 0.0028877465274767828 0.030253432668930217 0 0.0026201838257279273 0.030589471528845124 0 0.0028877465274767828 0.030253432668930217 0 0.0032310032142790399 0.030444006685438094 0 0.003793841748568122 0.029386564979528733 0 0.0032310032142790399 0.030444006685438094 0 0.0032770193188094423 0.029922450619135264 0 0.0038320999940237069 0.029376882984585646 0 0.0030870340599990147 0.030083603879964303 0 0.0029877946814679764 0.029889264309164311 0 0.0028877465274767828 0.030253432668930217 0 0.0032770193188094423 0.029922450619135264 0 0.0028877465274767828 0.030253432668930217 0 0.0032310032142790399 0.030444006685438094 0 0.0032770193188094423 0.029922450619135264 0 0.0034129043730737104 0.029340431291086409 0 0.0036428524947783036 0.029511125476986408 0 0.0036725463438964426 0.029393103356709357 0 0.0032475328319194669 0.029643001045819878 0 0.0036428524947783036 0.029511125476986408 0 0.0033353151704197852 0.029956691298077043 0 0.00065452216750144115 0.023902783074566215 0 0.00088508070692034789 0.02325359367563673 0 0.0034129043730737104 0.029340431291086409 0 0.0032475328319194669 0.029643001045819878 0 0.0036428524947783036 0.029511125476986408 0 -0.0015639687960656201 0.016419960535610345 0 -0.0016242723732513152 0.01642504045642584 0 -0.0015078246745058421 0.016323527036666719 0 -0.0015639687960656201 0.016419960535610345 0 -0.0016242723732513152 0.01642504045642584 0 -0.0016346900169901888 0.01647817654639052 0 0.0036428524947783036 0.029511125476986408 0 0.0036725463438964426 0.029393103356709357 0 0.0038127520543537897 0.029375467169841331 0 0.00065452216750144115 0.023902783074566215 0 0.00090103093730263095 0.016565372550914531 0 0.003793841748568122 0.029386564979528733 0 0.0034129043730737104 0.029340431291086409 0 0.0036725463438964426 0.029393103356709357 0 0.003793841748568122 0.029386564979528733 0 0.0036725463438964426 0.029393103356709357 0 0.0038127520543537897 0.029375467169841331 0 0.00044818730715799686 0.010152984165725775 0 0.00090103093730263095 0.016565372550914531 0 0.0024912795265393949 0.0053974040710985331 0 0.0023708289749858401 0.0087997303234499894 0 0.00073414589147844213 0.0069382370571515854 0 0.0023708289749858401 0.0087997303234499894 0 0.00054997764937819466 0.0092613245526142075 0 0.00073414589147844213 0.0069382370571515854 0 0.00054997764937819466 0.0092613245526142075 0 0.00073414589147844213 0.0069382370571515854 0 -0.0010518297704807335 0.0080213352147986 0 0.0024912795265393949 0.0053974040710985331 0 0.00073414589147844213 0.0069382370571515854 0 0.0006041791073939474 0.0036161829000911517 0 0.00073414589147844213 0.0069382370571515854 0 0.0006041791073939474 0.0036161829000911517 0 -0.0011992462187116392 0.0056304528411751471 0 0.0024912795265393949 0.0053974040710985331 0 0.0006041791073939474 0.0036161829000911517 0 0.0024922845591957695 0.0019681011456492677 0 0.0024922845591957695 0.0019681011456492677 0 0.001951862729008572 -0.00079775737132720343 0 0.001242334954935862 -0.00034683469763414958 0 0.0006041791073939474 0.0036161829000911517 0 0.0024922845591957695 0.0019681011456492677 0 0.001242334954935862 -0.00034683469763414958 0 0.0006041791073939474 0.0036161829000911517 0 -0.0018311468179245832 0.0025287949661941143 0 0.001242334954935862 -0.00034683469763414958 0 0.00049095919144282591 0.0091621315683401046 0 -0.0010590544774300101 0.0091263397141703641 0 -0.0016213014150383346 0.016488259080448677 0 -0.0016782636214192662 0.016544493791273946 0 -0.0016714637149272309 0.016517005321238735 0 -0.0015639687960656201 0.016419960535610345 0 -0.0016213014150383346 0.016488259080448677 0 -0.0016346900169901888 0.01647817654639052 0 -0.0016213014150383346 0.016488259080448677 0 -0.0016782636214192662 0.016544493791273946 0 -0.0016346900169901888 0.01647817654639052 0 0.00044818730715799686 0.010152984165725775 0 0.00049095919144282591 0.0091621315683401046 0 -0.0016242723732513152 0.01642504045642584 0 -0.0016346900169901888 0.01647817654639052 0 -0.0016996621601413427 0.016523483339237054 0 -0.0016782636214192662 0.016544493791273946 0 -0.0016346900169901888 0.01647817654639052 0 -0.0016996621601413427 0.016523483339237054 0 0.0032475328319194669 0.029643001045819878 0 0.0033353151704197852 0.029956691298077043 0 0.0030421111280623768 0.029845546230892285 0 -0.0016782636214192662 0.016544493791273946 0 -0.0016996621601413427 0.016523483339237054 0 -0.0017165036233577362 0.016625821454428417 0 -0.0016782636214192662 0.016544493791273946 0 -0.0017165036233577362 0.016625821454428417 0 -0.0017076923092692496 0.016574268255843357 0 -0.0016782636214192662 0.016544493791273946 0 -0.0017076923092692496 0.016574268255843357 0 -0.0017089830730612281 0.016546620245172852 0 -0.0016996621601413427 0.016523483339237054 0 -0.0017165036233577362 0.016625821454428417 0 -0.0017506880643291113 0.016629082859283262 0 0.00088508070692034789 0.02325359367563673 0 0.0001179230737243424 0.022240095317424605 0 -0.0027849533085157092 0.018001378845884312 0 0.0001179230737243424 0.022240095317424605 0 -0.0017165036233577362 0.016625821454428417 0 -0.001673328360525724 0.016749331048996903 0 -0.0016900109584905901 0.016634605048756673 0 -0.00069186605849254628 0.03401587247197202 0 0.0001179230737243424 0.022240095317424605 0 0.002402351819562876 0.030344120364196328 0 0.0028977852067259401 0.03052597729726949 0 0.002811013725850115 0.030138333372621319 0 0.0033353151704197852 0.029956691298077043 0 0.0028977852067259401 0.03052597729726949 0 0.002811013725850115 0.030138333372621319 0 0.0033353151704197852 0.029956691298077043 0 0.002811013725850115 0.030138333372621319 0 0.0030421111280623768 0.029845546230892285 0 0.0027715117439180825 0.029635460514881074 0 0.002811013725850115 0.030138333372621319 0 0.0030421111280623768 0.029845546230892285 0 0.002388879168716418 0.030033238728939704 0 0.0027715117439180825 0.029635460514881074 0 0.002811013725850115 0.030138333372621319 0 0.00032050198930519538 -0.0010701258652196688 0 0.00011932517316066387 -0.0010540769188019529 0 -3.4650659134373725e-05 -0.00072902985302457997 0 -0.0050073253885778001 0.0054693974993129703 0 -0.00603092856214172 0.0076664363971844455 0 -0.0049697457566252922 0.0069747660714947705 0 0.00032050198930519538 -0.0010701258652196688 0 0.00022488360598247234 -0.0010858401235937097 0 0.00034153783037538796 -0.0010375164215415942 0 0.00032050198930519538 -0.0010701258652196688 0 0.00022488360598247234 -0.0010858401235937097 0 0.00011932517316066387 -0.0010540769188019529 0 0.00022488360598247234 -0.0010858401235937097 0 0.00011103107858944387 -0.0011293434229444044 0 0.00011932517316066387 -0.0010540769188019529 0 0.00022488360598247234 -0.0010858401235937097 0 0.00011103107858944387 -0.0011293434229444044 0 0.00016232955730135593 -0.0011209479456085517 0 0.0001724589433439803 -0.0029279511443644117 0 -0.0015945700891222552 -0.00024883795714989289 0 0.00011103107858944387 -0.0011293434229444044 0 0.00016232955730135593 -0.0011209479456085517 0 5.079397466447503e-05 -0.0011865112054686966 0 0.00021102471029177034 -0.001559750842683153 0 -5.9949796561023852e-05 -0.0014424171048351211 0 -0.00033327857790278428 -0.0023322732575078195 0 3.8799808419624563e-05 -0.0011787609215105582 0 -5.9949796561023852e-05 -0.0014424171048351211 0 -3.4650659134373725e-05 -0.00072902985302457997 0 3.8799808419624563e-05 -0.0011787609215105582 0 0.00011932517316066387 -0.0010540769188019529 0 -3.4650659134373725e-05 -0.00072902985302457997 0 0.00011103107858944387 -0.0011293434229444044 0 3.8799808419624563e-05 -0.0011787609215105582 0 5.079397466447503e-05 -0.0011865112054686966 0 0.00021102471029177034 -0.001559750842683153 0 -0.00019624562219330765 -0.0035121602023238611 0 -0.0012962734988221643 -0.0047719374129903767 0 0.00021385091992324313 -0.0019211512587073356 0 -0.0015945700891222552 -0.00024883795714989289 0 3.8799808419624563e-05 -0.0011787609215105582 0 -4.2197380955704878e-05 -0.0012874699034100654 0 5.079397466447503e-05 -0.0011865112054686966 0 0.00011103107858944387 -0.0011293434229444044 0 3.8799808419624563e-05 -0.0011787609215105582 0 0.00011932517316066387 -0.0010540769188019529 0 3.8799808419624563e-05 -0.0011787609215105582 0 -5.9949796561023852e-05 -0.0014424171048351211 0 -4.2197380955704878e-05 -0.0012874699034100654 0 -0.008392278033138946 0.0085340496959342496 0 -0.0069425030654915263 0.0088276398313821558 0 -0.00603092856214172 0.0076664363971844455 0 -0.0070537557039747701 0.0095617244051673586 0 -0.008392278033138946 0.0085340496959342496 0 -0.0069425030654915263 0.0088276398313821558 0 -0.0050073253885778001 0.0054693974993129703 0 -0.008392278033138946 0.0085340496959342496 0 -0.00603092856214172 0.0076664363971844455 0 -0.0030463345368585931 0.0031186201883129463 0 -0.0015945700891222552 -0.00024883795714989289 0 -0.0070537557039747701 0.0095617244051673586 0 -0.0069425030654915263 0.0088276398313821558 0 -0.0061315433162628507 0.009135898115739045 0 -0.0069425030654915263 0.0088276398313821558 0 -0.0061315433162628507 0.009135898115739045 0 -0.0062269304485736447 0.0084451053566062962 0 -0.0061315433162628507 0.009135898115739045 0 -0.0062269304485736447 0.0084451053566062962 0 -0.0056810227700533891 0.0083880096928309281 0 -0.0062269304485736447 0.0084451053566062962 0 -0.00603092856214172 0.0076664363971844455 0 -0.0056810227700533891 0.0083880096928309281 0 -0.0069425030654915263 0.0088276398313821558 0 -0.0062269304485736447 0.0084451053566062962 0 -0.00603092856214172 0.0076664363971844455 0 -0.00603092856214172 0.0076664363971844455 0 -0.0048496702938183043 0.0078740058870673084 0 -0.0056810227700533891 0.0083880096928309281 0 -0.00603092856214172 0.0076664363971844455 0 -0.0049697457566252922 0.0069747660714947705 0 -0.0048496702938183043 0.0078740058870673084 0 -0.0047798939910048662 0.0094921926846669533 0 -0.0048496702938183043 0.0078740058870673084 0 -0.0056810227700533891 0.0083880096928309281 0 -0.0047798939910048662 0.0094921926846669533 0 -0.0061315433162628507 0.009135898115739045 0 -0.0056810227700533891 0.0083880096928309281 0 -0.0033522567878771169 0.0095323505025683691 0 -0.0047798939910048662 0.0094921926846669533 0 -0.0039067901233102156 0.0084504609179271578 0 -0.0047798939910048662 0.0094921926846669533 0 -0.0048496702938183043 0.0078740058870673084 0 -0.0039067901233102156 0.0084504609179271578 0 -0.0033522567878771169 0.0095323505025683691 0 -0.0039067901233102156 0.0084504609179271578 0 -0.0026786798107113654 0.0082340646716816349 0 -0.0020450053312073293 0.0095422190499948583 0 -0.0033522567878771169 0.0095323505025683691 0 -0.0026786798107113654 0.0082340646716816349 0 -0.0039067901233102156 0.0084504609179271578 0 -0.0026786798107113654 0.0082340646716816349 0 -0.0038682133798549939 0.00712602926474538 0 -0.0026786798107113654 0.0082340646716816349 0 -0.0038682133798549939 0.00712602926474538 0 -0.0023823438545304641 0.0068657540544957577 0 -0.0048496702938183043 0.0078740058870673084 0 -0.0039067901233102156 0.0084504609179271578 0 -0.0038682133798549939 0.00712602926474538 0 -0.0049697457566252922 0.0069747660714947705 0 -0.0048496702938183043 0.0078740058870673084 0 -0.0038682133798549939 0.00712602926474538 0 -0.00081322700018302072 0.0096455582448367085 0 0.00054997764937819466 0.0092613245526142075 0 -0.0010518297704807335 0.0080213352147986 0 -0.0020450053312073293 0.0095422190499948583 0 -0.00081322700018302072 0.0096455582448367085 0 -0.0010518297704807335 0.0080213352147986 0 -0.0020450053312073293 0.0095422190499948583 0 -0.0026786798107113654 0.0082340646716816349 0 -0.0010518297704807335 0.0080213352147986 0 -0.0026786798107113654 0.0082340646716816349 0 -0.0010518297704807335 0.0080213352147986 0 -0.0023823438545304641 0.0068657540544957577 0 -0.0011992462187116392 0.0056304528411751471 0 -0.0028799468827313416 0.0055052250686405948 0 -0.0018311468179245832 0.0025287949661941143 0 0.00073414589147844213 0.0069382370571515854 0 -0.0010518297704807335 0.0080213352147986 0 -0.0011992462187116392 0.0056304528411751471 0 -0.0010518297704807335 0.0080213352147986 0 -0.0011992462187116392 0.0056304528411751471 0 -0.0023823438545304641 0.0068657540544957577 0 -0.0011992462187116392 0.0056304528411751471 0 -0.0023823438545304641 0.0068657540544957577 0 -0.0028799468827313416 0.0055052250686405948 0 -0.0050073253885778001 0.0054693974993129703 0 -0.0038682133798549939 0.00712602926474538 0 -0.0028799468827313416 0.0055052250686405948 0 -0.0050073253885778001 0.0054693974993129703 0 -0.0049697457566252922 0.0069747660714947705 0 -0.0038682133798549939 0.00712602926474538 0 -0.0038682133798549939 0.00712602926474538 0 -0.0023823438545304641 0.0068657540544957577 0 -0.0028799468827313416 0.0055052250686405948 0 -0.0030463345368585931 0.0031186201883129463 0 -0.00048980869524457079 0.00074080656625419143 0 -0.0050073253885778001 0.0054693974993129703 0 -0.0028799468827313416 0.0055052250686405948 0 -0.0018311468179245832 0.0025287949661941143 0 0.00036132468978978253 -0.00058464786225807482 0 0.0003355356243335435 -0.00074686383035540863 0 0.00034153783037538796 -0.0010375164215415942 0 0.00032050198930519538 -0.0010701258652196688 0 0.00036132468978978253 -0.00058464786225807482 0 0.00034153783037538796 -0.0010375164215415942 0 0.0006041791073939474 0.0036161829000911517 0 -0.0011992462187116392 0.0056304528411751471 0 -0.0018311468179245832 0.0025287949661941143 0 -0.00048980869524457079 0.00074080656625419143 0 0.0010606878739427706 -0.00025341935669618724 0 0.00036132468978978253 -0.00058464786225807482 0 0.00038343404734383446 -0.00074220747396130146 0 0.001242334954935862 -0.00034683469763414958 0 0.00036132468978978253 -0.00058464786225807482 0 0.0003355356243335435 -0.00074686383035540863 0 0.00038343404734383446 -0.00074220747396130146 0 0.0003355356243335435 -0.00074686383035540863 0 0.00037365425488101892 -0.0007266887009541443 0 0.00038343404734383446 -0.00074220747396130146 0 0.0003355356243335435 -0.00074686383035540863 0 0.00037365425488101892 -0.0007266887009541443 0 0.00036815529140296594 -0.00097931090399081553 0 0.00039999395845185761 -0.0013985147622922669 0 0.00036815529140296594 -0.00097931090399081553 0 0.00029206965931066048 -0.0010674085551147759 0 0.00034353551836512872 -0.0014465367218038741 0 0.00038457246395233349 -0.00087097030355935798 0 0.00039999395845185761 -0.0013985147622922669 0 0.00029206965931066048 -0.0010674085551147759 0 0.00024119241021596454 -0.0012322545281663465 0 0.0003355356243335435 -0.00074686383035540863 0 0.00036815529140296594 -0.00097931090399081553 0 0.00034153783037538796 -0.0010375164215415942 0 0.00029206965931066048 -0.0010674085551147759 0 0.00034153783037538796 -0.0010375164215415942 0 0.00019774551198134421 -0.001058409590807599 0 0.00036815529140296594 -0.00097931090399081553 0 0.00029206965931066048 -0.0010674085551147759 0 0.00034153783037538796 -0.0010375164215415942 0 0.00022488360598247234 -0.0010858401235937097 0 0.00016232955730135593 -0.0011209479456085517 0 0.00034153783037538796 -0.0010375164215415942 0 0.00034153783037538796 -0.0010375164215415942 0 0.00012631051483806988 -0.00097440612232667259 0 0.00019774551198134421 -0.001058409590807599 0 0.00016232955730135593 -0.0011209479456085517 0 0.00034153783037538796 -0.0010375164215415942 0 -0.00017591596515100554 -0.0012707555824903588 0 0.00026953016829849843 -0.0010590282969324058 0 3.3564410982545216e-05 -0.0011021442840651228 0 -4.2197380955704878e-05 -0.0012874699034100654 0 -0.00017591596515100554 -0.0012707555824903588 0 5.079397466447503e-05 -0.0011865112054686966 0 0.00021102471029177034 -0.001559750842683153 0 -5.9949796561023852e-05 -0.0014424171048351211 0 -0.00017591596515100554 -0.0012707555824903588 0 -5.9949796561023852e-05 -0.0014424171048351211 0 -4.2197380955704878e-05 -0.0012874699034100654 0 -0.00017591596515100554 -0.0012707555824903588 0 0.00016232955730135593 -0.0011209479456085517 0 -0.00017591596515100554 -0.0012707555824903588 0 5.079397466447503e-05 -0.0011865112054686966 0 0.00029206965931066048 -0.0010674085551147759 0 0.00019774551198134421 -0.001058409590807599 0 0.00024119241021596454 -0.0012322545281663465 0 0.00019774551198134421 -0.001058409590807599 0 0.00012098386821638975 -0.0011768368165152156 0 0.00024119241021596454 -0.0012322545281663465 0 0.00012631051483806988 -0.00097440612232667259 0 0.00019774551198134421 -0.001058409590807599 0 0.00012098386821638975 -0.0011768368165152156 0 -1.9254556556650785e-05 -0.0012953660262793312 0 0.00012631051483806988 -0.00097440612232667259 0 0.00012098386821638975 -0.0011768368165152156 0 -1.9254556556650785e-05 -0.0012953660262793312 0 0.00022819502395261067 -0.0015126951537179753 0 0.00017355794338780396 -0.0017180035293581021 0 -1.9254556556650785e-05 -0.0012953660262793312 0 0.00012098386821638975 -0.0011768368165152156 0 0.00022819502395261067 -0.0015126951537179753 0 0.00012098386821638975 -0.0011768368165152156 0 0.00024119241021596454 -0.0012322545281663465 0 0.00022819502395261067 -0.0015126951537179753 0 0.00039999395845185761 -0.0013985147622922669 0 0.00024119241021596454 -0.0012322545281663465 0 0.00022819502395261067 -0.0015126951537179753 0 0.00022819502395261067 -0.0015126951537179753 0 0.00018639122634501348 -0.001591587644268089 0 0.00017355794338780396 -0.0017180035293581021 0 0.00018639122634501348 -0.001591587644268089 0 0.0001882309716793343 -0.0014602640263026063 0 0.00017355794338780396 -0.0017180035293581021 0 0.0001882309716793343 -0.0014602640263026063 0 0.00036689702335347755 -0.0012239968865555356 0 0.00017355794338780396 -0.0017180035293581021 0 0.00053632127037215867 -0.0022742276561529742 0 0.00018336250432574586 -0.0016925071877984962 0 0.0001882309716793343 -0.0014602640263026063 0 0.00036689702335347755 -0.0012239968865555356 0 -6.2734241706807987e-06 -0.0011830955093116869 0 -0.00096136122322572446 0.0067206600410647417 0 -0.0009192378381596175 0.0065139376618750756 0 -0.00094121648604946948 0.0067658904401201401 0 0.00026096656221747088 0.0011146319060965468 0 -0.0004064750980236163 0.0027310240743429505 0 0.0001882309716793343 -0.0014602640263026063 0 5.2967637390047239e-05 -0.0016020872841690215 0 -6.2734241706807987e-06 -0.0011830955093116869 0 -0.00096136122322572446 0.0067206600410647417 0 -0.0009192378381596175 0.0065139376618750756 0 -0.0010404283406568724 0.0066738869010627621 0 0.00018639122634501348 -0.001591587644268089 0 0.0001882309716793343 -0.0014602640263026063 0 5.2967637390047239e-05 -0.0016020872841690215 0 0.00034353551836512872 -0.0014465367218038741 0 0.00026096656221747088 0.0011146319060965468 0 0.00039999395845185761 -0.0013985147622922669 0 0.00022819502395261067 -0.0015126951537179753 0 0.00028602505326306553 -0.0015854952811147757 0 0.00022819502395261067 -0.0015126951537179753 0 0.00018639122634501348 -0.001591587644268089 0 0.00028602505326306553 -0.0015854952811147757 0 6.8484654570929147e-05 4.3293118400826802e-05 0 0.00026096656221747088 0.0011146319060965468 0 -0.0009192378381596175 0.0065139376618750756 0 -0.0012462676302888963 0.0065333167215574171 0 -0.001162782552527125 0.006674474073374995 0 0.00026096656221747088 0.0011146319060965468 0 -0.00030106398504808343 0.0022612359497801698 0 0.00037365425488101892 -0.0007266887009541443 0 0.00037313159351985367 -0.00072027991063732184 0 0.00038343404734383446 -0.00074220747396130146 0 -0.001162782552527125 0.006674474073374995 0 -0.0014594189901608087 0.0067134705043796804 0 -0.001434616040727273 0.0068685568609148208 0 -0.001162782552527125 0.006674474073374995 0 -0.0013339753636521421 0.0070073045008185644 0 -0.001434616040727273 0.0068685568609148208 0 -0.001162782552527125 0.006674474073374995 0 -0.0011117833563284931 0.0067716615529345436 0 -0.0012549956038063769 0.0068059476158336459 0 -0.0012462676302888963 0.0065333167215574171 0 -0.001162782552527125 0.006674474073374995 0 -0.0014594189901608087 0.0067134705043796804 0 -0.00093478933648533287 0.0063070746667023081 0 -0.0013296754378892437 0.008503153974653288 0 -0.0009192378381596175 0.0065139376618750756 0 -0.001162782552527125 0.006674474073374995 0 -0.0010404283406568724 0.0066738869010627621 0 -0.00096136122322572446 0.0067206600410647417 0 -0.0010404283406568724 0.0066738869010627621 0 -0.0011117833563284931 0.0067716615529345436 0 -0.001162782552527125 0.006674474073374995 0 -0.0010404283406568724 0.0066738869010627621 0 -0.0011117833563284931 0.0067716615529345436 0 -0.0012140995271583655 0.0067610388373309316 0 -0.0014569234400524549 0.0068257506438214807 0 -0.0012025800226282989 0.00697484725119084 0 -0.00099873801284686408 0.0067321316669840276 0 -0.0011233136850296636 0.0067701237546015178 0 -0.0012140995271583655 0.0067610388373309316 0 -0.0012025800226282989 0.00697484725119084 0 -0.0010799912454978039 0.0068223803087331305 0 -0.0014943598289871532 0.0068788215028998028 0 -0.0014569234400524549 0.0068257506438214807 0 -0.0012025800226282989 0.00697484725119084 0 -0.0011233136850296636 0.0067701237546015178 0 -0.0013296754378892437 0.008503153974653288 0 -0.0028461621208704263 0.011553035346312256 0 -0.0030123158181568081 0.010258795047780236 0 -0.0013339753636521421 0.0070073045008185644 0 -0.001434616040727273 0.0068685568609148208 0 -0.001461409123655284 0.0070317396271567202 0 -0.0025148268310968658 0.010084047821811819 0 -0.0026006688128936053 0.010193899282635059 0 -0.0023501918975769687 0.01016835193015426 0 -0.0028461621208704263 0.011553035346312256 0 -0.0024155877919555769 0.011121869017123453 0 -0.0013296754378892437 0.008503153974653288 0 -0.0024155877919555769 0.011121869017123453 0 -0.0028461621208704263 0.011553035346312256 0 -0.0013296754378892437 0.008503153974653288 0 -0.0033823194681274864 0.013613044532603914 0 -0.0036673431703759772 0.012262716562747555 0 -0.0047222960009746847 0.012953093172904617 0 -0.0036673431703759772 0.012262716562747555 0 -0.0047222960009746847 0.012953093172904617 0 -0.0051273754547955528 0.011484645473577217 0 -1.0070372259501126e-05 -0.00057606574492852366 0 0.00015615376517510258 -0.00086306982387592121 0 -6.2734241706807987e-06 -0.0011830955093116869 0 -0.0047222960009746847 0.012953093172904617 0 -0.0060646007804339716 0.012265787854839954 0 -0.0051273754547955528 0.011484645473577217 0 -0.0019152979376918107 0.0049490430231731242 0 -0.0004064750980236163 0.0027310240743429505 0 -0.0012025800226282989 0.00697484725119084 0 -0.00094124336640362795 0.0070653148989374744 0 -0.0010799912454978039 0.0068223803087331305 0 -0.0030123158181568081 0.010258795047780236 0 -0.0019152979376918107 0.0049490430231731242 0 0.00053632127037215867 -0.0022742276561529742 0 -4.3165082166775849e-05 -0.0022359031124531076 0 -1.0070372259501126e-05 -0.00057606574492852366 0 0.00015615376517510258 -0.00086306982387592121 0 0.00028212214680192667 -0.00045048990231476771 0 -0.0019152979376918107 0.0049490430231731242 0 -4.3165082166775849e-05 -0.0022359031124531076 0 0.00055781785163026149 -0.0031750345083851848 0 0.00083382614653023713 -0.0046408546253395863 0 4.3710281132358319e-05 -0.0040261968273854493 0 0.00015615376517510258 -0.00086306982387592121 0 0.00036689702335347755 -0.0012239968865555356 0 0.00028212214680192667 -0.00045048990231476771 0 0.00015615376517510258 -0.00086306982387592121 0 0.00036689702335347755 -0.0012239968865555356 0 -6.2734241706807987e-06 -0.0011830955093116869 0 -0.00094124336640362795 0.0070653148989374744 0 -0.00094121648604946948 0.0067658904401201401 0 -0.0010799912454978039 0.0068223803087331305 0 -0.00096136122322572446 0.0067206600410647417 0 -0.0012140995271583655 0.0067610388373309316 0 -0.0010799912454978039 0.0068223803087331305 0 -0.00096136122322572446 0.0067206600410647417 0 -0.00094121648604946948 0.0067658904401201401 0 -0.0010799912454978039 0.0068223803087331305 0 -0.0015881837950986132 0.016352733650085528 0 -0.001844290387025233 0.016183890194160958 0 -0.0017285108850993262 0.016573404976004472 0 -0.0014312430307225582 0.016606338858108076 0 -0.0015881837950986132 0.016352733650085528 0 -0.0017285108850993262 0.016573404976004472 0 -0.0014312430307225582 0.016606338858108076 0 -0.001673328360525724 0.016749331048996903 0 -0.0016900109584905901 0.016634605048756673 0 -0.0014312430307225582 0.016606338858108076 0 -0.0016900109584905901 0.016634605048756673 0 -0.0017285108850993262 0.016573404976004472 0 -0.004455866082943888 0.027878564786555697 0 0.0001179230737243424 0.022240095317424605 0 -0.0016900109584905901 0.016634605048756673 0 -0.0017285108850993262 0.016573404976004472 0 -0.0017171800939952463 0.016564493317461432 0 -0.0017285108850993262 0.016573404976004472 0 -0.0017171800939952463 0.016564493317461432 0 -0.0017127327391963639 0.016498485958793618 0 -0.0017165036233577362 0.016625821454428417 0 -0.0016900109584905901 0.016634605048756673 0 -0.0017171800939952463 0.016564493317461432 0 -0.0017165036233577362 0.016625821454428417 0 -0.0017171800939952463 0.016564493317461432 0 -0.0017076923092692496 0.016574268255843357 0 -0.0017171800939952463 0.016564493317461432 0 -0.0017076923092692496 0.016574268255843357 0 -0.0017089830730612281 0.016546620245172852 0 -0.0017171800939952463 0.016564493317461432 0 -0.0017127327391963639 0.016498485958793618 0 -0.0017089830730612281 0.016546620245172852 0 -0.001844290387025233 0.016183890194160958 0 -0.0021355009230159296 0.016422039439389191 0 -0.0022262418730254782 0.016140610575640091 0 -0.001844290387025233 0.016183890194160958 0 -0.0017285108850993262 0.016573404976004472 0 -0.0021355009230159296 0.016422039439389191 0 -0.0018467782949522975 0.01650871717577124 0 -0.0016417948253334091 0.016562397992556384 0 -0.0024963564521068545 0.012999003902211844 0 -0.0010590544774300101 0.0091263397141703641 0 -0.0017774641681106149 0.016409127773320563 0 -0.0017422091278688592 0.016490816867383226 0 -0.0017752894302591512 0.016514867346922032 0 -0.0016417948253334091 0.016562397992556384 0 -0.0024963564521068545 0.012999003902211844 0 -0.0021355009230159296 0.016422039439389191 0 -0.0025168729653471619 0.01623226427282044 0 -0.0022262418730254782 0.016140610575640091 0 -0.0017127327391963639 0.016498485958793618 0 -0.0017774641681106149 0.016409127773320563 0 -0.0017422091278688592 0.016490816867383226 0 -0.0017422091278688592 0.016490816867383226 0 -0.0017089830730612281 0.016546620245172852 0 -0.0017752894302591512 0.016514867346922032 0 -0.0017127327391963639 0.016498485958793618 0 -0.0017422091278688592 0.016490816867383226 0 -0.0017089830730612281 0.016546620245172852 0 -0.0014393031813814869 0.01366964622522231 0 -0.0010590544774300101 0.0091263397141703641 0 -0.0016782636214192662 0.016544493791273946 0 -0.0017089830730612281 0.016546620245172852 0 -0.0016714637149272309 0.016517005321238735 0 -0.0012462676302888963 0.0065333167215574171 0 -0.0017366586193583156 0.0065454621557228063 0 -0.0014594189901608087 0.0067134705043796804 0 -0.00030106398504808343 0.0022612359497801698 0 -0.0010590544774300101 0.0091263397141703641 0 0.00038343404734383446 -0.00074220747396130146 0 0.001951862729008572 -0.00079775737132720343 0 0.001242334954935862 -0.00034683469763414958 0 -0.001766169441082955 0.0069066708066576124 0 -0.0014594189901608087 0.0067134705043796804 0 -0.001434616040727273 0.0068685568609148208 0 -0.001766169441082955 0.0069066708066576124 0 -0.001434616040727273 0.0068685568609148208 0 -0.001461409123655284 0.0070317396271567202 0 -0.001766169441082955 0.0069066708066576124 0 -0.0017366586193583156 0.0065454621557228063 0 -0.0014594189901608087 0.0067134705043796804 0 -0.0024963564521068545 0.012999003902211844 0 -0.0024155877919555769 0.011121869017123453 0 -0.0027079746005406261 0.015618841215107381 0 -0.0026495575252318505 0.015564732114260075 0 -0.0025625386124704433 0.015623685770280038 0 -0.0024155877919555769 0.011121869017123453 0 -0.0027292044515653912 0.01526227757712399 0 -0.0024820249349062295 0.013015243503078089 0 -0.0024946672630880352 0.01299612977050001 0 -0.0024822300312337406 0.013010994108039476 0 -0.0027386192451796586 0.015603802146872261 0 -0.0027079746005406261 0.015618841215107381 0 -0.0026495575252318505 0.015564732114260075 0 -0.0028461621208704263 0.011553035346312256 0 -0.0027001207158393967 0.014433514922237229 0 -0.0027386192451796586 0.015603802146872261 0 -0.0026495575252318505 0.015564732114260075 0 -0.0026615122915774731 0.015448789728023507 0 -0.0033823194681274864 0.013613044532603914 0 -0.0036673431703759772 0.012262716562747555 0 -0.0023670807519329744 0.012330166159409846 0 -0.0026495575252318505 0.015564732114260075 0 -0.0026615122915774731 0.015448789728023507 0 -0.0025253202828399413 0.015557816807272137 0 -0.0026615122915774731 0.015448789728023507 0 -0.0025253202828399413 0.015557816807272137 0 -0.002375510497093078 0.015329684663347819 0 -0.0025253202828399413 0.015557816807272137 0 -0.0022319896901417564 0.015557986079300921 0 -0.002375510497093078 0.015329684663347819 0 -0.0025253202828399413 0.015557816807272137 0 -0.0023648628568727821 0.015750267833319797 0 -0.0022319896901417564 0.015557986079300921 0 -0.0027292044515653912 0.01526227757712399 0 -0.0021621315176922201 0.015865309959983646 0 -0.0023648628568727821 0.015750267833319797 0 -0.0025608441415566402 0.015960639837574831 0 -0.0021340524999898941 0.015916025193094235 0 -0.0025253202828399413 0.015557816807272137 0 -0.0023648628568727821 0.015750267833319797 0 -0.0025608441415566402 0.015960639837574831 0 -0.0026495575252318505 0.015564732114260075 0 -0.0025253202828399413 0.015557816807272137 0 -0.0025625386124704433 0.015623685770280038 0 -0.0025789152472211235 0.01572079329538419 0 -0.0027292044515653912 0.01526227757712399 0 -0.0024963564521068545 0.012999003902211844 0 -0.0027292044515653912 0.01526227757712399 0 -0.0025010366040233369 0.01595625708655463 0 -0.0022262418730254782 0.016140610575640091 0 -0.0021340524999898941 0.015916025193094235 0 -0.0025168729653471619 0.01623226427282044 0 -0.0025010366040233369 0.01595625708655463 0 -0.0022262418730254782 0.016140610575640091 0 -0.001844290387025233 0.016183890194160958 0 -0.0022262418730254782 0.016140610575640091 0 -0.0021340524999898941 0.015916025193094235 0 -0.001844290387025233 0.016183890194160958 0 -0.0021340524999898941 0.015916025193094235 0 -0.001744363905652409 0.015761568912344214 0 -0.0022319896901417564 0.015557986079300921 0 -0.0019859747571023181 0.015318514367718424 0 -0.002375510497093078 0.015329684663347819 0 -0.0023648628568727821 0.015750267833319797 0 -0.0021340524999898941 0.015916025193094235 0 -0.0022319896901417564 0.015557986079300921 0 -0.0022319896901417564 0.015557986079300921 0 -0.001744363905652409 0.015761568912344214 0 -0.0019859747571023181 0.015318514367718424 0 -0.0021340524999898941 0.015916025193094235 0 -0.0022319896901417564 0.015557986079300921 0 -0.001744363905652409 0.015761568912344214 0 -0.0012635880555792662 0.015266979418065841 0 -0.001744363905652409 0.015761568912344214 0 -0.0019859747571023181 0.015318514367718424 0 -0.0013188223727948322 0.015985211221949656 0 -0.001844290387025233 0.016183890194160958 0 -0.001744363905652409 0.015761568912344214 0 -0.0013188223727948322 0.015985211221949656 0 -0.0015881837950986132 0.016352733650085528 0 -0.001844290387025233 0.016183890194160958 0 -0.001219774115049616 0.014510239871845377 0 -0.0017755950665354653 0.01489083823656585 0 -0.0019994769210746406 0.014385398195832587 0 -0.0012635880555792662 0.015266979418065841 0 -0.0017755950665354653 0.01489083823656585 0 -0.0019859747571023181 0.015318514367718424 0 -0.0019859747571023181 0.015318514367718424 0 -0.0023812601199988876 0.014950713872629817 0 -0.002375510497093078 0.015329684663347819 0 -0.0017755950665354653 0.01489083823656585 0 -0.0019859747571023181 0.015318514367718424 0 -0.0023812601199988876 0.014950713872629817 0 -0.0017755950665354653 0.01489083823656585 0 -0.0023812601199988876 0.014950713872629817 0 -0.0019994769210746406 0.014385398195832587 0 -0.0013252181925072196 0.011009798660841993 0 -0.0015523238302089196 0.0096952629276473613 0 -0.00041726879110986532 0.0096180533194766583 0 -0.0018059651864921981 0.01287670585203906 0 -0.0011917984809205391 0.011985910714744906 0 -0.0013252181925072196 0.011009798660841993 0 -0.002696138241304808 0.010041333048838282 0 -0.0015523238302089196 0.0096952629276473613 0 -0.0027001207158393967 0.014433514922237229 0 -0.0018059651864921981 0.01287670585203906 0 -0.0026615122915774731 0.015448789728023507 0 -0.0023812601199988876 0.014950713872629817 0 -0.002375510497093078 0.015329684663347819 0 -0.0023670807519329744 0.012330166159409846 0 -0.0013252181925072196 0.011009798660841993 0 -0.0028376233680803909 0.011220271242892656 0 -0.0036673431703759772 0.012262716562747555 0 -0.0023670807519329744 0.012330166159409846 0 -0.0028376233680803909 0.011220271242892656 0 -0.0028376233680803909 0.011220271242892656 0 -0.002696138241304808 0.010041333048838282 0 -0.0037891363416751029 0.010121498029853519 0 -0.0013252181925072196 0.011009798660841993 0 -0.0028376233680803909 0.011220271242892656 0 -0.002696138241304808 0.010041333048838282 0 -0.002696138241304808 0.010041333048838282 0 -0.0022060814103667457 0.0088113572282965628 0 -0.0015523238302089196 0.0096952629276473613 0 -0.002696138241304808 0.010041333048838282 0 -0.0022060814103667457 0.0088113572282965628 0 -0.0033401513868819713 0.0090346072536295879 0 -0.0023163920300739251 0.0076359528574078926 0 -0.0022060814103667457 0.0088113572282965628 0 -0.0030283119305011541 0.0081326575933922483 0 -0.0022060814103667457 0.0088113572282965628 0 -0.0030283119305011541 0.0081326575933922483 0 -0.0033401513868819713 0.0090346072536295879 0 -0.0023163920300739251 0.0076359528574078926 0 -0.001367187799856124 0.0081752688582111249 0 -0.0022060814103667457 0.0088113572282965628 0 -0.001367187799856124 0.0081752688582111249 0 -0.0022060814103667457 0.0088113572282965628 0 -0.0011476526128949287 0.0090389596909132962 0 -0.001367187799856124 0.0081752688582111249 0 -0.0011476526128949287 0.0090389596909132962 0 -0.00044450681621987468 0.0087014233966800324 0 -0.0022060814103667457 0.0088113572282965628 0 -0.0011476526128949287 0.0090389596909132962 0 -0.0015523238302089196 0.0096952629276473613 0 -0.0011476526128949287 0.0090389596909132962 0 -0.0015523238302089196 0.0096952629276473613 0 -0.00041726879110986532 0.0096180533194766583 0 -0.0011476526128949287 0.0090389596909132962 0 -0.00041726879110986532 0.0096180533194766583 0 -0.00044450681621987468 0.0087014233966800324 0 -0.0011917984809205391 0.011985910714744906 0 -0.0012799517929250024 0.011619950297805213 0 -0.00044450681621987468 0.0087014233966800324 0 -0.00050132368158214058 0.0090634490895676479 0 -0.00038303320192505037 0.0089851817375009389 0 -0.00041726879110986532 0.0096180533194766583 0 -0.00044450681621987468 0.0087014233966800324 0 -0.00038303320192505037 0.0089851817375009389 0 -0.0014537276653101435 0.010120333271160827 0 -0.0012799517929250024 0.011619950297805213 0 -0.001219774115049616 0.014510239871845377 0 -0.0019994769210746406 0.014385398195832587 0 -0.0015781386649453876 0.013801230307925324 0 -0.0062392445139000524 0.010707968565511063 0 -0.0051273754547955528 0.011484645473577217 0 -0.0049049618305572959 0.010175382814655935 0 -0.0062392445139000524 0.010707968565511063 0 -0.0049049618305572959 0.010175382814655935 0 -0.0057360082225506818 0.0097557947127010023 0 -0.0019775878083309597 0.0015374157626369457 0 -0.0020366251583771181 0.0014999496358998388 0 -0.002075993499705327 0.001294210419989026 0 0.00088102771817355193 -0.0081124256929491108 0 0.00017299206155635009 -0.008821480529210609 0 2.8610980743182624e-07 -0.0077651851332556209 0 -0.0019775878083309597 0.0015374157626369457 0 -0.0020366251583771181 0.0014999496358998388 0 -0.0020519263278289033 0.0017457208954073872 0 -0.0019263888744489258 0.0018282304472438508 0 -0.0019775878083309597 0.0015374157626369457 0 -0.0020519263278289033 0.0017457208954073872 0 0.00088102771817355193 -0.0081124256929491108 0 0.00062169368252703357 -0.0063914161359778388 0 2.8610980743182624e-07 -0.0077651851332556209 0 -0.00031214430109491683 -0.0044873784036593301 0 -4.3165082166775849e-05 -0.0022359031124531076 0 -0.0019152979376918107 0.0049490430231731242 0 -0.0043670879639704195 0.0072480790024432203 0 -0.0060646007804339716 0.012265787854839954 0 -0.0062392445139000524 0.010707968565511063 0 -0.0051273754547955528 0.011484645473577217 0 -0.0036673431703759772 0.012262716562747555 0 -0.0051273754547955528 0.011484645473577217 0 -0.003989712517470231 0.011132499495605987 0 -0.0036673431703759772 0.012262716562747555 0 -0.0028376233680803909 0.011220271242892656 0 -0.003989712517470231 0.011132499495605987 0 -0.0028376233680803909 0.011220271242892656 0 -0.003989712517470231 0.011132499495605987 0 -0.0037891363416751029 0.010121498029853519 0 -0.003989712517470231 0.011132499495605987 0 -0.0037891363416751029 0.010121498029853519 0 -0.0049049618305572959 0.010175382814655935 0 -0.0051273754547955528 0.011484645473577217 0 -0.003989712517470231 0.011132499495605987 0 -0.0049049618305572959 0.010175382814655935 0 -0.0037891363416751029 0.010121498029853519 0 -0.0049049618305572959 0.010175382814655935 0 -0.0042884612514316085 0.0090928307854847689 0 -0.0049049618305572959 0.010175382814655935 0 -0.0042884612514316085 0.0090928307854847689 0 -0.0053260856625474374 0.0090541812257194237 0 -0.002696138241304808 0.010041333048838282 0 -0.0037891363416751029 0.010121498029853519 0 -0.0033401513868819713 0.0090346072536295879 0 -0.0037891363416751029 0.010121498029853519 0 -0.0042884612514316085 0.0090928307854847689 0 -0.0033401513868819713 0.0090346072536295879 0 -0.0042884612514316085 0.0090928307854847689 0 -0.0033401513868819713 0.0090346072536295879 0 -0.0039714798439530706 0.0080158858012894987 0 -0.0030283119305011541 0.0081326575933922483 0 -0.0033401513868819713 0.0090346072536295879 0 -0.0039714798439530706 0.0080158858012894987 0 -0.0042884612514316085 0.0090928307854847689 0 -0.0039714798439530706 0.0080158858012894987 0 -0.0050480296015232642 0.0082746663139545568 0 -0.0042884612514316085 0.0090928307854847689 0 -0.0053260856625474374 0.0090541812257194237 0 -0.0050480296015232642 0.0082746663139545568 0 -0.005887129440519669 0.0076733240055307291 0 -0.0050480296015232642 0.0082746663139545568 0 -0.0058306761951738319 0.0084535321075309075 0 -0.0053260856625474374 0.0090541812257194237 0 -0.0058306761951738319 0.0084535321075309075 0 -0.0064783387675277047 0.0090777259915666465 0 -0.005887129440519669 0.0076733240055307291 0 -0.0064216644659530657 0.0082130680791767784 0 -0.0058306761951738319 0.0084535321075309075 0 -0.0064216644659530657 0.0082130680791767784 0 -0.0058306761951738319 0.0084535321075309075 0 -0.0064783387675277047 0.0090777259915666465 0 -0.006122127003765558 0.0099114114144815291 0 -0.0032804413653471564 0.0016342408646288764 0 -0.0053260856625474374 0.0090541812257194237 0 -0.0050480296015232642 0.0082746663139545568 0 -0.0058306761951738319 0.0084535321075309075 0 -0.0043670879639704195 0.0072480790024432203 0 -0.0032804413653471564 0.0016342408646288764 0 -0.0053260856625474374 0.0090541812257194237 0 -0.0057360082225506818 0.0097557947127010023 0 -0.0064783387675277047 0.0090777259915666465 0 -0.0049049618305572959 0.010175382814655935 0 -0.0053260856625474374 0.0090541812257194237 0 -0.0057360082225506818 0.0097557947127010023 0 -0.0062392445139000524 0.010707968565511063 0 -0.0057360082225506818 0.0097557947127010023 0 -0.0064783387675277047 0.0090777259915666465 0 0.00088102771817355193 -0.0081124256929491108 0 0.00017299206155635009 -0.008821480529210609 0 0.0010657966599349608 -0.0097600429645380883 0 -0.00031214430109491683 -0.0044873784036593301 0 -0.0032804413653471564 0.0016342408646288764 0 0.00017299206155635009 -0.008821480529210609 0 0.0010657966599349608 -0.0097600429645380883 0 0.00019740351965809796 -0.0097685293090766252 0 -0.0029633524477997186 -0.0023192418673427021 0 -0.0032804413653471564 0.0016342408646288764 0 0.00081569346798439726 -0.011393817222506123 0 0.0010657966599349608 -0.0097600429645380883 0 6.7657027037319099e-05 -0.010568698781755897 0 -0.0067556060838777883 0.0075220080423169453 0 -0.0064216644659530657 0.0082130680791767784 0 -0.0064279717686135237 0.0089383490757652343 0 0.0010657966599349608 -0.0097600429645380883 0 0.00019740351965809796 -0.0097685293090766252 0 6.7657027037319099e-05 -0.010568698781755897 0 0.00081569346798439726 -0.011393817222506123 0 8.4442795911425825e-05 -0.011295882154272793 0 6.7657027037319099e-05 -0.010568698781755897 0 -0.00060316805015939276 -0.011266356420051043 0 6.7657027037319099e-05 -0.010568698781755897 0 -0.00070786625468762985 -0.01034751649870649 0 8.4442795911425825e-05 -0.011295882154272793 0 -0.00060316805015939276 -0.011266356420051043 0 6.7657027037319099e-05 -0.010568698781755897 0 -0.00060316805015939276 -0.011266356420051043 0 -0.00070786625468762985 -0.01034751649870649 0 -0.0015992519406144688 -0.01078617543116844 0 0.00019740351965809796 -0.0097685293090766252 0 6.7657027037319099e-05 -0.010568698781755897 0 -0.00070786625468762985 -0.01034751649870649 0 -0.00070786625468762985 -0.01034751649870649 0 -0.0015992519406144688 -0.01078617543116844 0 -0.0011412220067973139 -0.0095651102151144037 0 -0.0016689428887189349 -0.010687881085525243 0 -0.0018331963967642998 -0.0098804836863975003 0 -0.0015992519406144688 -0.01078617543116844 0 -0.0018179943671314596 -0.010745316886143358 0 -0.0017842556372196848 -0.010754346981806211 0 -0.0015992519406144688 -0.01078617543116844 0 -0.0020675676396157885 -0.0088074525776071482 0 -0.0011412220067973139 -0.0095651102151144037 0 -0.0020675676396157885 -0.0088074525776071482 0 -0.0011412220067973139 -0.0095651102151144037 0 -0.00089512119614928304 -0.0083676627817205213 0 0.00019740351965809796 -0.0097685293090766252 0 -0.00070786625468762985 -0.01034751649870649 0 -0.00048252795697850036 -0.0094909849457858429 0 -0.00070786625468762985 -0.01034751649870649 0 -0.00048252795697850036 -0.0094909849457858429 0 -0.0011412220067973139 -0.0095651102151144037 0 -0.00048252795697850036 -0.0094909849457858429 0 -0.0011412220067973139 -0.0095651102151144037 0 -0.00089512119614928304 -0.0083676627817205213 0 0.00017299206155635009 -0.008821480529210609 0 0.00019740351965809796 -0.0097685293090766252 0 -0.00048252795697850036 -0.0094909849457858429 0 0.00017299206155635009 -0.008821480529210609 0 -0.00048252795697850036 -0.0094909849457858429 0 -0.00089512119614928304 -0.0083676627817205213 0 0.00017299206155635009 -0.008821480529210609 0 2.8610980743182624e-07 -0.0077651851332556209 0 -0.00089512119614928304 -0.0083676627817205213 0 2.8610980743182624e-07 -0.0077651851332556209 0 -0.00089512119614928304 -0.0083676627817205213 0 -0.00077128135244067882 -0.0071166530502382048 0 -0.0020675676396157885 -0.0088074525776071482 0 -0.00089512119614928304 -0.0083676627817205213 0 -0.0022329089471927379 -0.007835029271447783 0 -0.00089512119614928304 -0.0083676627817205213 0 -0.0022329089471927379 -0.007835029271447783 0 -0.00077128135244067882 -0.0071166530502382048 0 -0.0018179943671314596 -0.010745316886143358 0 -0.0018130688413692006 -0.01091917149253094 0 -0.0017923350149512077 -0.010973176610196889 0 -0.0018331963967642998 -0.0098804836863975003 0 -0.0015829479156182643 -0.0082620897915497236 0 -0.0011153356524521822 -0.0050120215454663077 0 -6.2134957352866156e-05 -0.0051188056372272819 0 -0.00040197815978341593 -0.0045402659796606347 0 -0.0015829479156182643 -0.0082620897915497236 0 -0.00040258975727379171 -0.0061831122064746951 0 -0.0010213483757733454 -0.0056123534094696392 0 -0.0011153356524521822 -0.0050120215454663077 0 -6.2134957352866156e-05 -0.0051188056372272819 0 -0.0015829479156182643 -0.0082620897915497236 0 -0.0015175387331058179 -0.007757415788538005 0 -0.0011153356524521822 -0.0050120215454663077 0 -0.00040197815978341593 -0.0045402659796606347 0 -0.00086226088462544386 -0.0042768209655645369 0 -4.3165082166775849e-05 -0.0022359031124531076 0 -0.00040258975727379171 -0.0061831122064746951 0 0.00020867666911712714 -0.0045885755016947328 0 -6.2134957352866156e-05 -0.0051188056372272819 0 -0.00040197815978341593 -0.0045402659796606347 0 0.00083382614653023713 -0.0046408546253395863 0 0.00020867666911712714 -0.0045885755016947328 0 -6.2134957352866156e-05 -0.0051188056372272819 0 0.00062169368252703357 -0.0063914161359778388 0 2.8610980743182624e-07 -0.0077651851332556209 0 -0.00077128135244067882 -0.0071166530502382048 0 0.001291018739944182 -0.017417279267473298 0 0.0012153410575328422 -0.017264891947447441 0 0.0013095653870130142 -0.017475879309687307 0 0.001291018739944182 -0.017417279267473298 0 0.0013095653870130142 -0.017475879309687307 0 0.0012998817343478851 -0.017266259220299458 0 -0.0018124233315853916 -0.010971248344738314 0 -0.0017786003465610637 -0.011064209585753526 0 -0.0013494398194360143 -0.011238748313966549 0 -0.0017923350149512077 -0.010973176610196889 0 -0.0018450603530602357 -0.011521055063796762 0 -0.0017029845582464929 -0.010800785642235503 0 -0.0017923350149512077 -0.010973176610196889 0 -0.0018670792528752364 -0.01054232225099346 0 -0.0018130688413692006 -0.01091917149253094 0 -0.0017029845582464929 -0.010800785642235503 0 -0.0017923350149512077 -0.010973176610196889 0 -0.0018179943671314596 -0.010745316886143358 0 -0.0017923350149512077 -0.010973176610196889 0 -0.0017887783680192836 -0.010785069607084162 0 -0.0013494398194360143 -0.011238748313966549 0 -0.0017887783680192836 -0.010785069607084162 0 -0.0017545320570197503 -0.010676394581655695 0 -0.0013494398194360143 -0.011238748313966549 0 -0.0017923350149512077 -0.010973176610196889 0 -0.0017887783680192836 -0.010785069607084162 0 -0.00033785477389986759 -0.014104310500312221 0 -0.00044278853041861149 -0.013695369439657233 0 0.0012652147779905886 -0.017124540799903852 0 0.0012153410575328422 -0.017264891947447441 0 0.00091993466752263533 -0.017000708586823426 0 0.001291018739944182 -0.017417279267473298 0 0.0012153410575328422 -0.017264891947447441 0 0.00091993466752263533 -0.017000708586823426 0 0.0012652147779905886 -0.017124540799903852 0 0.0012153410575328422 -0.017264891947447441 0 0.0013095653870130142 -0.017475879309687307 0 0.0012652147779905886 -0.017124540799903852 0 0.0012433078094211875 -0.016739153771425142 0 0.00091993466752263533 -0.017000708586823426 0 -0.0018179943671314596 -0.010745316886143358 0 -0.0017887783680192836 -0.010785069607084162 0 -0.0017842556372196848 -0.010754346981806211 0 -0.0017887783680192836 -0.010785069607084162 0 -0.0017545320570197503 -0.010676394581655695 0 -0.0017842556372196848 -0.010754346981806211 0 -0.002125368751398763 -0.011171809397478012 0 -0.0015992519406144688 -0.01078617543116844 0 -0.0017842556372196848 -0.010754346981806211 0 -0.002125368751398763 -0.011171809397478012 0 -0.0017545320570197503 -0.010676394581655695 0 -0.0017842556372196848 -0.010754346981806211 0 -0.00025275426267863047 -0.0146326070890443 0 -0.00044278853041861149 -0.013695369439657233 0 -0.00025275426267863047 -0.0146326070890443 0 0.001114939174607832 -0.016651140182542094 0 0.00062928564118662565 -0.016229002051193101 0 0.00061194448014507334 -0.016039402484231084 0 0.0007469045544101203 -0.016112066475376684 0 0.00035376743509916276 -0.016032380114433798 0 0.00062928564118662565 -0.016229002051193101 0 0.00061194448014507334 -0.016039402484231084 0 0.0007097656960803391 -0.016174735011143301 0 0.0012433078094211875 -0.016739153771425142 0 0.00091993466752263533 -0.017000708586823426 0 0.00070009575581831004 -0.01612287111808159 0 0.00099705162926523919 -0.016017235948052384 0 0.00062928564118662565 -0.016229002051193101 0 0.0007469045544101203 -0.016112066475376684 0 0.00078389975403385132 -0.016253045340825806 0 0.0007469045544101203 -0.016112066475376684 0 0.00092059441414910602 -0.016219779209385162 0 0.00078389975403385132 -0.016253045340825806 0 0.0007469045544101203 -0.016112066475376684 0 0.00088550273329720934 -0.016101950570579494 0 0.00092059441414910602 -0.016219779209385162 0 0.00099202866557535595 -0.016075309787110924 0 0.00088550273329720934 -0.016101950570579494 0 0.00092059441414910602 -0.016219779209385162 0 0.00076261691880476809 -0.019042780926975551 0 0.00073650298968687931 -0.018848312939263884 0 0.0012090378533405018 -0.018604173032633137 0 0.00088110285872471366 -0.017605951575649998 0 0.0010617738367853121 -0.017502483301395397 0 0.00092059441414910602 -0.016219779209385162 0 0.00078389975403385132 -0.016253045340825806 0 0.00081334467882473831 -0.016419790796310046 0 0.0012652147779905886 -0.017124540799903852 0 0.0012433078094211875 -0.016739153771425142 0 0.0015712026074304419 -0.0171753974130248 0 0.00062928564118662565 -0.016229002051193101 0 0.00078389975403385132 -0.016253045340825806 0 0.00081334467882473831 -0.016419790796310046 0 0.001114939174607832 -0.016651140182542094 0 0.0010617738367853121 -0.017502483301395397 0 0.00054433164965061846 -0.019024446197986229 0 0.00049071130032565433 -0.019098909661200966 0 0.00041768982955541568 -0.019061462931845165 0 0.00054433164965061846 -0.019024446197986229 0 0.00046041959581669952 -0.019018497969654984 0 0.00041768982955541568 -0.019061462931845165 0 0.00046041959581669952 -0.019018497969654984 0 0.00041768982955541568 -0.019061462931845165 0 0.00046522805427308509 -0.019052352519365295 0 0.0004572392416432117 -0.019061662962256504 0 0.00076261691880476809 -0.019042780926975551 0 0.00057992740283565279 -0.019037357047220392 0 0.00036833081130276796 -0.017520507069592618 0 0.00088110285872471366 -0.017605951575649998 0 0.0004572392416432117 -0.019061662962256504 0 0.00046522805427308509 -0.019052352519365295 0 0.00057992740283565279 -0.019037357047220392 0 0.0004572392416432117 -0.019061662962256504 0 0.00046041959581669952 -0.019018497969654984 0 0.00046522805427308509 -0.019052352519365295 0 0.00076261691880476809 -0.019042780926975551 0 0.00073650298968687931 -0.018848312939263884 0 0.00057992740283565279 -0.019037357047220392 0 0.00073650298968687931 -0.018848312939263884 0 0.00057992740283565279 -0.019037357047220392 0 0.00051848665997492928 -0.018953143140168868 0 0.00073650298968687931 -0.018848312939263884 0 0.00051848665997492928 -0.018953143140168868 0 0.0005948270696640004 -0.018753845094732789 0 0.00051848665997492928 -0.018953143140168868 0 0.0003789256864507862 -0.018849226045865534 0 0.0005948270696640004 -0.018753845094732789 0 0.00051848665997492928 -0.018953143140168868 0 0.00039736981953436795 -0.019026132953446042 0 0.0003789256864507862 -0.018849226045865534 0 0.00046522805427308509 -0.019052352519365295 0 0.00057992740283565279 -0.019037357047220392 0 0.00051848665997492928 -0.018953143140168868 0 0.00046522805427308509 -0.019052352519365295 0 0.00051848665997492928 -0.018953143140168868 0 0.00039736981953436795 -0.019026132953446042 0 -0.0007156203752225486 -0.01928062831460859 0 0.00028313460326142296 -0.019059681178979278 0 -1.1465614897686299e-05 -0.019045418544863846 0 0.00041768982955541568 -0.019061462931845165 0 0.00039736981953436795 -0.019026132953446042 0 0.00028313460326142296 -0.019059681178979278 0 0.00041768982955541568 -0.019061462931845165 0 0.00046522805427308509 -0.019052352519365295 0 0.00039736981953436795 -0.019026132953446042 0 0.00039736981953436795 -0.019026132953446042 0 0.0003789256864507862 -0.018849226045865534 0 0.00028313460326142296 -0.019059681178979278 0 0.0003789256864507862 -0.018849226045865534 0 0.00028313460326142296 -0.019059681178979278 0 0.00012995045248521042 -0.0188544579121359 0 -0.00024365013454459179 -0.018730788209053724 0 0.00012995045248521042 -0.0188544579121359 0 -1.1465614897686299e-05 -0.019045418544863846 0 0.00028313460326142296 -0.019059681178979278 0 0.00012995045248521042 -0.0188544579121359 0 -1.1465614897686299e-05 -0.019045418544863846 0 0.00049071130032565433 -0.019098909661200966 0 0.00041768982955541568 -0.019061462931845165 0 0.00028313460326142296 -0.019059681178979278 0 0.00016008350325385042 -0.018623298281654491 0 0.00049058695855298698 -0.018448580935669843 0 -6.9318785742644997e-05 -0.018253388773787859 0 -0.00024365013454459179 -0.018730788209053724 0 0.00016008350325385042 -0.018623298281654491 0 -6.9318785742644997e-05 -0.018253388773787859 0 -0.00024365013454459179 -0.018730788209053724 0 0.00012995045248521042 -0.0188544579121359 0 0.00016008350325385042 -0.018623298281654491 0 0.0003789256864507862 -0.018849226045865534 0 0.00016008350325385042 -0.018623298281654491 0 0.00049058695855298698 -0.018448580935669843 0 0.0003789256864507862 -0.018849226045865534 0 0.00012995045248521042 -0.0188544579121359 0 0.00016008350325385042 -0.018623298281654491 0 0.0003789256864507862 -0.018849226045865534 0 0.00049058695855298698 -0.018448580935669843 0 0.0005948270696640004 -0.018753845094732789 0 0.00073650298968687931 -0.018848312939263884 0 0.0005948270696640004 -0.018753845094732789 0 0.00087001657923895209 -0.018575483351736553 0 0.00049058695855298698 -0.018448580935669843 0 0.0005948270696640004 -0.018753845094732789 0 0.00087001657923895209 -0.018575483351736553 0 0.00049058695855298698 -0.018448580935669843 0 0.00087001657923895209 -0.018575483351736553 0 0.00093543958265369443 -0.01820196892919259 0 0.00049058695855298698 -0.018448580935669843 0 0.00053803674694543593 -0.01763250453805008 0 0.00093543958265369443 -0.01820196892919259 0 0.0005405471357801052 -0.017617446876927529 0 0.00094039928068127723 -0.018000470215711981 0 0.00049058695855298698 -0.018448580935669843 0 0.00053803674694543593 -0.01763250453805008 0 -6.9318785742644997e-05 -0.018253388773787859 0 0.00053803674694543593 -0.01763250453805008 0 -6.9318785742644997e-05 -0.018253388773787859 0 -0.00010917111692014756 -0.017637845935434947 0 0.0012652147779905886 -0.017124540799903852 0 0.0015712026074304419 -0.0171753974130248 0 0.0013095653870130142 -0.017475879309687307 0 0.0010617738367853121 -0.017502483301395397 0 0.0013512268452417243 -0.017446977137668969 0 0.00073650298968687931 -0.018848312939263884 0 0.0012090378533405018 -0.018604173032633137 0 0.00087001657923895209 -0.018575483351736553 0 0.0011203756900680499 -0.01786079442181112 0 0.00085708375466235118 -0.017667086890076601 0 0.0013095653870130142 -0.017475879309687307 0 0.0012090378533405018 -0.018604173032633137 0 0.00087001657923895209 -0.018575483351736553 0 0.00093543958265369443 -0.01820196892919259 0 0.0010617738367853121 -0.017502483301395397 0 0.00094039928068127723 -0.018000470215711981 0 0.00053803674694543593 -0.01763250453805008 0 0.00085708375466235118 -0.017667086890076601 0 0.00099588997008008572 -0.017327452377015971 0 0.00085708375466235118 -0.017667086890076601 0 0.0013095653870130142 -0.017475879309687307 0 0.00099588997008008572 -0.017327452377015971 0 0.0012998817343478851 -0.017266259220299458 0 0.00099588997008008572 -0.017327452377015971 0 0.0011215329118850065 -0.016697229053570718 0 0.0013095653870130142 -0.017475879309687307 0 0.0012998817343478851 -0.017266259220299458 0 0.00099588997008008572 -0.017327452377015971 0 0.00099588997008008572 -0.017327452377015971 0 0.00062905748462174576 -0.016976809538754845 0 0.0011215329118850065 -0.016697229053570718 0 0.0012998817343478851 -0.017266259220299458 0 0.0011215329118850065 -0.016697229053570718 0 0.0014667771044828194 -0.016984369696108871 0 0.0017508120562322474 -0.016815993032088222 0 0.0022577903831146272 -0.015787522422714605 0 0.00053803674694543593 -0.01763250453805008 0 -0.00010917111692014756 -0.017637845935434947 0 0.00016401140918245876 -0.01720536086445059 0 -0.00043792231676320333 -0.01704388825194543 0 -0.00010917111692014756 -0.017637845935434947 0 0.00016401140918245876 -0.01720536086445059 0 0.00053803674694543593 -0.01763250453805008 0 0.00016401140918245876 -0.01720536086445059 0 0.00062905748462174576 -0.016976809538754845 0 0.00053803674694543593 -0.01763250453805008 0 0.00099588997008008572 -0.017327452377015971 0 0.00062905748462174576 -0.016976809538754845 0 0.00062905748462174576 -0.016976809538754845 0 0.00051620852319691297 -0.016164279644192772 0 0.0011215329118850065 -0.016697229053570718 0 0.00062905748462174576 -0.016976809538754845 0 0.00015872155203849726 -0.016694262891478687 0 0.00051620852319691297 -0.016164279644192772 0 0.00016401140918245876 -0.01720536086445059 0 0.00062905748462174576 -0.016976809538754845 0 0.00015872155203849726 -0.016694262891478687 0 -0.00043792231676320333 -0.01704388825194543 0 0.00016401140918245876 -0.01720536086445059 0 0.00015872155203849726 -0.016694262891478687 0 -0.000809651942987694 -0.023488034371781735 0 -0.0010951273971701592 -0.02410138843732761 0 0.00015872155203849726 -0.016694262891478687 0 0.00051620852319691297 -0.016164279644192772 0 -0.00022686703480029327 -0.015809704898143675 0 -0.00043792231676320333 -0.01704388825194543 0 0.00015872155203849726 -0.016694262891478687 0 -0.00022686703480029327 -0.015809704898143675 0 0.00034186501818327407 -0.013838519732855095 0 0.00059807157253165732 -0.015060324358406393 0 -0.00022686703480029327 -0.015809704898143675 0 0.00051620852319691297 -0.016164279644192772 0 0.00059807157253165732 -0.015060324358406393 0 0.0014538624458571576 -0.015239845422092627 0 0.00051620852319691297 -0.016164279644192772 0 0.00059807157253165732 -0.015060324358406393 0 -0.00022686703480029327 -0.015809704898143675 0 0.0010799398317756885 -0.014745383380478832 0 0.00059807157253165732 -0.015060324358406393 0 0.0014538624458571576 -0.015239845422092627 0 0.00079339836222414029 -0.01873734079320663 0 -0.0010951273971701592 -0.02410138843732761 0 0.0021728170090003062 -0.016606866105716579 0 0.0024627709093983344 -0.01535310099416372 0 0.0035017363960956338 -0.015265324959271373 0 0.0021728170090003062 -0.016606866105716579 0 0.0035017363960956338 -0.015265324959271373 0 0.0038640362290426229 -0.017182518630604719 0 0.00049392810934353014 -0.016142924464101531 0 0.0017508120562322474 -0.016815993032088222 0 0.0021728170090003062 -0.016606866105716579 0 0.0014538624458571576 -0.015239845422092627 0 0.0024627709093983344 -0.01535310099416372 0 0.00051620852319691297 -0.016164279644192772 0 0.0021728170090003062 -0.016606866105716579 0 0.0014538624458571576 -0.015239845422092627 0 0.0015344358109470339 -0.014372009658309703 0 0.0010799398317756885 -0.014745383380478832 0 0.0014538624458571576 -0.015239845422092627 0 0.0023971803927064078 -0.014379597884017407 0 0.0014538624458571576 -0.015239845422092627 0 0.0024627709093983344 -0.01535310099416372 0 0.0023971803927064078 -0.014379597884017407 0 0.0015344358109470339 -0.014372009658309703 0 0.0014538624458571576 -0.015239845422092627 0 0.0023971803927064078 -0.014379597884017407 0 0.00332101774281704 -0.014349611763866565 0 0.0024627709093983344 -0.01535310099416372 0 0.00332101774281704 -0.014349611763866565 0 0.0024627709093983344 -0.01535310099416372 0 0.0035017363960956338 -0.015265324959271373 0 0.00332101774281704 -0.014349611763866565 0 0.0035017363960956338 -0.015265324959271373 0 0.0044003078712897001 -0.014753193068687895 0 0.0039299437726185368 -0.015728424617891739 0 0.0022577903831146272 -0.015787522422714605 0 0.0035017363960956338 -0.015265324959271373 0 0.0043584978575020219 -0.015751837761142029 0 0.0037374683934314709 -0.016062748157350683 0 0.0014877920584912244 -0.0093396586622304951 0 0.00010184183569040802 -0.0042614876868737588 0 0.0014877920584912244 -0.0093396586622304951 0 0.003359625948215891 -0.0122781583695594 0 0.0035017363960956338 -0.015265324959271373 0 0.0043584978575020219 -0.015751837761142029 0 0.0044003078712897001 -0.014753193068687895 0 -0.00132873138194373 -0.0029438272221610643 0 -0.0012196236291142262 -0.0018252908431286975 0 -0.00082176239822522067 -0.0027224709086890006 0 0.0020178199819923495 -0.0092680942096510701 0 0.0020691238715743522 -0.0081819640919812246 0 0.0019241661571268854 -0.0081988163139596875 0 -0.0012196236291142262 -0.0018252908431286975 0 -0.00042370937435413702 -0.0022779959788966409 0 -0.00082176239822522067 -0.0027224709086890006 0 -0.00043580243373356382 -0.0014963260692886244 0 -0.0012196236291142262 -0.0018252908431286975 0 -0.00042370937435413702 -0.0022779959788966409 0 -0.00043580243373356382 -0.0014963260692886244 0 0.00017355794338780396 -0.0017180035293581021 0 -0.00042370937435413702 -0.0022779959788966409 0 0.00055781785163026149 -0.0031750345083851848 0 0.00017355794338780396 -0.0017180035293581021 0 -0.00042370937435413702 -0.0022779959788966409 0 0.00055781785163026149 -0.0031750345083851848 0 -0.00042370937435413702 -0.0022779959788966409 0 -0.00035943414241584903 -0.0031009693842505332 0 -0.00042370937435413702 -0.0022779959788966409 0 -0.00082176239822522067 -0.0027224709086890006 0 -0.00035943414241584903 -0.0031009693842505332 0 -0.00132873138194373 -0.0029438272221610643 0 -0.00082176239822522067 -0.0027224709086890006 0 -0.00085423366470412717 -0.0033618828348446097 0 -0.00085423366470412717 -0.0033618828348446097 0 -0.00035943414241584903 -0.0031009693842505332 0 -0.0004392178111052885 -0.0036659189680143017 0 -0.00082176239822522067 -0.0027224709086890006 0 -0.00085423366470412717 -0.0033618828348446097 0 -0.00035943414241584903 -0.0031009693842505332 0 -0.00085423366470412717 -0.0033618828348446097 0 -0.00092839752747936712 -0.0039184251500086163 0 -0.0012523978663799428 -0.0037918952625022222 0 -0.00085423366470412717 -0.0033618828348446097 0 -0.0004392178111052885 -0.0036659189680143017 0 -0.00092839752747936712 -0.0039184251500086163 0 0.00055781785163026149 -0.0031750345083851848 0 -4.9257296926474896e-05 -0.0034913268523264389 0 4.3710281132358319e-05 -0.0040261968273854493 0 0.00055781785163026149 -0.0031750345083851848 0 -0.00035943414241584903 -0.0031009693842505332 0 -4.9257296926474896e-05 -0.0034913268523264389 0 -0.0004392178111052885 -0.0036659189680143017 0 -4.9257296926474896e-05 -0.0034913268523264389 0 4.3710281132358319e-05 -0.0040261968273854493 0 -0.00035943414241584903 -0.0031009693842505332 0 -0.0004392178111052885 -0.0036659189680143017 0 -4.9257296926474896e-05 -0.0034913268523264389 0 -0.0004392178111052885 -0.0036659189680143017 0 4.3710281132358319e-05 -0.0040261968273854493 0 -0.00057798256802432614 -0.0041124996946908408 0 4.3710281132358319e-05 -0.0040261968273854493 0 -0.00057798256802432614 -0.0041124996946908408 0 -0.00040197815978341593 -0.0045402659796606347 0 0.00020867666911712714 -0.0045885755016947328 0 4.3710281132358319e-05 -0.0040261968273854493 0 -0.00040197815978341593 -0.0045402659796606347 0 0.00083382614653023713 -0.0046408546253395863 0 0.00020867666911712714 -0.0045885755016947328 0 4.3710281132358319e-05 -0.0040261968273854493 0 -0.0011153356524521822 -0.0050120215454663077 0 -0.00086226088462544386 -0.0042768209655645369 0 -0.0012933733870658388 -0.0037999601744395125 0 -0.00092839752747936712 -0.0039184251500086163 0 -0.00086226088462544386 -0.0042768209655645369 0 -0.0012933733870658388 -0.0037999601744395125 0 -0.00092839752747936712 -0.0039184251500086163 0 -0.00057798256802432614 -0.0041124996946908408 0 -0.00086226088462544386 -0.0042768209655645369 0 -0.0015861865649791941 -0.0057593546256670923 0 -0.00097243421186799374 -0.0074205820108262256 0 -0.0004392178111052885 -0.0036659189680143017 0 -0.00092839752747936712 -0.0039184251500086163 0 -0.00057798256802432614 -0.0041124996946908408 0 -0.00057798256802432614 -0.0041124996946908408 0 -0.00040197815978341593 -0.0045402659796606347 0 -0.00086226088462544386 -0.0042768209655645369 0 -0.0013494398194360143 -0.011238748313966549 0 -0.0018450603530602357 -0.011521055063796762 0 -0.0018179402834330391 -0.012211096914595359 0 -0.0017786003465610637 -0.011064209585753526 0 0.0003450383436805283 -0.010845583255983848 0 -0.0015175387331058179 -0.007757415788538005 0 -0.00097243421186799374 -0.0074205820108262256 0 -0.0018670792528752364 -0.01054232225099346 0 -0.0017773514154876169 -0.010049742159115641 0 -0.0018530681448562035 -0.010021751847795897 0 -0.0017029845582464929 -0.010800785642235503 0 -0.0018670792528752364 -0.01054232225099346 0 -0.0017773514154876169 -0.010049742159115641 0 -0.0013494398194360143 -0.011238748313966549 0 -0.00099044253844643351 -0.012541501673230022 0 -0.0018179402834330391 -0.012211096914595359 0 0.001291018739944182 -0.017417279267473298 0 0.0012998817343478851 -0.017266259220299458 0 0.0014667771044828194 -0.016984369696108871 0 -0.00033785477389986759 -0.014104310500312221 0 0.0022577903831146272 -0.015787522422714605 0 -0.00132873138194373 -0.0029438272221610643 0 -0.00085423366470412717 -0.0033618828348446097 0 -0.0012523978663799428 -0.0037918952625022222 0 0.0014877920584912244 -0.0093396586622304951 0 -0.00097243421186799374 -0.0074205820108262256 0 0.0014877920584912244 -0.0093396586622304951 0 0.0003450383436805283 -0.010845583255983848 0 0.00079136545200389767 -0.0093011847017388204 0 0.00076119188316329893 -0.0093153988748226751 0 0.00076202702492173446 -0.0093157475314523657 0 0.0043584978575020219 -0.015751837761142029 0 0.0037374683934314709 -0.016062748157350683 0 0.0043196804855482338 -0.016218571819542473 0 0.0022577903831146272 -0.015787522422714605 0 0.0003450383436805283 -0.010845583255983848 0 -0.00097243421186799374 -0.0074205820108262256 0 0.0003450383436805283 -0.010845583255983848 0 
</DataArray>
</PointData>
<CellData Scalars="region_id,cross_section_updated," Vectors="" Tensors="stress,">
<DataArray type="Float64" Name="region_id" format="ascii">
5 5 5 5 5 5 6 5 5 5 5 5 6 5 5 6 5 5 5 6 5 5 5 5 5 5 5 5 5 5 5 5 5 5 5 5 5 5 5 5 5 5 5 5 5 5 5 5 5 5 6 5 6 5 5 5 6 5 5 5 5 5 5 5 6 5 5 6 5 5 5 5 5 5 5 6 5 5 5 5 6 5 5 5 5 5 6 5 5 5 6 5 5 5 5 5 5 5 5 5 5 5 5 5 5 5 5 5 6 5 5 5 5 6 5 5 5 5 5 5 6 5 5 5 6 5 6 5 6 5 5 6 5 5 5 5 5 5 5 6 5 5 5 5 5 5 5 5 5 5 5 5 6 5 5 5 5 5 5 5 6 5 5 5 5 5 5 5 5 6 5 5 5 5 5 5 6 5 5 5 5 5 6 5 6 5 5 5 5 5 6 5 6 5 6 6 5 5 6 5 5 5 5 5 5 5 5 5 5 5 5 5 5 5 5 5 5 5 5 5 5 5 5 5 5 5 5 5 5 5 5 5 5 5 5 5 6 5 6 5 5 5 5 5 5 5 5 5 6 5 6 5 5 5 5 5 6 5 5 5 5 6 5 5 5 5 5 5 5 5 5 5 5 6 5 5 6 5 5 5 5 5 5 5 5 5 5 5 5 5 5 5 5 5 5 5 5 5 5 5 5 5 5 5 5 5 5 5 5 5 5 5 5 5 5 5 5 5 5 6 5 5 5 6 5 5 5 6 5 5 5 5 6 5 5 5 5 6 5 5 5 5 5 5 5 5 5 5 5 6 5 5 5 5 5 5 5 5 5 5 5 5 5 5 5 5 5 5 5 5 5 5 5 5 6 6 5 5 5 5 5 5 5 5 5 5 6 5 5 5 5 5 5 5 5 5 5 5 5 5 5 5 5 5 5 5 5 5 5 5 6 5 5 5 6 5 5 5 5 5 5 5 6 5 5 5 5 5 5 5 5 5 6 5 5 5 6 5 5 5 5 5 5 5 6 5 5 5 5 5 5 5 5 5 5 5 5 5 5 5 5 5 5 6 5 5 5 5 5 5 5 5 5 5 5 5 5 5 5 5 5 5 5 5 6 5 5 5 6 5 5 6 5 6 5 5 5 6 5 5 5 5 6 5 5 5 6 5 5 5 5 5 6 5 5 5 5 5 5 5 5 6 5 5 5 5 5 5 5 5 5 5 5 5 5 5 5 5 5 5 5 5 5 5 5 5 6 5 6 5 5 5 5 5 5 5 5 6 5 5 5 5 5 6 5 5 5 5 5 5 6 5 6 5 5 5 5 5 5 5 5 5 5 5 5 5 5 5 5 5 5 5 5 5 5 6 6 5 5 5 6 5 5 5 5 6 5 5 5 5 5 5 5 5 6 5 5 5 6 5 5 5 5 5 5 5 5 6 6 5 6 5 5 6 5 6 5 5 5 5 5 5 6 5 5 5 5 5 6 5 5 6 5 5 6 5 5 5 6 5 5 5 5 5 5 5 5 5 5 5 5 5 5 6 5 5 5 5 5 6 5 5 5 6 5 5 6 6 5 5 5 5 5 5 5 6 5 5 5 5 6 5 5 5 5 6 5 5 5 5 5 5 5 5 5 6 5 5 5 5 5 5 6 5 5 6 5 5 5 5 5 6 5 5 6 5 5 5 5 5 5 5 5 6 6 5 5 5 5 5 5 6 5 5 5 5 5 5 6 5 5 5 5 5 5 6 5 5 5 5 5 5 5 5 5 5 6 5 5 5 5 5 6 5 5 6 5 5 5 5 5 5 6 5 6 5 5 5 6 5 5 6 5 5 5 5 5 5 5 5 5 5 5 5 5 6 5 5 5 6 5 5 5 5 5 5 5 5 5 5 6 5 5 5 5 5 5 5 5 5 5 5 5 5 5 5 5 5 5 6 5 5 6 5 5 5 5 5 5 5 5 5 5 5 5 5 5 5 5 5 6 5 5 5 5 5 5 5 5 5 5 5 5 5 6 5 5 5 5 5 5 5 5 5 5 5 5 5 5 5 5 6 5 5 5 6 5 5 5 5 5 5 5 6 5 5 6 5 6 5 6 5 6 5 5 5 5 6 5 5 5 5 5 5 6 5 5 6 5 5 5 5 5 6 6 5 5 5 5 5 5 5 5 5 5 5 5 5 5 5 5 5 5 5 5 5 5 5 5 6 5 5 5 5 5 5 5 5 5 5 5 5 5 5 5 5 5 5 5 5 5 5 5 5 5 5 5 5 5 6 5 5 5 5 5 5 5 5 5 5 5 6 5 5 5 5 5 5 6 5 5 6 5 6 5 5 5 6 5 5 5 6 5 5 6 5 6 5 5 6 5 5 6 5 6 5 5 5 5 5 6 5 6 5 5 5 5 6 6 5 5 6 5 5 6 5 6 5 5 6 5 5 5 6 5 5 6 6 5 5 5 6 6 5 5 5 5 5 5 5 5 6 5 6 5 6 5 6 5 6 5 6 5 5 5 6 5 5 6 5 5 6 5 6 6 5 6 6 5 5 6 5 6 5 5 5 5 5 5 5 6 5 5 5 5 6 5 5 5 5 5 5 5 5 5 6 5 6 5 5 5 5 5 5 5 5 5 5 5 5 5 6 5 6 5 5 6 5 5 5 6 5 5 5 5 5 5 5 6 5 5 5 5 5 6 6 5 5 5 5 5 5 5 6 5 5 5 6 5 5 5 5 5 5 5 5 5 6 5 5 5 5 5 5 5 5 5 5 5 6 5 5 5 5 5 5 6 5 5 5 5 6 5 5 5 5 5 5 5 5 5 5 5 5 5 5 5 5 5 5 5 6 5 5 5 5 6 5 5 5 5 5 5 5 5 5 5 5 5 5 5 5 6 5 5 6 5 6 5 5 5 5 5 5 6 5 5 5 5 5 6 5 5 5 5 5 6 6 5 5 5 5 5 5 5 5 5 5 5 5 5 5 5 5 5 5 5 5 5 6 5 5 5 5 5 5 5 5 5 5 5 6 5 6 5 5 5 5 6 5 5 6 5 5 6 5 5 6 5 5 5 5 5 5 6 5 5 5 5 5 5 5 6 5 5 6 5 5 6 5 5 5 5 5 6 5 5 5 5 5 5 5 5 5 5 5 5 6 5 5 5 5 5 5 5 5 5 5 5 5 5 5 6 6 5 5 6 5 6 5 6 6 5 5 5 5 6 6 6 5 5 6 5 5 6 5 5 5 5 6 5 5 5 5 5 5 5 6 5 5 6 6 5 5 6 5 6 5 5 5 5 5 5 5 5 5 5 5 5 5 5 5 5 5 5 5 5 5 6 6 5 5 5 5 5 5 5 5 5 5 6 5 5 5 5 6 5 5 5 5 5 5 6 5 5 5 6 5 5 5 5 5 5 6 5 5 5 5 5 5 6 5 5 6 5 5 5 5 5 5 5 5 5 5 5 5 5 5 5 5 5 5 5 5 5 5 5 5 6 5 5 5 5 5 5 5 5 5 5 5 5 5 6 5 6 5 5 5 5 5 5 5 5 5 5 5 5 5 5 5 5 5 6 5 5 5 6 5 5 5 6 5 5 5 5 6 5 5 5 5 5 5 5 5 5 5 5 5 5 5 5 5 5 5 5 5 5 5 5 5 5 5 5 5 5 5 5 5 5 5 5 5 5 6 5 5 5 5 5 5 5 6 5 5 6 5 6 5 5 5 5 5 6 5 5 5 6 5 5 5 5 5 5 5 5 5 5 5 5 5 5 5 5 5 5 5 5 6 5 5 5 5 5 5 5 5 5 5 5 5 5 5 5 5 5 5 5 5 5 5 5 5 5 5 5 6 6 5 5 5 5 5 5 6 5 5 5 5 5 5 5 6 6 5 5 6 6 5 5 5 5 6 6 5 5 5 5 5 6 5 5 5 6 5 5 5 5 5 5 5 5 5 6 5 5 5 6 5 5 6 5 6 5 6 5 6 6 5 5 6 6 5 5 5 5 5 5 6 5 6 5 5 5 5 6 5 5 5 5 5 5 5 6 5 6 5 5 5 5 5 5 5 5 5 5 5 5 5 6 5 6 5 5 5 5 5 5 5 5 5 5 5 5 5 6 5 5 5 5 5 5 5 5 5 5 6 5 5 5 5 5 5 5 5 5 5 5 5 5 5 6 5 6 5 5 5 6 5 5 5 5 5 5 5 5 5 5 5 5 5 5 5 6 6 5 5 5 5 5 5 5 5 5 5 5 5 5 5 6 5 5 5 5 5 6 5 5 5 5 5 5 6 5 5 5 5 5 5 5 5 5 5 5 5 6 5 5 5 5 5 5 6 5 5 5 6 5 5 5 5 5 6 5 5 5 6 5 5 5 5 5 5 5 5 5 6 5 5 5 5 5 5 5 5 5 5 6 5 5 5 6 5 5 5 5 5 5 5 5 5 5 5 5 5 5 5 5 5 5 5 5 5 5 5 6 5 5 5 5 5 5 5 5 5 5 5 5 5 5 5 5 5 5 5 5 5 5 5 5 6 5 5 5 5 5 5 5 6 5 5 5 6 5 5 5 5 5 5 5 5 6 5 6 5 5 6 5 6 5 5 5 5 5 5 6 5 5 5 6 6 5 6 5 5 5 5 5 6 5 5 5 5 5 5 5 5 5 5 5 5 5 5 5 6 5 5 6 5 5 5 6 5 6 5 6 5 6 5 5 6 6 5 5 5 6 5 6 5 5 5 5 5 5 5 5 5 6 5 5 5 6 5 5 5 5 5 5 5 5 5 5 5 6 5 5 5 6 5 5 5 5 5 5 5 5 5 6 5 5 6 5 5 5 6 5 5 6 5 5 5 5 5 5 5 5 5 5 5 5 5 5 5 5 5 5 5 5 5 5 6 5 5 6 5 5 5 5 5 5 5 6 5 5 5 5 5 5 5 5 5 5 5 5 6 5 5 5 6 5 5 6 6 5 6 5 5 5 5 5 6 5 5 5 5 5 6 5 5 5 6 6 5 5 5 6 5 5 5 6 5 5 5 6 6 5 5 6 5 5 5 5 5 5 6 6 5 5 5 5 5 5 5 5 5 5 5 6 5 5 5 5 5 5 5 5 5 5 5 5 5 5 5 5 6 5 5 5 6 5 5 5 5 5 5 5 5 5 5 6 6 5 5 5 5 6 5 5 5 5 5 5 6 5 6 5 5 5 5 5 5 6 6 5 5 5 5 5 5 5 5 6 6 5 5 5 5 5 5 6 5 5 5 5 6 5 6 5 5 5 5 5 6 5 6 6 5 5 6 6 5 5 6 5 6 6 5 5 5 6 6 5 5 5 5 5 5 5 5 5 5 6 5 5 5 6 6 5 6 6 5 5 5 5 5 6 5 6 5 6 5 5 5 6 5 6 6 5 5 6 5 5 6 5 5 5 5 6 5 5 5 5 5 5 5 5 5 5 5 5 6 5 5 5 5 5 6 5 6 5 6 5 6 5 6 5 6 5 5 5 5 5 6 6 5 6 6 6 5 5 5 5 6 5 5 5 5 5 6 5 5 5 5 5 5 6 5 5 5 5 6 5 5 6 5 6 6 5 5 5 5 5 5 6 6 6 6 5 5 6 5 6 5 6 6 5 5 5 5 5 5 5 5 5 5 5 5 6 5 5 6 5 5 5 5 5 5 5 5 5 5 5 6 5 5 5 5 6 5 5 6 5 5 5 6 5 6 5 5 5 5 5 5 5 5 5 6 5 5 5 5 5 6 5 5 5 5 5 5 5 5 5 5 5 5 5 5 5 6 5 5 5 5 6 5 5 5 5 6 5 5 5 5 5 5 5 5 5 5 5 5 5 5 5 5 5 5 6 5 5 5 5 6 5 5 5 5 5 5 5 5 5 5 5 6 5 5 5 6 6 5 5 5 6 6 6 5 6 5 5 6 5 5 6 5 5 6 5 6 5 5 5 5 5 5 5 5 5 5 5 5 5 5 5 5 5 5 5 5 6 6 5 5 5 6 5 6 5 5 5 5 5 5 5 5 5 5 6 5 5 5 5 5 5 5 5 5 6 5 5 5 5 5 5 6 5 5 5 5 5 5 5 5 5 5 5 5 6 5 6 5 5 5 5 5 5 5 5 5 5 5 5 5 5 5 5 5 5 6 5 6 5 6 5 5 6 5 6 5 5 6 5 5 6 5 5 5 5 5 5 6 5 5 6 6 5 5 6 5 5 6 5 6 6 5 5 5 5 5 5 6 5 5 5 5 5 5 5 5 5 5 6 5 5 6 5 5 5 6 5 5 5 5 5 5 5 6 5 5 5 6 5 5 6 5 5 5 5 5 5 5 5 5 5 5 5 5 5 5 5 5 5 5 5 5 5 5 5 5 5 5 5 5 5 5 5 5 5 5 5 5 5 5 5 5 5 5 5 5 5 6 5 5 5 5 5 5 5 5 5 5 5 5 5 5 5 5 5 5 5 5 6 5 6 5 5 5 5 5 5 5 6 5 5 5 5 5 5 5 6 5 5 5 5 5 5 6 5 6 5 5 5 6 5 5 5 5 5 5 5 5 5 5 5 5 6 5 5 5 5 6 5 5 5 6 6 5 5 5 6 6 5 5 5 5 5 5 5 5 5 5 5 5 5 5 5 5 5 5 5 5 6 5 5 5 5 6 5 5 5 6 5 5 5 5 5 5 5 5 5 5 6 6 5 5 5 5 6 5 5 5 5 5 5 6 5 5 6 5 5 6 5 5 5 5 5 5 5 5 5 5 5 5 5 5 5 5 5 5 5 5 5 5 5 5 5 5 5 5 5 5 5 5 5 5 5 5 5 5 5 5 5 5 5 5 5 5 5 5 6 5 5 5 5 5 6 5 5 6 5 5 6 5 5 5 5 5 5 5 5 5 5 5 5 5 5 5 5 5 5 5 6 5 5 5 5 5 6 5 5 5 5 5 5 5 5 5 5 5 5 6 5 5 5 5 5 6 5 5 5 6 5 5 5 5 5 5 6 5 5 5 5 6 5 5 5 5 6 5 5 5 6 5 5 5 6 5 5 6 5 5 5 5 5 5 5 5 5 5 5 5 5 5 5 5 5 5 5 5 5 5 5 6 5 5 5 6 5 5 5 5 5 5 5 5 5 5 5 5 5 5 5 5 5 6 6 5 5 6 5 5 6 5 6 5 6 5 5 5 5 6 5 5 5 5 6 5 6 5 5 5 5 5 5 5 5 5 5 5 5 5 5 6 5 5 5 5 5 5 5 5 5 5 6 5 5 5 5 5 5 5 5 5 5 6 5 5 5 5 5 6 5 5 5 5 5 6 5 5 5 5 6 5 5 5 5 5 5 5 5 5 5 5 5 6 5 5 5 5 5 6 5 5 5 5 5 5 6 5 5 5 5 5 5 6 5 5 5 5 5 5 5 5 5 5 5 5 5 5 5 5 5 5 5 5 5 5 5 5 5 6 5 5 5 5 5 5 6 5 5 5 5 6 5 5 6 5 5 5 5 5 5 5 5 5 6 5 5 6 5 5 5 6 5 5 5 5 6 5 5 5 5 5 5 5 5 5 6 5 5 5 5 5 5 5 5 5 5 5 5 5 5 5 5 5 5 5 5 5 5 5 5 6 5 5 5 5 5 5 5 5 5 5 6 5 5 5 5 5 5 5 6 5 5 5 5 6 5 5 5 5 5 5 5 5 5 5 5 5 5 5 5 5 5 5 5 5 5 5 5 5 5 5 5 5 5 5 5 5 5 5 5 5 5 5 5 5 5 5 5 5 5 5 5 6 5 5 5 5 5 5 5 5 5 5 5 5 5 5 6 5 5 5 5 5 5 5 5 6 5 5 5 5 6 6 5 5 6 6 5 5 5 5 5 5 5 5 5 5 5 5 5 5 5 5 6 5 5 5 5 5 5 5 5 5 5 5 6 5 5 5 5 5 5 5 5 5 6 6 5 5 6 5 5 5 5 5 5 6 5 5 5 5 6 5 5 5 5 5 5 5 5 5 5 5 5 6 5 5 5 5 6 5 5 5 5 5 5 5 5 5 6 6 5 5 5 5 6 5 5 5 5 5 5 6 5 5 5 5 5 5 5 5 5 5 5 5 5 5 5 6 5 5 5 5 5 5 5 5 5 5 5 5 5 5 5 5 5 5 5 5 5 5 5 5 5 5 5 6 5 5 5 6 5 5 5 5 5 5 5 5 5 6 5 5 5 5 5 5 5 5 5 6 5 5 5 5 5 5 5 5 5 5 5 5 5 5 5 6 5 5 5 5 5 5 5 6 5 5 5 5 5 5 5 5 5 5 5 5 5 5 5 5 5 5 5 5 5 5 5 5 5 5 5 5 5 5 6 5 5 5 5 6 5 5 5 5 5 6 5 6 5 5 5 5 5 5 6 5 5 5 6 5 5 5 5 5 5 5 5 5 5 5 5 5 5 5 5 5 5 5 5 5 5 5 5 5 5 5 5 5 6 5 5 5 5 5 6 5 5 5 5 5 5 5 6 5 5 5 5 5 5 5 6 5 6 5 5 5 5 5 6 6 5 5 6 5 5 6 5 6 6 6 5 6 5 6 6 6 5 5 6 6 5 5 6 5 5 5 5 5 6 5 5 6 5 6 5 5 5 5 5 6 5 5 6 5 6 5 6 6 5 5 5 5 5 6 5 5 6 5 5 5 5 5 5 6 5 5 5 5 5 5 5 5 5 5 5 5 5 5 5 6 5 5 5 5 5 6 5 6 6 5 5 5 5 5 5 5 5 5 5 5 5 5 5 5 5 5 5 5 5 5 6 5 5 5 6 5 5 6 5 5 5 5 5 5 5 5 5 5 6 5 6 5 5 5 5 5 6 5 5 5 5 6 5 5 5 5 5 5 5 5 5 5 5 5 5 5 5 5 5 5 5 5 5 5 5 5 5 5 5 5 5 5 5 5 6 5 6 5 6 5 6 5 5 5 6 6 5 6 6 5 5 5 6 5 5 5 5 5 5 5 5 5 5 5 5 5 5 5 5 5 5 5 5 5 5 5 5 5 5 5 5 5 5 5 5 5 5 5 5 5 5 5 5 5 5 5 5 5 5 5 5 5 5 5 5 5 5 5 5 5 5 5 5 5 5 5 6 5 5 5 5 5 5 6 6 5 5 5 5 5 5 6 5 5 5 5 6 5 5 5 5 5 6 5 6 5 5 5 5 6 5 5 5 5 5 5 5 5 5 5 5 5 5 5 5 5 5 5 5 5 5 5 5 5 5 6 5 5 5 5 5 5 5 5 5 6 6 5 5 5 6 6 5 5 5 5 5 6 5 6 5 5 6 5 5 5 5 5 5 5 5 5 5 5 5 6 5 5 5 5 6 5 5 5 5 5 5 5 6 5 5 5 5 5 5 5 5 5 5 5 5 5 5 5 5 5 5 6 5 5 5 6 5 5 5 5 5 5 5 5 5 5 5 5 5 5 6 6 5 5 5 5 5 5 5 5 5 5 5 6 5 5 5 5 5 5 5 6 5 5 5 5 5 5 5 5 5 5 5 5 5 5 5 5 5 5 5 6 6 5 5 5 5 5 5 6 5 5 5 5 5 5 5 5 5 5 5 5 5 5 5 5 5 5 5 5 5 5 5 5 5 5 5 5 6 6 5 5 5 5 5 6 5 5 6 5 5 5 5 6 5 5 5 6 6 5 6 6 5 5 5 5 6 5 5 5 5 5 5 5 6 5 6 5 6 5 5 6 6 5 5 5 6 5 6 5 5 5 5 5 5 5 5 5 6 5 5 5 5 5 6 5 5 5 5 5 5 5 5 5 5 5 5 6 5 5 5 5 5 5 5 5 5 6 5 5 5 5 5 5 5 5 6 6 6 5 5 5 6 5 5 6 5 5 5 5 5 5 6 5 5 5 6 6 5 6 5 5 5 5 6 6 5 5 6 5 5 6 5 5 5 5 5 5 5 6 5 6 5 6 6 5 5 5 5 5 5 5 5 6 5 5 5 5 5 6 5 5 5 5 5 5 5 5 5 5 5 5 5 5 5 5 5 5 5 5 5 5 5 5 5 5 5 5 5 5 5 5 5 5 5 5 5 5 5 5 5 5 5 5 5 5 5 5 5 5 5 5 5 5 5 5 5 5 5 5 5 5 5 5 6 5 5 5 5 5 5 5 5 5 5 5 5 5 5 5 5 5 5 5 5 5 5 5 5 5 5 5 5 5 5 6 5 5 5 6 6 6 5 5 5 5 5 5 5 6 6 5 5 5 6 5 6 5 5 5 5 5 5 6 5 5 6 5 5 5 5 5 5 5 5 5 5 5 5 6 5 5 5 5 5 5 5 6 5 6 6 5 5 5 5 6 5 6 6 5 5 5 5 6 5 5 6 6 5 5 5 5 6 5 5 6 5 5 5 5 5 5 5 5 5 5 6 5 6 5 5 5 5 6 5 5 5 5 5 6 5 5 5 5 5 5 5 5 5 5 5 5 5 5 5 6 5 5 5 6 6 5 5 5 5 5 5 5 5 5 5 5 5 5 6 5 6 5 5 5 6 5 5 5 6 5 5 5 5 6 5 5 5 5 5 6 5 5 5 5 5 5 6 5 5 5 5 5 5 5 5 5 5 6 6 5 6 5 5 5 5 6 5 5 6 5 5 6 5 5 5 6 6 5 6 6 5 5 5 5 5 6 5 5 6 5 5 5 6 5 6 5 5 5 5 5 5 5 6 5 5 5 5 5 5 5 5 5 5 5 5 6 5 5 5 5 5 6 5 5 6 5 6 5 5 6 5 6 5 5 6 6 5 5 5 6 6 5 5 6 5 5 5 5 5 6 6 6 6 6 6 5 5 5 6 5 6 6 6 5 5 5 6 5 5 6 5 5 5 6 5 5 6 5 5 5 5 6 6 5 5 5 5 5 6 5 5 5 5 5 5 6 6 5 5 6 5 6 5 5 5 5 5 5 5 5 5 5 5 5 5 5 5 5 5 5 5 6 5 5 5 5 6 5 6 5 5 5 6 5 5 5 6 5 5 5 5 5 5 5 5 5 5 5 5 5 5 6 6 5 5 5 5 5 5 5 5 5 5 5 5 5 5 5 6 5 5 5 5 6 5 6 5 5 5 5 5 5 5 5 5 5 5 5 5 5 5 5 5 5 5 5 5 5 5 5 5 5 5 5 5 5 5 5 5 5 6 6 5 5 6 5 6 5 6 6 5 5 5 5 5 5 6 6 5 5 6 5 5 5 6 5 5 5 5 5 5 5 6 5 5 5 5 5 5 6 5 5 5 5 5 5 5 5 5 5 5 6 5 5 5 5 5 5 5 5 5 6 5 5 5 5 6 5 5 5 5 5 6 5 5 5 5 5 5 5 5 5 5 5 5 5 5 5 5 5 5 5 5 5 5 5 5 5 6 5 5 5 5 5 5 5 5 5 5 5 5 5 5 6 5 5 5 5 5 5 6 5 6 5 5 5 5 6 5 6 5 5 5 5 5 5 5 6 5 5 5 5 5 5 5 5 6 5 5 5 5 5 5 5 6 5 5 5 5 5 5 5 5 5 5 5 5 5 5 6 5 5 5 5 6 6 5 5 5 5 5 5 5 6 5 6 5 6 5 5 6 6 5 6 5 5 5 5 5 5 5 5 6 5 6 5 5 5 5 6 5 5 6 5 5 5 5 5 6 5 5 5 5 5 5 5 5 5 5 5 5 5 6 5 5 6 5 5 5 6 5 5 5 5 5 6 5 5 6 5 6 5 5 5 5 5 5 5 6 5 5 6 5 5 5 6 5 5 5 5 5 5 5 5 5 5 6 5 5 5 6 5 5 5 5 6 5 5 5 5 5 5 5 5 5 5 5 5 5 5 5 5 5 5 5 5 6 5 5 5 6 5 5 5 5 5 5 5 5 5 6 5 5 5 5 5 6 5 5 5 5 5 5 5 5 5 5 5 5 5 5 5 5 5 5 5 5 5 6 5 5 5 5 5 6 6 5 5 5 5 6 5 5 5 5 5 5 5 5 6 5 5 5 5 5 5 5 6 6 5 5 5 5 5 6 5 5 5 5 5 5 5 5 5 5 6 5 6 5 6 5 6 5 5 5 5 6 5 5 5 5 5 5 5 5 5 5 5 5 5 5 5 5 5 5 5 5 6 5 5 6 5 5 5 5 5 5 5 5 5 6 5 5 6 5 5 5 5 6 5 5 5 5 5 5 5 5 5 5 5 5 5 5 5 5 5 5 5 5 5 5 6 5 5 5 5 5 5 5 5 5 5 5 5 5 5 5 5 5 5 5 5 5 5 5 5 5 6 5 5 5 5 5 5 5 5 5 5 5 5 5 5 5 6 5 5 5 5 5 5 5 5 5 5 5 5 6 5 5 5 5 6 6 5 5 5 6 5 6 5 5 5 6 5 5 5 5 6 6 5 5 6 5 5 5 5 5 5 5 5 6 5 5 5 5 5 5 5 5 5 5 5 5 5 6 5 6 5 5 5 5 5 5 5 6 5 5 5 5 5 6 6 5 5 5 5 5 5 5 6 5 5 5 5 5 6 5 5 5 5 5 6 5 5 5 5 5 6 5 5 5 5 5 5 5 5 5 5 5 5 5 5 5 5 5 5 5 5 5 5 5 5 5 6 5 5 5 5 5 5 5 5 5 5 5 5 6 5 6 6 5 5 5 5 5 6 5 5 5 5 5 5 6 5 6 5 5 5 5 5 5 5 5 5 5 5 5 5 5 5 6 5 6 5 5 5 5 5 6 5 5 5 5 5 5 5 5 5 5 5 5 5 5 5 5 5 5 5 5 5 6 5 5 5 5 5 5 5 5 5 6 5 5 5 5 5 6 5 5 5 5 6 5 5 5 5 5 6 5 5 5 5 5 6 5 5 5 5 5 5 5 5 5 5 5 6 5 5 5 6 5 5 5 5 5 6 5 5 5 6 6 5 5 5 5 5 5 5 6 5 5 5 5 5 5 5 6 5 5 5 5 5 6 5 5 5 5 5 5 5 5 5 5 5 5 5 6 5 5 5 5 5 5 5 5 5 5 5 6 5 5 5 5 5 5 5 5 5 5 5 5 5 5 5 5 5 5 5 5 5 5 5 5 6 5 6 5 6 5 5 5 5 6 5 6 5 5 6 5 5 5 5 5 5 5 5 5 5 5 5 5 5 5 5 5 5 6 5 5 5 5 5 5 5 5 5 5 5 5 5 5 6 5 5 5 5 5 5 5 6 6 5 5 5 5 5 6 5 5 5 5 5 5 5 5 5 5 5 5 5 5 5 6 5 5 5 5 5 5 5 5 5 5 6 5 5 5 5 6 5 5 5 5 5 5 5 5 5 5 5 5 5 5 5 5 5 5 5 6 5 5 5 6 5 5 5 6 5 5 5 5 5 5 5 5 5 5 5 5 5 5 5 6 5 5 5 5 5 5 5 6 5 5 5 5 5 5 5 5 5 5 5 5 5 5 5 5 5 5 5 5 5 5 5 5 5 5 5 5 5 5 6 5 6 5 5 5 5 5 5 5 5 6 5 5 5 5 5 5 5 5 5 5 5 6 5 5 5 5 5 5 5 6 5 5 5 5 5 5 5 6 5 5 5 5 5 6 5 5 5 6 5 5 5 5 5 5 5 5 5 5 5 5 5 5 5 5 5 6 5 5 6 5 5 5 6 5 5 5 5 5 5 6 5 5 6 5 5 5 5 5 5 6 5 5 5 6 5 5 5 5 5 5 5 5 5 6 5 5 6 5 5 5 5 5 5 5 5 5 6 6 5 5 5 5 5 5 5 6 6 5 5 5 5 5 5 5 5 5 5 5 5 5 5 5 5 5 5 6 5 5 5 5 5 5 5 5 5 5 5 5 5 5 5 5 5 6 5 5 6 5 5 5 5 5 5 5 5 5 5 5 5 6 5 5 5 5 5 6 5 5 5 5 5 5 5 5 5 5 5 5 5 5 5 5 5 5 5 5 5 5 5 5 5 5 5 6 5 5 5 5 5 6 5 5 5 5 5 5 5 5 6 5 5 5 5 5 5 5 6 5 5 5 5 5 5 5 5 5 6 5 5 5 5 5 5 6 5 5 5 5 5 5 5 5 5 6 5 5 5 6 5 6 5 5 5 5 5 6 5 5 6 5 6 5 5 5 5 5 5 6 6 5 5 6 5 6 5 5 5 5 5 5 5 5 5 5 5 5 5 6 5 6 5 5 5 6 5 5 5 5 6 5 5 5 5 5 5 5 5 5 5 5 6 5 5 5 5 5 5 6 5 5 5 6 5 5 6 5 5 5 5 5 5 5 5 5 5 5 5 5 5 5 5 5 5 5 5 5 5 5 5 5 5 5 6 5 5 5 5 5 6 5 5 5 5 5 5 5 5 5 5 5 5 5 5 6 5 5 5 5 5 5 6 5 5 5 6 5 5 5 5 5 5 5 5 5 5 5 5 5 5 5 5 5 5 5 5 5 5 5 5 5 6 5 5 5 5 5 5 5 5 6 6 5 5 5 5 5 5 5 5 5 6 5 5 6 5 6 5 6 5 5 5 5 5 5 6 5 5 5 5 6 5 5 6 5 5 5 5 5 6 5 5 5 5 5 5 5 5 5 5 5 5 5 5 6 6 5 5 5 5 5 5 5 5 5 5 5 5 6 5 5 6 5 5 6 6 5 5 5 6 5 5 5 5 6 6 5 5 6 5 5 5 6 5 5 5 5 5 5 5 5 6 5 5 5 5 5 6 5 5 5 6 5 5 5 6 5 5 5 5 6 5 5 6 6 5 5 5 5 5 5 6 5 5 5 5 5 5 5 5 5 5 5 5 5 5 5 5 5 6 5 5 5 5 5 5 5 6 5 5 5 6 5 5 6 5 5 5 5 5 6 6 5 5 5 5 5 6 5 5 5 5 6 5 6 5 5 5 5 5 5 5 6 5 5 6 5 5 5 6 5 5 6 6 5 5 5 5 5 5 5 6 5 5 6 5 5 5 6 5 5 5 5 5 5 5 5 5 5 5 5 5 5 5 5 5 5 5 5 5 5 5 5 5 5 5 5 5 5 5 5 5 5 5 5 5 5 5 5 5 5 5 5 5 5 5 5 5 5 5 5 5 5 5 5 5 5 5 5 5 5 5 5 5 5 5 5 5 5 5 5 5 5 5 5 5 5 5 5 5 5 6 5 6 5 5 5 6 5 5 5 5 5 5 5 5 5 5 5 5 5 5 6 5 5 5 5 5 6 6 6 5 5 5 5 5 6 6 5 5 5 5 6 5 5 5 5 5 5 5 5 6 5 6 5 5 5 5 5 5 5 5 5 5 5 5 5 5 5 5 5 5 5 5 5 5 5 5 5 5 5 5 5 5 5 5 5 5 5 5 5 5 6 5 5 5 5 5 5 5 6 5 5 5 5 5 5 5 5 6 5 5 5 6 5 5 5 5 5 5 5 5 5 5 5 5 5 5 5 5 5 5 5 5 5 5 5 5 5 6 5 5 6 5 5 5 5 5 5 5 5 5 5 5 5 6 5 5 5 5 5 6 5 5 5 5 6 5 6 5 5 5 6 5 5 5 6 5 6 5 5 6 6 6 5 5 5 6 5 5 6 6 5 5 5 5 5 5 5 5 5 5 5 5 5 5 5 5 6 5 5 6 5 5 5 5 5 5 5 5 5 6 5 5 6 5 5 6 5 5 5 5 5 5 5 5 5 5 5 5 5 5 5 6 5 5 5 6 5 5 5 6 5 6 5 5 5 5 5 5 5 5 6 5 5 5 5 5 5 5 5 5 5 5 5 5 6 5 5 5 5 5 5 5 5 6 5 5 5 5 5 6 5 5 5 5 5 5 5 6 5 6 5 5 5 5 5 5 5 5 5 5 5 5 5 6 5 5 5 5 5 5 5 6 5 5 5 5 5 5 5 5 5 5 5 5 5 5 5 5 5 5 5 5 5 5 5 5 5 5 5 5 5 6 5 5 5 6 5 6 6 5 5 6 6 5 5 5 5 5 6 5 5 5 5 5 5 5 5 5 5 6 5 6 5 5 5 5 6 5 5 5 5 5 5 5 5 5 5 6 5 5 5 5 5 5 5 5 5 5 5 5 6 5 5 5 5 6 5 5 5 5 5 5 6 5 5 5 6 5 6 5 5 5 5 6 5 5 5 5 5 5 5 5 5 5 5 5 5 5 5 5 5 5 5 5 5 5 5 5 5 5 5 5 5 5 5 5 5 5 5 5 5 5 6 5 5 5 5 6 5 5 5 5 5 5 5 5 5 5 6 5 5 5 5 5 5 5 5 5 5 5 5 6 5 5 5 6 5 5 5 5 5 5 5 6 5 5 5 5 5 6 5 5 5 5 5 5 5 5 5 5 5 5 5 5 5 5 5 5 5 5 5 5 5 5 5 5 5 5 5 5 5 5 5 5 5 5 5 6 5 5 5 5 5 5 5 5 5 5 5 5 5 5 5 5 6 5 5 6 5 5 5 5 5 5 5 5 5 5 5 5 5 5 5 5 5 5 5 5 5 5 5 5 5 5 5 5 5 5 5 5 5 5 5 5 5 5 5 5 5 5 6 5 5 5 6 5 5 5 5 6 5 5 5 6 5 5 5 5 5 5 5 5 5 5 5 5 5 5 6 5 5 5 5 6 6 5 5 5 5 5 5 5 5 5 6 5 6 5 5 5 5 5 5 5 5 5 5 5 5 5 5 6 5 5 5 5 5 5 5 5 5 5 5 5 5 5 6 5 5 5 5 6 5 5 5 5 6 5 6 5 5 5 6 5 5 6 5 5 5 5 6 5 5 5 5 5 6 5 5 6 5 5 5 5 6 5 5 5 5 5 5 5 6 5 5 5 5 6 5 5 6 5 5 6 5 6 5 5 5 5 6 5 5 5 6 5 5 5 5 5 5 5 6 5 5 5 5 5 5 5 5 5 5 5 5 5 5 5 5 5 6 5 5 5 6 5 5 5 5 5 5 5 5 5 5 5 5 5 5 5 5 5 5 5 5 5 5 5 5 5 5 5 5 5 5 5 5 5 5 5 5 5 6 5 5 5 6 5 5 6 6 5 5 5 5 5 5 5 5 5 5 6 5 5 5 5 5 5 5 5 5 5 5 5 5 5 5 6 5 5 5 5 5 5 5 5 5 5 5 5 5 6 5 5 5 5 5 6 5 5 5 5 6 5 5 5 5 5 6 5 5 5 5 5 5 5 5 5 5 6 5 6 5 5 5 5 6 5 6 5 5 5 5 5 5 6 6 5 5 6 5 5 5 5 5 5 5 5 6 5 5 5 5 5 5 5 5 5 5 5 5 5 5 5 5 6 5 6 5 5 5 5 5 5 5 5 5 5 5 5 5 5 5 5 5 5 5 5 5 6 5 5 5 5 5 5 5 5 5 5 5 5 5 5 5 5 5 5 5 5 5 5 5 5 5 5 5 5 5 5 5 5 5 5 6 5 5 5 5 5 5 5 5 5 5 6 5 5 5 6 5 6 5 5 5 5 5 5 5 5 5 5 6 5 5 6 5 5 5 5 5 5 5 5 5 5 5 5 5 5 5 5 5 5 5 5 5 5 5 5 5 5 5 5 5 5 5 5 5 5 5 5 5 5 5 5 5 5 5 5 5 5 5 5 5 5 5 5 5 5 5 5 5 5 5 5 6 5 5 5 5 5 5 6 6 5 5 5 5 5 5 5 5 5 6 5 5 5 5 5 5 5 5 5 5 5 5 5 5 5 5 5 5 5 5 5 5 5 5 5 5 5 5 5 5 5 5 5 5 5 5 5 5 5 5 5 5 5 5 5 5 5 5 5 5 5 5 5 5 5 5 5 5 6 5 6 5 5 5 5 5 5 5 5 6 5 5 5 5 5 5 5 5 5 6 5 5 5 5 5 5 5 6 5 5 5 5 5 5 5 5 5 5 5 5 6 5 5 6 5 5 5 5 5 5 5 5 5 5 5 5 5 5 5 5 5 5 5 5 5 5 5 5 5 5 5 5 5 5 5 5 5 5 5 5 5 5 5 5 5 5 5 5 5 5 5 6 5 5 5 5 6 5 5 6 5 5 5 5 5 6 5 5 5 5 6 5 5 5 5 6 5 5 6 5 5 5 6 5 5 5 5 5 5 5 5 5 5 5 5 5 5 5 5 5 5 5 5 5 5 5 5 5 5 5 6 6 5 6 5 5 5 6 5 5 5 5 5 5 5 5 5 6 5 6 5 5 6 5 5 6 5 5 5 5 5 5 5 5 5 5 5 5 5 5 5 5 5 5 5 5 5 5 5 5 5 6 5 5 5 5 5 6 5 5 5 5 5 5 5 6 6 5 5 5 6 5 5 5 5 6 5 5 5 6 5 5 5 5 5 5 5 5 5 6 5 5 5 5 5 5 5 5 5 6 5 5 5 6 5 5 5 5 6 5 5 6 5 5 5 5 5 5 5 6 5 5 5 5 5 5 6 5 5 5 5 5 5 6 5 5 5 5 5 5 5 5 6 5 5 5 6 5 5 5 5 5 5 5 5 5 5 5 5 5 5 5 5 5 5 5 5 5 5 5 5 5 5 5 5 5 5 5 5 5 5 5 5 5 5 5 5 5 5 5 5 5 5 5 5 5 5 5 5 5 6 5 5 6 5 6 5 5 6 5 5 5 5 5 5 5 5 5 6 5 5 5 5 5 5 6 5 5 5 5 5 5 6 5 6 5 5 6 5 5 6 5 5 6 5 5 5 5 5 5 5 5 5 5 5 5 5 6 5 6 5 5 6 5 5 5 5 5 6 5 5 5 5 5 5 5 5 5 5 5 5 5 5 5 6 5 5 6 5 5 5 5 6 5 5 5 5 5 5 5 5 5 6 5 5 5 5 5 5 5 5 5 5 6 5 5 5 5 5 6 6 5 5 5 5 5 5 5 6 6 5 5 5 5 5 5 5 5 6 5 5 6 5 6 5 5 6 5 5 5 5 5 5 6 5 5 5 5 5 5 5 5 5 5 6 5 5 5 5 5 5 6 6 5 5 5 5 6 5 5 5 5 5 5 5 5 5 5 5 5 5 5 5 5 5 5 6 5 5 5 5 6 5 5 5 5 5 5 5 5 5 5 5 5 5 6 5 5 5 5 5 5 5 5 6 5 5 5 6 5 5 5 5 5 6 5 6 5 5 5 5 5 5 5 5 5 5 5 5 5 5 6 5 5 5 5 5 5 5 5 5 5 6 5 5 5 5 5 5 5 6 6 5 5 5 5 5 5 6 5 5 5 5 5 5 5 5 5 5 6 5 5 5 5 6 6 5 6 5 5 5 5 5 5 5 6 5 6 5 5 5 5 5 5 5 5 5 6 5 5 5 5 5 5 5 5 5 5 5 5 5 5 5 5 5 5 5 5 5 5 5 5 6 5 5 5 5 5 5 5 5 5 5 5 5 5 5 5 5 5 5 5 5 5 5 5 5 5 5 5 5 5 5 5 5 5 5 5 5 5 5 5 5 5 5 5 5 5 5 5 6 5 5 5 5 6 5 5 5 5 5 5 5 6 5 5 6 5 5 5 5 5 5 5 5 5 5 5 5 5 5 5 6 6 5 5 5 5 5 5 5 5 6 5 5 5 5 5 5 5 5 5 5 6 5 6 5 5 5 5 5 5 5 5 5 5 5 5 5 5 5 5 5 5 5 5 5 5 5 5 5 5 5 5 5 5 5 5 5 5 5 5 5 5 5 5 5 5 5 5 5 5 5 5 5 5 5 5 5 5 5 5 5 5 5 5 5 6 5 5 6 5 5 5 5 5 5 5 5 5 6 5 5 5 5 5 5 5 5 5 5 5 5 6 5 5 5 6 5 5 5 5 5 5 5 5 5 5 5 5 5 5 5 5 5 5 5 5 5 6 5 5 5 6 5 5 5 5 5 5 6 6 5 5 5 5 5 5 5 5 5 5 5 5 5 5 5 5 5 5 5 5 5 5 5 5 5 5 5 5 5 5 5 5 5 5 5 6 5 5 5 5 5 5 5 5 5 5 5 5 5 5 5 5 5 5 5 5 5 5 5 5 6 5 5 5 5 5 5 5 5 5 5 5 5 5 6 6 5 5 5 6 6 5 5 5 5 5 5 5 5 5 5 5 5 5 6 5 5 5 5 6 5 5 5 5 5 6 5 5 5 5 5 5 5 5 6 5 5 5 6 5 5 6 5 5 6 5 5 5 6 5 5 6 5 5 5 5 5 5 6 5 5 5 5 6 5 5 5 5 5 5 5 5 5 5 5 6 5 5 5 5 5 5 5 5 5 5 5 5 5 5 5 5 5 5 5 5 5 5 5 5 6 5 6 6 5 5 5 6 5 5 5 5 6 5 5 5 5 5 5 5 5 6 5 5 5 6 5 5 5 5 5 5 5 5 5 5 5 5 5 5 5 5 5 5 5 5 6 5 5 5 5 5 5 5 5 5 5 5 5 6 5 5 5 5 5 5 6 5 6 6 5 5 5 5 5 5 5 5 5 5 6 5 5 5 5 6 5 5 5 6 5 5 6 5 5 5 5 5 5 5 5 5 5 6 5 6 5 5 5 6 5 6 5 5 5 5 6 6 6 5 5 5 5 5 5 6 5 5 5 5 5 5 5 6 5 5 5 5 5 5 5 5 5 5 5 5 5 5 6 5 6 5 5 5 5 5 5 6 5 5 5 5 6 5 5 6 5 5 5 6 5 6 5 5 6 5 5 5 5 5 6 5 6 5 5 5 5 5 5 5 5 5 5 6 5 6 5 5 5 5 5 6 6 5 6 5 5 5 6 6 6 6 5 5 5 6 5 6 5 6 6 5 5 5 6 5 5 5 6 6 5 6 5 5 6 5 5 5 5 5 5 5 5 5 5 5 5 5 5 5 5 5 5 5 5 5 6 5 5 5 5 6 5 6 5 6 5 5 5 5 5 6 6 5 6 5 5 6 5 5 5 5 5 6 5 5 6 5 5 5 6 6 5 5 5 6 5 6 6 5 5 6 5 6 5 5 6 5 6 5 5 5 5 5 5 6 5 5 5 6 5 5 5 5 5 5 5 5 5 5 5 5 5 5 5 5 5 5 5 5 5 5 5 5 5 5 5 5 6 5 5 5 6 5 6 5 5 6 5 5 5 5 5 5 5 5 5 5 6 5 5 5 5 5 5 5 5 5 5 5 5 5 5 6 6 5 5 5 5 5 6 6 5 5 6 6 5 5 5 5 5 5 5 5 5 5 5 5 5 5 5 5 5 5 5 6 5 5 5 5 5 5 5 5 6 5 5 5 5 5 5 5 5 5 5 5 6 6 5 5 5 5 5 5 5 5 5 5 5 5 5 5 5 5 5 5 5 5 5 5 5 5 5 5 5 5 5 5 5 5 5 6 5 5 6 5 5 5 5 5 5 5 5 5 5 5 5 5 5 5 5 5 5 5 5 5 5 5 5 5 5 5 5 5 5 5 5 5 5 5 6 5 5 5 5 5 5 5 5 5 5 6 5 5 5 5 5 5 5 6 5 5 5 5 5 5 5 5 5 5 5 5 5 5 5 5 5 5 5 5 5 5 5 5 5 5 5 5 5 5 5 5 5 5 5 5 5 5 5 6 5 5 5 5 6 5 5 5 5 5 5 5 5 5 5 5 5 5 6 5 5 5 5 5 5 6 5 5 6 6 5 5 6 6 5 5 5 5 6 6 5 5 5 5 6 6 5 5 5 5 5 5 5 6 5 5 5 5 5 5 5 5 5 6 5 5 5 6 5 6 5 6 5 5 6 5 5 6 5 5 5 5 6 5 5 5 5 5 5 5 5 6 5 5 5 5 5 5 6 5 5 5 5 5 5 5 5 5 5 5 6 5 5 5 5 5 5 5 5 5 5 5 5 5 5 6 5 5 5 5 5 5 6 5 5 6 5 5 5 5 5 5 5 5 5 5 5 5 5 5 5 5 5 5 6 5 5 5 5 5 5 5 6 5 5 5 5 5 5 5 5 5 5 6 5 5 5 6 5 5 6 5 6 5 5 5 5 6 6 5 5 5 5 5 6 6 5 6 6 5 6 6 5 5 5 6 5 5 5 5 5 5 6 5 5 6 6 5 5 5 5 5 5 5 5 5 5 6 6 5 5 5 6 5 5 5 6 5 5 5 5 5 5 5 5 5 5 5 5 5 5 5 5 5 5 6 5 5 6 5 5 6 6 5 5 5 6 5 5 5 5 6 5 5 5 5 5 5 5 5 5 6 5 5 6 5 5 5 5 5 5 5 5 5 6 6 5 5 5 5 5 5 6 5 5 6 5 5 5 5 5 5 5 5 5 5 5 6 5 5 5 5 5 5 6 5 5 5 5 5 5 5 5 6 5 6 5 5 5 5 6 6 5 5 6 5 5 5 5 5 5 5 5 5 5 5 5 5 5 5 5 5 5 5 5 6 5 6 5 5 5 5 5 5 5 6 5 5 5 5 5 5 5 5 5 5 5 5 5 5 5 5 5 5 5 5 6 6 5 5 5 5 5 5 5 6 5 5 6 5 6 5 5 6 6 5 5 5 5 6 5 5 6 5 5 5 5 6 5 6 5 5 5 5 5 5 5 5 5 5 5 5 5 5 5 5 5 6 5 5 5 6 5 5 5 6 5 6 6 5 5 5 5 6 5 5 5 6 5 6 6 6 5 5 5 5 5 6 5 5 5 5 5 5 5 5 5 5 5 5 6 5 5 5 5 6 5 5 5 5 5 5 5 5 5 5 5 5 5 5 5 5 5 6 5 5 5 5 5 5 5 5 6 5 6 5 5 5 5 5 6 5 5 5 5 6 5 6 5 6 5 6 5 5 6 5 5 5 5 5 5 5 5 5 5 5 5 5 5 5 5 5 5 6 5 5 5 5 5 5 5 6 5 5 5 5 5 6 6 5 5 5 5 5 5 5 5 5 5 5 5 5 5 5 5 6 5 5 5 5 5 5 5 5 6 5 5 6 5 5 5 5 5 5 5 5 6 5 5 5 6 5 5 5 5 6 5 5 5 5 5 5 5 5 5 5 5 5 5 5 5 5 5 5 5 5 6 5 5 5 5 5 5 5 6 5 5 5 5 5 6 5 5 5 5 5 5 5 5 5 5 5 5 5 5 5 5 5 5 5 5 5 5 5 5 5 5 6 5 5 6 6 5 5 6 5 5 5 5 6 5 5 5 5 5 5 5 5 6 6 5 5 5 5 5 6 5 5 5 6 5 5 6 5 6 5 5 5 5 5 6 5 6 5 5 5 5 5 5 5 5 5 5 5 5 5 5 5 5 5 5 5 5 5 5 6 5 5 5 5 5 6 5 5 5 5 6 5 5 5 5 5 5 5 5 5 6 5 5 5 5 6 6 5 5 5 5 5 5 5 6 6 5 5 5 5 5 6 6 6 5 6 5 5 6 5 5 5 6 5 5 6 5 5 5 6 5 5 5 5 6 5 5 6 5 5 5 5 5 5 6 5 5 5 6 5 5 5 5 5 5 5 5 5 5 5 6 5 5 5 5 5 5 5 5 5 5 5 5 5 5 5 5 5 5 5 5 5 5 5 5 5 5 6 6 5 5 5 6 5 6 5 5 5 5 5 5 5 6 5 5 5 5 5 5 5 5 5 5 5 5 5 5 5 5 5 5 6 6 5 6 5 5 5 5 5 6 5 5 6 5 5 5 5 5 5 5 5 5 6 5 5 5 5 5 5 5 6 5 5 6 5 6 5 5 5 6 5 5 6 5 5 5 5 5 5 5 6 5 5 5 5 6 5 5 5 5 6 5 5 6 5 5 5 5 5 5 5 5 5 6 5 5 5 6 5 5 5 5 5 5 5 6 6 5 6 5 5 5 5 5 5 5 5 5 5 5 6 5 5 5 5 5 5 6 5 5 5 5 5 5 6 5 5 5 5 5 5 5 5 5 5 5 5 5 5 5 5 5 5 5 5 5 5 5 5 5 5 5 5 6 5 5 5 5 6 5 5 5 5 5 6 5 5 5 5 5 5 5 6 5 5 5 5 5 5 5 5 5 5 5 5 5 5 5 6 5 5 6 5 5 5 6 5 5 6 5 6 5 5 5 5 5 6 5 5 5 5 6 5 5 6 6 5 5 6 6 6 5 5 5 5 6 5 6 6 5 6 5 5 5 5 5 5 5 5 5 5 6 5 5 5 5 5 5 5 5 6 6 5 6 5 5 5 5 6 5 5 6 5 5 5 5 6 5 6 5 5 6 5 5 5 5 5 5 6 5 5 5 6 6 5 5 5 5 5 5 5 5 5 5 5 5 5 5 5 5 5 6 5 6 5 5 5 5 5 5 5 5 5 5 5 5 5 5 5 6 5 5 6 5 5 5 5 5 5 5 5 6 6 5 5 5 5 5 5 5 5 5 5 5 5 5 5 5 5 5 5 6 5 6 5 5 5 5 6 5 6 5 5 5 5 5 5 5 5 5 6 5 5 5 5 5 5 5 5 5 5 5 5 5 6 5 6 5 6 5 6 5 5 5 5 5 6 5 5 5 5 5 5 6 5 5 5 5 5 5 5 5 6 6 5 5 5 6 5 5 5 5 5 6 5 5 5 6 5 5 5 5 6 5 5 5 5 5 5 5 5 5 5 5 5 5 5 5 5 5 5 5 5 5 5 5 5 5 5 5 6 5 5 5 6 5 5 5 6 5 5 5 5 5 5 6 5 5 5 5 5 5 5 5 6 5 5 5 5 5 5 6 5 5 6 5 5 5 5 5 5 5 5 6 5 6 6 5 5 5 5 5 5 5 5 5 5 5 5 5 5 5 5 5 5 5 5 5 5 5 5 5 6 5 5 5 6 6 5 5 5 5 6 5 6 6 5 5 6 6 
</DataArray>
<DataArray type="Float64" Name="stress" NumberOfComponents="9" format="ascii">
-276.25794781284168 36.737429497472476 0 36.737429497472476 3689.7905306019384 0 0 0 0 0.060859054990605177 -742.99851069563738 0 -742.99851069563738 3914.2921245609177 0 0 0 0 -307.98688940487773 -517.82621685032791 0 -517.82621685032791 4899.1102162347088 0 0 0 0 -166.78196188272724 -1206.6009255064637 0 -1206.6009255064637 5496.7265048515037 0 0 0 0 -237.22959530883145 -788.38831357661547 0 -788.38831357661547 3917.1184607157124 0 0 0 0 -31.049123044371981 -1145.0271981175829 0 -1145.0271981175829 4396.5081487735297 0 0 0 0 -5.1123459501883346 -0.51607820430149332 0 -0.51607820430149332 8.3405041871756964 0 0 0 0 275.23528651414472 -1814.9420530373754 0 -1814.9420530373754 5251.4148018769338 0 0 0 0 339.9323086885056 -1099.7587243127637 0 -1099.7587243127637 3775.3892568129086 0 0 0 0 465.723093895685 -1161.3024671940948 0 -1161.3024671940948 4067.682987335726 0 0 0 0 67.546253636315214 -979.28712583978631 0 -979.28712583978631 4419.8260582782532 0 0 0 0 442.54043326049396 -1633.5169099488558 0 -1633.5169099488558 4824.5199938257865 0 0 0 0 -12.54118703670269 1.2502030284935586 0 1.2502030284935586 13.560509161028705 0 0 0 0 398.6661258241682 -1260.1514412198012 0 -1260.1514412198012 4878.9453753282723 0 0 0 0 253.66616838320451 -1690.0706417985994 0 -1690.0706417985994 5891.7141439111583 0 0 0 0 -6.789156822746123 0.9392017134835271 0 0.9392017134835271 10.031476699568742 0 0 0 0 151.62068937242429 -903.30363405234675 0 -903.30363405234675 3846.8307434651797 0 0 0 0 -443.26886497623104 -506.98341567374882 0 -506.98341567374882 3582.8272821915598 0 0 0 0 118.63642671354955 -1304.0183101949515 0 -1304.0183101949515 4427.8225609961009 0 0 0 0 -13.608306182766349 1.9766837923275773 0 1.9766837923275773 14.227203999466951 0 0 0 0 -847.36583718568079 -995.25584427772264 0 -995.25584427772264 5501.9878375710468 0 0 0 0 -865.7883860057234 -810.13858414228889 0 -810.13858414228889 4181.1556917298294 0 0 0 0 -686.24181757147107 -1175.7364234583074 0 -1175.7364234583074 4532.4298603506322 0 0 0 0 -110.52981509662277 -1584.0536966575746 0 -1584.0536966575746 4351.8354145653138 0 0 0 0 -375.3616648676599 -1253.0326709379442 0 -1253.0326709379442 3950.8102809554548 0 0 0 0 -340.55509707430838 -1119.3946278544754 0 -1119.3946278544754 4263.3212454944805 0 0 0 0 -171.03044303743081 -1251.1676814325474 0 -1251.1676814325474 3946.1602362108169 0 0 0 0 -215.76618442332733 -1129.5254917526872 0 -1129.5254917526872 3628.726931226498 0 0 0 0 -56.485715967136002 -900.94061582178983 0 -900.94061582178983 3523.2308299851939 0 0 0 0 144.08711005445639 -1539.6210349134781 0 -1539.6210349134781 3433.9273051767959 0 0 0 0 107.49919186358693 -1072.5562034302129 0 -1072.5562034302129 3217.6923219482633 0 0 0 0 190.8483197338021 -1004.9332838239934 0 -1004.9332838239934 4042.126453600431 0 0 0 0 -400.37314182860098 -990.32705556374276 0 -990.32705556374276 4011.6170015925163 0 0 0 0 -148.2063868071391 -903.0441609454283 0 -903.0441609454283 3974.8063487112158 0 0 0 0 27.650104765661126 -886.70333152901731 0 -886.70333152901731 3619.3475844314671 0 0 0 0 -24.520847663471159 -983.98532364734274 0 -983.98532364734274 3555.0722189918306 0 0 0 0 -63.335526255634704 -919.84834245334787 0 -919.84834245334787 4087.5355357882145 0 0 0 0 133.00319466380915 -852.75435628152627 0 -852.75435628152627 3118.0431126592594 0 0 0 0 151.13870259154874 -887.23145287409716 0 -887.23145287409716 2922.5388787415286 0 0 0 0 33.427286219778125 -655.94642116190516 0 -655.94642116190516 3287.946331232597 0 0 0 0 -90.055354455797897 -556.30213401592482 0 -556.30213401592482 2845.9007558503799 0 0 0 0 114.00317631387634 -674.96404995879857 0 -674.96404995879857 2841.3505710051977 0 0 0 0 -106.91792735177569 -711.15258722744329 0 -711.15258722744329 3088.9475969787891 0 0 0 0 315.04442506414767 -988.71773691015551 0 -988.71773691015551 2141.0257503619941 0 0 0 0 281.02364746672345 -1187.7477384395461 0 -1187.7477384395461 2730.6339048623922 0 0 0 0 315.15922852007111 -817.88635078234074 0 -817.88635078234074 2730.7526460461841 0 0 0 0 224.48101231167152 -771.77341110332054 0 -771.77341110332054 2793.5379486061574 0 0 0 0 20.085474303015872 -808.25508275233733 0 -808.25508275233733 3097.3520037829294 0 0 0 0 96.894382513461778 -1042.5250292353594 0 -1042.5250292353594 3137.3348938087292 0 0 0 0 431.43296141084613 -703.26761960640579 0 -703.26761960640579 2092.7363081992225 0 0 0 0 -17.207362852365595 -19.530951306515249 0 -19.530951306515249 11.506205036687902 0 0 0 0 347.34056699447365 -1364.0929150473094 0 -1364.0929150473094 2601.7937345832615 0 0 0 0 -9.7763520053282207 6.8862400026459056 0 6.8862400026459056 3.2028789132515953 0 0 0 0 -815.11455504726143 109.70876801581426 0 109.70876801581426 2804.8574641222367 0 0 0 0 -203.53395719870423 -192.11659208338097 0 -192.11659208338097 25.416480778687401 0 0 0 0 -66.091131463728715 3.7758745270933787 0 3.7758745270933787 149.99352392696892 0 0 0 0 -13.003274810744571 -16.760100963073629 0 -16.760100963073629 133.40059488280872 0 0 0 0 -57.831502141400051 -170.01754110000911 0 -170.01754110000911 -132.48041339404153 0 0 0 0 43.794244932094443 -274.20770225427987 0 -274.20770225427987 -35.061087593756383 0 0 0 0 -107.70369337300258 -233.54991136897297 0 -233.54991136897297 43.29892912946525 0 0 0 0 -99.40900916305759 -189.3001307394461 0 -189.3001307394461 57.445598626771243 0 0 0 0 163.79851595287982 -91.057649322436191 0 -91.057649322436191 329.60232042250482 0 0 0 0 -715.48291071369295 -181.78197810859274 0 -181.78197810859274 363.19059042241133 0 0 0 0 -63.208763526587063 -30.67361214520497 0 -30.67361214520497 120.58379534399137 0 0 0 0 0.76387646470172266 -19.205243451738159 0 -19.205243451738159 116.11599122361372 0 0 0 0 -28.003188272758962 -455.35312946296472 0 -455.35312946296472 -140.15906291294232 0 0 0 0 247.80278116012687 -23.217531469308597 0 -23.217531469308597 -747.42379693425028 0 0 0 0 -4.506756010732504 -6.0102444374609263 0 -6.0102444374609263 -2.609282836271916 0 0 0 0 -70.713870313146799 -54.256344096262183 0 -54.256344096262183 -70.105811684770742 0 0 0 0 338.39720575930914 -135.22525172967289 0 -135.22525172967289 -81.915176591894124 0 0 0 0 23.734125871456854 -180.8084424023109 0 -180.8084424023109 439.03019515925553 0 0 0 0 38.100080255559078 -387.6770624997298 0 -387.6770624997298 339.37445868758368 0 0 0 0 966.09683933523138 177.5406492586917 0 177.5406492586917 562.56852027522109 0 0 0 0 -146.14209460471784 -100.17660045581579 0 -100.17660045581579 407.21901621250436 0 0 0 0 91.327346822809886 -84.963625117616175 0 -84.963625117616175 -6.7953310343145858 0 0 0 0 -0.52312949628317362 -1.8363011555738069 0 -1.8363011555738069 3.1095538518042645 0 0 0 0 -57.777742437225243 541.42530966227059 0 541.42530966227059 1586.8303260900284 0 0 0 0 -163.42141446487949 -386.59592605702346 0 -386.59592605702346 279.96091514141153 0 0 0 0 -67.809453315087694 35.827859788412752 0 35.827859788412752 1362.6874450249597 0 0 0 0 256.6153930260225 -473.98489872948267 0 -473.98489872948267 1845.0182665085667 0 0 0 0 0.44774761610512748 -5.0000609485161078 0 -5.0000609485161078 6.7602689622258367 0 0 0 0 -24.221489174666658 547.74429629131919 0 547.74429629131919 1580.4075580735516 0 0 0 0 0.1831891486153836 298.57178151587141 0 298.57178151587141 1520.6160064618161 0 0 0 0 162.6564068112084 109.88260294143402 0 109.88260294143402 1178.915222546726 0 0 0 0 162.62790086254142 324.81265862474538 0 324.81265862474538 946.32798029581318 0 0 0 0 189.50296620495192 589.84601878249669 0 589.84601878249669 1140.5947728493629 0 0 0 0 -0.16715318829150672 -3.5429773615225315 0 -3.5429773615225315 9.4383517147972498 0 0 0 0 149.61755476977626 -235.19787025326514 0 -235.19787025326514 -296.40824855652318 0 0 0 0 448.5566431980194 1118.7794481905439 0 1118.7794481905439 2066.5707514216774 0 0 0 0 -0.25709488470926101 -151.5390358431323 0 -151.5390358431323 -204.18138965236722 0 0 0 0 0.52396639810581513 -3.2814915197949972 0 -3.2814915197949972 7.6011816247928152 0 0 0 0 6.3269589427214514 -582.2542416101204 0 -582.2542416101204 2291.6889733143471 0 0 0 0 -43.089084736726818 -301.59766111407225 0 -301.59766111407225 2342.3606585196976 0 0 0 0 -0.52398681322374718 -926.71466743975282 0 -926.71466743975282 3759.3924688046391 0 0 0 0 31.884675044971573 -699.59982332587242 0 -699.59982332587242 4290.6755570529858 0 0 0 0 347.7638006643781 -1050.6789697860731 0 -1050.6789697860731 3542.3271416599164 0 0 0 0 163.16119850170253 -1053.4519972096168 0 -1053.4519972096168 3457.5427116931387 0 0 0 0 21.625564753023355 -939.05921845461125 0 -939.05921845461125 4077.0499621945978 0 0 0 0 -150.63104949923809 -724.485479968047 0 -724.485479968047 3713.2171094795358 0 0 0 0 57.135515985688016 -968.68520544547755 0 -968.68520544547755 1927.0442893013242 0 0 0 0 -163.89945888114198 -526.92755152925383 0 -526.92755152925383 3237.0542847390752 0 0 0 0 2.3442606744997647 -974.82452532657771 0 -974.82452532657771 3548.5835999265009 0 0 0 0 58.597559129940464 -21.872430374605756 0 -21.872430374605756 11.260320702727768 0 0 0 0 -43.83349908324999 -84.268290100084414 0 -84.268290100084414 200.05966770319355 0 0 0 0 57.286655224171227 -124.09703335969243 0 -124.09703335969243 -25.495515681564029 0 0 0 0 65.367043656033275 -18.827487091286457 0 -18.827487091286457 16.267049119625881 0 0 0 0 -47.508575541890423 64.912580414100375 0 64.912580414100375 -37.254814190831439 0 0 0 0 -133.8660248342569 144.21344333793786 0 144.21344333793786 514.69441342450591 0 0 0 0 -2.9139170630987792 1.5216411172885671 0 1.5216411172885671 0.85455339504071048 0 0 0 0 90.858117214424965 10.361334260109288 0 10.361334260109288 -319.54623205070675 0 0 0 0 -48.068693502318027 -64.825036197345099 0 -64.825036197345099 -5.587171709004906 0 0 0 0 -313.17565483564567 599.2513070194218 0 599.2513070194218 4240.4086846227292 0 0 0 0 199.14733137708879 494.30418897986237 0 494.30418897986237 -112.85317602370196 0 0 0 0 -6.7673410743859064 4.3107501223660165 0 4.3107501223660165 1.929602007798124 0 0 0 0 147.96551683146026 -558.13679358334048 0 -558.13679358334048 188.5870664989634 0 0 0 0 -76.650176625950792 690.12232861165103 0 690.12232861165103 3820.0897205147194 0 0 0 0 -369.78261656794763 897.05643362089313 0 897.05643362089313 4144.8768858203257 0 0 0 0 -341.53467796798952 1110.8124171587674 0 1110.8124171587674 3680.6384175412095 0 0 0 0 1744.8165059432188 2439.7543734708706 0 2439.7543734708706 2172.2471066899598 0 0 0 0 -536.98898627897756 1972.0805168441439 0 1972.0805168441439 5490.6384635787244 0 0 0 0 -22.554988674181885 -9.9439942239700088 0 -9.9439942239700088 31.620220035866041 0 0 0 0 -49.169494321340608 -63.05128357616195 0 -63.05128357616195 221.70572688309767 0 0 0 0 735.00894540246532 -229.95918495559818 0 -229.95918495559818 228.89621187726152 0 0 0 0 1443.5512657853033 -2045.2953603931746 0 -2045.2953603931746 2826.3302637150882 0 0 0 0 0.1602603346069511 0.28263957101462722 0 0.28263957101462722 81.986029131524049 0 0 0 0 4860.2830072793886 -4195.1080407422742 0 -4195.1080407422742 2209.7273472486559 0 0 0 0 4.6802845022962369 0.11005377367366975 0 0.11005377367366975 32.192584184466682 0 0 0 0 10.714241900904653 -115.80420490897632 0 -115.80420490897632 242.45303174412402 0 0 0 0 29.309382503768482 -25.286446834957815 0 -25.286446834957815 11.563639436480983 0 0 0 0 1224.5627236631553 -1460.9181534061427 0 -1460.9181534061427 2110.0895740959022 0 0 0 0 -14.008403889478132 -89.05606306012578 0 -89.05606306012578 65.078419883619063 0 0 0 0 -26.789899676251007 -25.221759097077133 0 -25.221759097077133 154.08003018809836 0 0 0 0 -32.981391840479773 -294.74766076775995 0 -294.74766076775995 630.07993000421811 0 0 0 0 -226.80679424397658 -170.11832606457756 0 -170.11832606457756 232.15761879252386 0 0 0 0 58.516686711747752 -47.325041568947199 0 -47.325041568947199 128.94083961929573 0 0 0 0 10.288891114938451 -209.09389224827464 0 -209.09389224827464 -175.55651970359759 0 0 0 0 -89.769495133690725 -4.7577564710954903 0 -4.7577564710954903 227.82451149295957 0 0 0 0 27.058327559236204 -50.029031389341981 0 -50.029031389341981 173.59348752507503 0 0 0 0 791.6250071960219 -3242.0075632938097 0 -3242.0075632938097 5493.5774996872642 0 0 0 0 17.518723256244336 -11.387915049648768 0 -11.387915049648768 -8.9904883752954561 0 0 0 0 69.707180078548845 -128.3598961156822 0 -128.3598961156822 250.56232236990036 0 0 0 0 77.981192098448446 -102.90165222649375 0 -102.90165222649375 195.91626934564556 0 0 0 0 811.42613969299487 -1960.5491772232867 0 -1960.5491772232867 3765.189667694227 0 0 0 0 842.0631869861387 -2391.4672949586529 0 -2391.4672949586529 4172.0892464764947 0 0 0 0 414.06295998116587 -2020.9998824729737 0 -2020.9998824729737 4486.5473493735117 0 0 0 0 124.85092666874516 -1693.0991637209045 0 -1693.0991637209045 4295.758917587169 0 0 0 0 -127.02149659791735 -1798.0883410658571 0 -1798.0883410658571 5084.0418507797622 0 0 0 0 211.79549502675343 -1369.852871828869 0 -1369.852871828869 3952.1450353688124 0 0 0 0 766.79015947065363 -1766.6341489921733 0 -1766.6341489921733 4241.3350130419276 0 0 0 0 576.71155335414528 -1784.7159638933372 0 -1784.7159638933372 4314.3345716895637 0 0 0 0 628.92210627764371 -2154.5215397234715 0 -2154.5215397234715 4654.1993831207947 0 0 0 0 103.4950526390212 -77.207853903208161 0 -77.207853903208161 33.403980390452489 0 0 0 0 4.8016022459468459 -4.2096857098426312 0 -4.2096857098426312 1.6085703936589653 0 0 0 0 300.31860102187773 -1330.9915198487543 0 -1330.9915198487543 2851.9371807522111 0 0 0 0 748.12178360004691 -2029.2252025288108 0 -2029.2252025288108 3805.3770285228038 0 0 0 0 417.08733470674588 -1132.6981727472084 0 -1132.6981727472084 1718.8501193951233 0 0 0 0 2.5683561877241345 -1077.2495554239285 0 -1077.2495554239285 2706.6595732532442 0 0 0 0 127.62627600020261 -994.80310565689433 0 -994.80310565689433 2754.6859212533018 0 0 0 0 99.098347513837325 -397.06130663212389 0 -397.06130663212389 292.63775145050022 0 0 0 0 -60.612629750299675 119.76595324844493 0 119.76595324844493 57.730544687510701 0 0 0 0 -60.230681697979108 37.300171854152552 0 37.300171854152552 33.618861821264133 0 0 0 0 -113.02859357760462 -36.799051769012294 0 -36.799051769012294 207.65838162110958 0 0 0 0 432.16597078427822 -209.43835359721561 0 -209.43835359721561 981.36668434675084 0 0 0 0 -93.518024756744126 -15.851303145173006 0 -15.851303145173006 139.75652385396097 0 0 0 0 -57.694736951336381 -46.816520407723146 0 -46.816520407723146 151.87960971483699 0 0 0 0 -70.070333404528355 -71.317493971779186 0 -71.317493971779186 115.24742367268482 0 0 0 0 -74.464567615977103 -77.602243527315295 0 -77.602243527315295 328.93569392911741 0 0 0 0 -92.715157142978569 -128.21145081541181 0 -128.21145081541181 213.69472211877292 0 0 0 0 -82.214232064678072 -90.770094143732422 0 -90.770094143732422 429.9519040691448 0 0 0 0 -2.1600565517021195 2.1631846500135907 0 2.1631846500135907 1.7078696237397537 0 0 0 0 -107.96507947824648 1.6343473719825852 0 1.6343473719825852 287.46179924093303 0 0 0 0 39.65002910903786 -92.719602129320265 0 -92.719602129320265 324.14746930761612 0 0 0 0 33.310719481425622 -84.185215247540327 0 -84.185215247540327 448.79933494832949 0 0 0 0 -96.775531239873089 -186.03813723896019 0 -186.03813723896019 148.93447518108587 0 0 0 0 -96.749012497362855 -223.0258693202195 0 -223.0258693202195 -59.974171428795671 0 0 0 0 13.418208940711338 100.24093592195277 0 100.24093592195277 336.78557643279646 0 0 0 0 1.6987187171663116 -0.59836915931354895 0 -0.59836915931354895 -0.44453714710039094 0 0 0 0 4.5378564395014109 99.903490154909377 0 99.903490154909377 486.36883639175358 0 0 0 0 11.471604757516616 -62.920669358674786 0 -62.920669358674786 346.02429789819871 0 0 0 0 33.205368079386972 -43.849544445118227 0 -43.849544445118227 344.29153110293555 0 0 0 0 12.10997200472957 -71.363209767558146 0 -71.363209767558146 356.82199428985405 0 0 0 0 -200.74470327090967 -148.41509405823308 0 -148.41509405823308 325.30510614806553 0 0 0 0 -3.9872119338098599 2.6980612121583931 0 2.6980612121583931 2.2927590019150017 0 0 0 0 -61.684225612283626 -26.015709954002887 0 -26.015709954002887 185.23785368246899 0 0 0 0 -64.245272024355387 42.249175918330707 0 42.249175918330707 14.662815489633601 0 0 0 0 -41.476609153543905 9.9997845193865942 0 9.9997845193865942 162.85592996879132 0 0 0 0 51.448339777874935 -107.79615631042543 0 -107.79615631042543 236.46772165111906 0 0 0 0 -75.721788983694751 -316.26033080454363 0 -316.26033080454363 663.53142835196923 0 0 0 0 21.692971187127569 -117.60852651485766 0 -117.60852651485766 454.90195209007652 0 0 0 0 20.239382539123653 -108.19683951556362 0 -108.19683951556362 288.00759429908067 0 0 0 0 -64.749828886945764 31.182642383299452 0 31.182642383299452 34.72750020895262 0 0 0 0 -44.848852431321575 -61.124218757991912 0 -61.124218757991912 255.16631823029456 0 0 0 0 -33.745402709648609 -18.422524133662598 0 -18.422524133662598 147.27192856274883 0 0 0 0 -19.991835139617251 65.97843387487228 0 65.97843387487228 187.7200478101222 0 0 0 0 -5.7058901839199629 -1.2626209329709752 0 -1.2626209329709752 2.3430848129316928 0 0 0 0 13.114502430527509 -32.111778453933653 0 -32.111778453933653 4.1897299153161214 0 0 0 0 -44.687431626970465 -37.494494065424078 0 -37.494494065424078 236.29240033237147 0 0 0 0 7.8574960404489502 -81.613304107908334 0 -81.613304107908334 203.83346108969999 0 0 0 0 -6.301370610277278 2.4969699158035326 0 2.4969699158035326 2.6149447621624802 0 0 0 0 56.694106913930455 -149.64447982739694 0 -149.64447982739694 250.63668811054958 0 0 0 0 -14.62252653968244 -43.49648924858775 0 -43.49648924858775 254.33749241959958 0 0 0 0 8.24431794242264 -46.319902403614833 0 -46.319902403614833 227.20078653102246 0 0 0 0 -16.48579528998664 -12.601546294768013 0 -12.601546294768013 207.13527549113496 0 0 0 0 -14.374962817191772 -32.123051054557436 0 -32.123051054557436 258.31884895522671 0 0 0 0 15.602575755521684 -48.551471034676069 0 -48.551471034676069 259.11888821407047 0 0 0 0 170.46809213525194 71.828654841257958 0 71.828654841257958 323.372526071631 0 0 0 0 -1.3636341725759848 -38.172691080108052 0 -38.172691080108052 253.18914398938068 0 0 0 0 15.038281508961518 -90.589046231587417 0 -90.589046231587417 319.89105447067413 0 0 0 0 27.065509033222042 -62.365602249192307 0 -62.365602249192307 271.99266421078937 0 0 0 0 -22.547315312856881 -38.234575402471819 0 -38.234575402471819 335.72284804309311 0 0 0 0 -14.581330323308066 -13.179445213696454 0 -13.179445213696454 279.34778511347395 0 0 0 0 -14.904769887475595 -17.400655463570729 0 -17.400655463570729 270.97627315037244 0 0 0 0 -15.195147312111658 -28.527891397912754 0 -28.527891397912754 273.58587025514862 0 0 0 0 -1.5118627409428882 -48.280089528037934 0 -48.280089528037934 297.49835224117851 0 0 0 0 -46.56509161172562 53.99878879480093 0 53.99878879480093 266.90370538260322 0 0 0 0 17.373944535379451 59.620246636117372 0 59.620246636117372 124.40212459566828 0 0 0 0 -45.247921409937589 46.239408156172431 0 46.239408156172431 214.4819521849422 0 0 0 0 -35.903686444640698 33.394663232487801 0 33.394663232487801 145.45311116382072 0 0 0 0 -24.59143915185814 60.32114669024304 0 60.32114669024304 167.96724569344951 0 0 0 0 -21.322385757420761 15.279183759914304 0 15.279183759914304 206.90091633595875 0 0 0 0 -39.809700507754314 3.0730755553377094 0 3.0730755553377094 259.0183783378161 0 0 0 0 -9.9512740341060635 -29.184747126513685 0 -29.184747126513685 252.71784102093079 0 0 0 0 -16.363382961564639 6.2050469900132157 0 6.2050469900132157 217.98571567988256 0 0 0 0 -11.176383347094088 41.084003504525754 0 41.084003504525754 171.40831500109925 0 0 0 0 -13.669157875236124 21.677263351593865 0 21.677263351593865 162.70127341533225 0 0 0 0 -3.8494505174439837 1.8922976351423131 0 1.8922976351423131 182.66172511217883 0 0 0 0 -40.679084405015601 65.784551342672785 0 65.784551342672785 161.78169517351307 0 0 0 0 -14.466482307512706 45.910450391784252 0 45.910450391784252 164.44251075301145 0 0 0 0 -0.8744065803216472 43.991198960669863 0 43.991198960669863 143.76223177552674 0 0 0 0 1.5288983647387795 53.149115609900036 0 53.149115609900036 141.0590004413425 0 0 0 0 -8.7636572095834708 7.1753641526593128 0 7.1753641526593128 134.67458047147375 0 0 0 0 14.121989702261544 36.95846778483974 0 36.95846778483974 128.64357917782036 0 0 0 0 2.1839000610798394 -28.787703163019614 0 -28.787703163019614 144.32223011799215 0 0 0 0 -5.4998899418872043 10.478091679702629 0 10.478091679702629 138.00921791991277 0 0 0 0 -3.1484254836996115 -23.769726754522708 0 -23.769726754522708 169.84577136821463 0 0 0 0 -3.3477825009968001 -17.716894046199741 0 -17.716894046199741 164.32012892260536 0 0 0 0 -9.5414737898138977 2.0510145917932334 0 2.0510145917932334 0.18084445203848531 0 0 0 0 21.019471883990008 -59.956468571754158 0 -59.956468571754158 209.00545397181122 0 0 0 0 8.7688829553778582 -27.298985106356611 0 -27.298985106356611 -12.453191459250576 0 0 0 0 -2.8965116662732271 -72.585531543227262 0 -72.585531543227262 217.22889305503486 0 0 0 0 336.5100477981216 -211.6998829231452 0 -211.6998829231452 113.97214161095326 0 0 0 0 140.13609066344725 177.896437281408 0 177.896437281408 -153.16220555230029 0 0 0 0 241.52364493906555 -67.1792949220835 0 -67.1792949220835 -96.974134291478549 0 0 0 0 643.87117973815475 39.796362968045287 0 39.796362968045287 -126.93038280055225 0 0 0 0 -230.08614405615333 484.84360988475964 0 484.84360988475964 -326.25722191290697 0 0 0 0 383.67409040887833 566.92751097707878 0 566.92751097707878 370.51493566748104 0 0 0 0 188.56941280166393 133.30388145930192 0 133.30388145930192 -450.376901325164 0 0 0 0 -78.927365005883985 615.30042842395778 0 615.30042842395778 -356.2310067067765 0 0 0 0 39.654022363285407 48.861560850310511 0 48.861560850310511 13.535132601423641 0 0 0 0 -558.67674400387205 1.0022851150970382 0 1.0022851150970382 442.92635976508609 0 0 0 0 -0.91579528308225555 50.197771856137251 0 50.197771856137251 92.185576983348625 0 0 0 0 10.908511223346977 61.930134994938271 0 61.930134994938271 201.33437623620739 0 0 0 0 -27.464127952816852 21.252352200361202 0 21.252352200361202 193.9699298585474 0 0 0 0 17.918084599634085 204.29604817643121 0 204.29604817643121 -205.70675523721275 0 0 0 0 28.5286732738914 80.794860210909974 0 80.794860210909974 287.59913136274554 0 0 0 0 56.75395234662119 -116.39763989490166 0 -116.39763989490166 383.05150895909173 0 0 0 0 20.804033968278585 17.155329231681407 0 17.155329231681407 -49.129636149548844 0 0 0 0 94.674513198920522 62.887868890356913 0 62.887868890356913 -204.58972477742645 0 0 0 0 -101.48722093193649 108.26272125735613 0 108.26272125735613 -93.709833553322824 0 0 0 0 59.930060231329662 60.761424744865508 0 60.761424744865508 -112.59276801644592 0 0 0 0 101.61477489418871 8.4424340677287546 0 8.4424340677287546 138.23656363951159 0 0 0 0 14.987493310805959 72.034417254505371 0 72.034417254505371 106.96534518836648 0 0 0 0 72.382903689711384 102.40952685406228 0 102.40952685406228 281.2542464279104 0 0 0 0 33.936090755142914 15.244421276234789 0 15.244421276234789 138.11469097201189 0 0 0 0 15.190774791194897 54.106979239817974 0 54.106979239817974 133.14309392376163 0 0 0 0 52.677688367889459 24.310369643921149 0 24.310369643921149 137.60179857985349 0 0 0 0 -54.080115311770896 47.432282450208731 0 47.432282450208731 134.22123875196849 0 0 0 0 -0.97813128566804153 65.281028669153784 0 65.281028669153784 127.48427194781834 0 0 0 0 -135.50345899164518 26.417123598283069 0 26.417123598283069 273.86478737532161 0 0 0 0 11.136501759506245 80.672421237253729 0 80.672421237253729 115.55137283852673 0 0 0 0 18.245121413274319 3.8301999971008627 0 3.8301999971008627 114.36107137181216 0 0 0 0 -192.50159493747469 -157.74013912284772 0 -157.74013912284772 28.939425675649545 0 0 0 0 -25.615440842825137 39.292617806349881 0 39.292617806349881 26.750905768247321 0 0 0 0 1.6136037178710296 -0.28006496028118022 0 -0.28006496028118022 -0.76670888792807546 0 0 0 0 -59.382178202299656 67.246392563494737 0 67.246392563494737 114.97593356922152 0 0 0 0 -60.458597911861943 -18.450188163132111 0 -18.450188163132111 89.430178363705636 0 0 0 0 1.2905580530170013 -0.97091015010997239 0 -0.97091015010997239 0.64910811287285242 0 0 0 0 -212.7847272173567 -61.511876461860084 0 -61.511876461860084 217.62779017887078 0 0 0 0 -40.783266024260229 170.89546724176762 0 170.89546724176762 272.90608432845329 0 0 0 0 -89.517472870900747 267.8886265862966 0 267.8886265862966 442.50481793335348 0 0 0 0 -14.741840696508007 36.821424485096941 0 36.821424485096941 308.62722714601114 0 0 0 0 -91.975756297090811 181.02484805464337 0 181.02484805464337 75.765592389943777 0 0 0 0 -427.04042828539605 217.74506848379679 0 217.74506848379679 -297.62467616043023 0 0 0 0 -114.67085467026845 88.68774351895263 0 88.68774351895263 43.810846703105199 0 0 0 0 -450.31459887964593 187.93849256337853 0 187.93849256337853 170.15270043445344 0 0 0 0 -440.37017237468535 172.5070565670685 0 172.5070565670685 164.18785544170532 0 0 0 0 -229.68706909700995 21.753781041159527 0 21.753781041159527 227.27154160617647 0 0 0 0 -675.79747773742929 -167.90492903490667 0 -167.90492903490667 337.54964990716689 0 0 0 0 -464.65651209089992 -248.83099511777255 0 -248.83099511777255 305.87385601406277 0 0 0 0 -560.54798343182119 -475.38220475474373 0 -475.38220475474373 216.79830330338154 0 0 0 0 83.761796572727917 -182.84691767010736 0 -182.84691767010736 75.555661865742877 0 0 0 0 88.110544199829747 -382.17058137824642 0 -382.17058137824642 194.14929684394883 0 0 0 0 -107.90241812248314 -171.09692535372596 0 -171.09692535372596 204.73489736506599 0 0 0 0 -320.34704444403178 -232.76666337702045 0 -232.76666337702045 186.84846967991325 0 0 0 0 -260.01991174285831 -102.87860066475696 0 -102.87860066475696 339.76273117126402 0 0 0 0 -192.20335332414106 -92.619559157064941 0 -92.619559157064941 160.2871501333284 0 0 0 0 -153.48885671956759 -45.706193683079618 0 -45.706193683079618 162.46522962523159 0 0 0 0 -81.6229417241384 -84.263459841011354 0 -84.263459841011354 85.131255558255361 0 0 0 0 -96.00221911812514 -45.131110238828114 0 -45.131110238828114 -16.998961730940209 0 0 0 0 -37.287959583142765 -111.03703867373042 0 -111.03703867373042 80.672008890745929 0 0 0 0 -13.917524683816737 -98.04395829376881 0 -98.04395829376881 87.847021845926065 0 0 0 0 -21.848101797761956 -70.178136636586714 0 -70.178136636586714 56.389562698052032 0 0 0 0 0.85800809256761568 -53.97438489740307 0 -53.97438489740307 65.359377307377144 0 0 0 0 -15.227181775769168 -78.490468414369388 0 -78.490468414369388 69.424644156883005 0 0 0 0 -18.626749477207341 -67.894312822689244 0 -67.894312822689244 38.460691342756036 0 0 0 0 -20.187106930799928 -73.225352002751606 0 -73.225352002751606 110.73574879539228 0 0 0 0 -30.443801396518211 -56.031863378371781 0 -56.031863378371781 82.348191053140908 0 0 0 0 -7.7285574749475927 -43.532030029586167 0 -43.532030029586167 83.745585350423426 0 0 0 0 -1.9243304882847951 -44.133082304319032 0 -44.133082304319032 69.980504578823457 0 0 0 0 8.2051384198857704 -18.892479260357504 0 -18.892479260357504 42.391933143619099 0 0 0 0 -7.8012386780501402 -34.219252796996443 0 -34.219252796996443 66.128122271620668 0 0 0 0 -7.0474988196492632 -37.192768594839436 0 -37.192768594839436 71.707101323117968 0 0 0 0 102.22046700632609 -31.44294885679119 0 -31.44294885679119 8.1381832459883299 0 0 0 0 74.386707126675901 -68.374339784379117 0 -68.374339784379117 56.168353928211218 0 0 0 0 5.6274958695394162 -125.26385325281444 0 -125.26385325281444 52.398370781796984 0 0 0 0 159.55758440788122 -162.92740670026978 0 -162.92740670026978 55.320467353468302 0 0 0 0 274.12605988923497 -78.65418993680214 0 -78.65418993680214 20.694876634312095 0 0 0 0 229.39051656659285 -235.08572693064343 0 -235.08572693064343 94.004282214431441 0 0 0 0 174.61175844768741 333.76071907698133 0 333.76071907698133 623.30560583603801 0 0 0 0 18.27720330073079 -19.875319809345598 0 -19.875319809345598 22.004439587844615 0 0 0 0 130.67213832571463 -100.23569206365437 0 -100.23569206365437 410.46050894871587 0 0 0 0 84.058602926124877 208.62162388589059 0 208.62162388589059 3585.1248711314838 0 0 0 0 122.38158408728629 925.30819784449022 0 925.30819784449022 547.71238366796752 0 0 0 0 7.2648663683169374 -6.3597993602234055 0 -6.3597993602234055 12.840753681343585 0 0 0 0 682.59618544715522 1802.2334734685865 0 1802.2334734685865 696.92572259263943 0 0 0 0 877.47657674725178 177.86619543321558 0 177.86619543321558 4144.3050460148661 0 0 0 0 -390.3013939243101 -576.60995505972096 0 -576.60995505972096 7759.7793038271921 0 0 0 0 55.512855247765046 24.728214454398056 0 24.728214454398056 12.796101737245891 0 0 0 0 1041.1469647558697 -1417.8735203301185 0 -1417.8735203301185 3268.0031667225085 0 0 0 0 53.72796524547266 -235.40166299066186 0 -235.40166299066186 3807.308187625953 0 0 0 0 384.93324439163189 3481.9839701983328 0 3481.9839701983328 344.10550884871918 0 0 0 0 -1495.3754669506161 1661.4438722554405 0 1661.4438722554405 4101.852689280815 0 0 0 0 39.627767748416638 32.462503592179061 0 32.462503592179061 27.649932205965314 0 0 0 0 120.23579098919799 -2089.7751112643564 0 -2089.7751112643564 6330.2223762470094 0 0 0 0 502.6298060244734 1473.3691451701827 0 1473.3691451701827 -4212.3085104366619 0 0 0 0 -2775.0886046268806 1095.2740786497161 0 1095.2740786497161 -3596.8779073763071 0 0 0 0 -86.867164102493916 -374.3368874803964 0 -374.3368874803964 1953.3608419261182 0 0 0 0 74.853850667451908 94.36085942609256 0 94.36085942609256 97.590757801542566 0 0 0 0 1880.4380205884481 7909.7923972072022 0 7909.7923972072022 -1211.7269816010376 0 0 0 0 338.3403269361188 -321.34485800418042 0 -321.34485800418042 1934.9570968962653 0 0 0 0 754.89814033694529 -909.82014045243341 0 -909.82014045243341 2645.040927943046 0 0 0 0 70.637480070345191 -510.4052049861566 0 -510.4052049861566 2362.564094894944 0 0 0 0 -94.301399944131845 -156.63038963344297 0 -156.63038963344297 2689.6295114096574 0 0 0 0 17.232567920700603 -109.59496162707728 0 -109.59496162707728 1718.5980759764352 0 0 0 0 -64.638511333045244 -107.97669090086129 0 -107.97669090086129 2233.3662758098071 0 0 0 0 94.778119017640165 -502.5659030492825 0 -502.5659030492825 1946.6096368835279 0 0 0 0 -404.78383257751557 -928.22748033274547 0 -928.22748033274547 1619.0894107288332 0 0 0 0 187.74127534667514 -423.51656485582862 0 -423.51656485582862 1519.0849218989169 0 0 0 0 120.54414301540237 -493.97258668266295 0 -493.97258668266295 1923.5176534651255 0 0 0 0 65.164467667863491 107.58213441622672 0 107.58213441622672 129.37624751624273 0 0 0 0 -4728.2397546786588 -603.2447500256967 0 -603.2447500256967 988.92413809022401 0 0 0 0 827.04122079595254 1371.6344981980365 0 1371.6344981980365 306.60206727423065 0 0 0 0 659.62146771484367 -1248.0120490524787 0 -1248.0120490524787 582.54650359999505 0 0 0 0 1366.0109145612005 -2187.3615420419374 0 -2187.3615420419374 -2480.8725582659972 0 0 0 0 4833.6187805282134 2986.6026170690893 0 2986.6026170690893 3745.7257417696528 0 0 0 0 5742.9523283027811 3719.9892541785957 0 3719.9892541785957 1691.6113114889595 0 0 0 0 406.21742776953215 -1095.0165335549973 0 -1095.0165335549973 -647.86845886256197 0 0 0 0 4278.6564180762707 -3111.6847407505702 0 -3111.6847407505702 -1832.0126908023376 0 0 0 0 -1942.1516221638594 -3814.1018485659151 0 -3814.1018485659151 255.3944770914095 0 0 0 0 3518.3873271934717 674.86508005669748 0 674.86508005669748 -808.39361830661073 0 0 0 0 1931.2330044327173 -1443.7564176028827 0 -1443.7564176028827 -626.638061808766 0 0 0 0 1281.2658763179024 595.34775783953955 0 595.34775783953955 225.57885003444972 0 0 0 0 584.00579048515647 39.131464058911661 0 39.131464058911661 305.9683798608603 0 0 0 0 351.82024517205627 -814.73328284047238 0 -814.73328284047238 97.74152201594552 0 0 0 0 -746.93148181469223 -774.19828142157348 0 -774.19828142157348 192.28606669791043 0 0 0 0 -2840.921835142035 1495.5336736573299 0 1495.5336736573299 -356.56243742743391 0 0 0 0 -1026.8165942793712 651.94445133088448 0 651.94445133088448 -87.395632992964238 0 0 0 0 -1708.9638688700325 -288.64681780387764 0 -288.64681780387764 429.33265860032407 0 0 0 0 -700.53811092812475 -606.24058640384828 0 -606.24058640384828 318.38147703165305 0 0 0 0 -674.92605435425503 -404.64286453450768 0 -404.64286453450768 -228.0781598616868 0 0 0 0 -544.63570842691115 594.04332760488614 0 594.04332760488614 -432.94736891619687 0 0 0 0 -171.87960464583011 400.62920164319803 0 400.62920164319803 -348.45705170981819 0 0 0 0 -848.43695487561854 410.36592403904069 0 410.36592403904069 50.04818266275106 0 0 0 0 -24.59920722563038 175.70322705127182 0 175.70322705127182 -193.24840668286197 0 0 0 0 22.383148502194501 23.34711047765515 0 23.34711047765515 25.745721808002031 0 0 0 0 37.089868985933336 80.660706634268394 0 80.660706634268394 107.57131794047103 0 0 0 0 205.49767768809943 661.3410559615877 0 661.3410559615877 -342.6109064888733 0 0 0 0 -404.14387961919692 522.51955653720324 0 522.51955653720324 160.33780151193787 0 0 0 0 -623.35700801472558 231.216543872084 0 231.216543872084 498.90603593050037 0 0 0 0 -161.3085138177189 -273.11403075698581 0 -273.11403075698581 765.51687515455706 0 0 0 0 0.26793355752488424 -77.090786908484006 0 -77.090786908484006 -141.31462158669819 0 0 0 0 -203.62565336699117 -54.306145326321712 0 -54.306145326321712 1523.3996920487407 0 0 0 0 -13.16558180867105 -544.39017786759359 0 -544.39017786759359 920.10200626148435 0 0 0 0 -259.55704009124941 -304.46592886455255 0 -304.46592886455255 1309.2236565565036 0 0 0 0 -111.16082440123046 -164.00579458627544 0 -164.00579458627544 1652.8196074849548 0 0 0 0 18.504528805241534 -370.10538632089902 0 -370.10538632089902 1636.2515144169447 0 0 0 0 10.064677469136127 7.9196018149662137 0 7.9196018149662137 6.1664171875497686 0 0 0 0 226.33253567392967 143.2090369649377 0 143.2090369649377 1798.6717097086985 0 0 0 0 1419.4741873856237 63.537690757650125 0 63.537690757650125 1419.3400992821989 0 0 0 0 270.42708663564554 -272.33918164056377 0 -272.33918164056377 1335.4957819801784 0 0 0 0 331.77838499395511 49.40355266882807 0 49.40355266882807 1560.763588332673 0 0 0 0 82.558235927138412 -117.72953661668089 0 -117.72953661668089 1522.3992486867646 0 0 0 0 25.828057557289867 -189.960039082398 0 -189.960039082398 1824.1630400314607 0 0 0 0 -166.65731996487375 -0.91711237063282169 0 -0.91711237063282169 1627.4216105938358 0 0 0 0 -133.79715647110413 -58.998172561402725 0 -58.998172561402725 1473.9484168822601 0 0 0 0 -135.91625066280176 -72.695700820891943 0 -72.695700820891943 1580.8009037771044 0 0 0 0 -152.28537709167904 -66.633113229865558 0 -66.633113229865558 1494.7774907892162 0 0 0 0 -129.39252857537485 -25.734896842310263 0 -25.734896842310263 1376.0962543276219 0 0 0 0 -254.63408715244441 99.16583042739876 0 99.16583042739876 1457.5494968992789 0 0 0 0 -258.50593900722743 -23.58667004000381 0 -23.58667004000381 1530.1291946905912 0 0 0 0 -133.28782360404148 74.559644765820849 0 74.559644765820849 1444.1003880723147 0 0 0 0 -149.03547752114406 142.16889757028775 0 142.16889757028775 1379.0129518837493 0 0 0 0 -30.733110302004206 33.706710857415601 0 33.706710857415601 1132.7816936038507 0 0 0 0 423.86457811813852 76.733746872629126 0 76.733746872629126 1132.954387138152 0 0 0 0 -144.6171046553136 -53.598587348111323 0 -53.598587348111323 1080.3472784574915 0 0 0 0 101.51792932793433 -340.67750683671511 0 -340.67750683671511 907.82837344206928 0 0 0 0 -125.02711055807231 -16.975587224747869 0 -16.975587224747869 393.16361675533699 0 0 0 0 -319.31412755474958 261.89514593876083 0 261.89514593876083 387.19530900335667 0 0 0 0 -228.18563341985828 49.288070406208135 0 49.288070406208135 1135.7498914459575 0 0 0 0 186.35858529411962 261.0878616798509 0 261.0878616798509 1174.0446125499147 0 0 0 0 -0.1670899019302885 -2.2501682786584922 0 -2.2501682786584922 4.6399608442200133 0 0 0 0 -190.80788689634744 -354.78149075675174 0 -354.78149075675174 -7.1103243848815509 0 0 0 0 -221.41212164514218 -126.14288382011728 0 -126.14288382011728 43.331712742801756 0 0 0 0 3.3807189519436633 -112.82214824910989 0 -112.82214824910989 -317.58852123658289 0 0 0 0 -1.5924313671328694 -0.71594876444396505 0 -0.71594876444396505 4.8446194548533867 0 0 0 0 49.909913573244012 39.295481643479434 0 39.295481643479434 -84.91972546269244 0 0 0 0 -86.34999385729634 -15.843172045897518 0 -15.843172045897518 1160.4029569739068 0 0 0 0 -281.607006859568 268.40160573465255 0 268.40160573465255 1445.0717179998755 0 0 0 0 194.30057518138199 171.98313139105448 0 171.98313139105448 -34.937469851633068 0 0 0 0 -79.762522069953775 426.29823360907176 0 426.29823360907176 799.03311032212514 0 0 0 0 174.62534650680453 206.38700115101528 0 206.38700115101528 506.53856850464217 0 0 0 0 56.262234655544944 -75.382827398003428 0 -75.382827398003428 826.9877413380309 0 0 0 0 -2.2399793602462768 -0.20616379299303844 0 -0.20616379299303844 2.8497454225592662 0 0 0 0 -101.6523142297098 198.46449656827463 0 198.46449656827463 1288.350497516687 0 0 0 0 0.28655348575571404 -65.18940329001893 0 -65.18940329001893 575.413208765327 0 0 0 0 126.60940167876075 94.554057584842667 0 94.554057584842667 166.76052474993048 0 0 0 0 -90.406076493592309 77.073507037028321 0 77.073507037028321 102.98210502989241 0 0 0 0 5.7470644903617654 -119.68017012362543 0 -119.68017012362543 389.72205483198923 0 0 0 0 89.851437132236526 -95.152488683670526 0 -95.152488683670526 -256.40720470318047 0 0 0 0 16.888628308467815 -30.348771211210988 0 -30.348771211210988 144.70406826830003 0 0 0 0 0.15680227509015279 -140.1615459918612 0 -140.1615459918612 -98.082107969603385 0 0 0 0 15.173753704908179 -111.59191042528323 0 -111.59191042528323 -163.94380404148251 0 0 0 0 0.031221744428784115 -1.0912046246816658 0 -1.0912046246816658 1.416374323382172 0 0 0 0 11.421747240232236 -211.91731022299791 0 -211.91731022299791 -213.19911262189271 0 0 0 0 -170.08248174111259 -115.70271533136838 0 -115.70271533136838 -216.31062385230325 0 0 0 0 -226.15126100426983 -290.40256227467034 0 -290.40256227467034 -275.93633594200946 0 0 0 0 0.69842646193063551 -10.903500462128449 0 -10.903500462128449 18.423576719918913 0 0 0 0 -448.03818377808739 -133.54361052442982 0 -133.54361052442982 -82.601930137243471 0 0 0 0 91.541858203872835 237.88849224531441 0 237.88849224531441 968.34979290618139 0 0 0 0 12.408389466509107 484.61981695028953 0 484.61981695028953 813.41857707686722 0 0 0 0 257.65675808441847 375.62740063354431 0 375.62740063354431 226.82933582365513 0 0 0 0 -61.283379399900241 -246.93707105883368 0 -246.93707105883368 -334.03166672063526 0 0 0 0 -57.255230730102539 -3.6762448503868654 0 -3.6762448503868654 -140.67183867894346 0 0 0 0 -277.20953698433686 -173.50265838377527 0 -173.50265838377527 20.822391442605294 0 0 0 0 -0.15055040201851178 -13.185550686466115 0 -13.185550686466115 21.614570804345533 0 0 0 0 -162.23525034079717 -280.57226363098744 0 -280.57226363098744 -253.98866292319144 0 0 0 0 36.688907405301507 -164.36870261337026 0 -164.36870261337026 219.47153330492438 0 0 0 0 -105.50088376463623 77.235197692840302 0 77.235197692840302 470.66337126487633 0 0 0 0 296.39043080339547 412.3547139665061 0 412.3547139665061 877.56871968647465 0 0 0 0 45.1478456102368 16.91645535355201 0 16.91645535355201 602.91692186743603 0 0 0 0 310.54515153019383 62.940821139811305 0 62.940821139811305 92.243825846497202 0 0 0 0 140.29272881584438 137.01116400331375 0 137.01116400331375 468.12311506719561 0 0 0 0 65.401482501396003 358.221657395683 0 358.221657395683 909.91728247891297 0 0 0 0 -21.173097693099407 111.01039812652743 0 111.01039812652743 1064.6245315383421 0 0 0 0 -91.990139092195022 119.30231566375005 0 119.30231566375005 1063.7032654815193 0 0 0 0 -10.345718271196347 8.8889818722382188 0 8.8889818722382188 488.17693072138354 0 0 0 0 -212.21866402151045 55.361153210193152 0 55.361153210193152 1125.1215864195692 0 0 0 0 170.21819081460262 466.77638153381122 0 466.77638153381122 1298.6751420455403 0 0 0 0 620.38709412070602 828.41538150831184 0 828.41538150831184 708.5128785699053 0 0 0 0 33.666292491683635 333.39194645294629 0 333.39194645294629 1363.1967318927927 0 0 0 0 253.3458024530637 -412.10854149156512 0 -412.10854149156512 1063.5128715502797 0 0 0 0 1171.0205278924582 732.23308728667325 0 732.23308728667325 138.69195300157298 0 0 0 0 -39.648404267136812 -111.66889034313135 0 -111.66889034313135 -10.186514396802522 0 0 0 0 0.27457959294529566 0.320532991222791 0 0.320532991222791 14.378454095514371 0 0 0 0 -273.44832703471025 -156.44045461670976 0 -156.44045461670976 431.78568294932484 0 0 0 0 102.62911158557836 -46.196017362264683 0 -46.196017362264683 -41.931396877160296 0 0 0 0 95.752967730091768 123.37330202125304 0 123.37330202125304 36.890432953201525 0 0 0 0 -27.277522265799234 -8.141454234617413 0 -8.141454234617413 492.36554281238932 0 0 0 0 -23.869888302513573 -40.397312787987175 0 -40.397312787987175 110.42521549307276 0 0 0 0 -154.81553688687927 80.776112406223547 0 80.776112406223547 474.54400631287717 0 0 0 0 -355.16740707186909 346.00836640967464 0 346.00836640967464 204.94729107872627 0 0 0 0 -195.62147298622222 -215.96014103732887 0 -215.96014103732887 98.637149316666182 0 0 0 0 -218.62522388313846 -135.07259644592705 0 -135.07259644592705 814.9807264812116 0 0 0 0 202.19079722423521 245.75609644249198 0 245.75609644249198 345.14609429743723 0 0 0 0 328.12785469661367 193.33190302077128 0 193.33190302077128 256.0357088323799 0 0 0 0 169.60984469132018 506.29081459478766 0 506.29081459478766 139.98383269982878 0 0 0 0 627.31417760325485 157.55407480106805 0 157.55407480106805 146.88305304330424 0 0 0 0 147.06956646015169 299.71600646797742 0 299.71600646797742 92.573730366915697 0 0 0 0 -96.201590794451477 454.64014452902484 0 454.64014452902484 36.596700452020741 0 0 0 0 -216.66844440598652 143.59692378321779 0 143.59692378321779 208.58688300984795 0 0 0 0 42.170698621581323 420.1839973898168 0 420.1839973898168 243.11129103385611 0 0 0 0 -801.21424001301602 165.0919374867517 0 165.0919374867517 387.2188547043188 0 0 0 0 -819.15346336428888 69.521087659497425 0 69.521087659497425 105.11307232244872 0 0 0 0 -8.0388827534752636 -34.862757142793271 0 -34.862757142793271 81.801857927872334 0 0 0 0 2.9778108135603096 -16.274918216823924 0 -16.274918216823924 94.379720691823877 0 0 0 0 -172.66210155148201 80.007563177183329 0 80.007563177183329 -162.03654641052708 0 0 0 0 -63.3961728453869 386.8296183264174 0 386.8296183264174 -79.815300127760565 0 0 0 0 -644.16296968388087 47.841281613975298 0 47.841281613975298 122.09804915660061 0 0 0 0 -16.740808042654436 8.0348527044635318 0 8.0348527044635318 22.898684921432107 0 0 0 0 -9.0079537640167473 -39.54988293468341 0 -39.54988293468341 71.449898200953612 0 0 0 0 32.674135678342282 -30.660456777608488 0 -30.660456777608488 -154.08431206198293 0 0 0 0 19.00285799841479 -20.950729287111102 0 -20.950729287111102 34.747618086208831 0 0 0 0 162.10576974291951 237.13392134197784 0 237.13392134197784 138.45761038316414 0 0 0 0 5.7432296495567554 -1.8618522035049327 0 -1.8618522035049327 30.568617837577563 0 0 0 0 10.837064803995418 370.59085288640927 0 370.59085288640927 217.74815806286642 0 0 0 0 98.28611027783154 342.08273248156183 0 342.08273248156183 211.16694217981421 0 0 0 0 99.713480335201865 296.8947692176805 0 296.8947692176805 126.17498830996919 0 0 0 0 -6.3471162092516931 -4.7355249733813167 0 -4.7355249733813167 39.239312679559077 0 0 0 0 -259.94187207902382 337.69127028275034 0 337.69127028275034 384.42721329437336 0 0 0 0 21.396833698725459 752.56362769076077 0 752.56362769076077 427.34310619302414 0 0 0 0 1320.6542484590409 825.064659497104 0 825.064659497104 -164.72918692458188 0 0 0 0 -112.67228905388765 -12.325640094481059 0 -12.325640094481059 626.67564964972553 0 0 0 0 0.47697449533488512 3.6046680577196426 0 3.6046680577196426 10.362825347801902 0 0 0 0 506.80663880976317 290.57562260029954 0 290.57562260029954 197.43010290848906 0 0 0 0 242.84463729767231 21.476320744128316 0 21.476320744128316 -167.97259533391843 0 0 0 0 85.319495372375059 31.126654099381994 0 31.126654099381994 -80.7551455431676 0 0 0 0 -4.2785769686904853 -10.722587523485089 0 -10.722587523485089 17.936353412164408 0 0 0 0 -46.376535773715659 -326.37378136932966 0 -326.37378136932966 -458.14690332004102 0 0 0 0 83.717169740197733 3.6450799725280376 0 3.6450799725280376 -164.31542792948312 0 0 0 0 84.027973548075352 48.944436404417502 0 48.944436404417502 -163.13217847088981 0 0 0 0 -373.91787676882996 -206.3018856632043 0 -206.3018856632043 669.86559557291912 0 0 0 0 -118.34015409921813 -510.22752473529545 0 -510.22752473529545 135.46795807656599 0 0 0 0 -17.235075922483691 0.47547805123809894 0 0.47547805123809894 28.613613000982809 0 0 0 0 -152.57339136267433 48.70910231070593 0 48.70910231070593 99.425673692341661 0 0 0 0 82.603303920333019 -256.16604650393128 0 -256.16604650393128 487.85827495178091 0 0 0 0 8.7272158583596138 90.32445334795193 0 90.32445334795193 -282.38529073030804 0 0 0 0 -137.15582122847843 288.52470712282047 0 288.52470712282047 1821.2307461345918 0 0 0 0 -136.90935743072987 295.54022851747868 0 295.54022851747868 1345.4952851360431 0 0 0 0 25.523480231364374 287.60489681744366 0 287.60489681744366 1045.8692922983901 0 0 0 0 37.408851749054065 -270.42248743667551 0 -270.42248743667551 666.95913793641375 0 0 0 0 136.46717748443552 291.56556200642081 0 291.56556200642081 1382.5815121125197 0 0 0 0 -4.3347959497148452 -1.4892543536869596 0 -1.4892543536869596 2.4104149702317699 0 0 0 0 -365.18116222401295 171.68766412611876 0 171.68766412611876 1450.9562931171095 0 0 0 0 382.43776183195951 666.81332802434918 0 666.81332802434918 544.1918750074401 0 0 0 0 8.2420282602179213 600.69820197192894 0 600.69820197192894 251.09046789117929 0 0 0 0 327.12132351098262 1360.2120514283888 0 1360.2120514283888 813.86163104567095 0 0 0 0 -11.065161281454493 633.45950400398578 0 633.45950400398578 1120.5570939147801 0 0 0 0 7.7063766914889129 851.7056150178978 0 851.7056150178978 1647.3172927717678 0 0 0 0 -192.04365275045711 584.00469955865992 0 584.00469955865992 1939.9827066036814 0 0 0 0 -75.970626758793514 1256.4093983415078 0 1256.4093983415078 2193.1860771828506 0 0 0 0 33.15133400214836 860.55512761417776 0 860.55512761417776 1383.0277787331142 0 0 0 0 -270.98547067572144 737.62827951367944 0 737.62827951367944 2951.3526764495182 0 0 0 0 -269.39471904376296 593.06572746174061 0 593.06572746174061 2708.6450792014366 0 0 0 0 -293.44845077493665 707.6610100826947 0 707.6610100826947 2165.5432173963636 0 0 0 0 -252.16080640777727 469.75288813354564 0 469.75288813354564 1852.9256134003663 0 0 0 0 -332.68266113895152 356.85067509379587 0 356.85067509379587 1996.9645566252293 0 0 0 0 -254.41966726574537 499.10113555414136 0 499.10113555414136 2066.2369303475716 0 0 0 0 -249.13954551301322 352.40646777724032 0 352.40646777724032 1936.4707327690849 0 0 0 0 -241.00751990247977 334.52095637271123 0 334.52095637271123 1775.78103812068 0 0 0 0 -196.91627272072492 448.38417764411133 0 448.38417764411133 1758.6019814570318 0 0 0 0 -159.95769251019556 513.05326820221671 0 513.05326820221671 1763.1246149715153 0 0 0 0 -199.75689986223506 638.83367263357104 0 638.83367263357104 1759.8469996723579 0 0 0 0 -334.76034092269401 -752.21656513845664 0 -752.21656513845664 1733.1129277690052 0 0 0 0 -480.58532601443221 993.7064363702666 0 993.7064363702666 1079.6955625150367 0 0 0 0 -136.52984097151784 374.80520252385031 0 374.80520252385031 1453.8657963869045 0 0 0 0 -92.708557869414108 180.20676181599265 0 180.20676181599265 78.753774867771426 0 0 0 0 -17.260866013140362 15.804711330673911 0 15.804711330673911 3.8385186684876658 0 0 0 0 157.82078541188821 -763.59060580361984 0 -763.59060580361984 -352.21279669296928 0 0 0 0 -6.9749594923860005 -17.969619630559251 0 -17.969619630559251 73.826137654372303 0 0 0 0 -231.07110871820259 -134.49881903323694 0 -134.49881903323694 196.48092878225725 0 0 0 0 -114.96459017317466 1492.6063762363192 0 1492.6063762363192 1666.3667018139968 0 0 0 0 708.58295294873824 239.04924658243544 0 239.04924658243544 -271.91065886602155 0 0 0 0 234.53048917172055 1013.8755845686246 0 1013.8755845686246 1891.2387414462428 0 0 0 0 -253.94394384574844 377.30937496316619 0 377.30937496316619 5398.2302905272663 0 0 0 0 516.61701386389723 2051.7240445697826 0 2051.7240445697826 4073.4633987981651 0 0 0 0 691.40862104308508 -1300.6698468904287 0 -1300.6698468904287 1553.6318659732351 0 0 0 0 2094.774339360667 2086.4586076580017 0 2086.4586076580017 2142.2926583591616 0 0 0 0 2.7632972120032324 -6.4699478290237167 0 -6.4699478290237167 26.845277050110553 0 0 0 0 679.03949393723997 -483.80759897855751 0 -483.80759897855751 208.91977041686187 0 0 0 0 -1357.3916484152687 -158.98795046252781 0 -158.98795046252781 2816.149069191335 0 0 0 0 -797.43375749287225 -1560.1983608488081 0 -1560.1983608488081 4712.7954293987132 0 0 0 0 -1011.210632549466 -1537.14067374554 0 -1537.14067374554 2518.6017494027037 0 0 0 0 -479.17888683455931 -194.21970728474844 0 -194.21970728474844 3858.0947444069388 0 0 0 0 160.40880149275304 87.22616053781303 0 87.22616053781303 40.670139860138718 0 0 0 0 717.34607941700597 2578.7315375537255 0 2578.7315375537255 -3100.2106204049196 0 0 0 0 436.78553785994336 987.7613010561472 0 987.7613010561472 5250.9157228100557 0 0 0 0 1013.7921870686969 -106.50652407758753 0 -106.50652407758753 1082.3794637192477 0 0 0 0 1719.5970849304604 -1665.9007413680774 0 -1665.9007413680774 1999.3445015082834 0 0 0 0 262.83614214912723 -560.37849286903656 0 -560.37849286903656 2143.4422780370223 0 0 0 0 337.97017511952072 -999.55139727750793 0 -999.55139727750793 4710.1256492210377 0 0 0 0 227.24100675828208 137.49682367310501 0 137.49682367310501 70.758406961928273 0 0 0 0 -164.46468107771216 -56.300705906200164 0 -56.300705906200164 -216.07072276386316 0 0 0 0 -31.080421881751292 4.7127845721659725 0 4.7127845721659725 22.740361752682389 0 0 0 0 519.58857277382049 1932.8817534334012 0 1932.8817534334012 318.41113310534274 0 0 0 0 385.8363366025369 441.19390679576281 0 441.19390679576281 206.06295603449689 0 0 0 0 488.69149589337394 908.18748664276063 0 908.18748664276063 630.20220601238543 0 0 0 0 -439.95357591648644 212.8655042930186 0 212.8655042930186 207.00821392014041 0 0 0 0 -1564.6667492768029 -521.01618537309696 0 -521.01618537309696 -288.88433068589075 0 0 0 0 -441.79417518625269 1463.2477842991648 0 1463.2477842991648 1518.2214900519321 0 0 0 0 -3244.1831138617636 341.36670808550844 0 341.36670808550844 2863.6649414137937 0 0 0 0 -1852.3198181076586 459.17332379904838 0 459.17332379904838 2060.2934350449941 0 0 0 0 -1359.214716799921 1064.5373337389319 0 1064.5373337389319 1346.2378005076025 0 0 0 0 -1486.9025597549917 1117.375060465376 0 1117.375060465376 802.60271071751777 0 0 0 0 -4.9791643351327366 57.847244110002066 0 57.847244110002066 1260.1623251611891 0 0 0 0 -122.2336080464338 -80.617638915413409 0 -80.617638915413409 1598.0808450086333 0 0 0 0 -122.00438714120736 136.01904673245895 0 136.01904673245895 1419.8494302913605 0 0 0 0 -122.54439239580097 148.13705899749766 0 148.13705899749766 1613.3189832287899 0 0 0 0 -273.33468427729167 337.55167852675368 0 337.55167852675368 1941.4430150656844 0 0 0 0 -236.23822101629412 37.485787066398188 0 37.485787066398188 1966.3022707570926 0 0 0 0 -294.53045177528111 -18.339981733384775 0 -18.339981733384775 2141.8139461088867 0 0 0 0 -353.36613373836371 315.30379897222156 0 315.30379897222156 2627.7317218010721 0 0 0 0 -282.81934246201854 -154.01183571506408 0 -154.01183571506408 3408.9652944831032 0 0 0 0 -119.80233842410053 -167.26647998047702 0 -167.26647998047702 2155.3586279434071 0 0 0 0 -108.58180221191287 -216.26854516942694 0 -216.26854516942694 2267.5028278768586 0 0 0 0 -270.05423385751419 -464.5425101344299 0 -464.5425101344299 1949.140000303596 0 0 0 0 34.566745424914664 33.831672581964995 0 33.831672581964995 34.742251631867248 0 0 0 0 -69.080346469950825 33.064018288132218 0 33.064018288132218 140.18685259510249 0 0 0 0 -53.644389204891922 9.4563693184609292 0 9.4563693184609292 262.62152541649994 0 0 0 0 -31.441604493997147 -13.98544495699025 0 -13.98544495699025 272.44511489075376 0 0 0 0 187.51009553748008 143.75929260214616 0 143.75929260214616 717.84126674423169 0 0 0 0 55.603688654459859 61.231716531435666 0 61.231716531435666 47.492445666196545 0 0 0 0 80.433383549883729 44.8605365188414 0 44.8605365188414 96.298692264288547 0 0 0 0 118.2333196920863 -726.00486060538969 0 -726.00486060538969 1130.6908310600847 0 0 0 0 13.572907549758384 262.84065364540584 0 262.84065364540584 1278.7586171861112 0 0 0 0 37.193156364839524 164.62313012706727 0 164.62313012706727 1126.0963483555024 0 0 0 0 2.6919664258041536 0.70596382184569961 0 0.70596382184569961 19.475492623563525 0 0 0 0 12.940645675030908 19.994771354694421 0 19.994771354694421 71.496867604189902 0 0 0 0 77.890737113683372 524.47695277517778 0 524.47695277517778 1439.2746842313063 0 0 0 0 127.84886798631123 417.0184618113708 0 417.0184618113708 1205.3843138536613 0 0 0 0 -97.118861068619481 329.1424957982963 0 329.1424957982963 1562.2617307202017 0 0 0 0 -86.146035666386524 371.32193907121837 0 371.32193907121837 1656.4259373979148 0 0 0 0 -144.42722145690823 392.81774334861257 0 392.81774334861257 1802.4443272565695 0 0 0 0 -180.76139942718646 371.25070049228452 0 371.25070049228452 2033.2110705410014 0 0 0 0 -44.803639025712528 581.73644459394563 0 581.73644459394563 1827.5057875119674 0 0 0 0 -6.7724605196857333 -0.52488529549691521 0 -0.52488529549691521 3.4878323651454224 0 0 0 0 -13.938291479466784 102.5721222941429 0 102.5721222941429 1674.4294450791785 0 0 0 0 -138.41656295876055 308.46779213544505 0 308.46779213544505 1848.6268904775061 0 0 0 0 59.674003683595402 397.66105138057901 0 397.66105138057901 1252.6835197449836 0 0 0 0 -8.3452719357103113 -0.040265825958613277 0 -0.040265825958613277 3.4329578647655552 0 0 0 0 6.1408539529302288 191.60486489906907 0 191.60486489906907 1938.6001549284556 0 0 0 0 532.64610984413798 -555.87702210267889 0 -555.87702210267889 2862.6768268598535 0 0 0 0 -0.42355343564457926 1020.1666085118559 0 1020.1666085118559 4797.7563032231992 0 0 0 0 282.573416808057 352.58874932008621 0 352.58874932008621 1228.8873630616399 0 0 0 0 -25.651357421521652 -169.69894014853344 0 -169.69894014853344 2417.3716988649976 0 0 0 0 173.42583434577884 791.19100957872797 0 791.19100957872797 2136.3053159113624 0 0 0 0 1099.3730127756348 2285.8061505472288 0 2285.8061505472288 3837.6879598864762 0 0 0 0 712.07804631968884 -877.37322819352266 0 -877.37322819352266 1161.1072081669699 0 0 0 0 1.5439089705020554 0.11815311386195049 0 0.11815311386195049 11.617428327194375 0 0 0 0 1.059747051985072 7.1477625555301358 0 7.1477625555301358 9.5980435997981886 0 0 0 0 0.0033880892921514271 -0.092760427993198391 0 -0.092760427993198391 22.932230473634263 0 0 0 0 -5.6703209318114087 -0.34418523887065078 0 -0.34418523887065078 27.53573710373297 0 0 0 0 -3.5283869516257171 -2.6311123759442125 0 -2.6311123759442125 38.654596282547573 0 0 0 0 23.662928667479719 23.314492894380237 0 23.314492894380237 55.566847863578005 0 0 0 0 6.6729373236207659 -2.7552685413255631 0 -2.7552685413255631 6.2188430145020561 0 0 0 0 79.532530393022967 901.59695922857645 0 901.59695922857645 2127.6635590914229 0 0 0 0 -4.4175776741727208 -3.4296176509835732 0 -3.4296176509835732 47.226902686430947 0 0 0 0 10.534856835589167 7.1739376236437238 0 7.1739376236437238 45.939702542425948 0 0 0 0 3.6252094327111868 5.8290687327680644 0 5.8290687327680644 40.670877358235884 0 0 0 0 -4.0680999829677713 -3.6889954340113036 0 -3.6889954340113036 68.797546403860906 0 0 0 0 -0.0086914445304635841 -2.9415991714631673 0 -2.9415991714631673 63.370768667780794 0 0 0 0 -0.78186730172956054 -12.661279670282966 0 -12.661279670282966 86.023937584250234 0 0 0 0 -2.8753821389338299 5.648225585322507 0 5.648225585322507 73.402001855400158 0 0 0 0 -0.24922620403513801 -3.7684796748808367 0 -3.7684796748808367 27.015810974183069 0 0 0 0 -17.10831558364907 -1.3756773847198929 0 -1.3756773847198929 112.65872549061896 0 0 0 0 6.17689044657764 -17.246442124102032 0 -17.246442124102032 107.78967939870199 0 0 0 0 -4.514389718823999 -23.735940405997098 0 -23.735940405997098 140.97404573767562 0 0 0 0 2.1828651600059032 -29.546217488066759 0 -29.546217488066759 88.529934917460196 0 0 0 0 -6.1406377198736983 -45.867097875394393 0 -45.867097875394393 186.63530043727951 0 0 0 0 0.53124011633425516 -0.77957801383564629 0 -0.77957801383564629 0.81825895628654166 0 0 0 0 46.048205732846327 -10.983574282749032 0 -10.983574282749032 278.60711584088858 0 0 0 0 49.453745252423687 -18.710752749670064 0 -18.710752749670064 169.16986412520055 0 0 0 0 4.7112382707808091 30.966794611909336 0 30.966794611909336 38.308375427921646 0 0 0 0 15.18901383728462 -21.957192798494361 0 -21.957192798494361 188.06316546059679 0 0 0 0 42.261578166062463 -19.024098311085254 0 -19.024098311085254 147.25424493919127 0 0 0 0 -0.61682026596163375 -32.404806547388119 0 -32.404806547388119 101.50641748578903 0 0 0 0 -46.434909796578722 -2.7882386563578621 0 -2.7882386563578621 183.60049265131238 0 0 0 0 -71.451757769422329 12.399509507493349 0 12.399509507493349 174.45676076333621 0 0 0 0 -31.504692152273492 38.914237578544999 0 38.914237578544999 101.82375673722709 0 0 0 0 -0.9275188766436866 9.2263204339098763 0 9.2263204339098763 11.332998096249469 0 0 0 0 166.80690106137808 -145.71009398889146 0 -145.71009398889146 113.21725742158014 0 0 0 0 99.139056545861877 -221.12732840204262 0 -221.12732840204262 238.61738217569655 0 0 0 0 111.69117483717309 -134.95236210652365 0 -134.95236210652365 200.4319609652448 0 0 0 0 37.109846169464618 -19.906190493427857 0 -19.906190493427857 178.85601904577925 0 0 0 0 51.325541138394328 -35.908260580763454 0 -35.908260580763454 39.897719784814399 0 0 0 0 8.3632577191488053 -165.99166726315161 0 -165.99166726315161 206.017628561327 0 0 0 0 -16.662823625387318 -204.45728582744778 0 -204.45728582744778 216.37345295172418 0 0 0 0 4.2939400149831499 -139.70584924994273 0 -139.70584924994273 310.3218120514066 0 0 0 0 -35.227424381268065 -126.55064768933516 0 -126.55064768933516 -23.987865610804874 0 0 0 0 8.0707370748334597 -38.305800362027185 0 -38.305800362027185 82.70051072575734 0 0 0 0 -0.96281995012827792 -90.647626065358963 0 -90.647626065358963 310.17513966141269 0 0 0 0 21.916978983264471 -48.86034399152777 0 -48.86034399152777 245.5862812717678 0 0 0 0 160.28630887096097 -0.47469012756482698 0 -0.47469012756482698 -19.68642680234916 0 0 0 0 117.44867200310523 -142.23139881014322 0 -142.23139881014322 66.72949562210124 0 0 0 0 14.853849698124447 4.6303279029696398 0 4.6303279029696398 2.5062238167814996 0 0 0 0 104.33828909626482 30.110932985509862 0 30.110932985509862 -170.02751776606601 0 0 0 0 21.86511866438741 -66.982763883046573 0 -66.982763883046573 -51.228969061965472 0 0 0 0 -44.828821528483786 100.03043394919587 0 100.03043394919587 -105.20580264160526 0 0 0 0 0.042847244317285781 -6.4382743812602712 0 -6.4382743812602712 107.54073185076413 0 0 0 0 9.0649749240239466 -22.257881347686634 0 -22.257881347686634 44.591927951012622 0 0 0 0 -14.207931711250225 0.45391269329395811 0 0.45391269329395811 74.04053019412072 0 0 0 0 -19.162594173616274 -19.375434130088252 0 -19.375434130088252 115.45474357756029 0 0 0 0 106.56441494019919 -72.121989435108844 0 -72.121989435108844 -17.247835990681779 0 0 0 0 26.747304830709254 -6.887347256852081 0 -6.887347256852081 23.076931554787734 0 0 0 0 -20.182652083767834 -15.354764055138816 0 -15.354764055138816 36.488293219618583 0 0 0 0 -9.3164418423196782 -4.1228588202720857 0 -4.1228588202720857 47.036382703772688 0 0 0 0 -0.019647183477849096 -16.017832066070696 0 -16.017832066070696 23.162418933934532 0 0 0 0 6.6653740308552702 -11.888011948964333 0 -11.888011948964333 11.787232694170626 0 0 0 0 8.5664011128559547 -3.1354309156903355 0 -3.1354309156903355 7.1163259750452426 0 0 0 0 0.1313042943146718 -29.099320735578658 0 -29.099320735578658 20.011358945426764 0 0 0 0 358.74750596117815 -557.14278867185203 0 -557.14278867185203 1092.1151871839247 0 0 0 0 859.12398491411079 -1187.978945100127 0 -1187.978945100127 1729.7289632184838 0 0 0 0 40.353584600205863 -348.37008257285925 0 -348.37008257285925 1986.9689413432352 0 0 0 0 -110.3581960594737 -48.567193920054706 0 -48.567193920054706 568.88164012052584 0 0 0 0 166.2340978170613 -36.359868084691698 0 -36.359868084691698 772.01413155425689 0 0 0 0 81.177229918620469 -503.03063257531903 0 -503.03063257531903 1268.1610947766458 0 0 0 0 39.515991589495613 3.7018854612954044 0 3.7018854612954044 4.0143524740147143 0 0 0 0 105.15694844798736 -688.48117034744064 0 -688.48117034744064 1234.8430563379807 0 0 0 0 291.96447653786049 -619.3094064985562 0 -619.3094064985562 798.49335795952356 0 0 0 0 -241.89483684564539 -363.0897097432462 0 -363.0897097432462 1459.7188491523702 0 0 0 0 132.25076563370067 -297.45713058731417 0 -297.45713058731417 142.86264688266965 0 0 0 0 8.1118744748281966 59.474604010164718 0 59.474604010164718 225.90326578585314 0 0 0 0 -1107.3870121528848 642.25686450945068 0 642.25686450945068 445.08632127460442 0 0 0 0 -389.05423459746589 104.3480577145383 0 104.3480577145383 829.53870061160706 0 0 0 0 -329.70880145302897 161.22168469010285 0 161.22168469010285 -54.749726900685346 0 0 0 0 417.98391054334752 -80.911786641303479 0 -80.911786641303479 248.48485951696057 0 0 0 0 6.4088474007685914 48.969198012665387 0 48.969198012665387 185.44684794177874 0 0 0 0 -884.59990505132282 798.64459461633669 0 798.64459461633669 16.16282197280907 0 0 0 0 -615.14919921725618 294.1717871355504 0 294.1717871355504 203.69948695113999 0 0 0 0 -0.2154749521909462 406.02525255728688 0 406.02525255728688 164.47685698754503 0 0 0 0 115.84817517068223 -89.360464145342121 0 -89.360464145342121 719.25953878543805 0 0 0 0 3.5273307450197295 338.7179814409418 0 338.7179814409418 1193.5460080998309 0 0 0 0 -67.000389195124058 181.44633119023638 0 181.44633119023638 -7.3397941170987906 0 0 0 0 -139.72938997455333 208.26566730193736 0 208.26566730193736 897.22207369148964 0 0 0 0 529.59749430845841 -262.33568417814968 0 -262.33568417814968 -1.7239323982430506 0 0 0 0 225.98585441733485 432.12588473991673 0 432.12588473991673 797.66221000578662 0 0 0 0 35.040465124616603 -64.022051469013618 0 -64.022051469013618 123.2558906820517 0 0 0 0 242.67401441090988 -583.15405128524981 0 -583.15405128524981 117.12747105203744 0 0 0 0 389.82725029232097 -432.58522401300434 0 -432.58522401300434 -118.04460169617232 0 0 0 0 362.46646613895427 -458.88148997045937 0 -458.88148997045937 120.01299781642592 0 0 0 0 249.21344121956645 -640.60413153397531 0 -640.60413153397531 -124.56535343900032 0 0 0 0 353.47965811867471 109.91649819528902 0 109.91649819528902 -218.00345053557248 0 0 0 0 -620.21154105547612 267.94169857236557 0 267.94169857236557 279.30023414188145 0 0 0 0 -1.1338520424434311 -17.246738928563033 0 -17.246738928563033 38.376299990190887 0 0 0 0 417.87628239761216 -568.23319038028058 0 -568.23319038028058 81.010468437254531 0 0 0 0 585.43576232007399 -349.42737527619465 0 -349.42737527619465 -497.55473311943933 0 0 0 0 -3.3716681693362958 -16.341634979616892 0 -16.341634979616892 48.246909704778886 0 0 0 0 -2208.8457911475671 -923.50835410187574 0 -923.50835410187574 1018.1168953564484 0 0 0 0 -222.52861740033404 -1410.6278165098629 0 -1410.6278165098629 -138.09716326168564 0 0 0 0 -223.12053783162924 -1443.0523450065889 0 -1443.0523450065889 2508.6944985014416 0 0 0 0 -861.13937820916294 508.31668612915541 0 508.31668612915541 443.70174342383689 0 0 0 0 -2406.7883916851424 -1996.8228782626684 0 -1996.8228782626684 2597.5580069550779 0 0 0 0 9.4244620386890077 70.910979313719565 0 70.910979313719565 267.36154634692457 0 0 0 0 -890.46051638197059 430.85213691476019 0 430.85213691476019 1171.0318397598603 0 0 0 0 -335.39796754045165 -777.14072412485984 0 -777.14072412485984 350.18227769707346 0 0 0 0 -2.4057769304165904 -9.9067201726780496 0 -9.9067201726780496 24.233303920449941 0 0 0 0 -2198.1117761725873 1110.9046520170268 0 1110.9046520170268 1067.3581234058511 0 0 0 0 -318.62310818740116 1513.1849574680327 0 1513.1849574680327 2900.8710407051549 0 0 0 0 -319.8811243043674 1387.614098607999 0 1387.614098607999 29.035297668387102 0 0 0 0 1038.9866822595577 188.96298130575451 0 188.96298130575451 -1370.8452440860237 0 0 0 0 3867.9850273533812 1351.6780859876817 0 1351.6780859876817 -936.95203230038896 0 0 0 0 -796.81895085556971 -500.95049701044991 0 -500.95049701044991 2927.1848195086204 0 0 0 0 2790.2739717449222 -624.92486300027667 0 -624.92486300027667 -269.36960795685081 0 0 0 0 673.64625037504447 1268.9225903149272 0 1268.9225903149272 1127.715117522137 0 0 0 0 13.63851736271684 -21.371044180909266 0 -21.371044180909266 41.339076900725388 0 0 0 0 18.583458815995073 -23.961601801323141 0 -23.961601801323141 20.986994286823645 0 0 0 0 -370.5327518442582 -993.573026106822 0 -993.573026106822 -436.47713483794359 0 0 0 0 -190.96637153545271 -298.00993565700264 0 -298.00993565700264 417.04840494130985 0 0 0 0 -76.428732519947289 91.603056804446169 0 91.603056804446169 805.17228398039151 0 0 0 0 1122.1058001868732 -602.41823025274061 0 -602.41823025274061 -1113.8309130298185 0 0 0 0 -271.71404601918402 325.99527528345425 0 325.99527528345425 1976.170827219903 0 0 0 0 -56.154458621233061 290.91405026767825 0 290.91405026767825 1450.4663398458797 0 0 0 0 11.405164868197502 -10.585546941731849 0 -10.585546941731849 8.9603991721364764 0 0 0 0 -190.42445513653547 -324.39582114034238 0 -324.39582114034238 1900.0419698896876 0 0 0 0 -45.114825929271319 -288.62081722719813 0 -288.62081722719813 765.70942514104536 0 0 0 0 -23.553273469289707 -222.22557368876369 0 -222.22557368876369 721.96998173416068 0 0 0 0 416.97677695499442 -338.83310991039252 0 -338.83310991039252 -329.9240819249535 0 0 0 0 48.380415765355792 -261.3184284607014 0 -261.3184284607014 311.06593691685703 0 0 0 0 -162.62174304984364 180.89398774730944 0 180.89398774730944 724.56059071020354 0 0 0 0 0.57277865128894945 4.2188521161939718 0 4.2188521161939718 3.7542471429707689 0 0 0 0 25.619801272729092 50.556645689590368 0 50.556645689590368 -370.74116126804438 0 0 0 0 -603.76164577573945 -1212.4117041175195 0 -1212.4117041175195 781.55633140223654 0 0 0 0 4176.5296548080805 -1701.8172081785815 0 -1701.8172081785815 -1768.0258958053601 0 0 0 0 1162.0972981605591 -204.41135289394879 0 -204.41135289394879 -151.81824461181532 0 0 0 0 976.03622812659887 -570.27981269964948 0 -570.27981269964948 96.654083524539601 0 0 0 0 -97.316133422966232 439.69729829397693 0 439.69729829397693 577.30032470513834 0 0 0 0 16.06762591893547 75.774193870563991 0 75.774193870563991 258.17913309043422 0 0 0 0 -568.50489207198552 1971.7005762134431 0 1971.7005762134431 793.58805818745896 0 0 0 0 -359.85910290585161 57.431645269673027 0 57.431645269673027 85.070352349081077 0 0 0 0 199.50315457307806 -739.72979168971142 0 -739.72979168971142 628.50274663931486 0 0 0 0 -171.10326778139188 -169.92837538001186 0 -169.92837538001186 -199.88932397894678 0 0 0 0 -48.388238239342172 4.0854445328441216 0 4.0854445328441216 0.44397176017810125 0 0 0 0 -100.0460639204357 -139.76800467958674 0 -139.76800467958674 90.782769563236798 0 0 0 0 111.87801913001749 -168.35808355860354 0 -168.35808355860354 257.65443792342558 0 0 0 0 -4.676955721713739 -44.798935332283236 0 -44.798935332283236 184.15058165873052 0 0 0 0 57.589962066278531 227.53594893973786 0 227.53594893973786 540.80071798077552 0 0 0 0 -124.46985581599802 -1.9089535960301873 0 -1.9089535960301873 251.88238622032077 0 0 0 0 -7.5375406284906106 50.957065660497896 0 50.957065660497896 211.26661975679485 0 0 0 0 -58.797676449772325 155.59414485653906 0 155.59414485653906 107.68495662164059 0 0 0 0 -180.52645546265921 137.57874727751005 0 137.57874727751005 359.41740779936663 0 0 0 0 -77.580102291387448 -39.287377609391115 0 -39.287377609391115 181.86010496370727 0 0 0 0 -85.557082935847575 -5.0421471497393213 0 -5.0421471497393213 273.54714211102691 0 0 0 0 1.5867230886542529 -132.68804614560213 0 -132.68804614560213 455.1877686248954 0 0 0 0 16.023895037994738 13.323437597125547 0 13.323437597125547 15.106527033265053 0 0 0 0 -15.058597359485248 8.3615040698969096 0 8.3615040698969096 620.04997587090475 0 0 0 0 160.67499551685614 -63.280922399964766 0 -63.280922399964766 123.9450018897769 0 0 0 0 3.2790722617811028 -8.7748017308120865 0 -8.7748017308120865 11.479622186747974 0 0 0 0 -254.88983662491228 -420.27875145729922 0 -420.27875145729922 -75.131541652892338 0 0 0 0 2.535679801580045 -114.59196123354013 0 -114.59196123354013 247.53654207833461 0 0 0 0 225.7491204771577 20.160303275020851 0 20.160303275020851 -247.74604929196357 0 0 0 0 224.76235703030034 -68.442652431946044 0 -68.442652431946044 -67.163438942850917 0 0 0 0 -191.67241350443874 325.94741317619628 0 325.94741317619628 -185.50513238293206 0 0 0 0 7.3328667586392839 263.75564999783819 0 263.75564999783819 -440.1286568836249 0 0 0 0 -15.023416940908675 -1.7236635352464731 0 -1.7236635352464731 43.120989857300287 0 0 0 0 -141.05907056220167 196.19107341678318 0 196.19107341678318 -162.3575459535532 0 0 0 0 10.210420100760402 28.428217410720663 0 28.428217410720663 63.477878134122619 0 0 0 0 172.28910566413833 333.22020112995233 0 333.22020112995233 174.00311439140933 0 0 0 0 -504.125581622764 -559.35609931251383 0 -559.35609931251383 -303.58845107443994 0 0 0 0 -287.32670182250513 -77.815431293216534 0 -77.815431293216534 428.71685963511118 0 0 0 0 -83.833413683755708 11.089407548945758 0 11.089407548945758 38.207516912264154 0 0 0 0 -1511.3086104600225 -750.30002032314951 0 -750.30002032314951 1317.0825506624242 0 0 0 0 -1539.6261045012216 -881.93098691809428 0 -881.93098691809428 3579.671696913656 0 0 0 0 -30.788983449994461 -7.4362202676079079 0 -7.4362202676079079 1.3904753913467118 0 0 0 0 2705.4806234462012 -1186.792660491752 0 -1186.792660491752 -1374.2967636082685 0 0 0 0 -379.21549764221709 -96.69211713747427 0 -96.69211713747427 341.80383128149333 0 0 0 0 -218.96874362567269 242.07011625925952 0 242.07011625925952 565.2040517106434 0 0 0 0 82.268999966703632 106.00387815178692 0 106.00387815178692 43.843251035803405 0 0 0 0 85.647310555912554 -10.852894362240477 0 -10.852894362240477 689.81471829634575 0 0 0 0 344.05790992161928 1933.7098325726383 0 1933.7098325726383 904.85353259650583 0 0 0 0 -424.88620887947218 1682.1495428934268 0 1682.1495428934268 4455.4860694554081 0 0 0 0 -335.43143126418727 224.59429545787862 0 224.59429545787862 3979.3641864251258 0 0 0 0 -289.03746717595277 553.79774136414926 0 553.79774136414926 2130.6768010957094 0 0 0 0 273.57451262317409 384.4619172299499 0 384.4619172299499 1599.1581353680522 0 0 0 0 182.478833123394 379.16279229371139 0 379.16279229371139 1617.7456644622762 0 0 0 0 238.95176713453452 146.50915955961955 0 146.50915955961955 1593.6383104894194 0 0 0 0 61.145087375676667 65.34611823855812 0 65.34611823855812 1803.4722097668018 0 0 0 0 0.23458690518481262 -3.3468499756333756 0 -3.3468499756333756 5.5054804816848701 0 0 0 0 334.60056470069958 81.94545131472114 0 81.94545131472114 217.22680254619627 0 0 0 0 48.251080577832909 236.97044065217779 0 236.97044065217779 1676.0253452177913 0 0 0 0 339.11428608550568 86.861701434530005 0 86.861701434530005 123.12562000287289 0 0 0 0 -3.5063182716382642 -3.6837608703365277 0 -3.6837608703365277 2.2955727768589043 0 0 0 0 732.78822040983141 82.677830805972917 0 82.677830805972917 -1048.3800435663761 0 0 0 0 375.47644051462248 -181.32299336179494 0 -181.32299336179494 334.7990516140344 0 0 0 0 431.68589226786617 12.608454811132106 0 12.608454811132106 262.94963599547918 0 0 0 0 233.02215638928533 98.214641289078259 0 98.214641289078259 414.31887545301288 0 0 0 0 233.25360189354979 122.528728581623 0 122.528728581623 457.32078208153325 0 0 0 0 -9.5427409931580769 8.5856637871620478 0 8.5856637871620478 974.39127493891283 0 0 0 0 61.189085862653883 116.75393706571049 0 116.75393706571049 604.59029251481115 0 0 0 0 -18.560456596784206 301.93942067546232 0 301.93942067546232 714.03576825129494 0 0 0 0 -297.25731450253807 -138.05829591654765 0 -138.05829591654765 1112.6823721797455 0 0 0 0 -64.017272887347644 431.13460313333417 0 431.13460313333417 1202.2315320322305 0 0 0 0 -2.2340494581877053 -3.476626616257235 0 -3.476626616257235 9.6824597927704019 0 0 0 0 -14.665906964810347 -603.9788814659878 0 -603.9788814659878 -101.01699448742875 0 0 0 0 81.27550347030774 -325.17949953503194 0 -325.17949953503194 618.68476806837862 0 0 0 0 -29.056473980637747 -162.48286341135645 0 -162.48286341135645 652.55597272654268 0 0 0 0 -60.121650318167667 -193.84198533319068 0 -193.84198533319068 869.62194897915106 0 0 0 0 -242.9643673531524 -35.418727468355883 0 -35.418727468355883 1295.9023354613237 0 0 0 0 -260.91318090471486 97.16134853058611 0 97.16134853058611 1177.2614962653533 0 0 0 0 -181.61566356190451 19.460342002323159 0 19.460342002323159 864.15597038137639 0 0 0 0 -256.41015088168206 95.626830978435464 0 95.626830978435464 841.78084539477277 0 0 0 0 -116.37849261430347 -100.18692453359108 0 -100.18692453359108 519.32366031974379 0 0 0 0 8.1549088383435446 249.83510682211636 0 249.83510682211636 748.96566911398986 0 0 0 0 -265.74344197900518 95.663344378050169 0 95.663344378050169 1368.8970523770913 0 0 0 0 -136.06243669341347 15.533713848417392 0 15.533713848417392 1343.8222116036341 0 0 0 0 0.20235726746432192 339.08823380432295 0 339.08823380432295 1460.3223827915301 0 0 0 0 41.450296194610928 -20.308654380864027 0 -20.308654380864027 1437.5254422628568 0 0 0 0 64.839549617179728 223.526738823286 0 223.526738823286 324.58434815800865 0 0 0 0 96.844197814985819 170.93966305690992 0 170.93966305690992 598.38541676674504 0 0 0 0 -15.220185240781575 104.12558237698613 0 104.12558237698613 803.40110088262736 0 0 0 0 196.98371583206836 91.404795059950629 0 91.404795059950629 374.09564747551485 0 0 0 0 2.2536081116955486 -6.7423300404208675 0 -6.7423300404208675 8.0432306473021669 0 0 0 0 55.653042204260771 -16.538735997663366 0 -16.538735997663366 335.68546001214418 0 0 0 0 -75.108474086673596 120.84963744378183 0 120.84963744378183 271.57128848828143 0 0 0 0 0.6771061412450301 -3.8942249116295784 0 -3.8942249116295784 4.743051370774154 0 0 0 0 8.7875417241773448 23.353668142692186 0 23.353668142692186 1061.8178871469718 0 0 0 0 428.49904443128924 153.1245067636828 0 153.1245067636828 82.459427664798568 0 0 0 0 271.65994385259091 -193.0770006454477 0 -193.0770006454477 843.95946773740798 0 0 0 0 119.40342948422762 -468.59157146557072 0 -468.59157146557072 613.4194550548782 0 0 0 0 126.34041916468232 -454.58716315507627 0 -454.58716315507627 -73.843749958108674 0 0 0 0 138.54910560264943 216.16101511292618 0 216.16101511292618 645.60823948199686 0 0 0 0 27.445441031107293 223.57632348056359 0 223.57632348056359 645.1161366907545 0 0 0 0 126.21464892000131 -9.6690332312682585 0 -9.6690332312682585 658.83976780893863 0 0 0 0 -51.130133823466167 228.10685557003671 0 228.10685557003671 684.9992433869229 0 0 0 0 40.251810940586438 147.10954042604499 0 147.10954042604499 755.81395460132262 0 0 0 0 -76.194408504899911 61.274609492549644 0 61.274609492549644 1071.3114963057669 0 0 0 0 87.32004955461889 -36.831043605674495 0 -36.831043605674495 782.63794340939558 0 0 0 0 188.52814371544355 -126.20176758962043 0 -126.20176758962043 860.82346698458059 0 0 0 0 345.01263400212065 175.88249614254255 0 175.88249614254255 872.07245429680188 0 0 0 0 315.67100525867863 -1.5013620596437249 0 -1.5013620596437249 661.57589446082056 0 0 0 0 105.77317388431038 -99.211315159031074 0 -99.211315159031074 1674.7046996749341 0 0 0 0 -237.24109049302456 643.83270473962284 0 643.83270473962284 -198.9014599108632 0 0 0 0 2.3713680136104429 3.2840360155702726 0 3.2840360155702726 5.4166021678707352 0 0 0 0 -141.45850664296086 91.341150419613768 0 91.341150419613768 214.99507373354572 0 0 0 0 -182.95311650605436 -22.122464644473439 0 -22.122464644473439 -41.453855710606149 0 0 0 0 -14.404402789219603 -43.009992565952416 0 -43.009992565952416 283.24925444772998 0 0 0 0 -119.84264312924188 34.044769678552257 0 34.044769678552257 364.62771786887606 0 0 0 0 -212.46027791223582 488.04724080986216 0 488.04724080986216 679.26854786965851 0 0 0 0 44.56120541303244 112.28512432501157 0 112.28512432501157 255.33172326356726 0 0 0 0 23.787128131765712 218.23917842864284 0 218.23917842864284 591.58646154989401 0 0 0 0 47.516610853442216 197.65800187153218 0 197.65800187153218 603.13323601353113 0 0 0 0 20.698497849774867 82.547116317684413 0 82.547116317684413 422.75160568143474 0 0 0 0 -18.682734945123229 21.603117688522616 0 21.603117688522616 482.52135017853288 0 0 0 0 28.413341889818753 130.9922147141101 0 130.9922147141101 726.20783924237548 0 0 0 0 124.86670262695998 -41.921255791512522 0 -41.921255791512522 563.12334800243116 0 0 0 0 21.606541927183571 222.72745693276556 0 222.72745693276556 658.87002293090336 0 0 0 0 12.942607612905739 -20.925001899253033 0 -20.925001899253033 20.216602240863153 0 0 0 0 -503.9061193889429 -165.15020309499596 0 -165.15020309499596 749.56660404675677 0 0 0 0 -484.06863998886911 160.31982157482344 0 160.31982157482344 1233.2629300476801 0 0 0 0 -319.2242230050615 -539.19195400515673 0 -539.19195400515673 -107.66406471398295 0 0 0 0 275.36740182043832 -118.79103476100499 0 -118.79103476100499 62.37030033035262 0 0 0 0 121.40979875586345 130.61102682978526 0 130.61102682978526 228.59222550069535 0 0 0 0 -247.74430129157793 182.53551177850341 0 182.53551177850341 231.28361821649014 0 0 0 0 58.705764250596985 133.73879489388855 0 133.73879489388855 609.66211444496366 0 0 0 0 158.66210345951731 237.40268610226485 0 237.40268610226485 702.77511980264535 0 0 0 0 123.8983743902827 -1105.1548771153975 0 -1105.1548771153975 1497.7423120723615 0 0 0 0 226.88747074596176 -252.72627265039773 0 -252.72627265039773 613.27724072741421 0 0 0 0 328.72193074260576 -1203.2867478272237 0 -1203.2867478272237 504.42394392400757 0 0 0 0 295.69643565903607 -996.11694387512398 0 -996.11694387512398 -508.7512206212408 0 0 0 0 211.55768866759172 -169.18335027345165 0 -169.18335027345165 -506.8501837220756 0 0 0 0 203.62870281828873 -187.4407027664638 0 -187.4407027664638 494.9191284354456 0 0 0 0 58.68261166549928 -804.53999094761093 0 -804.53999094761093 1536.0555016743383 0 0 0 0 -195.01746440986881 220.05057706153093 0 220.05057706153093 2418.0721125577984 0 0 0 0 3.7258716897078585 -8.7167821679569357 0 -8.7167821679569357 9.8360741491275263 0 0 0 0 722.5891525492043 462.18913122823142 0 462.18913122823142 561.69379222638418 0 0 0 0 131.94617829941853 -1096.8415272505044 0 -1096.8415272505044 1270.1415766907376 0 0 0 0 -372.35403461332589 284.31458066783489 0 284.31458066783489 -65.240076232075808 0 0 0 0 1.3000623776006393 6.415087846172824 0 6.415087846172824 12.194798181102158 0 0 0 0 337.54720987020119 -657.10473387960883 0 -657.10473387960883 499.03861286044412 0 0 0 0 132.8515763806754 -142.00270668668963 0 -142.00270668668963 199.43037089974132 0 0 0 0 -31.584634608785564 208.77445682162579 0 208.77445682162579 1235.3414709011922 0 0 0 0 -111.44244187217191 22.613161601624597 0 22.613161601624597 817.1834564600631 0 0 0 0 -116.79966573937054 112.24976854991837 0 112.24976854991837 551.51120987055037 0 0 0 0 -177.60686026021722 -26.052225735500542 0 -26.052225735500542 630.81874883258752 0 0 0 0 173.05241564157859 -189.86801589788774 0 -189.86801589788774 130.1489614964994 0 0 0 0 28.509814109723436 -96.758854930147166 0 -96.758854930147166 211.23853867996456 0 0 0 0 -23.210566912272043 -212.30997266847589 0 -212.30997266847589 159.31575410506775 0 0 0 0 -205.21988165703078 -146.67190707210102 0 -146.67190707210102 169.40959667663628 0 0 0 0 -78.813475588919999 -49.927621958068869 0 -49.927621958068869 190.37531401601012 0 0 0 0 -280.26390137246926 208.13269600935746 0 208.13269600935746 329.93512600637041 0 0 0 0 -37.861668071081041 41.855207989058584 0 41.855207989058584 8.1523790232418492 0 0 0 0 -145.80018475244833 14.977336397329054 0 14.977336397329054 173.21999162303837 0 0 0 0 -4.4381909601221992 -27.525469041199472 0 -27.525469041199472 34.367153879106723 0 0 0 0 -223.24625224275769 199.83192865559977 0 199.83192865559977 37.225357408795389 0 0 0 0 -2.2856797847504495 3.8602594600473203 0 3.8602594600473203 3.0785424342910801 0 0 0 0 -148.8865890896268 50.451454082747659 0 50.451454082747659 287.56083498252701 0 0 0 0 -108.73809320658438 -68.975139748690708 0 -68.975139748690708 64.050273279500288 0 0 0 0 468.49768036005025 -396.42200671546925 0 -396.42200671546925 296.10742596173077 0 0 0 0 -66.989537261196517 -287.24884304786553 0 -287.24884304786553 484.41327121329959 0 0 0 0 -0.37987993359477201 -0.053255737622155408 0 -0.053255737622155408 1.4637948694135332 0 0 0 0 -89.564588543560603 -65.120838725873909 0 -65.120838725873909 115.60091320327683 0 0 0 0 -37.904596909768316 20.049099527990847 0 20.049099527990847 240.51898526885634 0 0 0 0 38.163737999031582 -159.30466268730015 0 -159.30466268730015 237.66323757249592 0 0 0 0 183.14222822536613 -255.0419365688831 0 -255.0419365688831 179.51845543449599 0 0 0 0 35.71572231106984 -164.07462142729219 0 -164.07462142729219 230.79022255939344 0 0 0 0 -244.39629740846243 -223.52173307480075 0 -223.52173307480075 187.07217371975275 0 0 0 0 -1.2910805579949596 -0.93071473776817371 0 -0.93071473776817371 -2.6683857412609484 0 0 0 0 79.689548637885309 -351.25570704944039 0 -351.25570704944039 90.608859683969058 0 0 0 0 -256.57244244114793 108.16053551966058 0 108.16053551966058 30.644844447175274 0 0 0 0 -1.1209962904211643 0.82506506870318397 0 0.82506506870318397 1.2175206933887068 0 0 0 0 232.4673656769537 82.782127539419889 0 82.782127539419889 -11.758367205147806 0 0 0 0 261.73965678748573 22.782375554445025 0 22.782375554445025 -150.42836086549869 0 0 0 0 -25.623579414314008 -145.94451940492763 0 -145.94451940492763 108.74634064023667 0 0 0 0 114.00078788245401 -101.90668501175969 0 -101.90668501175969 76.725501001546945 0 0 0 0 -122.4171652802579 -14.518164470391639 0 -14.518164470391639 169.31182752624954 0 0 0 0 -13.805203917610786 -5.9623459138556854 0 -5.9623459138556854 95.728311071290364 0 0 0 0 -9.4908412942227827 -30.661939912232775 0 -30.661939912232775 126.90068569141567 0 0 0 0 -67.570888657581236 -12.314561531798972 0 -12.314561531798972 106.10550100283581 0 0 0 0 -103.84146519567912 -40.079792924703725 0 -40.079792924703725 187.38986230886439 0 0 0 0 -141.63409384236002 -80.01547868660964 0 -80.01547868660964 194.06706329839108 0 0 0 0 45.050814771118894 -29.225021977596043 0 -29.225021977596043 346.43472464043589 0 0 0 0 49.134590260930963 -133.50618393710829 0 -133.50618393710829 300.49809441154503 0 0 0 0 107.06653468652735 -83.666989673445073 0 -83.666989673445073 394.20462682978541 0 0 0 0 27.759345925926027 3.5949436001646973 0 3.5949436001646973 541.93482348872203 0 0 0 0 -40.755954913105597 -94.273170948137704 0 -94.273170948137704 391.30718682907082 0 0 0 0 35.050905735505239 -16.874322234918964 0 -16.874322234918964 365.23973461424612 0 0 0 0 -38.95901173672064 -75.950142204167605 0 -75.950142204167605 285.6569712142591 0 0 0 0 -115.26670426332021 -103.47990324705097 0 -103.47990324705097 303.21366134619893 0 0 0 0 -106.51951755504888 -106.85756934421443 0 -106.85756934421443 190.17176504653617 0 0 0 0 -141.42746573856311 -127.02114610605349 0 -127.02114610605349 339.81278821278829 0 0 0 0 -77.070020662298703 -52.754002689140179 0 -52.754002689140179 351.06572893444536 0 0 0 0 -93.772837157530375 -163.31155265185043 0 -163.31155265185043 271.88245673686106 0 0 0 0 -78.807897712509657 -72.094136853269447 0 -72.094136853269447 137.73925453069023 0 0 0 0 -509.66901426527875 30.673748385917861 0 30.673748385917861 312.86079939927731 0 0 0 0 -126.28917644854664 -141.37470930472227 0 -141.37470930472227 330.9827145032832 0 0 0 0 -231.19997999712359 -120.6798690299147 0 -120.6798690299147 327.62443183069809 0 0 0 0 -578.34084905858799 378.99598518376297 0 378.99598518376297 146.68638132805791 0 0 0 0 -30.249915350705123 59.522726912178769 0 59.522726912178769 215.30670340665529 0 0 0 0 -147.91682917745356 -327.76007338448835 0 -327.76007338448835 746.80171947691997 0 0 0 0 -218.04201326540715 -45.003421865112614 0 -45.003421865112614 -53.702175014694149 0 0 0 0 230.3517079956556 -836.37115655371906 0 -836.37115655371906 -151.43976618845772 0 0 0 0 -0.0066456542622184145 0.5074672549609538 0 0.5074672549609538 3.2631259462668254 0 0 0 0 289.01763969579156 237.28876629640854 0 237.28876629640854 389.29641635659209 0 0 0 0 -647.46823941930052 145.00925723278488 0 145.00925723278488 90.919861436315841 0 0 0 0 -413.34932619679512 -175.13383075372985 0 -175.13383075372985 216.75939477537759 0 0 0 0 -221.29343726053412 -118.64036603892964 0 -118.64036603892964 63.921593566417869 0 0 0 0 -198.96202821330826 -9.2939922792684229 0 -9.2939922792684229 -3.7589635739204823 0 0 0 0 -171.34696420860507 -51.860001553303476 0 -51.860001553303476 176.97045047789288 0 0 0 0 -168.49838547620675 -224.56157795817489 0 -224.56157795817489 206.83692399385109 0 0 0 0 12.686655108411514 -158.57041898664102 0 -158.57041898664102 212.37335025051289 0 0 0 0 -43.561297637297685 -134.25777755016679 0 -134.25777755016679 229.43689353448644 0 0 0 0 -18.337608954259395 -52.235494358756569 0 -52.235494358756569 203.39460327802226 0 0 0 0 31.012157803171249 -143.92422206458286 0 -143.92422206458286 165.01105497040407 0 0 0 0 -55.6147660812303 -59.644047842830332 0 -59.644047842830332 85.219992944636033 0 0 0 0 49.390649084907636 -128.35006609153061 0 -128.35006609153061 21.214537967820434 0 0 0 0 -93.582349319269269 -135.49176814300154 0 -135.49176814300154 112.00121365584346 0 0 0 0 47.79210898103787 -122.13140493844185 0 -122.13140493844185 94.760126430694072 0 0 0 0 86.919562849046997 -87.982899949024613 0 -87.982899949024613 76.440796393064375 0 0 0 0 110.66430329453033 -141.7189972103879 0 -141.7189972103879 190.23944407903059 0 0 0 0 133.58733748065697 -61.144715275728231 0 -61.144715275728231 197.22539864204737 0 0 0 0 62.678690461802944 -128.64814230586853 0 -128.64814230586853 52.480105220121914 0 0 0 0 68.321435786318489 -134.55677739085513 0 -134.55677739085513 36.314070393127622 0 0 0 0 103.74286317819042 -140.35222819495357 0 -140.35222819495357 32.824302951450591 0 0 0 0 -59.574570822689566 -118.58462695622438 0 -118.58462695622438 58.724028506112518 0 0 0 0 -22.24568942553924 -131.92964512682374 0 -131.92964512682374 88.414076529676095 0 0 0 0 61.367359056892383 -106.38632831026575 0 -106.38632831026575 38.889736811866896 0 0 0 0 -51.755949304745627 -73.67162663680574 0 -73.67162663680574 85.37108783759686 0 0 0 0 -84.191074953580028 -102.979425757836 0 -102.979425757836 58.939418359495903 0 0 0 0 -184.00284618594014 -37.877358025762078 0 -37.877358025762078 45.078319409818505 0 0 0 0 -55.765290375705945 -94.674568982847859 0 -94.674568982847859 0.83734749683935661 0 0 0 0 -248.40423174485841 38.592254030034383 0 38.592254030034383 -57.547658886647696 0 0 0 0 -0.41644074981078916 2.5968100419533986 0 2.5968100419533986 10.932397226413372 0 0 0 0 -290.76466287029507 51.541152864621836 0 51.541152864621836 33.661500422436802 0 0 0 0 235.98088890898907 -234.69082884770614 0 -234.69082884770614 -35.472595367373287 0 0 0 0 -185.28173152440286 -56.630563993319811 0 -56.630563993319811 7.7123156779525743 0 0 0 0 -119.12079252383046 23.561618247784281 0 23.561618247784281 -2.229624719650019 0 0 0 0 -162.19022807711372 2.9337390044202039 0 2.9337390044202039 67.381022193440003 0 0 0 0 -141.82693899103833 -35.997299876762554 0 -35.997299876762554 100.22314561316671 0 0 0 0 -98.977744111882203 -15.303990426584278 0 -15.303990426584278 24.987644104818173 0 0 0 0 -33.984537803087733 -45.814474576021894 0 -45.814474576021894 88.914967374004846 0 0 0 0 -114.82148373699238 -10.748368542332173 0 -10.748368542332173 119.75784859518171 0 0 0 0 38.413942827092797 -63.224896846813863 0 -63.224896846813863 121.7518283957761 0 0 0 0 -98.690977368166386 71.15041746062343 0 71.15041746062343 112.74488782727076 0 0 0 0 -20.788264063462275 -11.89032465899944 0 -11.89032465899944 -6.9232412610511354 0 0 0 0 -53.379028279600789 -121.28842798032838 0 -121.28842798032838 262.4580056699815 0 0 0 0 -27.659514219227276 -112.06861188730181 0 -112.06861188730181 109.97297849745519 0 0 0 0 -36.252610151979752 -46.22272362388685 0 -46.22272362388685 191.11732607813246 0 0 0 0 -84.140393077213957 -82.55456309839974 0 -82.55456309839974 175.92513891831186 0 0 0 0 19.052074657674893 -74.083131266892451 0 -74.083131266892451 132.26969628698498 0 0 0 0 19.930587242412003 -78.755050365941315 0 -78.755050365941315 81.156399359464558 0 0 0 0 -16.108771675838021 -13.918773249036143 0 -13.918773249036143 4.8077685061997641 0 0 0 0 322.47016994678779 -364.76552660779271 0 -364.76552660779271 210.61549005474808 0 0 0 0 126.5534644717809 17.062867358399672 0 17.062867358399672 -179.52344080501189 0 0 0 0 -3.9638262778259485 -13.839187274762208 0 -13.839187274762208 54.248953179462717 0 0 0 0 -226.43966438619424 -137.76737210280589 0 -137.76737210280589 318.22460543798297 0 0 0 0 -4.8677052598515225 2.0787506313654447 0 2.0787506313654447 2.6273708825035271 0 0 0 0 -61.809422269154084 -34.004186581515569 0 -34.004186581515569 23.068150384977343 0 0 0 0 108.24986172378794 -103.2857215447184 0 -103.2857215447184 78.361729861742788 0 0 0 0 14.90203534895727 -34.984672698070426 0 -34.984672698070426 71.421964145280072 0 0 0 0 -17.857039494337062 -7.2064981714162641 0 -7.2064981714162641 65.558598813777593 0 0 0 0 -29.518925890127775 -28.861819746551873 0 -28.861819746551873 119.18840955127962 0 0 0 0 -12.024586586696387 -65.3576645098874 0 -65.3576645098874 123.2592615768699 0 0 0 0 3.8716241473593982 -41.549108158971649 0 -41.549108158971649 98.526062894670758 0 0 0 0 -10.568061843566547 -13.733078652072486 0 -13.733078652072486 50.732689767182904 0 0 0 0 -29.518925890122773 -28.861819746569381 0 -28.861819746569381 119.18840955137421 0 0 0 0 -29.518925890133005 -28.861819746542437 0 -28.861819746542437 119.18840955136693 0 0 0 0 -26.288785808276089 -23.098348858460014 0 -23.098348858460014 78.90416306114993 0 0 0 0 -73.185370536932169 -45.421151734091836 0 -45.421151734091836 155.66535513731651 0 0 0 0 -1.0970931725162814 -21.598396576245264 0 -21.598396576245264 110.29522200528714 0 0 0 0 -85.140613146536907 4.2569240930242813 0 4.2569240930242813 123.95888170989929 0 0 0 0 -9.4370184998879267 -55.472803401800775 0 -55.472803401800775 55.401872113608988 0 0 0 0 6.6562006636679349 -32.948210901165751 0 -32.948210901165751 123.4326833657813 0 0 0 0 1.0155247276907176 -9.4389232768980946 0 -9.4389232768980946 142.92477906685963 0 0 0 0 -120.80929315807771 -49.832357098359353 0 -49.832357098359353 250.87606144172605 0 0 0 0 -0.56346075655966033 -16.477997015858726 0 -16.477997015858726 18.466678031620944 0 0 0 0 59.816347908854368 -121.20444095213315 0 -121.20444095213315 109.61681198593578 0 0 0 0 -2.9474243627611365 -10.484159413717979 0 -10.484159413717979 8.5282269134952315 0 0 0 0 -110.80219512120584 -32.178202211594908 0 -32.178202211594908 122.39961303511154 0 0 0 0 243.19550024500859 -156.16122317590634 0 -156.16122317590634 -43.463203237384732 0 0 0 0 25.300550648178614 -213.5225367756866 0 -213.5225367756866 70.86819422019289 0 0 0 0 -119.53273275884658 -7.3410553162621 0 -7.3410553162621 78.020570040669554 0 0 0 0 88.847281084101269 -77.39478847076316 0 -77.39478847076316 53.107183492815238 0 0 0 0 -0.0033078788886236055 -5.2980404569038484 0 -5.2980404569038484 11.126062233653045 0 0 0 0 -3.2510205090038653 35.159771712613292 0 35.159771712613292 75.883167598658474 0 0 0 0 3.3858284046425702 -1.7800623141797374 0 -1.7800623141797374 26.494084255569391 0 0 0 0 -28.982035893517605 24.657022119183239 0 24.657022119183239 164.60991281010502 0 0 0 0 4.2230858824623283 -36.416865412058542 0 -36.416865412058542 163.82698048358691 0 0 0 0 28.267665067116468 -78.228701356718375 0 -78.228701356718375 118.7533891804851 0 0 0 0 28.810564234001504 -63.985086813503585 0 -63.985086813503585 67.235293538295082 0 0 0 0 -1.3926671789894058 -24.300959823106567 0 -24.300959823106567 51.047823723206378 0 0 0 0 -5.9251023143040591 -9.5768763164723225 0 -9.5768763164723225 71.013825280136899 0 0 0 0 16.055686043244805 -14.595610653500444 0 -14.595610653500444 36.295994379266631 0 0 0 0 35.221844038253039 -56.020530579728074 0 -56.020530579728074 37.130705681434733 0 0 0 0 -14.939247972323248 -8.679517443238602 0 -8.679517443238602 46.053433992173211 0 0 0 0 8.7307340780062077 -40.301160799277568 0 -40.301160799277568 85.977199114844552 0 0 0 0 17.355962870739859 2.7804786737651739 0 2.7804786737651739 91.973026762309019 0 0 0 0 1.1096348027882925 -3.4399622002433858 0 -3.4399622002433858 24.050256253010851 0 0 0 0 -4.7914970817519134 -14.307504926500769 0 -14.307504926500769 45.59050758954254 0 0 0 0 3.6653593436122058 -21.450878031832531 0 -21.450878031832531 39.58120736110655 0 0 0 0 -11.756599900287256 -53.81127782259864 0 -53.81127782259864 53.642882970263599 0 0 0 0 31.653523111988761 62.8039593922731 0 62.8039593922731 223.30836026951147 0 0 0 0 14.820065200494465 -14.96157109371137 0 -14.96157109371137 -16.961688775147479 0 0 0 0 -13.029443376263771 -25.683406198328157 0 -25.683406198328157 170.38260140025523 0 0 0 0 10.767053648856745 -20.120164800489874 0 -20.120164800489874 165.24336031235362 0 0 0 0 -112.94571436642582 -23.69457062586298 0 -23.69457062586298 60.276080792820721 0 0 0 0 20.553287505226649 -30.508469373081738 0 -30.508469373081738 60.639005069881122 0 0 0 0 53.904997153651493 -26.257672828109207 0 -26.257672828109207 32.726719284299179 0 0 0 0 124.40031373112288 -74.383382879561395 0 -74.383382879561395 -83.748146111021924 0 0 0 0 -3.6659660938976231 -3.8116640173079332 0 -3.8116640173079332 24.364003486794573 0 0 0 0 -25.834691975178821 -18.45999130582711 0 -18.45999130582711 29.737171886120308 0 0 0 0 56.340644629515737 30.917245562370226 0 30.917245562370226 231.84628918443923 0 0 0 0 -30.360721917161754 -19.848354101606674 0 -19.848354101606674 206.63703555427855 0 0 0 0 -101.37206948700805 1.6467065236620329 0 1.6467065236620329 286.76890675858158 0 0 0 0 -9.5031621387696106 6.6028510617159171 0 6.6028510617159171 119.48189639525634 0 0 0 0 12.017812866389775 -20.79725790717994 0 -20.79725790717994 33.52591756096907 0 0 0 0 -3.1605145149242162 -43.736951586317446 0 -43.736951586317446 167.72197258076631 0 0 0 0 2.864184216974536 -36.924233343161177 0 -36.924233343161177 154.22711819675897 0 0 0 0 9.6168478405852511 -61.579455938241153 0 -61.579455938241153 235.19094311067965 0 0 0 0 -11.467836355022428 -39.610441196113243 0 -39.610441196113243 197.28020086919423 0 0 0 0 0.35188474613812559 -29.504856553525315 0 -29.504856553525315 154.91127568326192 0 0 0 0 8.5994501916211448 -39.999461479965248 0 -39.999461479965248 125.44615131188766 0 0 0 0 2.6013275872637678 -45.782339234974643 0 -45.782339234974643 148.32731589056493 0 0 0 0 -19.660915817121349 -11.052526979365211 0 -11.052526979365211 146.55262912303692 0 0 0 0 -16.932557914000199 1.8675721151304288 0 1.8675721151304288 47.822161203036217 0 0 0 0 -5.7327211261990669 4.1677720423140272 0 4.1677720423140272 96.317707951980992 0 0 0 0 -21.025400451981369 4.0479807020435103 0 4.0479807020435103 39.023108733338972 0 0 0 0 -8.0964925672988102 -13.998834871381405 0 -13.998834871381405 51.850678988117579 0 0 0 0 3.5654258022650254 -13.665268090019381 0 -13.665268090019381 68.518802939326491 0 0 0 0 48.853135112228983 -9.5362956819644751 0 -9.5362956819644751 146.74962170614162 0 0 0 0 -18.813917418437377 -10.38012863559301 0 -10.38012863559301 68.521263805322945 0 0 0 0 -40.892398828516889 -22.488557605451206 0 -22.488557605451206 102.31686422808343 0 0 0 0 -25.68148914455158 -12.703895231900873 0 -12.703895231900873 112.11980192191152 0 0 0 0 -36.69704344434831 11.897294687048998 0 11.897294687048998 66.365462049026974 0 0 0 0 -23.042014503615864 40.176615061103007 0 40.176615061103007 25.555944795601647 0 0 0 0 -34.032434569540783 45.781096464896109 0 45.781096464896109 42.848457954867627 0 0 0 0 -7.4090414580641664 -13.296385332214413 0 -13.296385332214413 160.88975023985404 0 0 0 0 -62.276048984293766 85.572146459329815 0 85.572146459329815 -6.6660112707468215 0 0 0 0 7.6509171579402153 -14.867819971593775 0 -14.867819971593775 5.1279871949096787 0 0 0 0 22.277691111297827 12.745668419636786 0 12.745668419636786 170.59450025035767 0 0 0 0 66.052329835596368 -122.47249998574625 0 -122.47249998574625 149.89922120986739 0 0 0 0 -22.154299766613619 21.311357341695114 0 21.311357341695114 88.670281459912644 0 0 0 0 -100.07586392795565 21.997720766696148 0 21.997720766696148 -59.95274861715734 0 0 0 0 -3.1292737326730276 -67.557581548768212 0 -67.557581548768212 141.7024152589147 0 0 0 0 -2.1689678187636794 -4.5313638129802882 0 -4.5313638129802882 16.692926080067366 0 0 0 0 -17.439851959425653 -9.8001577329123393 0 -9.8001577329123393 112.97552015149267 0 0 0 0 -17.602162660776134 9.1826758159547737 0 9.1826758159547737 54.01158847400913 0 0 0 0 -9.2522672191654571 -9.4923120850715463 0 -9.4923120850715463 72.670212546898341 0 0 0 0 -58.051876855199225 36.014970843330957 0 36.014970843330957 15.877436474489514 0 0 0 0 -22.057623281991503 36.835146479418839 0 36.835146479418839 49.982128880449864 0 0 0 0 -8.5157694907113228 23.716188291855456 0 23.716188291855456 4.3948531351558415 0 0 0 0 48.144276505831385 -74.831342157296604 0 -74.831342157296604 139.13726023480558 0 0 0 0 -47.427953110481667 19.435482959035653 0 19.435482959035653 222.27002925533452 0 0 0 0 -27.448469201667024 10.040868804944807 0 10.040868804944807 90.980278529209158 0 0 0 0 -104.32929771862837 -115.5456160929607 0 -115.5456160929607 225.30639853043249 0 0 0 0 -33.833574198358079 24.362620535217999 0 24.362620535217999 69.209709861092392 0 0 0 0 -17.323891774452818 179.78251546662796 0 179.78251546662796 207.33233997560455 0 0 0 0 76.774916523321735 -103.1985278994689 0 -103.1985278994689 67.843020653119311 0 0 0 0 77.350438041819871 50.261459529094282 0 50.261459529094282 163.12973958133625 0 0 0 0 -212.06347986139878 -98.596977239471698 0 -98.596977239471698 140.19388771965168 0 0 0 0 -71.457129386519227 -10.07835613831412 0 -10.07835613831412 169.12267946519569 0 0 0 0 42.608218320137894 -106.84535335628607 0 -106.84535335628607 141.05241759828641 0 0 0 0 183.92951912271747 347.80771986996115 0 347.80771986996115 158.69047410023632 0 0 0 0 -11.790134225150094 2.8688919813785816 0 2.8688919813785816 9.2629358085170566 0 0 0 0 -200.15923385848907 487.80524038531598 0 487.80524038531598 347.3820222534996 0 0 0 0 -17.146038923014203 -133.28711105582624 0 -133.28711105582624 307.61444815032883 0 0 0 0 -14.778959907785975 -78.696475464144896 0 -78.696475464144896 6.0457437283912441 0 0 0 0 743.64372477624784 -136.89952290247311 0 -136.89952290247311 377.27510853025888 0 0 0 0 -4.0447202033689891 3.5037442589371324 0 3.5037442589371324 -3.0255929301015669 0 0 0 0 -1401.592998905573 488.2176481608185 0 488.2176481608185 527.87458084290847 0 0 0 0 -162.83945299170591 -54.162005540958489 0 -54.162005540958489 103.07021431598696 0 0 0 0 -18.885041376270237 -15.460228185955202 0 -15.460228185955202 186.59167290030746 0 0 0 0 -30.962071986410592 -53.370988104608841 0 -53.370988104608841 97.420035903865937 0 0 0 0 -57.285504822782968 24.236238293233328 0 24.236238293233328 49.545283177823876 0 0 0 0 -62.060617875147727 -47.76512982690474 0 -47.76512982690474 148.91676892521355 0 0 0 0 -116.47407069998735 -154.22938435742981 0 -154.22938435742981 -58.826526918506715 0 0 0 0 -62.230257441603499 26.521638956870447 0 26.521638956870447 155.47530723718228 0 0 0 0 -55.576099802878161 -20.002313135148142 0 -20.002313135148142 139.58592876646435 0 0 0 0 -35.617144040229761 -15.261458469587893 0 -15.261458469587893 33.489604058156814 0 0 0 0 -75.715897769459843 51.795122548166546 0 51.795122548166546 223.28342987698852 0 0 0 0 -32.052051148010989 -20.880087510188019 0 -20.880087510188019 27.409987583288626 0 0 0 0 -68.675183916160677 -28.817974484791193 0 -28.817974484791193 169.60011689424573 0 0 0 0 21.862291582452599 -7.7294671949057374 0 -7.7294671949057374 98.541826181424767 0 0 0 0 -23.884506686757959 12.916435950155574 0 12.916435950155574 108.20157173341431 0 0 0 0 -25.354400801475094 -0.40654234657995403 0 -0.40654234657995403 171.8691929957422 0 0 0 0 60.722997738255799 -58.527545716755412 0 -58.527545716755412 -56.862686781416414 0 0 0 0 -241.31848173653998 76.403261962579563 0 76.403261962579563 -5.4419575470856216 0 0 0 0 38.524993868761158 -134.49089690748588 0 -134.49089690748588 201.79652406467358 0 0 0 0 3.0384876811785944 26.018212232935184 0 26.018212232935184 119.04331373420428 0 0 0 0 76.192317384495254 -228.59050704831316 0 -228.59050704831316 271.66646332218079 0 0 0 0 211.57651810903917 -202.72162441060937 0 -202.72162441060937 126.52282409674081 0 0 0 0 240.71925192622439 -156.25940638384782 0 -156.25940638384782 25.059393080968221 0 0 0 0 -218.64482370457699 310.87875320429157 0 310.87875320429157 -81.771649959322531 0 0 0 0 -23.050153175547166 226.9325663644413 0 226.9325663644413 -157.17928274242877 0 0 0 0 -43.876411808281695 31.386634662764706 0 31.386634662764706 98.02602023271055 0 0 0 0 -165.06133615827639 183.76692340659793 0 183.76692340659793 -338.75300913036335 0 0 0 0 -10.495965041192377 -16.735561972468702 0 -16.735561972468702 32.027750259688574 0 0 0 0 -27.56037041383297 -9.6186890189419501 0 -9.6186890189419501 114.92300054807856 0 0 0 0 -28.193385811753615 -4.6882167497387854 0 -4.6882167497387854 79.352082444427651 0 0 0 0 -42.033973602686224 15.57984214830006 0 15.57984214830006 82.172232925070489 0 0 0 0 -214.28490888073611 110.85458495999774 0 110.85458495999774 57.900331071359687 0 0 0 0 -86.463609451991942 178.44613561469305 0 178.44613561469305 -2.0307866052753525 0 0 0 0 68.416826793698419 68.037281446042471 0 68.037281446042471 -112.93000153424509 0 0 0 0 -16.684913715426397 2.7075138903396976 0 2.7075138903396976 26.433428720683864 0 0 0 0 -51.040638146914716 35.494256874575512 0 35.494256874575512 131.60282687337531 0 0 0 0 -114.74972646647802 -47.212233790778555 0 -47.212233790778555 392.07102822017623 0 0 0 0 -59.027870811667526 -63.567180602025473 0 -63.567180602025473 191.63148153004295 0 0 0 0 -45.320725853272961 -34.002734623965807 0 -34.002734623965807 177.94663690315792 0 0 0 0 -145.94428172465541 18.437965052773507 0 18.437965052773507 258.12645474079181 0 0 0 0 -33.764115961528972 19.939361004191596 0 19.939361004191596 138.08670053913374 0 0 0 0 0.026528934562975337 -17.3916650787869 0 -17.3916650787869 139.12467786959837 0 0 0 0 -18.556816860111478 26.660562771690138 0 26.660562771690138 84.323622617074761 0 0 0 0 -342.96265486787979 210.0563363282854 0 210.0563363282854 33.901481822394999 0 0 0 0 -47.826329329407145 175.29936105360684 0 175.29936105360684 32.968348484899707 0 0 0 0 -108.76074477399152 -8.2045271867973497 0 -8.2045271867973497 237.19624757659039 0 0 0 0 -245.57188139101345 -345.03562601955491 0 -345.03562601955491 -223.55029289919185 0 0 0 0 -111.47448448807427 13.971837401048106 0 13.971837401048106 130.94163527221826 0 0 0 0 -23.265543471624952 6.189565577517385 0 6.189565577517385 27.133182679613014 0 0 0 0 -24.692416084766769 32.116638333671233 0 32.116638333671233 80.985993066676542 0 0 0 0 10.296329778011838 536.90743347488751 0 536.90743347488751 -76.73462133272551 0 0 0 0 -383.8637960301682 -310.37739662510512 0 -310.37739662510512 1651.3187312753289 0 0 0 0 -48.158511146844376 190.6014937782893 0 190.6014937782893 -506.11292511064676 0 0 0 0 -470.7069908455436 781.98323292385612 0 781.98323292385612 224.38386810132943 0 0 0 0 -444.32211247484258 317.28648702090868 0 317.28648702090868 1061.1188175348798 0 0 0 0 -304.30477438066919 -668.88350629393244 0 -668.88350629393244 1003.1949639753502 0 0 0 0 2484.1613602119323 -2286.5218055737569 0 -2286.5218055737569 1361.4388559009221 0 0 0 0 -0.65099092633698574 -1.9307553126789259 0 -1.9307553126789259 18.26163599994328 0 0 0 0 -0.007838168132777561 29.526420672620588 0 29.526420672620588 -8.4378999605542049 0 0 0 0 1295.4668543890307 -65.217139951524587 0 -65.217139951524587 -146.16936181520578 0 0 0 0 -248.25425170822382 -391.21962621503189 0 -391.21962621503189 930.93376906578487 0 0 0 0 -3.4337713029920311 5.5958456724614933 0 5.5958456724614933 56.059395840307502 0 0 0 0 1307.8190735475041 -1114.4097167105792 0 -1114.4097167105792 759.30371558045226 0 0 0 0 -60.634332614720833 105.80012990773685 0 105.80012990773685 -24.286492939878372 0 0 0 0 -0.16025132039462406 29.581597672622593 0 29.581597672622593 -8.4442020236210737 0 0 0 0 10.026722666520072 -166.18389875534922 0 -166.18389875534922 482.3982203725318 0 0 0 0 83.340861098433379 1.3967707454285119 0 1.3967707454285119 -60.40263936984411 0 0 0 0 104.02031821422497 -15.605923201554106 0 -15.605923201554106 70.041825995176623 0 0 0 0 -105.41322337632391 45.606855175173223 0 45.606855175173223 99.316967357794056 0 0 0 0 -24.739890613514035 81.880802164254419 0 81.880802164254419 252.24437495754682 0 0 0 0 322.90097654733836 -266.93471662361117 0 -266.93471662361117 222.47029715274039 0 0 0 0 -5.2967182844351512 6.8411943962220221 0 6.8411943962220221 -3.09214644427243 0 0 0 0 335.19821306099885 -368.90909607252615 0 -368.90909607252615 539.60483013933117 0 0 0 0 364.88321509474918 -392.10761976709182 0 -392.10761976709182 359.68446221682098 0 0 0 0 121.36555231243892 -265.86627515068903 0 -265.86627515068903 377.96560629922897 0 0 0 0 323.67934881331166 -404.0719168594951 0 -404.0719168594951 529.11758434078365 0 0 0 0 312.72819641789602 -481.25953709305395 0 -481.25953709305395 390.22639137521037 0 0 0 0 416.83894093942195 -592.99288901530417 0 -592.99288901530417 643.0508729469002 0 0 0 0 775.21342601573815 -656.11518467291171 0 -656.11518467291171 492.74072415062255 0 0 0 0 469.39879830530526 -412.88123783998162 0 -412.88123783998162 454.83970989775844 0 0 0 0 250.95818328785572 -496.34659304397064 0 -496.34659304397064 584.97476555617686 0 0 0 0 -156.01987721069045 149.12240939156618 0 149.12240939156618 -29.329425195641306 0 0 0 0 -266.63667566666311 253.39673520578799 0 253.39673520578799 -57.581078152827104 0 0 0 0 -0.96360219226407784 19.83874767803529 0 19.83874767803529 100.5849082397184 0 0 0 0 -0.097739724747227474 193.46770422720147 0 193.46770422720147 -127.63034536385385 0 0 0 0 -143.9698778224859 272.1956015454125 0 272.1956015454125 -154.64404021009977 0 0 0 0 0.011067404930150071 305.28177223262173 0 305.28177223262173 -175.64524569621426 0 0 0 0 -157.42430888163182 250.10522768065857 0 250.10522768065857 -83.784618161880644 0 0 0 0 -117.21918156226768 399.1624263916683 0 399.1624263916683 -177.9079844794469 0 0 0 0 -140.31302186735928 239.34504970763737 0 239.34504970763737 1.6586972661898471 0 0 0 0 3.0864331724716196 35.57749782056095 0 35.57749782056095 144.618823955697 0 0 0 0 -574.85933675753404 440.5585104971542 0 440.5585104971542 -62.811755778617226 0 0 0 0 304.94780980963969 -161.57823422677029 0 -161.57823422677029 477.31921382267819 0 0 0 0 226.30385819036019 -20.123800491837756 0 -20.123800491837756 229.43410125465016 0 0 0 0 -527.55618637413136 375.00862505704572 0 375.00862505704572 646.98083002008934 0 0 0 0 0.28752392669685967 -12.228228410755271 0 -12.228228410755271 14.416327616491458 0 0 0 0 664.62603128709816 -822.71624404114846 0 -822.71624404114846 910.26700071719097 0 0 0 0 -87.898540908823634 -206.38505808549598 0 -206.38505808549598 1293.4388947571424 0 0 0 0 297.1245814168069 -589.39150876725034 0 -589.39150876725034 1784.595338527608 0 0 0 0 951.32767417544164 -454.000204255055 0 -454.000204255055 112.76490495839971 0 0 0 0 1739.6562700637128 -1107.4400100554867 0 -1107.4400100554867 581.21172430127626 0 0 0 0 44.714122695644619 -351.30759331999434 0 -351.30759331999434 365.61404811254761 0 0 0 0 56.89335435047542 -511.86379996645701 0 -511.86379996645701 1028.7398031772173 0 0 0 0 -444.10632443054783 -294.14890721660777 0 -294.14890721660777 429.77545118887792 0 0 0 0 -264.53568648285 -92.582323181006359 0 -92.582323181006359 149.38005046774924 0 0 0 0 -395.5161165286554 -125.39261541562155 0 -125.39261541562155 673.06537209248927 0 0 0 0 -311.83631308754957 -218.09032749536709 0 -218.09032749536709 315.26490246495814 0 0 0 0 -390.52956110580271 -130.19104500507092 0 -130.19104500507092 364.56397311144974 0 0 0 0 324.26767000862992 -296.44085454116612 0 -296.44085454116612 588.77582958820858 0 0 0 0 -105.51677744123438 15.299610761216258 0 15.299610761216258 414.44030960489181 0 0 0 0 -104.97846928128274 -158.06907294873963 0 -158.06907294873963 870.38985220731411 0 0 0 0 -4.8135182109981542 -27.386992592058959 0 -27.386992592058959 61.752094961455441 0 0 0 0 186.34754367082496 275.06574902926513 0 275.06574902926513 474.97459279788745 0 0 0 0 -403.03725769404991 215.15463805134641 0 215.15463805134641 198.9769541802998 0 0 0 0 -452.62707252358086 54.796336791361682 0 54.796336791361682 489.3087580967549 0 0 0 0 -67.391608134662803 -18.218607749312383 0 -18.218607749312383 80.539915177386405 0 0 0 0 -49.835073969086807 -28.065251971544058 0 -28.065251971544058 89.345830536338326 0 0 0 0 -112.71555736132723 -8.7014279572222222 0 -8.7014279572222222 97.768618795525981 0 0 0 0 -52.645528372137051 -10.988370165789092 0 -10.988370165789092 126.60677105894501 0 0 0 0 -291.65253451809622 436.59965005846607 0 436.59965005846607 -32.735458428258426 0 0 0 0 -54.312684319564724 13.004861896536511 0 13.004861896536511 80.30196364620457 0 0 0 0 290.32871543181773 60.517367243042827 0 60.517367243042827 217.05604269572359 0 0 0 0 68.105796121555613 -126.61851049188408 0 -126.61851049188408 66.54142718854564 0 0 0 0 489.78504650479226 -535.27535384526709 0 -535.27535384526709 407.60114650057949 0 0 0 0 222.56097004385083 -262.70590230577727 0 -262.70590230577727 228.78867817818536 0 0 0 0 233.01127796240598 -453.58358255686471 0 -453.58358255686471 623.64486619358649 0 0 0 0 372.44927479805483 -288.0777236816939 0 -288.0777236816939 432.72803851040953 0 0 0 0 1066.5580998075347 136.19665891727345 0 136.19665891727345 691.55904238214134 0 0 0 0 -126.3425245523722 197.10419539390568 0 197.10419539390568 193.12068569867552 0 0 0 0 -312.75297382499048 -148.81538662188541 0 -148.81538662188541 523.84666357573587 0 0 0 0 319.43420587283799 374.7992064259488 0 374.7992064259488 708.73566138875321 0 0 0 0 -75.263869374151909 52.823701997065655 0 52.823701997065655 504.43621872730728 0 0 0 0 181.04451128654182 -405.59171807237726 0 -405.59171807237726 918.16679853174901 0 0 0 0 3.0054243681124717 -62.061481975119023 0 -62.061481975119023 319.32957399128645 0 0 0 0 -439.05030925173014 25.173732941690105 0 25.173732941690105 398.1148124925603 0 0 0 0 -10.781613119423582 -135.84202059271229 0 -135.84202059271229 266.27401606435888 0 0 0 0 10.526023522202321 75.106762517410743 0 75.106762517410743 284.18978711257387 0 0 0 0 -29.318870334040184 213.96556855030212 0 213.96556855030212 364.84481922316081 0 0 0 0 -42.702304459571224 -30.255129771941938 0 -30.255129771941938 114.05501355000661 0 0 0 0 -33.292465397848005 -13.160998372148878 0 -13.160998372148878 78.710758208974568 0 0 0 0 86.217900929279494 262.48518188443995 0 262.48518188443995 299.79285569729888 0 0 0 0 27.067191076672131 26.439766674314221 0 26.439766674314221 -7.6644582470403613 0 0 0 0 185.27961602128926 162.66243000321083 0 162.66243000321083 244.75072675768388 0 0 0 0 44.18950786473988 106.31863032907313 0 106.31863032907313 264.5838444219753 0 0 0 0 -170.02369103563888 144.28335097962372 0 144.28335097962372 313.96938728234272 0 0 0 0 -14.459423137946033 220.44926316940655 0 220.44926316940655 285.15464839022934 0 0 0 0 -103.01780336275806 34.459537563372578 0 34.459537563372578 194.36025525431614 0 0 0 0 -34.656099037234526 -64.124983947531291 0 -64.124983947531291 5.5146170386360609 0 0 0 0 21.230606311511462 84.112742373220613 0 84.112742373220613 290.20193089481609 0 0 0 0 -685.71670444802658 248.45399561593058 0 248.45399561593058 553.81238163614762 0 0 0 0 471.25703065059497 171.20348263966662 0 171.20348263966662 210.45588181035419 0 0 0 0 433.75240344291342 236.42529493469192 0 236.42529493469192 -20.644909633381758 0 0 0 0 102.34851228925618 329.25551746423298 0 329.25551746423298 435.89780934580995 0 0 0 0 369.24000871311182 90.541375878841791 0 90.541375878841791 -226.02362422966144 0 0 0 0 4.4088179843269302 0.22790298651558771 0 0.22790298651558771 -0.45857273244627095 0 0 0 0 -57.878981062549428 44.759121973498623 0 44.759121973498623 627.58442285212368 0 0 0 0 230.67994085693135 326.01039619703806 0 326.01039619703806 538.93568294822398 0 0 0 0 476.60038038138555 307.18798555312662 0 307.18798555312662 413.10658848851745 0 0 0 0 2.0505376421565416 -17.542075190103787 0 -17.542075190103787 166.08425639119378 0 0 0 0 0.079448957159911515 5.5280686408732436 0 5.5280686408732436 14.535700019938304 0 0 0 0 -1.043393382406073 0.032555606829234307 0 0.032555606829234307 9.316216865072704 0 0 0 0 7.2017321674318708 1.7038003386462748 0 1.7038003386462748 1.706038896896807 0 0 0 0 51.059179381700233 88.992705650933203 0 88.992705650933203 72.430371352191287 0 0 0 0 35.716205626400551 -17.192289923117642 0 -17.192289923117642 191.71240633865091 0 0 0 0 10.966371017269921 112.4939290792172 0 112.4939290792172 551.89584838878363 0 0 0 0 67.903619834420169 51.911142775393273 0 51.911142775393273 124.16105272807908 0 0 0 0 130.9887639679182 284.55379556916159 0 284.55379556916159 400.91716073417774 0 0 0 0 -48.607017758058646 237.52256666095127 0 237.52256666095127 679.25331394025125 0 0 0 0 -35.192093695690346 144.98555687260523 0 144.98555687260523 742.27324427525309 0 0 0 0 -46.105651711517567 215.91187929511943 0 215.91187929511943 547.44403563039987 0 0 0 0 -42.66751700408895 186.12798502752776 0 186.12798502752776 506.94595255587046 0 0 0 0 -19.455799807667063 304.61315513720183 0 304.61315513720183 699.6250190564333 0 0 0 0 -26.291272464022768 204.30612601551547 0 204.30612601551547 665.6932071025476 0 0 0 0 -49.237298778734839 202.25418473442551 0 202.25418473442551 679.73355585944955 0 0 0 0 0.015152213082728849 270.58330892373851 0 270.58330892373851 721.22982916732144 0 0 0 0 625.90775315990322 246.35288284631679 0 246.35288284631679 378.08624836542913 0 0 0 0 347.99054365124175 -116.24116075575148 0 -116.24116075575148 951.4053384331055 0 0 0 0 137.21460802348156 198.81979644048261 0 198.81979644048261 513.7881552908766 0 0 0 0 71.477359805117885 461.17354774114938 0 461.17354774114938 937.49564094036418 0 0 0 0 44.436718520528302 262.66139482601648 0 262.66139482601648 477.49884389452927 0 0 0 0 156.12217267373126 329.45522074559267 0 329.45522074559267 425.29220443752638 0 0 0 0 225.94963701536835 66.615754740072589 0 66.615754740072589 8.085524391848594 0 0 0 0 487.27662439673986 445.59752312377896 0 445.59752312377896 240.02460425013851 0 0 0 0 2.5160450392583087 3.2888873971279367 0 3.2888873971279367 3.910926115401395 0 0 0 0 69.131371960775141 -63.122678645304404 0 -63.122678645304404 41.626750113966409 0 0 0 0 -71.235168530507508 47.524709749272006 0 47.524709749272006 53.814071263986989 0 0 0 0 31.191620624711504 -26.203816552129865 0 -26.203816552129865 5.8154114261415089 0 0 0 0 -33.383746659968892 -5.2603375911567127 0 -5.2603375911567127 125.07340085131 0 0 0 0 0.76880096232343931 105.53339825063449 0 105.53339825063449 237.92930989808156 0 0 0 0 71.726451468337473 140.77108292993944 0 140.77108292993944 210.21800274978159 0 0 0 0 -785.98605528576445 654.82809878968692 0 654.82809878968692 -217.34861866226129 0 0 0 0 -712.36533520575176 245.85849786188919 0 245.85849786188919 425.29643042117823 0 0 0 0 -277.85425370215671 153.49795181668014 0 153.49795181668014 12.14280578038597 0 0 0 0 12.939964383669576 -8.2045655027613975 0 -8.2045655027613975 131.17468495402136 0 0 0 0 -554.02868715288787 83.345402754406678 0 83.345402754406678 581.8277263972268 0 0 0 0 -4.7169048032891965 -8.8761702290065898 0 -8.8761702290065898 18.225669241299045 0 0 0 0 142.67571264158323 -207.10964587028138 0 -207.10964587028138 257.71430748407147 0 0 0 0 -9.0307991451106489 34.856676899959041 0 34.856676899959041 14.380640327941578 0 0 0 0 26.892608166241189 92.156340350316896 0 92.156340350316896 494.00549566025802 0 0 0 0 -8.5328693119506624 82.921294359209014 0 82.921294359209014 509.01612025422946 0 0 0 0 1.4366744913459115 4.3145345019875094 0 4.3145345019875094 289.73052455799916 0 0 0 0 36.938440280192026 221.54068950129658 0 221.54068950129658 461.24738850902941 0 0 0 0 -18.560651677184651 7.2367423869193885 0 7.2367423869193885 7.6180846893313827 0 0 0 0 95.583616219973919 106.71321771336443 0 106.71321771336443 118.40354131889035 0 0 0 0 14.399889217998862 124.72724932784331 0 124.72724932784331 91.028203823183503 0 0 0 0 24.677378776993436 12.991940894092323 0 12.991940894092323 5.3757777008615193 0 0 0 0 1112.509235809157 -350.94563424447551 0 -350.94563424447551 -124.48510668201197 0 0 0 0 93.376310185870352 -0.2054814690081912 0 -0.2054814690081912 -128.64420210401295 0 0 0 0 21.814512409476023 10.489560168770851 0 10.489560168770851 2.4265249348510025 0 0 0 0 -110.93197244066232 -59.66768798330304 0 -59.66768798330304 250.97499946218886 0 0 0 0 -565.25481345942535 138.04006752699934 0 138.04006752699934 679.27017316804267 0 0 0 0 -11.476575462827093 0.39109468889836307 0 0.39109468889836307 -0.033432600847930871 0 0 0 0 -6.6266537285907816 489.34159356874306 0 489.34159356874306 796.47323622106342 0 0 0 0 -94.180622697935178 429.28641260082441 0 429.28641260082441 132.71588347882789 0 0 0 0 837.2669201292083 -723.00876636042085 0 -723.00876636042085 1439.7852890390495 0 0 0 0 -94.566589905507499 298.74103495324744 0 298.74103495324744 649.27018095385574 0 0 0 0 -40.040216896744823 245.4565107922067 0 245.4565107922067 559.70185086395941 0 0 0 0 529.77437788532552 -79.331933856323303 0 -79.331933856323303 -229.91632538971317 0 0 0 0 -11.584685619309951 9.6071037384457156 0 9.6071037384457156 -1.8348534514170041 0 0 0 0 -58.590163028716688 154.11425923108618 0 154.11425923108618 672.27795660302218 0 0 0 0 -56.969283507583896 21.2865719171823 0 21.2865719171823 472.96247022471653 0 0 0 0 -83.907771318437881 278.63787532626884 0 278.63787532626884 150.15590315111331 0 0 0 0 -178.05752771241168 213.59770167605893 0 213.59770167605893 419.92004487026134 0 0 0 0 -3252.8108241260488 791.54752942892083 0 791.54752942892083 2382.5462747664715 0 0 0 0 4083.1963769220747 -42.269122057332424 0 -42.269122057332424 -294.30708944400249 0 0 0 0 501.87899958393245 -1416.3975380868724 0 -1416.3975380868724 1767.4916481479722 0 0 0 0 1.2207489951984343 14.87003187254227 0 14.87003187254227 11.729088228123089 0 0 0 0 410.923541723585 338.87037311194217 0 338.87037311194217 225.74598756904015 0 0 0 0 3.6331764375663624 -5.6878906252240995 0 -5.6878906252240995 55.481028556994715 0 0 0 0 -35.975584651107546 15.287536138148411 0 15.287536138148411 2.2748518776504199 0 0 0 0 -32.073804655595268 82.668619334064715 0 82.668619334064715 52.042030885982967 0 0 0 0 24.382872812728237 -331.44461753591895 0 -331.44461753591895 877.66335222044472 0 0 0 0 -8.4278245290721188 25.455813904188176 0 25.455813904188176 51.729971009215433 0 0 0 0 -54.629844354940815 9.6783478383149486 0 9.6783478383149486 338.30263559836021 0 0 0 0 -66.318720788436167 -18.247109737894789 0 -18.247109737894789 364.30144887655479 0 0 0 0 -47.577743362600813 29.059636306556058 0 29.059636306556058 341.86076063298242 0 0 0 0 -120.73720119518384 -50.768631014343555 0 -50.768631014343555 339.68997481184488 0 0 0 0 82.214892042083761 -123.10864999612113 0 -123.10864999612113 416.8046728248446 0 0 0 0 -11.780180385897896 36.513759055415377 0 36.513759055415377 230.113600292093 0 0 0 0 -706.07095433710094 274.76955958202143 0 274.76955958202143 505.42600623561702 0 0 0 0 -199.86525255861079 76.423080377424867 0 76.423080377424867 366.96729450934799 0 0 0 0 -467.85682729719235 -288.92152950375021 0 -288.92152950375021 764.12935660026596 0 0 0 0 -720.48453372657923 -64.258088757441783 0 -64.258088757441783 773.50368157085086 0 0 0 0 -203.40035307444214 24.797740935071488 0 24.797740935071488 363.40635432239651 0 0 0 0 21.932742064157537 -101.90307323371644 0 -101.90307323371644 290.01989103481174 0 0 0 0 -195.85172570971241 240.67273861573585 0 240.67273861573585 -35.554333465821401 0 0 0 0 -127.32138992661885 14.840532780757712 0 14.840532780757712 271.54580488741158 0 0 0 0 -307.18434905131619 123.59278685570598 0 123.59278685570598 603.56468391133058 0 0 0 0 160.19533584363285 -206.56613765328802 0 -206.56613765328802 79.929474753757404 0 0 0 0 -33.517388218162523 -206.81112556810967 0 -206.81112556810967 539.83547006456683 0 0 0 0 78.442525106074754 159.85099861603521 0 159.85099861603521 644.77569503760787 0 0 0 0 -19.196762316832743 55.214335311390286 0 55.214335311390286 280.79912169286314 0 0 0 0 -189.67782578191304 214.12326940033381 0 214.12326940033381 256.45007150071615 0 0 0 0 -48.861412803205866 178.99213454815845 0 178.99213454815845 338.51619942879188 0 0 0 0 -143.53680182068456 123.84975324851985 0 123.84975324851985 526.51529625499097 0 0 0 0 -111.85585703791759 121.8505153110309 0 121.8505153110309 318.43751673665247 0 0 0 0 -127.66762915573213 172.34848239569692 0 172.34848239569692 167.84479778950481 0 0 0 0 -190.75588315996765 176.73816560021805 0 176.73816560021805 207.67739155344316 0 0 0 0 -94.884852084724116 220.46898964524735 0 220.46898964524735 207.3295510175285 0 0 0 0 -57.21170746606731 197.6903997422196 0 197.6903997422196 53.868033797683893 0 0 0 0 -152.55388067353306 231.24060761475994 0 231.24060761475994 284.53215535257914 0 0 0 0 -102.19860502172014 185.76467102134484 0 185.76467102134484 208.53723229456227 0 0 0 0 -132.1841415824274 170.65266426891321 0 170.65266426891321 342.0837575016194 0 0 0 0 -148.69331718776459 141.84385412897973 0 141.84385412897973 113.71412300861266 0 0 0 0 -54.536485295880993 -37.905229723808588 0 -37.905229723808588 178.44710252697041 0 0 0 0 -66.968623274738547 161.13489059479616 0 161.13489059479616 43.779216664319392 0 0 0 0 -0.51974259077758944 43.84265134034527 0 43.84265134034527 73.65959817492481 0 0 0 0 -40.042390779163135 25.414497964278723 0 25.414497964278723 78.096872882493358 0 0 0 0 98.362647750451288 222.95872634915804 0 222.95872634915804 536.47776759858243 0 0 0 0 -63.983805716976349 15.993201226534438 0 15.993201226534438 163.51873375206196 0 0 0 0 -28.496513505614562 -45.550722116352631 0 -45.550722116352631 29.319320973883691 0 0 0 0 22.025301791036554 121.35750058160579 0 121.35750058160579 310.10387774306628 0 0 0 0 28.2097400970598 24.078298486694582 0 24.078298486694582 246.46109729418947 0 0 0 0 61.380975486463285 92.529743524260994 0 92.529743524260994 238.87036144605372 0 0 0 0 -12.879470229357359 74.761096715584642 0 74.761096715584642 159.83959065569746 0 0 0 0 -1.2777114835094507 -16.589823071758971 0 -16.589823071758971 64.195407849436151 0 0 0 0 -52.297942840152245 -117.61680888619594 0 -117.61680888619594 243.48836406086775 0 0 0 0 2.9035091902278509 15.886885131209965 0 15.886885131209965 199.97802028303084 0 0 0 0 100.68774650081809 94.369752193161503 0 94.369752193161503 183.30283782800325 0 0 0 0 105.58826750658636 -119.65878535477168 0 -119.65878535477168 136.03911459530354 0 0 0 0 7.3472364682458311 -6.3186554532318073 0 -6.3186554532318073 53.571412475123779 0 0 0 0 2.3980465831276621 4.1839208200781126 0 4.1839208200781126 8.3639630249856012 0 0 0 0 -67.505734482288489 -41.079250200070405 0 -41.079250200070405 128.08630531636317 0 0 0 0 -161.83907890407863 -65.137946973016369 0 -65.137946973016369 227.78777220403936 0 0 0 0 -160.29575375955392 -91.150542129220412 0 -91.150542129220412 270.57256607041199 0 0 0 0 -54.87943320896045 -40.85917084628052 0 -40.85917084628052 153.44831459733055 0 0 0 0 -37.584417020516412 -91.026693891355535 0 -91.026693891355535 92.45547179330606 0 0 0 0 -37.667488501356274 -94.891256013128441 0 -94.891256013128441 199.30517049235641 0 0 0 0 -1.3060138335955962 5.134874312101843 0 5.134874312101843 15.32204861432291 0 0 0 0 177.1483050851748 -202.0289539600999 0 -202.0289539600999 163.76799515525636 0 0 0 0 36.126962700218428 -184.83506272327213 0 -184.83506272327213 308.90095439005927 0 0 0 0 40.44949130511668 1.2771011029471993 0 1.2771011029471993 101.70703387528192 0 0 0 0 -62.137845182078308 -49.879258751469024 0 -49.879258751469024 -15.373410354484804 0 0 0 0 -1.1781350143828888 -1.4749970820206784 0 -1.4749970820206784 1.5482345419868864 0 0 0 0 -84.660604656059149 -96.417248453888533 0 -96.417248453888533 62.883755294082221 0 0 0 0 -33.680450912928791 -162.94029636769847 0 -162.94029636769847 63.715518407349009 0 0 0 0 80.972645576981449 -186.50454301406717 0 -186.50454301406717 111.61318233501515 0 0 0 0 -12.14624692979578 10.472432875883896 0 10.472432875883896 182.13451639920459 0 0 0 0 28.221253943822376 46.763134802736204 0 46.763134802736204 103.4471784576599 0 0 0 0 110.14263397219133 -78.10035070472486 0 -78.10035070472486 265.75784200447538 0 0 0 0 36.815079040009095 164.06717809418888 0 164.06717809418888 343.36895515004517 0 0 0 0 -24.608086057443035 -25.396056236118962 0 -25.396056236118962 88.145824610865247 0 0 0 0 379.1887511176883 190.2189585515805 0 190.2189585515805 250.85764169821306 0 0 0 0 42.163733768178645 87.518452778343544 0 87.518452778343544 417.8463564683525 0 0 0 0 -5.5527143115220632 -21.456639153705154 0 -21.456639153705154 8.4142942795590745 0 0 0 0 26.683152007959617 28.694022552564267 0 28.694022552564267 15.31296468897381 0 0 0 0 23.621725420463008 23.051023950658418 0 23.051023950658418 142.2363723705239 0 0 0 0 12.888004687142711 26.699057428253582 0 26.699057428253582 167.70896848792108 0 0 0 0 4.9667039169487985 3.1474019247183733 0 3.1474019247183733 26.671932681207558 0 0 0 0 16.672763535440026 4.5493128452726523 0 4.5493128452726523 151.94847508277599 0 0 0 0 -8.788794083215528 -24.971475728793894 0 -24.971475728793894 70.575051647710097 0 0 0 0 18.287177470137067 33.50528867995672 0 33.50528867995672 156.35793688884223 0 0 0 0 17.127560321066809 14.426119766128409 0 14.426119766128409 136.39729490417085 0 0 0 0 323.38390032710231 462.26254384290223 0 462.26254384290223 521.95621108250816 0 0 0 0 -598.31695010283283 129.52180514712791 0 129.52180514712791 824.80935387886348 0 0 0 0 -440.14167949792181 -123.98583992800127 0 -123.98583992800127 523.80528303798383 0 0 0 0 -36.677370118401996 -58.712289145063551 0 -58.712289145063551 284.01271187800648 0 0 0 0 -87.748263987868995 -151.96839096127223 0 -151.96839096127223 331.75308512979882 0 0 0 0 -20.667559805031487 -114.6190122779426 0 -114.6190122779426 301.94003891759348 0 0 0 0 110.88565642718368 -1.8008543469513825 0 -1.8008543469513825 301.2707321840723 0 0 0 0 48.773330314239502 33.847186134853473 0 33.847186134853473 300.29833822455475 0 0 0 0 56.074294903006887 146.89208794500462 0 146.89208794500462 388.55039089575439 0 0 0 0 28.470349781699042 137.20995369358388 0 137.20995369358388 480.97765796794829 0 0 0 0 -22.535372671237383 35.724264368354397 0 35.724264368354397 374.85827713975209 0 0 0 0 445.18056937893289 160.85012473904135 0 160.85012473904135 336.92470763281653 0 0 0 0 334.2573729178539 -365.23047967562798 0 -365.23047967562798 435.54548532443732 0 0 0 0 -17.369358666287326 157.77150037600131 0 157.77150037600131 250.6977401537215 0 0 0 0 -21.16484040215164 146.93971342060922 0 146.93971342060922 521.25861994888032 0 0 0 0 74.32389942788086 -57.120503476143313 0 -57.120503476143313 21.255973803375127 0 0 0 0 793.01762080770595 -420.56754953450945 0 -420.56754953450945 204.25891777065044 0 0 0 0 512.46304581962522 810.96249678737695 0 810.96249678737695 655.51362196320406 0 0 0 0 1723.6019102589489 90.253708007290697 0 90.253708007290697 630.62084426841648 0 0 0 0 35.17956854852396 30.456047061480785 0 30.456047061480785 6.8102232823450901 0 0 0 0 0.88898769704517022 -0.85339229499585301 0 -0.85339229499585301 11.106547786377952 0 0 0 0 -162.81628237240511 551.68472397146434 0 551.68472397146434 1064.2969175415619 0 0 0 0 -208.72591660643775 -987.35998253064827 0 -987.35998253064827 872.84897639663336 0 0 0 0 -554.3418520453215 -98.631958168180063 0 -98.631958168180063 503.70372438350023 0 0 0 0 10.069454369923733 -168.87270922050084 0 -168.87270922050084 444.78560393271437 0 0 0 0 -234.38406288539954 -144.98061425826927 0 -144.98061425826927 483.14956852466094 0 0 0 0 18.683492700503848 22.54274698406698 0 22.54274698406698 405.14141013137112 0 0 0 0 45.060152284997457 -32.32049936409112 0 -32.32049936409112 410.21039886959579 0 0 0 0 -27.579974461383244 -34.462996644704617 0 -34.462996644704617 634.14414315818703 0 0 0 0 16.576269964751191 -1.65833903971361 0 -1.65833903971361 452.65119976890026 0 0 0 0 51.805551728822138 -60.012807004757633 0 -60.012807004757633 453.65307203779861 0 0 0 0 20.766436741423497 26.741905110145318 0 26.741905110145318 6.7677940740455096 0 0 0 0 69.236467659128266 -77.996496921123253 0 -77.996496921123253 343.36770876972514 0 0 0 0 39.633131636222515 79.119939834487013 0 79.119939834487013 -38.949517051974908 0 0 0 0 -243.34193421240343 25.753551159249582 0 25.753551159249582 432.4767758304497 0 0 0 0 -117.26058606262563 52.863784972688791 0 52.863784972688791 402.70269984169317 0 0 0 0 31.273249470607514 29.624273362157403 0 29.624273362157403 7.5282995350592081 0 0 0 0 -3.4984641750938295 104.55313582216695 0 104.55313582216695 72.445656832089298 0 0 0 0 -1.6700541787749899 97.65933418255554 0 97.65933418255554 78.742882467255185 0 0 0 0 0.80419623975187449 49.575157646269417 0 49.575157646269417 28.53575037558403 0 0 0 0 15.6064136414941 158.19766876210088 0 158.19766876210088 155.24746790823156 0 0 0 0 61.179982048694868 121.12430111317735 0 121.12430111317735 36.45556911349945 0 0 0 0 -34.128168577292854 108.59742217812709 0 108.59742217812709 132.21936903898495 0 0 0 0 -0.057503952219693844 -0.75613907903029798 0 -0.75613907903029798 0.81817097992313137 0 0 0 0 -27.834937133216954 79.881676354856609 0 79.881676354856609 280.47289473135424 0 0 0 0 13.141190748432109 20.662380225878223 0 20.662380225878223 133.24405397030569 0 0 0 0 -29.882920989588456 46.67631620791326 0 46.67631620791326 223.09318471942606 0 0 0 0 1.3634807247797625 -1.2752859089603561 0 -1.2752859089603561 -0.82062196587606806 0 0 0 0 55.723821053930806 46.89103096060353 0 46.89103096060353 135.29165771806584 0 0 0 0 53.047312754613813 59.79140303933309 0 59.79140303933309 76.3908513821425 0 0 0 0 17.817618717830555 71.899330314929102 0 71.899330314929102 189.2877070322229 0 0 0 0 3.8738323510119699 66.08755012419897 0 66.08755012419897 129.25009577975652 0 0 0 0 -1.8553111646529992 127.93397831771991 0 127.93397831771991 150.21367996819026 0 0 0 0 18.090331770732519 11.207305912692391 0 11.207305912692391 82.566809710522648 0 0 0 0 -14.820310720694142 19.715972925932704 0 19.715972925932704 12.11357819097454 0 0 0 0 27.122684451232999 -17.224215707627081 0 -17.224215707627081 -98.334898801940199 0 0 0 0 -149.64370995158924 -4.0132287485757843 0 -4.0132287485757843 141.74311988029149 0 0 0 0 -91.526919857263238 112.91687067364091 0 112.91687067364091 -1.4938311154446637 0 0 0 0 -173.30186972626007 160.17945826550931 0 160.17945826550931 388.98593346207167 0 0 0 0 -22.714821261785801 23.572236572146721 0 23.572236572146721 -34.05147007771302 0 0 0 0 -10.94781218015828 -30.753773899122734 0 -30.753773899122734 -31.41569758875994 0 0 0 0 6.5450523732877475 24.704824958614093 0 24.704824958614093 5.2389146031597145 0 0 0 0 66.74679119792836 49.237561316711435 0 49.237561316711435 -176.8256785414228 0 0 0 0 -139.60365805406946 80.555558748524163 0 80.555558748524163 989.48351059817014 0 0 0 0 5.1802135742589606 -1.1589447155980324 0 -1.1589447155980324 0.25259778750466566 0 0 0 0 479.30501541077183 -234.72514762523042 0 -234.72514762523042 37.74036878660354 0 0 0 0 -7.6288393692775571 -151.05919249034014 0 -151.05919249034014 462.40551773777224 0 0 0 0 50.355205733368052 99.776320398257667 0 99.776320398257667 -106.93527888207882 0 0 0 0 53.743571021217008 133.01842371479779 0 133.01842371479779 90.949862239533104 0 0 0 0 151.26775860822795 30.019044137110541 0 30.019044137110541 19.598694813461407 0 0 0 0 74.833084006387708 73.926338089166165 0 73.926338089166165 -3.383775386851994 0 0 0 0 6.4902493917508082 8.4282560783826739 0 8.4282560783826739 -46.905491556353809 0 0 0 0 44.652839421773933 8.6221847763445112 0 8.6221847763445112 -45.306958231488352 0 0 0 0 66.262673875371689 -39.09887630141543 0 -39.09887630141543 12.375680695742631 0 0 0 0 71.827589372950797 -53.09618739196867 0 -53.09618739196867 -33.716671951493481 0 0 0 0 170.34244320880543 -1.1279410400475172 0 -1.1279410400475172 25.849568107353662 0 0 0 0 114.21229654942613 -111.51248100289376 0 -111.51248100289376 88.165297330881003 0 0 0 0 108.62617102556396 -86.600848809279341 0 -86.600848809279341 38.444265931612335 0 0 0 0 15.525591279497348 -80.407181017009862 0 -80.407181017009862 39.304951507588612 0 0 0 0 159.59009182377667 -46.421610918749138 0 -46.421610918749138 122.02023405727596 0 0 0 0 211.21500705741096 -17.293286344465741 0 -17.293286344465741 266.31193736804926 0 0 0 0 248.38032312984978 -113.16836779848745 0 -113.16836779848745 172.1810273202791 0 0 0 0 187.39502750947182 123.43742313724215 0 123.43742313724215 177.85302530387708 0 0 0 0 104.48145842048541 37.640614613304933 0 37.640614613304933 89.293149802073458 0 0 0 0 299.32385392089952 -5.3659306700001252 0 -5.3659306700001252 97.438786321086809 0 0 0 0 216.17833980885212 130.05316955353101 0 130.05316955353101 90.901335636608565 0 0 0 0 396.15985249391838 9.8336140371357033 0 9.8336140371357033 235.55416533648531 0 0 0 0 172.92116876658912 91.000792236576672 0 91.000792236576672 396.90958701931413 0 0 0 0 249.05785312133344 277.98652427149591 0 277.98652427149591 310.34770987154479 0 0 0 0 4.3788092163847923 1.9581538774925988 0 1.9581538774925988 1.7194052964673041 0 0 0 0 387.92666245730106 56.060302779333142 0 56.060302779333142 -58.187058109742793 0 0 0 0 -155.57522680748411 -5.1659023824231554 0 -5.1659023824231554 1385.9271387116351 0 0 0 0 529.23505485254839 439.49878259588831 0 439.49878259588831 716.20389617443288 0 0 0 0 642.87395253293528 -41.956442916447031 0 -41.956442916447031 456.06828013483755 0 0 0 0 475.91577097824188 151.61965966831849 0 151.61965966831849 710.22980750534771 0 0 0 0 365.54522291503031 105.63781543667756 0 105.63781543667756 377.82664076147921 0 0 0 0 242.07450886636889 -34.8309133998373 0 -34.8309133998373 514.14049917130615 0 0 0 0 429.58233700004507 -88.444302901137689 0 -88.444302901137689 288.75214996716386 0 0 0 0 506.53925112167258 -64.3020396767497 0 -64.3020396767497 490.95328072103439 0 0 0 0 110.29738579665076 -35.449157430789569 0 -35.449157430789569 555.75345877378277 0 0 0 0 262.57413261816464 -84.834700724091817 0 -84.834700724091817 351.93051838572137 0 0 0 0 127.94651931143949 -85.053993395945326 0 -85.053993395945326 361.22758897238236 0 0 0 0 -134.7773234900219 87.40767163927012 0 87.40767163927012 161.43272849090317 0 0 0 0 39.007439664415273 8.0330940866604479 0 8.0330940866604479 -28.16351521064481 0 0 0 0 -136.74355807564348 -30.174876896428032 0 -30.174876896428032 69.665815281970936 0 0 0 0 -38.813974609956311 -0.83795779610358423 0 -0.83795779610358423 63.667290171271809 0 0 0 0 209.3514679171094 235.82177153482735 0 235.82177153482735 276.78572590907288 0 0 0 0 -41.149134136615643 44.814648444332988 0 44.814648444332988 123.15293092280626 0 0 0 0 -46.594657765809188 98.324865872678856 0 98.324865872678856 123.82173613636769 0 0 0 0 -61.224092295041032 166.72002273459111 0 166.72002273459111 164.06660338248548 0 0 0 0 50.319817804173198 222.50028791941622 0 222.50028791941622 185.02673744791537 0 0 0 0 48.710666083860303 218.44182191716027 0 218.44182191716027 184.07708894310781 0 0 0 0 31.8157527112389 276.7571172879907 0 276.7571172879907 233.0696427334442 0 0 0 0 99.89245527421545 144.79469051771594 0 144.79469051771594 207.32018651145609 0 0 0 0 -182.63974618954296 147.50500573961472 0 147.50500573961472 202.6958508654302 0 0 0 0 -166.56796032444979 36.369748099643175 0 36.369748099643175 94.377107016680384 0 0 0 0 -235.93090241452296 64.834392722468692 0 64.834392722468692 -4.7980904397190898 0 0 0 0 -236.08191308499011 -13.154029166351393 0 -13.154029166351393 278.0251871372916 0 0 0 0 46.844954961578324 297.85189301733772 0 297.85189301733772 604.19701070660085 0 0 0 0 -283.50162575153541 -405.82264254213442 0 -405.82264254213442 533.65790724541284 0 0 0 0 -411.72222246602649 -193.25134092921871 0 -193.25134092921871 828.69349840433279 0 0 0 0 -626.69753011247838 -715.97799539513289 0 -715.97799539513289 50.364872656851958 0 0 0 0 748.98099872768421 1250.0282914135328 0 1250.0282914135328 1084.763227153242 0 0 0 0 -2.1961521243373223 -0.63912400786169599 0 -0.63912400786169599 4.9627286310562368 0 0 0 0 602.32292443036977 422.67647336362165 0 422.67647336362165 511.23539748505573 0 0 0 0 -475.20633071502357 -111.02299854331068 0 -111.02299854331068 739.38166777298466 0 0 0 0 338.77556347598477 568.60016582631579 0 568.60016582631579 667.66197055739758 0 0 0 0 3.4916458199439822 6.9014747660647942 0 6.9014747660647942 21.900518875514209 0 0 0 0 -481.33801391633904 -149.33487507201608 0 -149.33487507201608 94.9279809023501 0 0 0 0 103.22741178077013 146.27297905984597 0 146.27297905984597 331.88524388882433 0 0 0 0 142.64942546411032 363.19890531969645 0 363.19890531969645 476.23519169042993 0 0 0 0 10.401789052835348 5.3823499203386547 0 5.3823499203386547 2.5002579058320435 0 0 0 0 137.44121542584298 82.80547512724479 0 82.80547512724479 -155.90838713511766 0 0 0 0 12.508606418171439 24.672155119204035 0 24.672155119204035 496.84892653775751 0 0 0 0 -6.3615022277890603 -30.775562829214323 0 -30.775562829214323 554.260126621366 0 0 0 0 -3.5039773994565167 -39.680101005950746 0 -39.680101005950746 357.41023299052176 0 0 0 0 10.468662573031983 6.407725853085239 0 6.407725853085239 3.5635408924480707 0 0 0 0 346.57807303326848 813.36788413130307 0 813.36788413130307 1352.0312030177229 0 0 0 0 591.6055915724246 45.80028322947328 0 45.80028322947328 863.142201540526 0 0 0 0 -1.68889027910609 71.656137398975261 0 71.656137398975261 239.01831270113689 0 0 0 0 -105.42985940587087 -158.54943658205411 0 -158.54943658205411 243.4252903767192 0 0 0 0 -159.08084693783167 72.909768737154081 0 72.909768737154081 411.38479963703867 0 0 0 0 -27.764885639481236 -34.755673276672496 0 -34.755673276672496 460.91863809096685 0 0 0 0 39.605618561175277 -192.82954957913716 0 -192.82954957913716 676.22445635971235 0 0 0 0 -50.428776193717567 15.603180210102437 0 15.603180210102437 447.56253953286068 0 0 0 0 50.233907701184762 15.883181042569049 0 15.883181042569049 447.55321360565745 0 0 0 0 -17.547931711764249 -58.301075836381642 0 -58.301075836381642 482.51921606732867 0 0 0 0 -8.6040198970986239 -50.492263777749031 0 -50.492263777749031 420.7487889565391 0 0 0 0 118.06630648001237 -72.101546018206136 0 -72.101546018206136 379.77562971498992 0 0 0 0 153.90040925282028 -125.50185089807565 0 -125.50185089807565 435.50578112506264 0 0 0 0 127.35190936516892 -151.97377243337905 0 -151.97377243337905 421.72980440840183 0 0 0 0 278.72414168273235 -205.49703721130572 0 -205.49703721130572 175.33287867766921 0 0 0 0 307.67951448913095 -313.68096874469666 0 -313.68096874469666 404.04026382993925 0 0 0 0 274.96263303366618 -130.89838895684261 0 -130.89838895684261 182.02208258088285 0 0 0 0 49.473926721403586 169.18446984881666 0 169.18446984881666 175.47805985741525 0 0 0 0 14.824608933742866 55.627936834640877 0 55.627936834640877 318.57016983420181 0 0 0 0 37.274835407471983 136.12868255453577 0 136.12868255453577 375.36498743272205 0 0 0 0 -14.647639480785301 52.831750802450188 0 52.831750802450188 518.20993404176988 0 0 0 0 149.449935838545 26.771397575097126 0 26.771397575097126 348.70562208708725 0 0 0 0 1.6272185503330547 63.262524901703728 0 63.262524901703728 401.47914696318912 0 0 0 0 39.598009317998731 161.09578253914515 0 161.09578253914515 833.53005173516976 0 0 0 0 198.0428610600411 22.16341005873619 0 22.16341005873619 507.06335023319298 0 0 0 0 696.31026628427526 -224.71866185540784 0 -224.71866185540784 771.34949413816139 0 0 0 0 212.49594673884502 -32.280680196496178 0 -32.280680196496178 694.82176171912579 0 0 0 0 -46.256271110627019 40.228672705075951 0 40.228672705075951 1132.3627805767246 0 0 0 0 231.66473615984626 -293.21350292052011 0 -293.21350292052011 1208.2767454788082 0 0 0 0 450.07739933992048 231.30065980752988 0 231.30065980752988 619.32663037860402 0 0 0 0 745.30265239994981 289.73079860901282 0 289.73079860901282 593.14386366489271 0 0 0 0 444.66043150472331 171.19731080786005 0 171.19731080786005 107.01802091136051 0 0 0 0 152.21411032810215 160.72021509402839 0 160.72021509402839 565.94531681882654 0 0 0 0 227.86923174034666 -218.77349970474097 0 -218.77349970474097 464.40990199850421 0 0 0 0 383.83699599613561 -236.34000482072042 0 -236.34000482072042 131.13367465661577 0 0 0 0 258.51735182495736 -53.114171893143066 0 -53.114171893143066 31.904888727211073 0 0 0 0 786.42746585578993 -492.88676019890227 0 -492.88676019890227 338.83523193624205 0 0 0 0 1.0521257638942534 0.671613723993849 0 0.671613723993849 11.600438974213432 0 0 0 0 155.71680709966236 393.28481679107063 0 393.28481679107063 395.43188367868424 0 0 0 0 -83.492815815655376 258.34868062548412 0 258.34868062548412 1017.4437090329066 0 0 0 0 -115.64155389449434 -160.92610869074269 0 -160.92610869074269 97.900838968598691 0 0 0 0 -175.1905674881682 264.94762805497521 0 264.94762805497521 478.28791166757946 0 0 0 0 -55.631020723280471 417.94171215817187 0 417.94171215817187 646.96509877000062 0 0 0 0 104.85202257664662 300.96661086535551 0 300.96661086535551 437.86818804410723 0 0 0 0 -9.5008072972486843 -627.6210075380186 0 -627.6210075380186 417.24576339361374 0 0 0 0 -3.0993117178262999 -5.9897559370220819 0 -5.9897559370220819 3.6146280466438441 0 0 0 0 -75.257918939258587 -84.969084697595463 0 -84.969084697595463 -28.287641027513018 0 0 0 0 -78.586101120295666 45.393462171739202 0 45.393462171739202 99.005643151023833 0 0 0 0 -5.0829317026521688 -3.9907613524996464 0 -3.9907613524996464 8.5626315062147711 0 0 0 0 153.14152312330987 -47.527881998043085 0 -47.527881998043085 2.9354191165803059 0 0 0 0 -2.5406298156455076 -0.95299021048974342 0 -0.95299021048974342 30.337884662669524 0 0 0 0 124.70052100922797 -93.029617435021464 0 -93.029617435021464 165.71809695042612 0 0 0 0 128.60849246846283 -84.518832385532733 0 -84.518832385532733 118.70125462745227 0 0 0 0 209.16496848022416 -90.007910416083178 0 -90.007910416083178 40.077892481145682 0 0 0 0 255.38069515430652 -254.25068602561805 0 -254.25068602561805 179.85529600169684 0 0 0 0 -159.43812487156208 -30.176910540671315 0 -30.176910540671315 1180.288616898637 0 0 0 0 0.67738416721235595 2.0872528421477341 0 2.0872528421477341 3.5933766292093026 0 0 0 0 76.561986551374048 -762.9786302710836 0 -762.9786302710836 2329.893225035612 0 0 0 0 223.04242255199006 -475.58802496459612 0 -475.58802496459612 2056.8897804030494 0 0 0 0 280.54996734743577 278.55296646640636 0 278.55296646640636 306.35892565641188 0 0 0 0 -1.9329774464423326 0.78193646684251839 0 0.78193646684251839 14.439419877143337 0 0 0 0 -216.61959353250569 -333.42827854941925 0 -333.42827854941925 2198.8469012443966 0 0 0 0 530.50855403951709 -664.93221492503289 0 -664.93221492503289 654.54132748555639 0 0 0 0 -128.64850601179069 -184.41955084836809 0 -184.41955084836809 2050.103280439369 0 0 0 0 402.14727206994689 200.15898584938259 0 200.15898584938259 1519.2581246783884 0 0 0 0 -277.67337331078022 72.084053139374646 0 72.084053139374646 1697.8328548873105 0 0 0 0 -140.99465151963159 -295.95465867412349 0 -295.95465867412349 1152.5849044851275 0 0 0 0 543.45402270872682 -96.192251292955916 0 -96.192251292955916 -97.36468499260036 0 0 0 0 479.40032616784765 -246.64235263050432 0 -246.64235263050432 442.90204571152572 0 0 0 0 -279.30606908655 205.52949627252201 0 205.52949627252201 820.2271677739991 0 0 0 0 -201.16922606404091 135.90716914017048 0 135.90716914017048 289.01435067149578 0 0 0 0 122.75409161128482 350.77516190479764 0 350.77516190479764 -197.67752341991581 0 0 0 0 384.62516825602097 35.132504364104534 0 35.132504364104534 116.68939258606406 0 0 0 0 431.49710645696496 -137.52002091921895 0 -137.52002091921895 149.74925357718166 0 0 0 0 348.60963590477627 -20.411589430254026 0 -20.411589430254026 77.749829507636605 0 0 0 0 294.90656063002598 -205.46387878332462 0 -205.46387878332462 175.30984423383393 0 0 0 0 323.12871357655831 -216.60697310059004 0 -216.60697310059004 112.80610714276918 0 0 0 0 588.69578023506529 -313.98839431156375 0 -313.98839431156375 147.55631601671485 0 0 0 0 559.81166861471456 -73.599146364173066 0 -73.599146364173066 58.104611842148188 0 0 0 0 801.97326514743975 344.72555250129426 0 344.72555250129426 702.6756054802172 0 0 0 0 218.27439958798277 -239.18514925197451 0 -239.18514925197451 335.54679756593032 0 0 0 0 1.6228029547547322 0.6433026137314215 0 0.6433026137314215 2.7140016839378376 0 0 0 0 870.18275482794888 -226.9120964838221 0 -226.9120964838221 132.0769411203255 0 0 0 0 208.13664422141755 -373.30526557192934 0 -373.30526557192934 2682.1887238712116 0 0 0 0 2058.9558819406275 543.38258833722648 0 543.38258833722648 2054.5934868989334 0 0 0 0 339.7357191689951 559.24114322505307 0 559.24114322505307 1928.5110507866084 0 0 0 0 540.03520958190666 -223.87906550899243 0 -223.87906550899243 1752.430596625929 0 0 0 0 46.970537731911691 -99.203898457908508 0 -99.203898457908508 890.76082017901717 0 0 0 0 -53.336813738144883 -342.94924649478708 0 -342.94924649478708 2190.6434317363965 0 0 0 0 -318.95341757747337 -331.81604440203955 0 -331.81604440203955 1833.9861644822686 0 0 0 0 -329.07718774746968 -262.04793846459143 0 -262.04793846459143 1531.3635813140463 0 0 0 0 -51.566295243373993 -396.56720774578571 0 -396.56720774578571 1089.0450669433885 0 0 0 0 -76.661542808563468 28.443659952848975 0 28.443659952848975 750.16649327667983 0 0 0 0 4.717265455043389 -26.560180459144249 0 -26.560180459144249 184.48818085736275 0 0 0 0 12.433230225596276 -68.78726434159762 0 -68.78726434159762 591.27747778608318 0 0 0 0 -168.58596348375659 211.68791199936095 0 211.68791199936095 1322.5341696915748 0 0 0 0 792.63738307855704 -989.31068808676355 0 -989.31068808676355 452.16361218466773 0 0 0 0 584.90186186858773 311.57088882865355 0 311.57088882865355 -622.23129124520892 0 0 0 0 954.0290246521572 -492.97300615989661 0 -492.97300615989661 -432.71182431743364 0 0 0 0 280.72912852420268 -755.51736049811734 0 -755.51736049811734 1269.8399525518143 0 0 0 0 227.00522499185854 -967.23286860320331 0 -967.23286860320331 1372.8751980284615 0 0 0 0 -58.323607240720655 -232.40503045696943 0 -232.40503045696943 903.82031737935904 0 0 0 0 232.38252692473543 -103.48901803555054 0 -103.48901803555054 358.86069166468405 0 0 0 0 167.67536754927323 -300.5851542435521 0 -300.5851542435521 590.73689958115574 0 0 0 0 -163.98929537286904 143.63983788535552 0 143.63983788535552 408.40119094524016 0 0 0 0 242.99243343017088 292.19293088514678 0 292.19293088514678 285.7144404543069 0 0 0 0 -47.296547562704291 46.115520893432404 0 46.115520893432404 440.63721222619643 0 0 0 0 193.84774181421182 23.267703792818565 0 23.267703792818565 90.810257371107582 0 0 0 0 -475.64408643439947 334.6693767605102 0 334.6693767605102 424.0485049357012 0 0 0 0 3.972121946773941 22.426706842888777 0 22.426706842888777 104.4266391519923 0 0 0 0 0.57591827324223033 -5.0523863956797594 0 -5.0523863956797594 6.8236920008060107 0 0 0 0 -322.22861584179645 -34.634566104822795 0 -34.634566104822795 604.31537300242576 0 0 0 0 -128.9145760440482 16.640358225678675 0 16.640358225678675 87.5745299127816 0 0 0 0 -114.71706168688434 508.86481721697055 0 508.86481721697055 -52.26876493148302 0 0 0 0 63.527922089783715 82.006793011312539 0 82.006793011312539 53.195277543926977 0 0 0 0 -108.44728581287495 -256.95145101911476 0 -256.95145101911476 -57.468649448201177 0 0 0 0 -3.9689098267185727 273.05086300643597 0 273.05086300643597 -30.402624125832745 0 0 0 0 1.326908776877666 -3.421322494638563 0 -3.421322494638563 -0.89053119329653896 0 0 0 0 -364.31112872696508 -92.13459789656099 0 -92.13459789656099 171.89415354732773 0 0 0 0 -88.434927965434781 107.38980447401991 0 107.38980447401991 -41.608095653366036 0 0 0 0 -73.845133403344391 73.661392801170223 0 73.661392801170223 29.875442240430857 0 0 0 0 -31.793962445858142 75.946970582775975 0 75.946970582775975 -10.804875248182725 0 0 0 0 -64.736762738978996 137.9040942966385 0 137.9040942966385 28.693233419311582 0 0 0 0 -25.181844758627449 55.761743026110707 0 55.761743026110707 75.823494983596902 0 0 0 0 -10.836409708643259 44.78665040168562 0 44.78665040168562 35.151874086287535 0 0 0 0 -6.7842748813056231 30.89497894054993 0 30.89497894054993 60.69314945247703 0 0 0 0 3.9553450052269361 11.521857529054824 0 11.521857529054824 4.4631415192538668 0 0 0 0 -111.98413231197515 69.479582481861144 0 69.479582481861144 32.193243093679484 0 0 0 0 -182.88284532087937 98.017961501627724 0 98.017961501627724 53.679267186002107 0 0 0 0 24.953587160630548 34.685743994444273 0 34.685743994444273 51.68305572611041 0 0 0 0 4.159922767608502 17.785662826302307 0 17.785662826302307 64.525130213769017 0 0 0 0 73.816463263676496 -13.620441483667264 0 -13.620441483667264 73.806683129933162 0 0 0 0 -198.47940311960519 132.44956530835043 0 132.44956530835043 163.46765032266285 0 0 0 0 -108.51599943887413 40.121700435894127 0 40.121700435894127 64.661330537128379 0 0 0 0 9.6954310041157896 -26.142326244268077 0 -26.142326244268077 126.11808555439211 0 0 0 0 -0.50213177057704605 5.1747084884936028 0 5.1747084884936028 90.221446837221748 0 0 0 0 14.789967261406195 49.956443870165984 0 49.956443870165984 44.019862817453998 0 0 0 0 54.942820419929831 302.71231157323382 0 302.71231157323382 -124.13611264819338 0 0 0 0 -60.498382186177935 302.02820757077097 0 302.02820757077097 375.39541817616555 0 0 0 0 44.616110455386206 123.97669580769252 0 123.97669580769252 11.35015187303361 0 0 0 0 -9.8055298401759501 6.7228372721074265 0 6.7228372721074265 47.57683499801351 0 0 0 0 -49.327979427797402 131.68628318975971 0 131.68628318975971 167.16848709476244 0 0 0 0 -20.630435675884311 13.144617705194023 0 13.144617705194023 13.023209275360685 0 0 0 0 0.56677328181694975 95.247142656013239 0 95.247142656013239 -5.9656664098874899 0 0 0 0 133.29950268010839 9.2917134591116337 0 9.2917134591116337 -353.90874278285264 0 0 0 0 -8.7875745186738641 19.647435491766373 0 19.647435491766373 77.773926862575536 0 0 0 0 -6.5055490580508302 2.7090257595654492 0 2.7090257595654492 -3.6987023982300116 0 0 0 0 -29.435476801267669 5.7106501718244544 0 5.7106501718244544 507.14371540057255 0 0 0 0 44.776285940409252 -11.546780641358055 0 -11.546780641358055 415.64484497057128 0 0 0 0 4.6989993797560601 -74.069431893243745 0 -74.069431893243745 454.7455260902243 0 0 0 0 -110.54207214481357 -163.03750718915762 0 -163.03750718915762 803.50146740990749 0 0 0 0 -49.761413129064749 -85.215367313678144 0 -85.215367313678144 452.56024403323681 0 0 0 0 106.23627133616628 -9.3877841681987775 0 -9.3877841681987775 58.651489769392356 0 0 0 0 -92.668312123251781 30.360672945020269 0 30.360672945020269 279.0183293789014 0 0 0 0 -34.84623440495352 119.58666074616576 0 119.58666074616576 673.62945029754337 0 0 0 0 -6.2816280076749536 133.71927252994647 0 133.71927252994647 313.56373671123583 0 0 0 0 -12.819805174833625 -5.3303095403845688 0 -5.3303095403845688 13.465873163074662 0 0 0 0 93.994947699398608 -225.51784178704611 0 -225.51784178704611 -82.719930197403301 0 0 0 0 68.829385404088498 202.79147560777346 0 202.79147560777346 164.7531988319497 0 0 0 0 3.9372759631296503 60.976534588560753 0 60.976534588560753 76.382845850557715 0 0 0 0 -26.069813264819107 30.637458805105553 0 30.637458805105553 173.49257189779763 0 0 0 0 47.149966349356191 81.916420765721341 0 81.916420765721341 253.48445023955719 0 0 0 0 -288.89375229738653 -165.5550306868281 0 -165.5550306868281 87.155358306932612 0 0 0 0 -10.912748423299107 34.923718052200385 0 34.923718052200385 142.56799491202108 0 0 0 0 62.056419755313982 -254.00617950412561 0 -254.00617950412561 -102.28495416301303 0 0 0 0 15.002271463685744 28.511826366314839 0 28.511826366314839 91.04635823593938 0 0 0 0 8.7995090184504079 14.947719047473583 0 14.947719047473583 93.074796972374315 0 0 0 0 9.8744804535125184 66.870559892771922 0 66.870559892771922 206.18778229593056 0 0 0 0 -10.679423755216703 71.236334036486369 0 71.236334036486369 42.283943886912311 0 0 0 0 25.076893863249619 69.72101768188088 0 69.72101768188088 78.890073613591525 0 0 0 0 37.258546853979155 90.64303246612171 0 90.64303246612171 44.279270802318955 0 0 0 0 88.182278060263343 127.04345271311104 0 127.04345271311104 118.03432887508825 0 0 0 0 -255.01534657500451 77.473560406489923 0 77.473560406489923 71.036119232951023 0 0 0 0 -31.931711368447921 -5.7098355443824005 0 -5.7098355443824005 195.25756970283044 0 0 0 0 11.638863200898722 26.44112752852012 0 26.44112752852012 39.267078409147743 0 0 0 0 78.706674850680429 45.206954629138636 0 45.206954629138636 -122.23321541253972 0 0 0 0 -54.47149148437893 115.85469894647031 0 115.85469894647031 164.34029623386232 0 0 0 0 43.626664692415943 111.76920948867337 0 111.76920948867337 40.609600165371376 0 0 0 0 87.880865313363756 -91.408276208705502 0 -91.408276208705502 74.960589446040103 0 0 0 0 -545.87018439615076 120.55948282528516 0 120.55948282528516 596.25771788718703 0 0 0 0 -360.97845686808614 448.27206634110371 0 448.27206634110371 530.01542466283718 0 0 0 0 25.875608545813307 87.217104415185574 0 87.217104415185574 268.46531399819855 0 0 0 0 2.5792518622729403 -376.33168360218406 0 -376.33168360218406 347.90376531235233 0 0 0 0 -31.389015177132162 -26.01332557419466 0 -26.01332557419466 43.775350620530595 0 0 0 0 -486.41236312991896 621.01263265835587 0 621.01263265835587 1188.1711506027641 0 0 0 0 -2.5414155505750387 19.388308086185134 0 19.388308086185134 139.72895507052817 0 0 0 0 29.452302743009568 -157.50361673997395 0 -157.50361673997395 144.75085724381461 0 0 0 0 -422.6860562007214 -112.8003676256285 0 -112.8003676256285 322.6055927205598 0 0 0 0 0.43178594938045833 -0.95635778560647466 0 -0.95635778560647466 10.053349321920138 0 0 0 0 14.935046783805774 -234.87045536406185 0 -234.87045536406185 442.24192281636351 0 0 0 0 1123.08222443454 1113.8931962502356 0 1113.8931962502356 -292.99702259278274 0 0 0 0 -55.418213727887633 113.32757895851682 0 113.32757895851682 945.16368495803908 0 0 0 0 118.6965707175259 -653.90930821050279 0 -653.90930821050279 820.0649860325866 0 0 0 0 577.01955248219701 481.89576600076089 0 481.89576600076089 172.78791266408371 0 0 0 0 -316.10001739484505 406.40838859421592 0 406.40838859421592 395.9771587897194 0 0 0 0 -750.87529961061864 329.66915120180602 0 329.66915120180602 487.10971271600283 0 0 0 0 18.99959881299306 83.461685546358382 0 83.461685546358382 291.29586922813326 0 0 0 0 -71.773386565966575 186.43944178834863 0 186.43944178834863 97.660958485867013 0 0 0 0 4.2332706144497383 1.0820853800056724 0 1.0820853800056724 0.75244104580004034 0 0 0 0 -132.6336595313428 -29.034704978876107 0 -29.034704978876107 158.60132570944552 0 0 0 0 42.505147430410943 154.33035715190636 0 154.33035715190636 -279.02901171135454 0 0 0 0 110.18577036046827 229.57920093358916 0 229.57920093358916 620.69173001657873 0 0 0 0 -15.068276419561016 -61.135996786495525 0 -61.135996786495525 975.84332696664933 0 0 0 0 255.45586514773549 80.315209893691645 0 80.315209893691645 191.88045854351367 0 0 0 0 76.339632253188029 85.125131482520374 0 85.125131482520374 573.21241525367077 0 0 0 0 -16.00706842647196 72.53563001362636 0 72.53563001362636 573.11717427797203 0 0 0 0 81.288218768713705 71.461666308445274 0 71.461666308445274 555.23633697991318 0 0 0 0 85.887139436457801 61.609554769103852 0 61.609554769103852 465.22525456012227 0 0 0 0 -75.540562364141806 121.74563348100492 0 121.74563348100492 624.63904826412909 0 0 0 0 -67.148858107377237 136.24081654429392 0 136.24081654429392 592.24722600827226 0 0 0 0 -73.412409897977341 135.4740648107836 0 135.4740648107836 613.77011132255575 0 0 0 0 101.66825905933547 93.680958521777939 0 93.680958521777939 -6.158498502583825 0 0 0 0 6.2021008599426892 3.3822189435158947 0 3.3822189435158947 3.6242107614215939 0 0 0 0 -132.94556354809538 -95.561838247173 0 -95.561838247173 408.29375681704551 0 0 0 0 -0.80142285619650266 1.504199683334221 0 1.504199683334221 4.8735898865525087 0 0 0 0 -38.076909760435228 109.7893887386017 0 109.7893887386017 -97.949599249146559 0 0 0 0 94.880905098285439 185.9768289464846 0 185.9768289464846 409.10685897061194 0 0 0 0 -108.9647280817444 -51.478790485660284 0 -51.478790485660284 49.952995714862482 0 0 0 0 -89.964544254418797 109.20985141685742 0 109.20985141685742 61.082168225555506 0 0 0 0 -71.298225569319584 -1.9515283064524738 0 -1.9515283064524738 290.05659185365948 0 0 0 0 1.854546345261042 -0.023219881582917878 0 -0.023219881582917878 279.84690459455669 0 0 0 0 21.85179585375954 65.833918427728349 0 65.833918427728349 494.79341483348981 0 0 0 0 70.432295167836855 -180.16619384717342 0 -180.16619384717342 444.70955284622232 0 0 0 0 -79.164161306756796 -45.192335445462959 0 -45.192335445462959 451.17049763983232 0 0 0 0 -114.25221828598478 -95.183984099514419 0 -95.183984099514419 368.57716021272063 0 0 0 0 -70.70161493022897 32.296250151925051 0 32.296250151925051 566.5905335691059 0 0 0 0 77.051289506351168 82.416161679459037 0 82.416161679459037 416.31765020212333 0 0 0 0 140.86521161638666 -154.80452935096037 0 -154.80452935096037 -248.37152619055351 0 0 0 0 22.710074471526816 22.124700906324421 0 22.124700906324421 -13.118567222093539 0 0 0 0 92.755783872416941 141.73618693163735 0 141.73618693163735 255.14007273911557 0 0 0 0 45.282221436280452 67.299106859401945 0 67.299106859401945 336.93022766509239 0 0 0 0 72.520182476560876 141.69641875073285 0 141.69641875073285 407.97369021093073 0 0 0 0 37.908843025685201 78.644292114076961 0 78.644292114076961 320.33072700539196 0 0 0 0 2.4551755696993496 -37.257788444971084 0 -37.257788444971084 423.7036999108459 0 0 0 0 2.4496747669945762 -38.918750809847552 0 -38.918750809847552 227.01993334056169 0 0 0 0 50.149380623439356 79.050657920186495 0 79.050657920186495 187.53530050378322 0 0 0 0 64.51132467665866 30.547197429874359 0 30.547197429874359 259.72914852500253 0 0 0 0 -119.11280290701325 -177.71129472037774 0 -177.71129472037774 459.85145550459492 0 0 0 0 -84.041026431714272 -102.3020769619834 0 -102.3020769619834 -33.941130552180766 0 0 0 0 11.299408114367679 33.086714191808454 0 33.086714191808454 9.8004323747352871 0 0 0 0 14.275448788834183 115.0509892200098 0 115.0509892200098 189.94479907604546 0 0 0 0 417.64196560240271 84.492745595882297 0 84.492745595882297 -247.31777582261202 0 0 0 0 403.65033877574024 304.18395234576383 0 304.18395234576383 -75.43290014590275 0 0 0 0 183.40865602400481 339.25215298870899 0 339.25215298870899 460.68234219203441 0 0 0 0 11.036359798357807 55.432055294226302 0 55.432055294226302 350.09727049378853 0 0 0 0 -61.398139315540902 18.805441206157411 0 18.805441206157411 331.6649550120419 0 0 0 0 -53.506364908660544 11.406650726792577 0 11.406650726792577 109.28830388635106 0 0 0 0 11.386900662702828 136.7067269527688 0 136.7067269527688 215.89196323852229 0 0 0 0 -36.483363028573876 -86.002571119108325 0 -86.002571119108325 138.45475800428176 0 0 0 0 -15.418353489501897 232.26097976538585 0 232.26097976538585 -177.42507129928708 0 0 0 0 -265.62479993451234 132.49715829572233 0 132.49715829572233 60.182954430329119 0 0 0 0 90.78771607976887 100.76430524371972 0 100.76430524371972 551.36801460130664 0 0 0 0 90.75281800071474 103.59676376584673 0 103.59676376584673 514.36239478472271 0 0 0 0 57.356819183856715 153.02211892249761 0 153.02211892249761 491.44788700200661 0 0 0 0 0.35204708796528195 -7.9333784737997775 0 -7.9333784737997775 -5.6380309510941267 0 0 0 0 69.773768961757014 119.68264689370699 0 119.68264689370699 578.92627360549523 0 0 0 0 27.006317570276106 35.563457566556835 0 35.563457566556835 -2.2492576345358799 0 0 0 0 27.757729190801911 31.315673887605953 0 31.315673887605953 150.72908751222712 0 0 0 0 161.04682601399054 84.008909923133615 0 84.008909923133615 -295.24753793028503 0 0 0 0 -15.718649795890087 157.85851081513101 0 157.85851081513101 642.10122461491119 0 0 0 0 6.7846975374467178 -7.7271455006385139 0 -7.7271455006385139 15.99822659010627 0 0 0 0 94.70082516741968 55.559203126766079 0 55.559203126766079 -65.979779325702111 0 0 0 0 112.3938150359063 99.752619604987558 0 99.752619604987558 -69.287360762973549 0 0 0 0 140.6212488699307 -62.846893296005874 0 -62.846893296005874 -227.44951496518843 0 0 0 0 89.392478017031408 82.649768858439529 0 82.649768858439529 107.44320265462738 0 0 0 0 65.763727455546245 -34.348892265441464 0 -34.348892265441464 69.748526678100461 0 0 0 0 50.610018653474981 116.65301910824201 0 116.65301910824201 149.76196235459429 0 0 0 0 -26.041132594487408 172.31933578400458 0 172.31933578400458 63.848016666641342 0 0 0 0 74.781222705962136 11.733113789472554 0 11.733113789472554 184.60497652338381 0 0 0 0 -26.339146278818589 100.01486775951889 0 100.01486775951889 290.68660581842414 0 0 0 0 52.349471610918044 30.236128757489496 0 30.236128757489496 350.02771216936526 0 0 0 0 -15.804618752276838 132.12326979271893 0 132.12326979271893 812.99424353186623 0 0 0 0 99.174672237141692 150.88452368921344 0 150.88452368921344 304.2056178181374 0 0 0 0 91.727966952587849 1.1204549709800631 0 1.1204549709800631 288.34953993139061 0 0 0 0 186.05648301797555 205.1573900174626 0 205.1573900174626 389.13683279227189 0 0 0 0 19.162363962092627 -20.587710224821421 0 -20.587710224821421 -13.80023133278155 0 0 0 0 18.058686442344332 -0.72669077654897052 0 -0.72669077654897052 -12.303269768954635 0 0 0 0 0.1749236157783054 -4.7204828187660652 0 -4.7204828187660652 -0.6608830229684779 0 0 0 0 9.7996590307993756 76.430484451033408 0 76.430484451033408 321.80910390015197 0 0 0 0 65.611816467695462 141.1874200223283 0 141.1874200223283 395.13179699571265 0 0 0 0 -65.225070965626401 -29.938039759006188 0 -29.938039759006188 842.8293674297056 0 0 0 0 4.0176994118146467 33.482285745241825 0 33.482285745241825 -65.984579658846997 0 0 0 0 -4.3585071074139705 31.008814549826639 0 31.008814549826639 -25.402996621087368 0 0 0 0 52.512363700405331 31.88195986341816 0 31.88195986341816 -54.248997483428411 0 0 0 0 69.661710308890179 14.57216251985119 0 14.57216251985119 -52.251105239698518 0 0 0 0 5.7094827015644114 -5.4254346194084064 0 -5.4254346194084064 -12.652734471219446 0 0 0 0 -276.67836722139555 -49.598221865510482 0 -49.598221865510482 358.27821455445883 0 0 0 0 -257.58819368563491 112.12795830622144 0 112.12795830622144 489.82364768252228 0 0 0 0 76.412343502617659 -100.55049830111602 0 -100.55049830111602 -99.726361546425323 0 0 0 0 1.4181449924426488 10.000357435646947 0 10.000357435646947 -52.459741729246161 0 0 0 0 -50.022600322176913 121.96077989769037 0 121.96077989769037 650.9936961941853 0 0 0 0 485.7827483946985 330.01116804469802 0 330.01116804469802 -85.380065582651383 0 0 0 0 18.060134376395158 28.013207957913011 0 28.013207957913011 -40.67586746666332 0 0 0 0 9.7201042080405387 186.32874138960952 0 186.32874138960952 143.74017069226011 0 0 0 0 115.43839277436928 104.15596932417247 0 104.15596932417247 -94.62187529071889 0 0 0 0 -183.32791621890101 87.793924503243034 0 87.793924503243034 205.79687848652975 0 0 0 0 -22.327311191935223 279.21204306703112 0 279.21204306703112 433.03497845496531 0 0 0 0 116.71083310874383 -55.537690730148825 0 -55.537690730148825 -48.47881791663167 0 0 0 0 6.4231626657080803 -1.5004459628596081 0 -1.5004459628596081 -0.22399827005200379 0 0 0 0 292.24670925430109 287.35196043637916 0 287.35196043637916 93.003411716636037 0 0 0 0 307.17923265870377 45.757699996536758 0 45.757699996536758 -76.622755797769059 0 0 0 0 72.5397176706756 12.921600318233686 0 12.921600318233686 -66.598131434417155 0 0 0 0 29.024190703266868 66.84509319299832 0 66.84509319299832 -83.286191081602738 0 0 0 0 108.70313078960498 29.958857158568208 0 29.958857158568208 -66.336044728135676 0 0 0 0 103.16883575251694 163.72959172736972 0 163.72959172736972 -107.66277205981896 0 0 0 0 28.136375874783845 39.760307783804734 0 39.760307783804734 45.066547751383176 0 0 0 0 -23.69658872115906 162.41031368655604 0 162.41031368655604 -62.131738687268808 0 0 0 0 152.44095348848941 -49.325535986037039 0 -49.325535986037039 8.0694114148273002 0 0 0 0 143.50173006726078 -73.936540332156824 0 -73.936540332156824 20.081434867719508 0 0 0 0 131.78945351707307 -125.5103086281315 0 -125.5103086281315 -63.514076221883442 0 0 0 0 79.619837841933986 -247.19455603753522 0 -247.19455603753522 -201.07239724182688 0 0 0 0 159.43298709182341 -52.129684464674483 0 -52.129684464674483 28.220070796443906 0 0 0 0 -106.61989042439745 -176.76297803592979 0 -176.76297803592979 19.892373000559019 0 0 0 0 -15.432435815049757 -73.530877399520705 0 -73.530877399520705 21.490503051272754 0 0 0 0 199.04049614824146 17.581966592772687 0 17.581966592772687 112.44719571975293 0 0 0 0 362.72552628006997 235.51951878356886 0 235.51951878356886 90.380593556532176 0 0 0 0 -39.099135716727687 202.6650609062508 0 202.6650609062508 359.63720970685972 0 0 0 0 78.32673794696484 130.64034879191422 0 130.64034879191422 -197.45995426018999 0 0 0 0 21.763810651427228 15.62146268958039 0 15.62146268958039 -27.73274626612071 0 0 0 0 -8.1690376137812564 24.880241713811301 0 24.880241713811301 13.20743524889258 0 0 0 0 191.38294385194422 64.856414830666836 0 64.856414830666836 -198.06520434468166 0 0 0 0 78.296308642246458 316.83928360915206 0 316.83928360915206 -21.393423215309667 0 0 0 0 97.871871455789005 258.73498157260633 0 258.73498157260633 416.92260533344597 0 0 0 0 154.20009218356478 34.558781084713019 0 34.558781084713019 484.70821155190424 0 0 0 0 47.476426196592683 418.14956002149665 0 418.14956002149665 1282.5545955717771 0 0 0 0 6.253971966064749 6.7569226813447321 0 6.7569226813447321 -6.058606660716876 0 0 0 0 514.68927580208469 -227.1599657180509 0 -227.1599657180509 -853.1297335296058 0 0 0 0 479.11592768916125 238.56907655275609 0 238.56907655275609 213.02861484542882 0 0 0 0 93.244649611898566 -162.39831076975102 0 -162.39831076975102 330.7178885311605 0 0 0 0 2.6811958999859971 8.9563300865557274 0 8.9563300865557274 13.048195894342413 0 0 0 0 421.89968488628347 311.50556095093862 0 311.50556095093862 148.03962041672639 0 0 0 0 542.726905167734 918.38639679168955 0 918.38639679168955 1034.3377533657294 0 0 0 0 422.04780148384816 95.483196318646151 0 95.483196318646151 -155.54039204583387 0 0 0 0 357.89658128859173 -15.338689723197604 0 -15.338689723197604 -189.330562762922 0 0 0 0 -64.790677081822651 14.85022276861946 0 14.85022276861946 26.705134420389186 0 0 0 0 4.7913797524750912 -1.0733912657077642 0 -1.0733912657077642 -0.57130186403597527 0 0 0 0 152.74511394440106 145.77772728348964 0 145.77772728348964 -143.40949200869545 0 0 0 0 95.266372489673813 125.12643330162336 0 125.12643330162336 34.887895158019546 0 0 0 0 274.95650384596956 319.21054469287355 0 319.21054469287355 98.47062062189616 0 0 0 0 21.964587694153749 14.935236794601092 0 14.935236794601092 -42.997223898062472 0 0 0 0 52.450583205383737 367.62110652416504 0 367.62110652416504 411.53482779893238 0 0 0 0 -86.677204501194865 -169.27915589498025 0 -169.27915589498025 -2.8073765604767686 0 0 0 0 36.520919481210512 161.30913632664851 0 161.30913632664851 129.86827524232922 0 0 0 0 20.13181672493738 163.91032773547795 0 163.91032773547795 144.85393130374177 0 0 0 0 96.559741549423052 124.80171787468498 0 124.80171787468498 364.36621727846614 0 0 0 0 220.83861256665477 263.70848268558075 0 263.70848268558075 87.79135700500683 0 0 0 0 116.90301877114507 239.0703336426941 0 239.0703336426941 385.02119249894167 0 0 0 0 150.46915849912602 -214.74008528067679 0 -214.74008528067679 347.42231422232982 0 0 0 0 -4.9050551992986584 -254.26802598361701 0 -254.26802598361701 1357.5956491245424 0 0 0 0 -0.60137049354320737 -6.1075882700001198 0 -6.1075882700001198 7.6614825843713277 0 0 0 0 132.78261241989549 -130.64624097901333 0 -130.64624097901333 -3.2497583765034506 0 0 0 0 38.800655005480621 123.02841475476589 0 123.02841475476589 132.89824010484517 0 0 0 0 -682.04973817754399 -480.22558075871802 0 -480.22558075871802 2311.512384820956 0 0 0 0 -330.5149721278874 -349.39448537344117 0 -349.39448537344117 2304.1540438457996 0 0 0 0 -396.66580134554073 19.632171440375146 0 19.632171440375146 2367.7866908273354 0 0 0 0 -477.1795710907154 -342.55038779584538 0 -342.55038779584538 2303.9283842010313 0 0 0 0 -379.46571776549763 -85.625014654935967 0 -85.625014654935967 1714.0988532705269 0 0 0 0 -69.118188480339086 -531.97666869680688 0 -531.97666869680688 1416.1672417887494 0 0 0 0 -437.51865395435095 -255.48894211559877 0 -255.48894211559877 1695.7182723753031 0 0 0 0 -862.13034792032306 -943.50486697943052 0 -943.50486697943052 1586.782781344602 0 0 0 0 6.9416532973826799 -12.187925001136204 0 -12.187925001136204 -4.0285109362882423 0 0 0 0 380.28340504791913 -424.96119680679294 0 -424.96119680679294 285.99303961199985 0 0 0 0 -871.90632872033621 -464.75778087400795 0 -464.75778087400795 833.67601450062648 0 0 0 0 410.82449387842917 -98.515330334050304 0 -98.515330334050304 -306.63069028628342 0 0 0 0 17.408886857491733 -102.26635963479777 0 -102.26635963479777 39.97986831933401 0 0 0 0 -290.72363456465973 80.898905865307825 0 80.898905865307825 552.39300232962705 0 0 0 0 45.09470592162279 -168.71942473474519 0 -168.71942473474519 1092.3065423939624 0 0 0 0 -82.473580839058968 276.97097746363215 0 276.97097746363215 -115.97325822430139 0 0 0 0 -959.89508792012293 -672.84122835044764 0 -672.84122835044764 764.85092890068154 0 0 0 0 -540.26432483459917 -771.44695170605519 0 -771.44695170605519 -1234.9186183696111 0 0 0 0 -587.53336135310872 -113.69886021323327 0 -113.69886021323327 1111.3164626193648 0 0 0 0 108.26271067162111 -867.17528627277898 0 -867.17528627277898 1792.5649326369348 0 0 0 0 690.5439972248198 254.54376365747885 0 254.54376365747885 1174.1550770424183 0 0 0 0 2117.8473913849693 -689.69938747366632 0 -689.69938747366632 1798.626257965836 0 0 0 0 -83.781537303424443 -915.44101875418164 0 -915.44101875418164 4469.206050628276 0 0 0 0 -188.15463448116304 -430.2463076629756 0 -430.2463076629756 2692.8552198906691 0 0 0 0 -726.35186436354138 -491.69508361639419 0 -491.69508361639419 2580.5405097430266 0 0 0 0 -629.0640784981249 12.742874203544488 0 12.742874203544488 2464.9164150322945 0 0 0 0 -590.39864436300991 -187.36629617984545 0 -187.36629617984545 2550.0349973445263 0 0 0 0 -608.6872356179872 164.29402733190364 0 164.29402733190364 3584.6740599188252 0 0 0 0 -312.20410456408831 335.31137216292882 0 335.31137216292882 2230.5057941856912 0 0 0 0 -212.80201031558295 278.72573159653984 0 278.72573159653984 1390.73324222462 0 0 0 0 922.27823483250711 1014.9914027463733 0 1014.9914027463733 1702.9816294840457 0 0 0 0 -205.61680362155948 1022.919249092598 0 1022.919249092598 4456.7526175644753 0 0 0 0 -175.90375908689475 622.40788667790366 0 622.40788667790366 2443.901656777929 0 0 0 0 -223.472144953201 561.63469330837324 0 561.63469330837324 2413.4763596124358 0 0 0 0 1373.959294670236 -1379.7793253723958 0 -1379.7793253723958 1318.8134978011512 0 0 0 0 610.5647066381307 -1597.7734414052684 0 -1597.7734414052684 2705.4766291572378 0 0 0 0 2.2222213716684123 5.119396123337502 0 5.119396123337502 41.961475424308901 0 0 0 0 -186.10864655181649 -609.00083117048598 0 -609.00083117048598 4141.6282625236399 0 0 0 0 -310.94000597613791 -622.72885354586833 0 -622.72885354586833 2189.5879564299576 0 0 0 0 -183.79183882423126 -591.70377577519685 0 -591.70377577519685 2309.8372782061888 0 0 0 0 -198.37018987875186 -514.86984625565128 0 -514.86984625565128 2150.1930830527926 0 0 0 0 -344.35569480449522 -551.87510487303916 0 -551.87510487303916 2591.8113590880384 0 0 0 0 -247.08709122030962 61.645171134998236 0 61.645171134998236 2592.657140630567 0 0 0 0 984.64976253935333 996.27035722356413 0 996.27035722356413 2880.8267884030101 0 0 0 0 -435.47402521902404 -334.40097542007788 0 -334.40097542007788 1850.2886631551155 0 0 0 0 -454.20619685717611 -444.88889538690637 0 -444.88889538690637 2159.5922527773619 0 0 0 0 -300.55167500434533 -629.09950344805111 0 -629.09950344805111 1753.9511076972994 0 0 0 0 -253.14740449911983 -15.565716116314434 0 -15.565716116314434 1765.9148415221025 0 0 0 0 -411.02465385762139 -516.17621843288725 0 -516.17621843288725 2110.4778972997156 0 0 0 0 -388.69892345854339 -434.58876959397458 0 -434.58876959397458 2364.1315906033269 0 0 0 0 -461.70705682507923 -504.07393984711052 0 -504.07393984711052 2173.1818251067562 0 0 0 0 -354.57639772136963 -492.89423407649247 0 -492.89423407649247 1566.4884339208329 0 0 0 0 -165.81587345702121 -228.69617799471507 0 -228.69617799471507 579.09637317272063 0 0 0 0 -275.98942798003191 -392.67625220276022 0 -392.67625220276022 1564.6147097816001 0 0 0 0 -196.80093670811033 -207.77731699219839 0 -207.77731699219839 1555.1852152244774 0 0 0 0 190.82073188866843 270.55972804130488 0 270.55972804130488 473.39079133059931 0 0 0 0 132.70512616388805 -11.409789605177139 0 -11.409789605177139 127.82129899965184 0 0 0 0 -103.19513162765043 54.142062551472918 0 54.142062551472918 565.52106317498692 0 0 0 0 950.64344815112315 -153.29776586026946 0 -153.29776586026946 15.511767844271162 0 0 0 0 516.05467338137555 132.52873472432839 0 132.52873472432839 1324.5655573961922 0 0 0 0 28.247483621758988 108.35194930834768 0 108.35194930834768 1325.8425982530182 0 0 0 0 1.0899339747355166 -0.14590219896409451 0 -0.14590219896409451 0.94098976419503799 0 0 0 0 62.720416501557565 -124.99543322752288 0 -124.99543322752288 32.382790867821313 0 0 0 0 521.59235481055021 -94.296377678936096 0 -94.296377678936096 12.229629110423048 0 0 0 0 207.69282133024882 22.828106890989147 0 22.828106890989147 -35.259216964092047 0 0 0 0 193.79644894869278 62.789785703221696 0 62.789785703221696 5.4573415584709437 0 0 0 0 -44.618524504199513 136.57360150694512 0 136.57360150694512 20.081448515611555 0 0 0 0 241.44526291033594 -85.517300681643974 0 -85.517300681643974 -155.77518820888872 0 0 0 0 -103.13922224102839 -138.45147418718625 0 -138.45147418718625 55.364754820557209 0 0 0 0 4.3833484340218059 -2.9419388375411941 0 -2.9419388375411941 1.4844904936673089 0 0 0 0 292.87330433101477 339.1392214727457 0 339.1392214727457 -172.16664411448801 0 0 0 0 136.58006326868838 122.68185667189755 0 122.68185667189755 161.97434765607613 0 0 0 0 -18.161442789004695 60.409583196887979 0 60.409583196887979 141.19190618446646 0 0 0 0 0.46913789555585361 -0.032323239313008401 0 -0.032323239313008401 -1.7553306993670219 0 0 0 0 52.484700596934971 18.650317268955405 0 18.650317268955405 119.00658880930268 0 0 0 0 34.475863010259559 4.7100338516793272 0 4.7100338516793272 18.334016528992379 0 0 0 0 78.621320449249481 59.358936845660537 0 59.358936845660537 20.180652911789366 0 0 0 0 20.017020456859427 32.315512644838236 0 32.315512644838236 8.1709457171709801 0 0 0 0 20.744044733809403 45.270745787001601 0 45.270745787001601 -9.504625165987818 0 0 0 0 28.618703461758191 30.536136254551366 0 30.536136254551366 20.684585689607047 0 0 0 0 8.75785983779042 46.285160034163709 0 46.285160034163709 0.15499630864542269 0 0 0 0 5.8249622245439241 57.222810622879479 0 57.222810622879479 -6.5306959318331792 0 0 0 0 0.16278029613235145 6.1392128620100799 0 6.1392128620100799 -2.7454389060262514 0 0 0 0 49.156845819295199 44.487712428197483 0 44.487712428197483 9.5603279999631923 0 0 0 0 5.8031681482174893 0.91656403424051902 0 0.91656403424051902 4.4788105696871483 0 0 0 0 65.07997009373878 31.079718925739144 0 31.079718925739144 -47.418354584839108 0 0 0 0 131.45263688222713 91.888874560121621 0 91.888874560121621 25.170859875957831 0 0 0 0 1.371667156539579 -0.63601637187899485 0 -0.63601637187899485 -0.24096860688179333 0 0 0 0 -70.294401904956089 21.332054631777282 0 21.332054631777282 86.096358622507978 0 0 0 0 16.354341291012791 -13.297133767136629 0 -13.297133767136629 12.252265255654443 0 0 0 0 25.022874974402157 -26.236816645163344 0 -26.236816645163344 -10.745660981232504 0 0 0 0 -28.960490361402208 -30.035445735019493 0 -30.035445735019493 15.811602126381331 0 0 0 0 -23.382227588155274 -38.998261306830045 0 -38.998261306830045 13.724555617685837 0 0 0 0 45.021813264081402 -5.3908930153265828 0 -5.3908930153265828 -38.345930262494221 0 0 0 0 31.033590027335549 26.058110337005928 0 26.058110337005928 25.968743256380549 0 0 0 0 28.251932909806214 7.7109227928558539 0 7.7109227928558539 31.711339965491788 0 0 0 0 6.8849284742909198 -1.6138392228626905 0 -1.6138392228626905 16.661752033094189 0 0 0 0 15.688556013592006 -12.6333782187412 0 -12.6333782187412 20.645049640444995 0 0 0 0 6.8494788245948257 -8.2043493267756276 0 -8.2043493267756276 38.666752878285479 0 0 0 0 6.9529364028562668 -7.8239727032428164 0 -7.8239727032428164 30.572689385575359 0 0 0 0 7.1086687004165654 5.7584122004835976 0 5.7584122004835976 25.339050042858709 0 0 0 0 4.3618035450067101 7.08403035386144 0 7.08403035386144 20.772348706898413 0 0 0 0 14.947008817067172 20.840684602075271 0 20.840684602075271 28.01521830400452 0 0 0 0 6.4636319926340793 6.391867424460834 0 6.391867424460834 15.130042399454467 0 0 0 0 -88.427928377452645 -316.77833261811247 0 -316.77833261811247 -118.36808445166025 0 0 0 0 -421.08124179565129 -210.82374306148449 0 -210.82374306148449 59.282151217181308 0 0 0 0 -104.37255260698635 -173.14386884662963 0 -173.14386884662963 -21.021657086574123 0 0 0 0 -116.99046054806996 -124.83792821678207 0 -124.83792821678207 62.466149835647229 0 0 0 0 150.9199274409923 -170.65976829512329 0 -170.65976829512329 -108.43240017710195 0 0 0 0 11.194049155540164 -8.9882455616665418 0 -8.9882455616665418 5.6209999806726643 0 0 0 0 121.6817507071446 -24.193404205389015 0 -24.193404205389015 -36.111332608390512 0 0 0 0 39.482649661981213 -141.19680850690929 0 -141.19680850690929 -54.420239700455568 0 0 0 0 12.814891439135295 -112.35801423586554 0 -112.35801423586554 6.8390739038695756 0 0 0 0 -12.373901787050272 -59.6030861400086 0 -59.6030861400086 -15.03388650432953 0 0 0 0 -26.694234504234714 -52.374313664571446 0 -52.374313664571446 5.667526420980721 0 0 0 0 -50.209178975484974 -57.973548889302037 0 -57.973548889302037 13.869992016274409 0 0 0 0 -69.226984604076847 -95.234342263916915 0 -95.234342263916915 15.513771477957562 0 0 0 0 -123.05687369624593 -105.51333832005184 0 -105.51333832005184 46.796326285297255 0 0 0 0 -68.805140349214412 -85.588886318377263 0 -85.588886318377263 46.844878038473325 0 0 0 0 -79.363226411457617 -33.755797811554658 0 -33.755797811554658 72.896670270992217 0 0 0 0 -76.707545674845278 -13.443060836754739 0 -13.443060836754739 84.988712523194408 0 0 0 0 -83.097987821056449 6.3528323254822681 0 6.3528323254822681 60.26792403991567 0 0 0 0 -158.41922108277367 -49.729307329202129 0 -49.729307329202129 71.247589454837907 0 0 0 0 -360.49950144103173 90.762952420016518 0 90.762952420016518 28.88896603633475 0 0 0 0 -57.032517271503821 -18.442040369365714 0 -18.442040369365714 45.288768554897615 0 0 0 0 -2.6241906941161908 -2.566271291520053 0 -2.566271291520053 -0.79769701674093341 0 0 0 0 -59.773348392312982 -344.20045259331528 0 -344.20045259331528 -244.01141593861394 0 0 0 0 24.83337446538826 30.401644563975424 0 30.401644563975424 150.53278310966925 0 0 0 0 6.9585199921191947 -38.095023572055737 0 -38.095023572055737 187.72857294858869 0 0 0 0 -577.85144272890284 -114.93548103677313 0 -114.93548103677313 512.76526488994205 0 0 0 0 -56.778680355476197 -38.311517395496821 0 -38.311517395496821 78.50586887920872 0 0 0 0 30.522317287772239 -108.69707390123222 0 -108.69707390123222 30.681984458260558 0 0 0 0 -5.2840524501055413 -18.486848706678089 0 -18.486848706678089 21.430848554166921 0 0 0 0 -36.411329208573079 167.83723721645583 0 167.83723721645583 -18.709567244979553 0 0 0 0 -9.0563910982071398 -14.272991919378958 0 -14.272991919378958 79.531724848949011 0 0 0 0 -21.688684124905194 -6.451185084770259 0 -6.451185084770259 53.450573007869025 0 0 0 0 -12.106387336467208 -31.835937139073227 0 -31.835937139073227 111.57230498637415 0 0 0 0 -21.919996263653701 -24.827266585323741 0 -24.827266585323741 68.524255083644675 0 0 0 0 -9.0121037399534139 -8.689531669166751 0 -8.689531669166751 67.264851861495771 0 0 0 0 -59.520413975772954 -13.699498299393184 0 -13.699498299393184 79.701646178942411 0 0 0 0 -42.626660519877987 1.2908584478700504 0 1.2908584478700504 89.76447749581348 0 0 0 0 -6.6777313021920257 -49.210127458098867 0 -49.210127458098867 100.56007742076221 0 0 0 0 -58.789640026911783 33.111193151674598 0 33.111193151674598 88.619657921444769 0 0 0 0 -49.618231970534907 51.294906062361406 0 51.294906062361406 96.390632147491488 0 0 0 0 -15.237867027705732 -6.5260394915990219 0 -6.5260394915990219 37.831456344254548 0 0 0 0 -170.50106794299791 7.5531561887619318 0 7.5531561887619318 104.99744811294113 0 0 0 0 -31.201530753743782 6.1750501331153949 0 6.1750501331153949 63.096702436680502 0 0 0 0 -39.30124564882135 39.727568006950605 0 39.727568006950605 73.39194643360679 0 0 0 0 -12.147383477269884 2.7807943238886992 0 2.7807943238886992 17.321551265114941 0 0 0 0 27.2723321584308 80.253981508423749 0 80.253981508423749 107.4647958616697 0 0 0 0 -48.602689610814195 44.499597139540128 0 44.499597139540128 93.692676890357689 0 0 0 0 9.3028303968203545 115.39373554706981 0 115.39373554706981 265.2350054289127 0 0 0 0 -39.46192244687154 -44.417005180821434 0 -44.417005180821434 424.66881738403026 0 0 0 0 -34.785362818000522 -32.713011608627312 0 -32.713011608627312 177.19710036057222 0 0 0 0 -42.167728513060865 7.9435516240919242 0 7.9435516240919242 210.11196297701099 0 0 0 0 8.1048197466698184 -196.80958651896071 0 -196.80958651896071 362.93784749320912 0 0 0 0 -192.39420595105366 -32.192684461420868 0 -32.192684461420868 468.91348295493663 0 0 0 0 -237.51728111740158 18.702685328491498 0 18.702685328491498 131.16078246767574 0 0 0 0 -22.177030152104031 7.1012246371202394 0 7.1012246371202394 38.886374389404523 0 0 0 0 -181.13312507183582 81.068382392491912 0 81.068382392491912 81.301084827478917 0 0 0 0 46.451761984400946 -350.19012407682749 0 -350.19012407682749 233.42144505153919 0 0 0 0 1.9722404134439557 -65.06053645676343 0 -65.06053645676343 -48.43929902673699 0 0 0 0 3.1750718180011859 -5.2712922636887569 0 -5.2712922636887569 5.8873005092609958 0 0 0 0 65.698491832194122 1192.3929586276263 0 1192.3929586276263 503.06781294066604 0 0 0 0 -104.79090137437015 -384.23553432721383 0 -384.23553432721383 804.5441655688046 0 0 0 0 -78.30247973864607 108.05992714744207 0 108.05992714744207 938.93978633919778 0 0 0 0 1041.855056237242 -839.19736104891126 0 -839.19736104891126 75.762583682269906 0 0 0 0 -169.14046496199717 -180.34592222316223 0 -180.34592222316223 724.45498005553964 0 0 0 0 -144.50845953849057 -205.07075769338189 0 -205.07075769338189 369.911143832167 0 0 0 0 -109.45252545588301 -65.824838802294835 0 -65.824838802294835 298.67800075189007 0 0 0 0 -152.62718783702621 -202.41399205311609 0 -202.41399205311609 720.99837551584642 0 0 0 0 -127.94210703998215 -77.061257621623554 0 -77.061257621623554 173.10560934943351 0 0 0 0 207.76209793357521 -177.59956359097851 0 -177.59956359097851 -222.06360473437962 0 0 0 0 -66.613339215851738 -253.08462006940954 0 -253.08462006940954 170.57585420006217 0 0 0 0 10.134866750979739 -67.058170207423586 0 -67.058170207423586 187.9846710531927 0 0 0 0 -525.23247926714339 -464.37704766456773 0 -464.37704766456773 269.34886488427583 0 0 0 0 -367.04770440451694 10.559723388223574 0 10.559723388223574 154.87238610521308 0 0 0 0 -762.35881654967375 180.5572411296198 0 180.5572411296198 154.01187013048184 0 0 0 0 -11.483500129106039 -12.865461322426931 0 -12.865461322426931 32.962429937509619 0 0 0 0 15.764717985672405 -556.09907824758193 0 -556.09907824758193 96.851608071054216 0 0 0 0 -1299.4987668526865 -941.16280067650769 0 -941.16280067650769 -12.892100987060985 0 0 0 0 -172.3896435089257 -699.07730339261252 0 -699.07730339261252 216.72412651353534 0 0 0 0 308.99160991677127 -566.19394871810437 0 -566.19394871810437 -856.57107117079431 0 0 0 0 551.71102592240607 -96.032845069421455 0 -96.032845069421455 -91.173089930111018 0 0 0 0 183.91257612257471 -614.23710837889462 0 -614.23710837889462 -225.19136650620931 0 0 0 0 -13.510698015405865 -611.08929726976567 0 -611.08929726976567 263.95195760799834 0 0 0 0 -374.41671299994721 -253.88197297326042 0 -253.88197297326042 23.924328919554682 0 0 0 0 155.4302082026519 -436.6672018435379 0 -436.6672018435379 214.11789967383811 0 0 0 0 4.7037796983870681 -17.524898490375492 0 -17.524898490375492 13.410490766490454 0 0 0 0 -756.24285132380351 -289.26735157667099 0 -289.26735157667099 392.89717815371114 0 0 0 0 69.664896501388284 195.19129214252462 0 195.19129214252462 1246.3167849285746 0 0 0 0 9.8845459450364501 -3.9858153314214064 0 -3.9858153314214064 6.2102293578203849 0 0 0 0 87.115992830268624 -132.89390121738688 0 -132.89390121738688 252.38802413617441 0 0 0 0 76.662873721325013 44.975167761323974 0 44.975167761323974 953.78765055548865 0 0 0 0 -66.926754464268015 117.7346230334806 0 117.7346230334806 1153.6810367474827 0 0 0 0 33.950562285300798 -14.798581195547555 0 -14.798581195547555 3.8667971577042888 0 0 0 0 119.31990818732291 65.762316154505243 0 65.762316154505243 572.8460524436523 0 0 0 0 -189.36632256021255 100.75561175512257 0 100.75561175512257 959.44617646242841 0 0 0 0 2.5170319782398036 -2.0914077362784389 0 -2.0914077362784389 0.15140726414870187 0 0 0 0 -73.243775849804251 39.861031834636378 0 39.861031834636378 962.96973087373772 0 0 0 0 16.653897496965328 213.37165551553335 0 213.37165551553335 969.52597856217699 0 0 0 0 -36.179245520852874 281.41531732096701 0 281.41531732096701 1204.5251314844063 0 0 0 0 69.303332050278186 206.73542093588185 0 206.73542093588185 1206.4953941881249 0 0 0 0 44.892335402625577 278.09975573345946 0 278.09975573345946 1218.294674160622 0 0 0 0 16.767720556488712 280.26744870505354 0 280.26744870505354 1104.5153623162842 0 0 0 0 82.940371935500707 199.51032198017492 0 199.51032198017492 1361.6652579465735 0 0 0 0 -40.15187164317831 233.20488545833359 0 233.20488545833359 1455.1261505348739 0 0 0 0 -25.895015917453037 139.46620134008822 0 139.46620134008822 1613.2672081982237 0 0 0 0 22.248858074483223 345.89370760916063 0 345.89370760916063 1406.7658630272745 0 0 0 0 3.4328381247805737 211.71595023293776 0 211.71595023293776 1248.9578801854768 0 0 0 0 90.043130787418661 153.11585472477054 0 153.11585472477054 1235.6080776529489 0 0 0 0 -298.84779678342863 -203.90229433973127 0 -203.90229433973127 3001.8231534140068 0 0 0 0 -230.02621672671 -151.68822604917659 0 -151.68822604917659 1873.3898421457197 0 0 0 0 -20.067800316495891 137.31462002483568 0 137.31462002483568 1301.7924531074023 0 0 0 0 -88.579511239672001 299.67489119557285 0 299.67489119557285 1923.1946896762247 0 0 0 0 197.46906941733005 90.978604795459432 0 90.978604795459432 211.60082432312629 0 0 0 0 -39.382426822953562 351.26548483039005 0 351.26548483039005 1202.9568868779161 0 0 0 0 81.458399613091387 298.3158021287436 0 298.3158021287436 743.55785841165925 0 0 0 0 -357.63799611390732 47.736694928295037 0 47.736694928295037 334.11796444905485 0 0 0 0 490.23669103994507 -126.41033736061945 0 -126.41033736061945 -180.0771611229884 0 0 0 0 130.35432810491511 28.854235258731933 0 28.854235258731933 -153.22560210020492 0 0 0 0 19.08351482014324 -12.955422028230885 0 -12.955422028230885 -1.4963136207856609 0 0 0 0 24.265790247638506 39.402218974231801 0 39.402218974231801 -27.913270810737231 0 0 0 0 39.620437245861467 -78.277247613974396 0 -78.277247613974396 -8.9145339476162917 0 0 0 0 -6.8409606783291323 -9.8342150561315549 0 -9.8342150561315549 16.667266067541469 0 0 0 0 -252.25385125901721 -7.9880222050996963 0 -7.9880222050996963 225.91039482086853 0 0 0 0 -63.81834537639952 -210.88196832401445 0 -210.88196832401445 438.58334624858253 0 0 0 0 150.00410658559167 -217.78076455439987 0 -217.78076455439987 167.31498359885154 0 0 0 0 265.6913163917402 545.90908284129182 0 545.90908284129182 1083.6938539925322 0 0 0 0 -64.667701108080564 533.97347729940884 0 533.97347729940884 2140.456652724406 0 0 0 0 -79.251037527868931 215.52729774843556 0 215.52729774843556 4032.2414061697418 0 0 0 0 1354.1835586568091 -984.07744475585423 0 -984.07744475585423 2786.453246137924 0 0 0 0 3.136504263471366 5.9160104846008039 0 5.9160104846008039 29.732238139676184 0 0 0 0 750.43835719366234 1222.0750086710505 0 1222.0750086710505 949.7650568339086 0 0 0 0 1759.8889389072656 -1914.3868175160687 0 -1914.3868175160687 2029.7381391234594 0 0 0 0 737.43682945183809 -426.31492196027466 0 -426.31492196027466 150.30138774184888 0 0 0 0 483.94431413743951 -1074.0008092265889 0 -1074.0008092265889 1396.7987298250882 0 0 0 0 286.417171936866 484.81617691323117 0 484.81617691323117 4001.4119385367048 0 0 0 0 135.37775592611706 -1359.1034911221905 0 -1359.1034911221905 3915.7509519432024 0 0 0 0 -395.027893593214 -166.99085549525898 0 -166.99085549525898 2436.00931904967 0 0 0 0 -236.65039231009132 -830.36708398524752 0 -830.36708398524752 2305.4587044544742 0 0 0 0 -79.41746081721999 -660.11800078204942 0 -660.11800078204942 2034.8090525899242 0 0 0 0 26.054647985716315 -159.4283710937907 0 -159.4283710937907 459.2212701960234 0 0 0 0 68.338422308993813 -286.19767855336431 0 -286.19767855336431 833.50335603850544 0 0 0 0 43.884076893202291 -9.6537062963325297 0 -9.6537062963325297 159.66060471892706 0 0 0 0 -0.23263130533351095 18.967958196510978 0 18.967958196510978 76.833485659463591 0 0 0 0 0.15331734120627516 13.094439758475346 0 13.094439758475346 507.33991347533083 0 0 0 0 331.99708197783912 -307.10518456413956 0 -307.10518456413956 280.88832141115563 0 0 0 0 -22.97309415368818 13.525665502089396 0 13.525665502089396 25.468533738899282 0 0 0 0 -2.4359682457945091 6.8373996351353554 0 6.8373996351353554 39.563682444631112 0 0 0 0 -50.912230191270282 31.069772041599208 0 31.069772041599208 156.95662113860453 0 0 0 0 48.519543015176168 2.8514694330078783 0 2.8514694330078783 -51.964078063960187 0 0 0 0 3.7056680823793666 9.8605986196814186 0 9.8605986196814186 -9.792304525732618 0 0 0 0 -3.6448050379717003 25.39153904345072 0 25.39153904345072 110.70714086496793 0 0 0 0 -97.171018721974633 -26.51883907042793 0 -26.51883907042793 50.174672750326863 0 0 0 0 -2.8151883829292306 2.9058640647321283 0 2.9058640647321283 13.36938642611333 0 0 0 0 176.53398279476301 -186.12436368713497 0 -186.12436368713497 363.21742962931603 0 0 0 0 -82.555963320103274 -52.607035136996274 0 -52.607035136996274 11.076329510367941 0 0 0 0 -123.83184849146073 -67.350606464780867 0 -67.350606464780867 71.920548871425126 0 0 0 0 1.2131554442175911 72.186065196768141 0 72.186065196768141 43.43123644111256 0 0 0 0 -112.65973330287216 -11.83374790187554 0 -11.83374790187554 132.12057227230252 0 0 0 0 -2.6213434200230594 7.6061308867334994 0 7.6061308867334994 38.304898002216618 0 0 0 0 -56.303354783475015 62.143001175119934 0 62.143001175119934 39.862955581680581 0 0 0 0 -17.12417838217425 25.523164791458839 0 25.523164791458839 19.537410988676129 0 0 0 0 -39.144239119363647 -32.954724509812877 0 -32.954724509812877 123.16658944278606 0 0 0 0 23.38314224853093 5.2628641594565124 0 5.2628641594565124 15.867948374459957 0 0 0 0 -78.458681420034736 54.068189816218364 0 54.068189816218364 51.529804946425429 0 0 0 0 -0.083241259552467639 8.168318443234412 0 8.168318443234412 37.499031056498907 0 0 0 0 -4.1493624632921637 14.366782534525555 0 14.366782534525555 21.221659161528805 0 0 0 0 -100.39092032948156 73.580585418199917 0 73.580585418199917 64.503136332899885 0 0 0 0 -30.277224058703723 7.8073819760538754 0 7.8073819760538754 56.893009710162005 0 0 0 0 -0.75996348022224058 5.8985056106246923 0 5.8985056106246923 41.815987216944606 0 0 0 0 0.40001120020274739 6.959821429177147 0 6.959821429177147 36.727298664748673 0 0 0 0 -14.431308049399831 4.81259869052883 0 4.81259869052883 57.874485157633899 0 0 0 0 -18.803952190614609 -69.81937823961016 0 -69.81937823961016 95.482366617012303 0 0 0 0 -50.741550366943784 -11.009324921654297 0 -11.009324921654297 99.902248586899077 0 0 0 0 0.051465780964305541 1.6298167101955094 0 1.6298167101955094 46.152663542259873 0 0 0 0 -1.4162149883954953 0.93559415087656816 0 0.93559415087656816 33.160954538041551 0 0 0 0 8.5338174759417598 -55.458529730236478 0 -55.458529730236478 99.953843968392903 0 0 0 0 25.018058981263493 -26.847633511413733 0 -26.847633511413733 44.791632623368059 0 0 0 0 15.990125500035379 -12.649300837067301 0 -12.649300837067301 27.93148331582087 0 0 0 0 43.739754395500313 -38.866761209847027 0 -38.866761209847027 71.815664758869389 0 0 0 0 16.602169860900176 -1180.3949387820248 0 -1180.3949387820248 -736.04800598478687 0 0 0 0 8.188819759724538 -43.409873413980677 0 -43.409873413980677 89.812411379596597 0 0 0 0 7.6681361620377011 -9.0463921496346629 0 -9.0463921496346629 9.5046991849235241 0 0 0 0 -0.73305275695015482 6.1785729040606867 0 6.1785729040606867 21.896920380417313 0 0 0 0 680.55878010534434 1007.2838954203107 0 1007.2838954203107 592.78483983557817 0 0 0 0 85.563824776294496 -50.939368855302746 0 -50.939368855302746 39.19807770990883 0 0 0 0 12.590531395603495 2.5398982876591418 0 2.5398982876591418 3.5089746453160728 0 0 0 0 103.93169837713685 -50.112393928851816 0 -50.112393928851816 60.915064828499453 0 0 0 0 41.594248357294589 -78.894361654941576 0 -78.894361654941576 120.30175649263401 0 0 0 0 18.897984358296526 -2.4246042716986267 0 -2.4246042716986267 99.74518640496899 0 0 0 0 72.135723956067523 310.09406729155671 0 310.09406729155671 -270.70329418878464 0 0 0 0 129.76427479330005 -101.40696819967343 0 -101.40696819967343 89.24129712182912 0 0 0 0 96.328208443979747 -151.63940654592443 0 -151.63940654592443 185.32442229053413 0 0 0 0 3.2953971240900373 0.1900702476843108 0 0.1900702476843108 1.1879547183516905 0 0 0 0 10.849032809208367 10.574937449579878 0 10.574937449579878 14.182498213492835 0 0 0 0 -509.5939198245178 -32.078283626491611 0 -32.078283626491611 401.08022695881664 0 0 0 0 -305.14864977466004 -455.91632473056598 0 -455.91632473056598 68.157727308091125 0 0 0 0 -19.3791032850786 -483.79371399440424 0 -483.79371399440424 32.974405652988935 0 0 0 0 126.12680592087054 -247.96199002974754 0 -247.96199002974754 151.39909027385875 0 0 0 0 -207.5288073457923 49.679414933838416 0 49.679414933838416 417.20510505884886 0 0 0 0 -99.485649727106647 -50.844595915448735 0 -50.844595915448735 334.82218327176815 0 0 0 0 -112.76194842995392 108.26114966724708 0 108.26114966724708 386.07527063578891 0 0 0 0 -339.56598073855639 -157.83846785844071 0 -157.83846785844071 308.53050402599911 0 0 0 0 355.6122741718118 -288.57423278721399 0 -288.57423278721399 39.471442680427572 0 0 0 0 82.121872042598625 163.96399391351224 0 163.96399391351224 214.76964529096222 0 0 0 0 33.275110002281963 59.478647646459649 0 59.478647646459649 48.036962479927752 0 0 0 0 1.0557985954597093 3.3065066549719688 0 3.3065066549719688 7.0569026452572814 0 0 0 0 -86.278661416674368 -107.93571075296495 0 -107.93571075296495 574.5389877907437 0 0 0 0 54.635898926593654 589.93979493872757 0 589.93979493872757 804.73323361762232 0 0 0 0 86.252446965383569 -58.742915659880964 0 -58.742915659880964 -80.787887076672632 0 0 0 0 77.826014859085745 -395.58132123551769 0 -395.58132123551769 -15.101360353364726 0 0 0 0 60.272984146642102 -130.30369329170844 0 -130.30369329170844 235.15280233891099 0 0 0 0 19.078867618522281 -4.8249473277655852 0 -4.8249473277655852 359.39161262657581 0 0 0 0 107.18753326222122 23.119971485248243 0 23.119971485248243 155.8463476253819 0 0 0 0 6.0815317035812768 15.283202187521965 0 15.283202187521965 174.27717451770877 0 0 0 0 24.16955779467753 -43.037675765568565 0 -43.037675765568565 271.46722173647868 0 0 0 0 49.523143341024479 -40.56328478101932 0 -40.56328478101932 111.68229333157069 0 0 0 0 22.978510191163878 -70.556798209312547 0 -70.556798209312547 168.6697203339354 0 0 0 0 56.263630394127631 -39.372016928387893 0 -39.372016928387893 86.69152340436267 0 0 0 0 12.561279033983055 -80.982669821533818 0 -80.982669821533818 41.017202049719344 0 0 0 0 -18.949898121785736 44.622073421738605 0 44.622073421738605 63.692229460000817 0 0 0 0 102.25697262229914 -284.39657186910699 0 -284.39657186910699 344.83214698759195 0 0 0 0 -4.9689125815384614 6.7760830839142727 0 6.7760830839142727 148.44350389975807 0 0 0 0 3.2119271989635401 2.3631229536860872 0 2.3631229536860872 2.3875883165589613 0 0 0 0 117.34204543456805 -26.170641505410941 0 -26.170641505410941 -24.925828798564908 0 0 0 0 14.943457726803899 -27.332219237134268 0 -27.332219237134268 -8.1341473998509173 0 0 0 0 90.52718513578111 0.40530293893243652 0 0.40530293893243652 -352.86984814445168 0 0 0 0 8.9234791041192025 8.1984805931221842 0 8.1984805931221842 7.0207829014924243 0 0 0 0 8.6918069860284959 -16.131476203992861 0 -16.131476203992861 19.065501542208949 0 0 0 0 -56.385455821129653 -21.542005615923699 0 -21.542005615923699 247.65659863866313 0 0 0 0 -85.953998115830473 -133.36154211327448 0 -133.36154211327448 37.06050833428435 0 0 0 0 -20.14654940235414 28.498305660912592 0 28.498305660912592 82.558827346525504 0 0 0 0 8.7029702542204177 99.352000519545982 0 99.352000519545982 197.92946399985703 0 0 0 0 -34.339283120210894 19.400522964751872 0 19.400522964751872 158.84501914929933 0 0 0 0 13.589218692445684 0.49742297670309199 0 0.49742297670309199 42.034615113028849 0 0 0 0 -55.313767468580295 -33.723965636751927 0 -33.723965636751927 104.28086881009222 0 0 0 0 -7.2666314286461784 43.521581414603133 0 43.521581414603133 97.391825854589115 0 0 0 0 13.47429383176117 19.088454859198933 0 19.088454859198933 50.093960440906812 0 0 0 0 -3.7114350415592678 14.908377447502438 0 14.908377447502438 67.77253337449045 0 0 0 0 -13.470357865366596 19.680929376393323 0 19.680929376393323 75.037990821300454 0 0 0 0 -36.42977032433464 11.925548842169519 0 11.925548842169519 144.99197396344971 0 0 0 0 40.821785720065463 -8.6065433155599749 0 -8.6065433155599749 173.6617769049908 0 0 0 0 14.321533214811028 22.088465892105091 0 22.088465892105091 176.41687253933924 0 0 0 0 22.648749018542389 17.353582712617936 0 17.353582712617936 68.140546390808595 0 0 0 0 1.8438043824833037 45.005108659017665 0 45.005108659017665 108.3656113993282 0 0 0 0 32.603381893851889 87.560788732343553 0 87.560788732343553 20.735695607072557 0 0 0 0 148.57213170592513 -18.173450130725541 0 -18.173450130725541 -44.164588254032424 0 0 0 0 -45.710249440663546 128.11399370402069 0 128.11399370402069 -50.364706193460734 0 0 0 0 126.50589817486889 -3.0560451470591943 0 -3.0560451470591943 -93.412448529303219 0 0 0 0 99.87426172421533 -7.6136673047367367 0 -7.6136673047367367 -0.39007926381600555 0 0 0 0 -92.130877489820705 70.912972247835569 0 70.912972247835569 25.467615205361653 0 0 0 0 -0.70099309283296518 -6.0241598146001891 0 -6.0241598146001891 55.512730269170731 0 0 0 0 -295.8985373020023 36.849759161043039 0 36.849759161043039 248.55405395421258 0 0 0 0 4.8589028308469961 -4.9370234720544701 0 -4.9370234720544701 40.864756005415586 0 0 0 0 118.19790258480495 113.10064409191217 0 113.10064409191217 -12.606867682261509 0 0 0 0 19.293253909095522 -47.577846501902968 0 -47.577846501902968 146.70794165151892 0 0 0 0 106.53182766743021 -62.138291143899551 0 -62.138291143899551 41.961921715010249 0 0 0 0 118.78508871287704 -72.324555939303536 0 -72.324555939303536 17.469828631466953 0 0 0 0 -22.674024225201947 -21.506244195115869 0 -21.506244195115869 118.08769883848436 0 0 0 0 14.935429063360743 -37.081176191848499 0 -37.081176191848499 154.55980321428797 0 0 0 0 -12.115937511599064 -2.548533176853482 0 -2.548533176853482 15.909759746865078 0 0 0 0 -3.4390868255525531 -3.2642658009071512 0 -3.2642658009071512 86.542216327719075 0 0 0 0 -31.051983491628231 -27.558566996427089 0 -27.558566996427089 114.82639109532465 0 0 0 0 -20.733412448170867 -2.3818279370254913 0 -2.3818279370254913 92.345365169181605 0 0 0 0 -9.9214058915904388 13.801385121427302 0 13.801385121427302 101.92394291451296 0 0 0 0 -15.659739704575713 -25.996395187401504 0 -25.996395187401504 100.86325266915082 0 0 0 0 -2.9631926492720595 -15.243401630039443 0 -15.243401630039443 109.1909817280175 0 0 0 0 19.383511239169252 47.390349969900853 0 47.390349969900853 136.62096234557976 0 0 0 0 -1.4822937585264526 12.882455511356966 0 12.882455511356966 112.17716183539596 0 0 0 0 -25.121546153200867 6.18133497644817 0 6.18133497644817 95.75663935643388 0 0 0 0 -4.8768514772876985 10.909985188375563 0 10.909985188375563 109.95417494126065 0 0 0 0 -0.26000426867010706 -7.3898270620117517 0 -7.3898270620117517 99.543795049711946 0 0 0 0 -40.153012215390277 10.621043585677398 0 10.621043585677398 124.00220797186194 0 0 0 0 -32.300909537837697 -2.9859294262669209 0 -2.9859294262669209 103.87861672756844 0 0 0 0 -6.239055495672801 -1.5305075241340091 0 -1.5305075241340091 104.3863773449084 0 0 0 0 3.0031941497209118 -20.364237374430559 0 -20.364237374430559 108.70090421232453 0 0 0 0 -0.98116658221715625 2.4960809060212341 0 2.4960809060212341 95.159078005301126 0 0 0 0 10.348258588684189 9.3428068950388479 0 9.3428068950388479 29.313752072484931 0 0 0 0 -15.898625692099763 25.825370309543999 0 25.825370309543999 51.142226393407185 0 0 0 0 7.9200653735369997 43.735793362266122 0 43.735793362266122 69.478448737134386 0 0 0 0 9.3093513594044452 -5.944694411191449 0 -5.944694411191449 87.91518576949602 0 0 0 0 -5.8501119727582136 -2.5411142243028735 0 -2.5411142243028735 89.680629677357501 0 0 0 0 -7.9362987866959429 -3.9135930009833828 0 -3.9135930009833828 87.075976863976393 0 0 0 0 -11.543233896622876 -2.0074191837477429 0 -2.0074191837477429 29.602035186649431 0 0 0 0 11.248265880898998 2.1492421725342865 0 2.1492421725342865 79.141199226651224 0 0 0 0 -8.9954077419928069 -20.618297052482177 0 -20.618297052482177 48.520934225695498 0 0 0 0 -11.94950355975061 -11.34122733969707 0 -11.34122733969707 86.925419315815816 0 0 0 0 -23.285553387062919 -14.272253355709836 0 -14.272253355709836 78.580477390918531 0 0 0 0 -21.362351046198455 -6.2925289075719775 0 -6.2925289075719775 78.20261924062288 0 0 0 0 -27.047081376578717 -9.292336802041973 0 -9.292336802041973 78.757364533710643 0 0 0 0 -25.011167110465976 -14.473761391673179 0 -14.473761391673179 91.024231612187577 0 0 0 0 -4.8585348331914329 -1.5239880549073348 0 -1.5239880549073348 17.188767182359598 0 0 0 0 -24.028736815363118 4.7617138593159325 0 4.7617138593159325 72.607420050138899 0 0 0 0 -6.9768385994171584 -4.3715823045634359 0 -4.3715823045634359 63.196069536583423 0 0 0 0 -13.194185817397571 -17.53493696676837 0 -17.53493696676837 68.006678566523462 0 0 0 0 -42.99488759934502 3.4643558377865702 0 3.4643558377865702 57.828192321569077 0 0 0 0 -3.0877034185814409 -38.098113468424799 0 -38.098113468424799 137.32676239527791 0 0 0 0 -14.218642695579279 -7.4569927985202007 0 -7.4569927985202007 86.715897678947897 0 0 0 0 -9.735144433614753 -14.858076242296079 0 -14.858076242296079 61.335213376908357 0 0 0 0 34.238906092589787 -23.191021375470427 0 -23.191021375470427 143.71130810382238 0 0 0 0 -42.722344536829951 -0.95367304298451927 0 -0.95367304298451927 83.494298522855388 0 0 0 0 -14.760709367991939 9.8976489219190196 0 9.8976489219190196 52.032196723752335 0 0 0 0 -29.20089800695132 7.7157426685153041 0 7.7157426685153041 66.203951632953249 0 0 0 0 -20.132864616455347 4.5956435305250807 0 4.5956435305250807 63.504162509629282 0 0 0 0 -6.7720115999211181 -65.641833152470184 0 -65.641833152470184 53.770461766061459 0 0 0 0 -24.231096378249276 9.934985305324517 0 9.934985305324517 69.738844810650335 0 0 0 0 4.9155031995136369 -18.384674664080194 0 -18.384674664080194 118.95017104015278 0 0 0 0 -20.820517877653401 -6.7548587695055176 0 -6.7548587695055176 65.544082751584938 0 0 0 0 -9.5855242322236958 -25.481790820329906 0 -25.481790820329906 61.327973038034003 0 0 0 0 -21.017034977895293 19.611179049625903 0 19.611179049625903 59.944499116883776 0 0 0 0 -27.871720186540188 1.0049091181936092 0 1.0049091181936092 61.006939591308765 0 0 0 0 -26.635650374511897 5.0251375157895382 0 5.0251375157895382 63.520360509457532 0 0 0 0 -27.595038424398581 4.9681407821892662 0 4.9681407821892662 67.907592605683021 0 0 0 0 -9.5029200871722423 8.5612582979592844 0 8.5612582979592844 57.113957084580761 0 0 0 0 1.6584707014535525 -1.2285138658080541 0 -1.2285138658080541 16.735177738250059 0 0 0 0 -25.785221591660957 -10.70930685820349 0 -10.70930685820349 34.382001721802226 0 0 0 0 -2.0135334543319914 92.381367902838974 0 92.381367902838974 283.97467767621856 0 0 0 0 1.3708890839952801 89.937620444361528 0 89.937620444361528 153.84043409553851 0 0 0 0 67.719354989276326 -6.6284879837185144 0 -6.6284879837185144 223.45574359007878 0 0 0 0 65.657785544190119 -66.41564466607997 0 -66.41564466607997 -4.2509096579888137 0 0 0 0 2.131138958608723 -1.4143584381063121 0 -1.4143584381063121 28.063591385513234 0 0 0 0 -36.24644882128996 -3.7285536387498723 0 -3.7285536387498723 59.412019067167421 0 0 0 0 50.356565064961615 -86.077946231918759 0 -86.077946231918759 4.4461681063039578 0 0 0 0 87.642086869818741 -35.445794177037897 0 -35.445794177037897 3.9709993496653624 0 0 0 0 8.6215373776503803 -15.486851528354274 0 -15.486851528354274 16.956762323604664 0 0 0 0 -15.505688737149335 14.243047043975643 0 14.243047043975643 92.117684722762036 0 0 0 0 -95.473647731079836 -45.005646956306009 0 -45.005646956306009 23.506410325295292 0 0 0 0 14.302565465935317 -30.953994511238378 0 -30.953994511238378 72.806819214035855 0 0 0 0 -14.043089658932526 -37.299949071350966 0 -37.299949071350966 82.458204277260435 0 0 0 0 -7.4364815782937512 -35.856559214749723 0 -35.856559214749723 140.06253868592103 0 0 0 0 -7.3832254801582167 -35.680935891438821 0 -35.680935891438821 125.42465908113809 0 0 0 0 42.610033998735162 -71.766447961092126 0 -71.766447961092126 65.948846246388712 0 0 0 0 0.56299884751024365 -41.931866623708629 0 -41.931866623708629 90.247162611216481 0 0 0 0 611.87734817877299 -49.970763809324126 0 -49.970763809324126 -190.4182952340052 0 0 0 0 2.058961150253829 -4.0391841749985495 0 -4.0391841749985495 6.3605036565739113 0 0 0 0 -14.710693045031803 -18.529042382211628 0 -18.529042382211628 151.12170183451235 0 0 0 0 23.094998592036731 -40.623170185735439 0 -40.623170185735439 58.807267285887463 0 0 0 0 -6.0987869267272004 -84.655618765099462 0 -84.655618765099462 82.035018773327465 0 0 0 0 -3.9243695157750835 -2.807737584505162 0 -2.807737584505162 45.948956039297357 0 0 0 0 -175.24294739906793 3.808025481230743 0 3.808025481230743 118.03889522225654 0 0 0 0 17.270669992707553 -17.587152537169459 0 -17.587152537169459 15.062625214319269 0 0 0 0 12.938390041563252 -0.21618375304387882 0 -0.21618375304387882 7.3773946157016326 0 0 0 0 13.182807418392336 -7.6925015789130242 0 -7.6925015789130242 2.272929490840994 0 0 0 0 28.911542850977639 -35.704950537648983 0 -35.704950537648983 55.031997333164327 0 0 0 0 15.836192248882515 -33.13757331923054 0 -33.13757331923054 39.906438661026648 0 0 0 0 25.0324986512653 -31.675218886047503 0 -31.675218886047503 32.504516474143557 0 0 0 0 70.93852566487476 -151.90364390052855 0 -151.90364390052855 36.405130060826195 0 0 0 0 40.743789239015314 13.635971020907164 0 13.635971020907164 -51.558783997817955 0 0 0 0 15.722841718705105 -5.9605007676094992 0 -5.9605007676094992 -16.46252993028412 0 0 0 0 113.04737285470765 -61.021067016659799 0 -61.021067016659799 48.640291109666578 0 0 0 0 48.265996008288312 -66.869230270519438 0 -66.869230270519438 102.13214704148049 0 0 0 0 10.083994377753648 -7.0013621582772672 0 -7.0013621582772672 5.5048416275066003 0 0 0 0 26.789183728124044 -84.788264621864073 0 -84.788264621864073 90.555491002080089 0 0 0 0 42.830624808295568 -88.653818466521543 0 -88.653818466521543 98.45958231689292 0 0 0 0 30.559270944939271 -99.595594869740125 0 -99.595594869740125 113.27083538820443 0 0 0 0 23.904081684446282 -38.074830437632045 0 -38.074830437632045 124.14631752530477 0 0 0 0 -0.98840128520165749 -11.652023585383525 0 -11.652023585383525 16.152759119864712 0 0 0 0 3.3364427494525444 -80.810632912682195 0 -80.810632912682195 106.40456395255933 0 0 0 0 12.45755616743736 -65.562184170316868 0 -65.562184170316868 131.88884779152067 0 0 0 0 -11.444437930400454 -112.98898409630965 0 -112.98898409630965 109.47741160449368 0 0 0 0 4.4411576557076842 -87.930203537139732 0 -87.930203537139732 147.85653185857882 0 0 0 0 -14.977299392177883 -86.413743343282476 0 -86.413743343282476 149.48580401867366 0 0 0 0 -46.988100478625711 -57.913534943108061 0 -57.913534943108061 182.40769036397069 0 0 0 0 -13.689434575793712 -79.937111026840284 0 -79.937111026840284 167.26609272198766 0 0 0 0 -23.559775841923511 -61.423564423543212 0 -61.423564423543212 138.36676273172634 0 0 0 0 -15.950751048045277 -49.918475824268171 0 -49.918475824268171 144.64013776405045 0 0 0 0 -14.028604954750335 -39.832194276183145 0 -39.832194276183145 141.69586708659335 0 0 0 0 -15.489694484167558 -42.852469567173102 0 -42.852469567173102 151.62925705764792 0 0 0 0 -44.298100754214829 -32.211084965509144 0 -32.211084965509144 147.75032242041198 0 0 0 0 -21.397360449010502 11.275278175532314 0 11.275278175532314 56.886388280488781 0 0 0 0 -16.776081894387971 -30.932013769618607 0 -30.932013769618607 136.79751884107827 0 0 0 0 -69.94747656346226 11.233336180395781 0 11.233336180395781 132.94916238508014 0 0 0 0 -80.828443723892633 -36.924958466559474 0 -36.924958466559474 182.2418910594015 0 0 0 0 -30.635268437502191 -50.088405158071851 0 -50.088405158071851 167.07190210112458 0 0 0 0 -24.235222518635965 -50.74943993685838 0 -50.74943993685838 136.68619594610664 0 0 0 0 -12.024585982035166 11.836514614535446 0 11.836514614535446 44.202625096621972 0 0 0 0 -16.275980682925365 25.05899556602526 0 25.05899556602526 43.95994118764429 0 0 0 0 -12.567228810860033 21.594422996862516 0 21.594422996862516 17.50763089930814 0 0 0 0 -15.268039979887362 -4.2730328625293623 0 -4.2730328625293623 61.258879241693649 0 0 0 0 -0.94126950868265791 1.1066166434726483 0 1.1066166434726483 31.552543422006082 0 0 0 0 -2.7708035797868433 7.2159212063979794 0 7.2159212063979794 21.78271328676783 0 0 0 0 -5.1379286097593955 15.402218422111559 0 15.402218422111559 32.352176951516746 0 0 0 0 2.9818106399561657 -5.3303327213216107 0 -5.3303327213216107 61.155182095972123 0 0 0 0 -11.171922400715852 17.183520589980802 0 17.183520589980802 32.861995987079965 0 0 0 0 0.61731518664646501 -4.3393924238225736 0 -4.3393924238225736 61.323854026122717 0 0 0 0 -12.119315625164237 24.985080345325734 0 24.985080345325734 21.150751023600122 0 0 0 0 -28.820985290928093 4.0594113003753591 0 4.0594113003753591 -25.740799575187339 0 0 0 0 -23.610794992702267 19.452424092922229 0 19.452424092922229 85.764027875633474 0 0 0 0 -9.0109263250906224 17.698776260360319 0 17.698776260360319 59.854655518749496 0 0 0 0 50.641727652736336 159.67287470867086 0 159.67287470867086 68.12875520450325 0 0 0 0 -5.7499753426859286 -1.161977896845201 0 -1.161977896845201 94.690823678702145 0 0 0 0 -20.303259849487386 26.251796546956641 0 26.251796546956641 45.767974184959911 0 0 0 0 -20.767949464633677 30.073347846531306 0 30.073347846531306 34.994933465927211 0 0 0 0 7.6158872810156026 -27.898567151896714 0 -27.898567151896714 146.21071029429731 0 0 0 0 -8.6217347902418204 20.92030464838902 0 20.92030464838902 -13.327939145796293 0 0 0 0 -7.1382235488915873 12.294526273340892 0 12.294526273340892 24.434525597372158 0 0 0 0 0.13517549112012439 -4.3374235025154704 0 -4.3374235025154704 28.380265667624478 0 0 0 0 -81.368692002761918 61.928898660561117 0 61.928898660561117 107.98918448064796 0 0 0 0 -69.268179018121913 126.55164172731838 0 126.55164172731838 350.66991606302327 0 0 0 0 -50.606514272323807 685.19434236086818 0 685.19434236086818 6699.5336751085088 0 0 0 0 229.76359739036889 -265.99970882244088 0 -265.99970882244088 -321.00590364466188 0 0 0 0 10.889688722333942 -8.4838749006020322 0 -8.4838749006020322 8.6201842274893608 0 0 0 0 409.71827591387847 -658.25981378099095 0 -658.25981378099095 423.33787497939193 0 0 0 0 1103.7719313344646 -1866.8190928229888 0 -1866.8190928229888 5503.180414040653 0 0 0 0 -905.86171349169831 -661.63314123104647 0 -661.63314123104647 5218.3876757806938 0 0 0 0 340.46247487975609 -2189.0014016922614 0 -2189.0014016922614 2661.2684009359509 0 0 0 0 154.76135660134895 140.87439230653035 0 140.87439230653035 69.545262476618518 0 0 0 0 -0.86453805053191279 -0.84914073297787596 0 -0.84914073297787596 -7.2030875647251946 0 0 0 0 -242.03152695899084 36.068568762355426 0 36.068568762355426 823.22768743154302 0 0 0 0 274.24515401037775 129.32428521228212 0 129.32428521228212 801.24705343586538 0 0 0 0 -157.91740498670356 103.25330025368748 0 103.25330025368748 2988.9183967945064 0 0 0 0 -828.46844176409172 -279.45505533879441 0 -279.45505533879441 2950.8884993141692 0 0 0 0 721.173286288486 1970.8229229515673 0 1970.8229229515673 3209.6053590561169 0 0 0 0 -912.10554857987142 833.99144066172448 0 833.99144066172448 5488.7971064109406 0 0 0 0 4.7297754615482601 -6.8193492223529084 0 -6.8193492223529084 28.450866245800484 0 0 0 0 734.86698950460641 527.55622176831457 0 527.55622176831457 181.47831477255386 0 0 0 0 -117.11744996989205 -7.8144227950615459 0 -7.8144227950615459 85.155757402986637 0 0 0 0 -256.33996606491758 -339.44484581357392 0 -339.44484581357392 298.66555892062206 0 0 0 0 -299.36675660768833 69.959004918529899 0 69.959004918529899 80.296547861464205 0 0 0 0 1.4460373374282254 -18.265470498487964 0 -18.265470498487964 67.569802382380402 0 0 0 0 1.1945548438343963 -13.245257855472119 0 -13.245257855472119 93.586461187056557 0 0 0 0 374.08354725556262 -47.934519302296394 0 -47.934519302296394 -327.19613067941464 0 0 0 0 -0.21852622138289113 -7.9498467628104521 0 -7.9498467628104521 12.684735046672387 0 0 0 0 0.024437217655759014 -1.9582221920954908 0 -1.9582221920954908 58.897656955203274 0 0 0 0 -3.5450374184706401 6.1828958095087643 0 6.1828958095087643 21.389351693745141 0 0 0 0 -8.5266965473074556 7.5671917672019759 0 7.5671917672019759 36.10591688762166 0 0 0 0 -5.0424755467238356 -0.34391593854525127 0 -0.34391593854525127 59.151806063644472 0 0 0 0 -18.124086429557792 10.384560455859173 0 10.384560455859173 61.524843496958056 0 0 0 0 -1.1599552852112538 -13.423153962517972 0 -13.423153962517972 93.575690315810789 0 0 0 0 -2.3477929803860906 -18.455155410290899 0 -18.455155410290899 107.66853942623129 0 0 0 0 -5.1891374869828724 9.2161121022872976 0 9.2161121022872976 54.539605877573194 0 0 0 0 -10.524021461315897 -1.0663338725144058 0 -1.0663338725144058 82.935592025736696 0 0 0 0 -5.3821116653695444 2.8547126222688597 0 2.8547126222688597 42.761573465182039 0 0 0 0 -9.6790411826565173 7.2419568464657402 0 7.2419568464657402 25.124685108201476 0 0 0 0 -10.714362527828772 -2.2429888159825921 0 -2.2429888159825921 50.954801006608193 0 0 0 0 -3.4664670447165888 6.6129401060304929 0 6.6129401060304929 21.709887951239565 0 0 0 0 0.96208113125794625 -11.099975622695638 0 -11.099975622695638 107.04425791530048 0 0 0 0 -4.9736532719994102 -14.654474270020728 0 -14.654474270020728 105.09759602112172 0 0 0 0 1.3631557351331482 9.8895293464286453 0 9.8895293464286453 15.445487542174902 0 0 0 0 35.345937273052186 20.499230577173876 0 20.499230577173876 -12.54676867717717 0 0 0 0 -9.0326806952815399 -6.4921102146614942 0 -6.4921102146614942 23.934946309238967 0 0 0 0 -4.3659694356847467 -17.997207987995353 0 -17.997207987995353 96.72551671819383 0 0 0 0 0.70629883486548595 -17.585291176843981 0 -17.585291176843981 47.301659704826648 0 0 0 0 26.033378624040765 -19.045048955693105 0 -19.045048955693105 17.809454231469942 0 0 0 0 58.568842716974814 -6.7181499913276639 0 -6.7181499913276639 -2.006867248841445 0 0 0 0 73.739983343085896 -26.812355358852074 0 -26.812355358852074 -14.152113288771943 0 0 0 0 31.651084055020817 -50.978353005780491 0 -50.978353005780491 -17.292459852294996 0 0 0 0 118.40553885449059 0.66896414905932033 0 0.66896414905932033 -21.357232923393894 0 0 0 0 40.20861544369162 148.69366081656335 0 148.69366081656335 -31.098819954480859 0 0 0 0 -199.00748038225223 229.60842047973529 0 229.60842047973529 -43.552199153709807 0 0 0 0 482.79842165822583 184.84255354314519 0 184.84255354314519 -388.59565413696691 0 0 0 0 239.85603267264878 -255.09893030338208 0 -255.09893030338208 228.66827994578489 0 0 0 0 972.90778153822123 -2549.7602875622797 0 -2549.7602875622797 3605.0054139127606 0 0 0 0 -310.27471553826791 -1736.6961288956663 0 -1736.6961288956663 5489.6284189428552 0 0 0 0 1718.2395515826888 -1163.5397686382239 0 -1163.5397686382239 920.94329855502292 0 0 0 0 -470.33168844894408 -1128.9147923865967 0 -1128.9147923865967 3712.054364508971 0 0 0 0 -7.9822586812456775 3.3263057570585772 0 3.3263057570585772 5.1121438303076019 0 0 0 0 -142.98935381087233 -1152.9337437223476 0 -1152.9337437223476 3675.6150192587811 0 0 0 0 399.63025404114717 -1142.0294936271821 0 -1142.0294936271821 2720.4452044040772 0 0 0 0 -19.554339722084165 0.18656344452081441 0 0.18656344452081441 11.568005868433673 0 0 0 0 93.560292430332311 -255.15658843742858 0 -255.15658843742858 2599.5015654728704 0 0 0 0 -144.89689666386016 -100.75946824343555 0 -100.75946824343555 3312.1493783499609 0 0 0 0 -582.72351466587941 -840.13042433267401 0 -840.13042433267401 4711.1932519245165 0 0 0 0 -922.91259151900226 -156.60369470399746 0 -156.60369470399746 5500.8683490671829 0 0 0 0 -365.39122126577388 -239.1538649882641 0 -239.1538649882641 3265.367820485204 0 0 0 0 -667.50084739167482 320.35289706233016 0 320.35289706233016 5499.9402208872971 0 0 0 0 -806.28114731726487 -126.09343718908349 0 -126.09343718908349 4094.7572619073617 0 0 0 0 -382.37036946753108 -156.82149151444173 0 -156.82149151444173 3867.8076948528469 0 0 0 0 -164.80986571993981 1157.3857233086164 0 1157.3857233086164 1991.7156252495188 0 0 0 0 -480.43851478073293 285.29730076632404 0 285.29730076632404 3389.1662993820646 0 0 0 0 -142.32978657890428 -16.764718654983426 0 -16.764718654983426 2883.3742473810271 0 0 0 0 -1.0386895627992228 -2.3155904761373449 0 -2.3155904761373449 3.9130325556338335 0 0 0 0 505.9239094463419 -294.02410294668516 0 -294.02410294668516 484.04573284244543 0 0 0 0 73.054169387423656 -398.12681863064063 0 -398.12681863064063 523.36158943505143 0 0 0 0 45.645807933131437 -25.067142491738196 0 -25.067142491738196 -80.968561011941347 0 0 0 0 12.157616306296745 -9.9291950995102525 0 -9.9291950995102525 -3.8968898418388562 0 0 0 0 0.22767085948404286 -3.8495388924130793 0 -3.8495388924130793 3.4008531074829875 0 0 0 0 10.367907763885228 -56.555155210262456 0 -56.555155210262456 -10.232099348497286 0 0 0 0 11.200858905149289 -85.511413885884394 0 -85.511413885884394 76.249120190052054 0 0 0 0 26.053946689038526 -23.978907133073477 0 -23.978907133073477 16.858381689719181 0 0 0 0 26.486843135729828 -17.525448934156884 0 -17.525448934156884 27.182265111012384 0 0 0 0 -4.4875374900948373 -60.030851419025566 0 -60.030851419025566 62.865972251747735 0 0 0 0 -2.9744535926574827 -24.573684205126483 0 -24.573684205126483 88.083951534877997 0 0 0 0 -13.008607400127518 -12.833841378289101 0 -12.833841378289101 67.884595355339002 0 0 0 0 -0.8183747780185513 -40.893553080939455 0 -40.893553080939455 155.95687290310525 0 0 0 0 8.1933171957274311 -28.459590891868004 0 -28.459590891868004 -6.5328785581356072 0 0 0 0 -9.3847474911315203 -56.562280317826662 0 -56.562280317826662 134.15444412169745 0 0 0 0 42.524782492914568 -94.74594653944223 0 -94.74594653944223 35.888384352714638 0 0 0 0 -24.837571194871998 69.874338175612081 0 69.874338175612081 -68.67674722015596 0 0 0 0 -152.65429189399219 30.09954316957797 0 30.09954316957797 99.218789131233621 0 0 0 0 -46.64373234660161 -29.690292244737407 0 -29.690292244737407 117.38693075147205 0 0 0 0 -80.209626809131805 11.803529700088802 0 11.803529700088802 132.57210425942981 0 0 0 0 22.027772627693537 11.300372035154851 0 11.300372035154851 8.7720745805036131 0 0 0 0 -7.4866470077708982 11.276296189560071 0 11.276296189560071 51.129707526268248 0 0 0 0 22.069628774687772 -8.8152545389247621 0 -8.8152545389247621 14.522743650027621 0 0 0 0 -4.4137193155469872 5.1666687358152643 0 5.1666687358152643 34.886794212238875 0 0 0 0 -11.727445403968886 22.926886891844561 0 22.926886891844561 110.35521549477016 0 0 0 0 74.740754420814937 -10.387212788161378 0 -10.387212788161378 954.32592386075703 0 0 0 0 66.634997164657747 -201.44472373263989 0 -201.44472373263989 856.96963557787694 0 0 0 0 146.12405776394212 183.11020908770206 0 183.11020908770206 1449.3806004698854 0 0 0 0 231.28034424785619 -141.8532694569044 0 -141.8532694569044 836.35813352577679 0 0 0 0 2.2682247986289665 2.844863751400144 0 2.844863751400144 1.8038330110703136 0 0 0 0 117.98517710445032 130.43069655182444 0 130.43069655182444 775.48944907913938 0 0 0 0 276.52573024416142 -33.378344652270243 0 -33.378344652270243 724.43844764301321 0 0 0 0 179.49756069170053 60.638781301808194 0 60.638781301808194 647.96478365312942 0 0 0 0 48.965186488784639 39.729789901130061 0 39.729789901130061 569.11875133699687 0 0 0 0 95.953819298921189 -12.229656953912126 0 -12.229656953912126 599.82205003527633 0 0 0 0 6.7093559003055816 45.956360643678636 0 45.956360643678636 738.75496357637348 0 0 0 0 128.99932934431013 45.427050125459118 0 45.427050125459118 514.67465223596446 0 0 0 0 -37.723078423417064 -31.401625593050085 0 -31.401625593050085 956.64889218348435 0 0 0 0 87.983531634666178 -41.086936278190478 0 -41.086936278190478 791.662874708647 0 0 0 0 108.54458948173578 -57.888898179345233 0 -57.888898179345233 661.87290589617987 0 0 0 0 35.843238624094738 -18.915774329077976 0 -18.915774329077976 649.7625732894353 0 0 0 0 66.885141622413812 8.3180686436649012 0 8.3180686436649012 466.44141179489088 0 0 0 0 -63.622730211542603 129.25565493618524 0 129.25565493618524 962.03924556015681 0 0 0 0 -3.3503319842075143 29.781666762142777 0 29.781666762142777 666.79015468107491 0 0 0 0 -14.278691477858956 -58.616074160283461 0 -58.616074160283461 634.34012622923046 0 0 0 0 23.337822775490814 10.470764770566721 0 10.470764770566721 3.2168424552334742 0 0 0 0 -89.935032960295757 14.502875079318983 0 14.502875079318983 1056.1896739319427 0 0 0 0 163.94218723290351 69.260005728935994 0 69.260005728935994 540.36795125375102 0 0 0 0 -91.3797564393426 -193.10345779256659 0 -193.10345779256659 917.05844301484422 0 0 0 0 -201.57735488353501 16.919386982026936 0 16.919386982026936 1220.308353274806 0 0 0 0 14.135050133639119 4.9840523972191706 0 4.9840523972191706 1.3995685789573726 0 0 0 0 471.39998905467291 278.81156822317911 0 278.81156822317911 -321.0797845779212 0 0 0 0 301.71612623966485 85.208314170367885 0 85.208314170367885 756.77499151712573 0 0 0 0 -200.35777718552526 -149.36980295121884 0 -149.36980295121884 691.95001442502939 0 0 0 0 327.24487367857296 105.63214658128959 0 105.63214658128959 -90.671014178288715 0 0 0 0 5.1062139980319987 -0.0040012815381427203 0 -0.0040012815381427203 0.66927112148597934 0 0 0 0 40.558903330811518 -27.74632663964212 0 -27.74632663964212 -436.98205195950595 0 0 0 0 -245.50830714325593 36.793356790263715 0 36.793356790263715 1406.6585034071109 0 0 0 0 97.986748924304266 -135.21424477617711 0 -135.21424477617711 674.18685698104878 0 0 0 0 258.71894282097583 -306.22882811238924 0 -306.22882811238924 707.56800543635291 0 0 0 0 -150.96633788830047 -2.443422527350684 0 -2.443422527350684 -25.813891806621314 0 0 0 0 -138.91131480496369 57.840234709943388 0 57.840234709943388 114.79214131188633 0 0 0 0 -184.87575005719373 -244.30666131636843 0 -244.30666131636843 -116.17862451582317 0 0 0 0 -75.785202601187393 298.4329426566573 0 298.4329426566573 393.55253991857762 0 0 0 0 -342.20677831935882 -109.9262895200149 0 -109.9262895200149 406.73029632506058 0 0 0 0 263.75568672587178 282.91233032724222 0 282.91233032724222 109.8204134887992 0 0 0 0 -17.353244798239757 136.34956213416717 0 136.34956213416717 90.807342257456185 0 0 0 0 -20.805798600351409 194.13750230641244 0 194.13750230641244 77.234121815551589 0 0 0 0 -141.79646110510043 63.08118407967217 0 63.08118407967217 108.65235380526747 0 0 0 0 -136.40440964504069 129.30109187071321 0 129.30109187071321 119.99329757933629 0 0 0 0 -134.09354998421816 106.62459673319238 0 106.62459673319238 29.325877459216827 0 0 0 0 -113.80024608834719 163.11755750861903 0 163.11755750861903 170.55638571611917 0 0 0 0 366.67405462927491 54.702738945402189 0 54.702738945402189 -7.0577543543276988 0 0 0 0 59.174791087927588 -110.95234895398892 0 -110.95234895398892 92.324986745235378 0 0 0 0 1.7908358863867679 3.0614746715798837 0 3.0614746715798837 3.2878801928393377 0 0 0 0 -97.50099419151411 -77.163475147372878 0 -77.163475147372878 147.8122534704051 0 0 0 0 -21.611649585465784 12.650025427386936 0 12.650025427386936 43.613317913369428 0 0 0 0 -15.726359258242155 18.332929275556239 0 18.332929275556239 48.504361340275864 0 0 0 0 14.880803169250612 11.136258490818363 0 11.136258490818363 -38.7201695879412 0 0 0 0 -2.8657154363915573 10.849236539266958 0 10.849236539266958 9.6918047724343772 0 0 0 0 -25.989371235838917 -31.069946973716526 0 -31.069946973716526 69.750654973448718 0 0 0 0 40.036893102249451 -5.162349173138864 0 -5.162349173138864 42.571411898889892 0 0 0 0 -13.752299382140336 67.323579704682743 0 67.323579704682743 -22.949552290467182 0 0 0 0 -93.986799696826438 -8.7415378085268003 0 -8.7415378085268003 -56.122075226623565 0 0 0 0 -75.27554730702218 185.68793582654507 0 185.68793582654507 -56.963691382989055 0 0 0 0 -47.625380007466447 155.83629398608082 0 155.83629398608082 22.739785579670752 0 0 0 0 -97.320781172735224 200.01192572185937 0 200.01192572185937 45.944640290917505 0 0 0 0 33.870105189284402 184.89754332110826 0 184.89754332110826 20.591302287286453 0 0 0 0 -20.213122822622609 133.7572935227754 0 133.7572935227754 -22.355487715212803 0 0 0 0 -102.32822691476815 138.03081603515136 0 138.03081603515136 -224.27521802066258 0 0 0 0 -155.67828566577009 191.32891541535537 0 191.32891541535537 -16.579319522220317 0 0 0 0 -5.715194554162415 50.030084722119682 0 50.030084722119682 77.775950570661834 0 0 0 0 -94.69567427666162 211.04709159102504 0 211.04709159102504 -39.246013740779745 0 0 0 0 -33.37201883018588 -48.039106648760935 0 -48.039106648760935 61.285857246024534 0 0 0 0 -156.63102388953666 23.40301780496884 0 23.40301780496884 153.92849402586944 0 0 0 0 -49.90625273036963 27.961771662240043 0 27.961771662240043 68.556452064589607 0 0 0 0 -7.6294557020684586 -14.493697034266747 0 -14.493697034266747 37.383889069312673 0 0 0 0 -36.10341702393265 1.5399717810396396 0 1.5399717810396396 62.368741657843202 0 0 0 0 -61.256904207062689 108.80001739188447 0 108.80001739188447 -48.73262837594018 0 0 0 0 -56.420848973883039 85.718846622163255 0 85.718846622163255 61.399570283467256 0 0 0 0 -44.462963725667436 21.816993935887645 0 21.816993935887645 37.509423593707957 0 0 0 0 -11.578678999875077 6.7140877087741586 0 6.7140877087741586 32.659910804488476 0 0 0 0 -2.9460641057423373 -5.0693959798964388 0 -5.0693959798964388 36.761628523632609 0 0 0 0 -40.887144692464062 -10.764697714891554 0 -10.764697714891554 45.630421399219813 0 0 0 0 -13.288831132801093 5.5218282131660654 0 5.5218282131660654 27.313460748354935 0 0 0 0 -23.811162097626493 13.427164736665446 0 13.427164736665446 21.419944237977006 0 0 0 0 -41.056345726900418 -7.607495853965645 0 -7.607495853965645 25.636276418656053 0 0 0 0 -14.628093478863077 8.332124815383942 0 8.332124815383942 17.398882749920215 0 0 0 0 -15.339506343206267 6.8730834302276662 0 6.8730834302276662 35.1987161580887 0 0 0 0 -8.9068463971980236 11.892514379596037 0 11.892514379596037 37.248267124966389 0 0 0 0 -5.3615598050965794 7.7382376717522527 0 7.7382376717522527 44.219094905432968 0 0 0 0 -1.0430175300753035 -9.9359034903047814 0 -9.9359034903047814 -25.383378909222301 0 0 0 0 20.352729879049548 54.822318566959268 0 54.822318566959268 99.009719832648216 0 0 0 0 -3.2158158151268292 -4.4038681472660688 0 -4.4038681472660688 -2.2908755200529569 0 0 0 0 -1.5637237889505684 5.2964110438825287 0 5.2964110438825287 56.573515477410183 0 0 0 0 3.621058239742009 5.8447337192589721 0 5.8447337192589721 8.9348717552977899 0 0 0 0 -38.035315106769758 -32.95040579984925 0 -32.95040579984925 17.9852603014333 0 0 0 0 -29.836569347103023 -8.2929827264542837 0 -8.2929827264542837 44.052570149164239 0 0 0 0 -49.839653473804219 -27.078606746883452 0 -27.078606746883452 51.567239444033476 0 0 0 0 -39.774651954404362 -23.813290194553701 0 -23.813290194553701 24.524512553451132 0 0 0 0 -62.347401610082215 -18.696598729742618 0 -18.696598729742618 62.427785106534429 0 0 0 0 -61.924039945594672 -32.766686210570668 0 -32.766686210570668 49.33589096867945 0 0 0 0 -93.449340257623305 -69.688770878238302 0 -69.688770878238302 37.218919201823155 0 0 0 0 -57.928014900406936 -44.24396072864738 0 -44.24396072864738 29.132470620828826 0 0 0 0 -52.829653241135645 -53.526053408865664 0 -53.526053408865664 43.583901172564765 0 0 0 0 -55.598246844496941 -73.485675418583014 0 -73.485675418583014 22.369424095155409 0 0 0 0 -50.275351495129144 -78.938561189215761 0 -78.938561189215761 27.663597243748882 0 0 0 0 -62.540484587427386 -76.502009748809542 0 -76.502009748809542 21.96506799605595 0 0 0 0 -44.236257868214125 -65.741940222183075 0 -65.741940222183075 22.074653563930042 0 0 0 0 -62.912838936550287 -66.623734846645334 0 -66.623734846645334 25.360438817591785 0 0 0 0 -62.090048838597568 -47.342031102661281 0 -47.342031102661281 26.688471751836914 0 0 0 0 -78.245037929241334 -64.472688428151741 0 -64.472688428151741 26.246784774291882 0 0 0 0 -76.582966002206717 -50.780879784187391 0 -50.780879784187391 25.985128922682634 0 0 0 0 -16.062824989820911 -65.852980050355654 0 -65.852980050355654 12.973500725304802 0 0 0 0 -36.652819703022715 -41.03536984927041 0 -41.03536984927041 35.47229020330451 0 0 0 0 -33.835049665860112 -42.425846783145516 0 -42.425846783145516 28.87713085408177 0 0 0 0 1.4583803768384911 -3.6683579592633073 0 -3.6683579592633073 15.487192717568128 0 0 0 0 3.7786245255288433 -11.418244791040085 0 -11.418244791040085 17.616537371692402 0 0 0 0 22.484413923313127 -10.912968830106593 0 -10.912968830106593 27.481128090752463 0 0 0 0 10.615145872326138 -14.063811496180278 0 -14.063811496180278 27.936270033140318 0 0 0 0 14.527375817684515 -14.980173805262893 0 -14.980173805262893 19.880409006407717 0 0 0 0 14.04883920011644 -9.6514136705506353 0 -9.6514136705506353 10.978666045946049 0 0 0 0 1.5412335658984375 -1.9972555591612036 0 -1.9972555591612036 11.598349657455401 0 0 0 0 8.2319499140900838 -13.916001786660203 0 -13.916001786660203 21.37745784001315 0 0 0 0 10.575975192680346 -14.815454376387606 0 -14.815454376387606 21.285682215340785 0 0 0 0 24.598095237768575 -24.179507852255483 0 -24.179507852255483 13.712611019960605 0 0 0 0 -59.841513254053098 -30.569822914562792 0 -30.569822914562792 21.839647590353707 0 0 0 0 -40.691869043741463 -31.813423374340346 0 -31.813423374340346 18.784592045267345 0 0 0 0 -42.565497289533596 -49.313997530774941 0 -49.313997530774941 23.679415510592662 0 0 0 0 -45.825739328616692 -43.127348886677282 0 -43.127348886677282 14.316487656447407 0 0 0 0 -60.704509894070725 -34.396672695002962 0 -34.396672695002962 41.733154389221454 0 0 0 0 -219.2073396663809 6.7939531110537246 0 6.7939531110537246 34.538932318854677 0 0 0 0 157.18779847131009 -159.1960609542366 0 -159.1960609542366 119.08856031772302 0 0 0 0 24.195926309645074 -22.323083603894702 0 -22.323083603894702 21.2921858454838 0 0 0 0 0.44066558365548048 -2.5939193707533619 0 -2.5939193707533619 5.7080285642540005 0 0 0 0 54.682260772729933 22.703686829518119 0 22.703686829518119 61.008353048542631 0 0 0 0 25.966061233037181 12.583201013043436 0 12.583201013043436 116.71675844176571 0 0 0 0 171.02369174140767 -142.86664104918236 0 -142.86664104918236 75.687659006311151 0 0 0 0 63.630430128938315 -46.165403599599813 0 -46.165403599599813 22.304488371581101 0 0 0 0 296.79574401609352 -223.61459952752557 0 -223.61459952752557 123.28292618148043 0 0 0 0 150.52384756182255 -190.98699069405302 0 -190.98699069405302 224.27707515576185 0 0 0 0 303.71515224211777 38.155375247661937 0 38.155375247661937 -32.568981491676823 0 0 0 0 -51.077635621888476 -33.005355546925784 0 -33.005355546925784 128.568683440928 0 0 0 0 243.04852048850989 -170.28995414773999 0 -170.28995414773999 123.25074676987515 0 0 0 0 2.6833973811089216 -4.9137395966461312 0 -4.9137395966461312 4.6243748237024391 0 0 0 0 -167.27629262561823 -213.38273192238194 0 -213.38273192238194 349.47392459798357 0 0 0 0 69.221327812691015 -142.36612724074166 0 -142.36612724074166 208.34504617392395 0 0 0 0 -13.149929117012107 -93.860805518229881 0 -93.860805518229881 179.82292894454804 0 0 0 0 107.88785921323506 -82.528844425298303 0 -82.528844425298303 140.25044086262096 0 0 0 0 112.02678842850378 -112.15992347390306 0 -112.15992347390306 128.30046560317714 0 0 0 0 113.60383280135102 -129.91236067334648 0 -129.91236067334648 143.97001487148373 0 0 0 0 -3.4947368501151415 -1.2955895416164473 0 -1.2955895416164473 11.15616501423596 0 0 0 0 165.13929187092617 -170.71220164321267 0 -170.71220164321267 125.03461291087478 0 0 0 0 117.5217426336385 -160.19742685877554 0 -160.19742685877554 152.43457436274366 0 0 0 0 17.655723776343621 -200.79167896342096 0 -200.79167896342096 543.54650567870749 0 0 0 0 421.4920993649057 -338.17266960320012 0 -338.17266960320012 253.35171735338918 0 0 0 0 -21.308707906709969 -16.837019319991214 0 -16.837019319991214 193.0091705451041 0 0 0 0 -36.445001913528358 -83.231876925930862 0 -83.231876925930862 262.7100720857743 0 0 0 0 2.8872546950644278 -43.345527015399227 0 -43.345527015399227 33.037423840001793 0 0 0 0 -26.396472807047786 -145.61355813957198 0 -145.61355813957198 283.27126664947718 0 0 0 0 116.86636965319622 -36.689851588365855 0 -36.689851588365855 15.112551603871907 0 0 0 0 -59.246172320374171 -42.02621514906059 0 -42.02621514906059 -31.849354926059277 0 0 0 0 -136.63148887202601 -104.89552568780573 0 -104.89552568780573 46.96183516633937 0 0 0 0 -376.68843527729587 288.0842943259363 0 288.0842943259363 204.25086272117551 0 0 0 0 -2.3605779956787529 -1.6978478427892369 0 -1.6978478427892369 5.6653845742906483 0 0 0 0 -237.15523464840908 48.202299788320715 0 48.202299788320715 555.41062275561671 0 0 0 0 0.75049714623709596 5.3236134506040571 0 5.3236134506040571 6.8993682461886126 0 0 0 0 -32.706730070923925 156.7539359880584 0 156.7539359880584 336.36364573331412 0 0 0 0 -9.313220342065847 -48.588512085014372 0 -48.588512085014372 939.50709660135999 0 0 0 0 115.89405002391072 72.483835066464053 0 72.483835066464053 490.44822868890424 0 0 0 0 81.234560265232034 -80.954260860531576 0 -80.954260860531576 657.08314975366375 0 0 0 0 -5.5657085610894228 52.099695779853391 0 52.099695779853391 487.08172998585815 0 0 0 0 11.097329038397902 -23.247378892510824 0 -23.247378892510824 192.08942758263174 0 0 0 0 111.99436318230801 39.49727134934983 0 39.49727134934983 195.72269179617797 0 0 0 0 65.509562797365049 59.554698349877981 0 59.554698349877981 123.65492029564712 0 0 0 0 15.990667124755419 -59.006697406763919 0 -59.006697406763919 24.083953147824104 0 0 0 0 213.48079644095151 39.582872673557517 0 39.582872673557517 107.02204440927972 0 0 0 0 0.43374458261769178 -85.166518976432826 0 -85.166518976432826 570.16493204296739 0 0 0 0 -51.178418325282109 -13.78349963427911 0 -13.78349963427911 104.26747239137137 0 0 0 0 77.715284392810872 61.603492075429074 0 61.603492075429074 -185.65904228465206 0 0 0 0 -72.470515609349945 -102.82968054556295 0 -102.82968054556295 39.393695755860222 0 0 0 0 -60.63398907566625 137.84527499758519 0 137.84527499758519 85.531152639801007 0 0 0 0 -30.746305324154491 -16.595510345620255 0 -16.595510345620255 129.49319239904037 0 0 0 0 -44.287914710945188 152.25503628451543 0 152.25503628451543 389.14035588238789 0 0 0 0 -5.9811792697837518 -79.401735592189652 0 -79.401735592189652 311.36538878193278 0 0 0 0 -9.153494517909639 11.888207272537809 0 11.888207272537809 25.823031785756243 0 0 0 0 37.615906643052995 143.47846621319786 0 143.47846621319786 -139.62008975960089 0 0 0 0 -9.7528040207289806 13.389619208493635 0 13.389619208493635 15.604531512864565 0 0 0 0 -9.7688350531190338 -0.25806602301599924 0 -0.25806602301599924 110.64969496645062 0 0 0 0 -10.07231392403286 5.8852179696811717 0 5.8852179696811717 52.670506612627278 0 0 0 0 -3.1733033411014731 8.5630292716859913 0 8.5630292716859913 62.378159253385093 0 0 0 0 -151.69057361973682 22.089076867094263 0 22.089076867094263 250.50803282695415 0 0 0 0 -19.293966644403881 21.27746159023264 0 21.27746159023264 48.687860373841779 0 0 0 0 -117.51056940374383 -83.867118957849016 0 -83.867118957849016 107.43024059713207 0 0 0 0 -15.035356789186238 22.688874071593851 0 22.688874071593851 25.779248202394712 0 0 0 0 -11.377878469732991 22.877554021504693 0 22.877554021504693 15.611788562344373 0 0 0 0 -2.5753836584754026 6.7866621065695654 0 6.7866621065695654 57.007103930838639 0 0 0 0 3.9111837986196614 7.916894352400476 0 7.916894352400476 72.656083956122444 0 0 0 0 83.73462326536648 -434.26049430122271 0 -434.26049430122271 3479.7537274751303 0 0 0 0 -282.05363183208209 1364.6854584990688 0 1364.6854584990688 5500.5545975009836 0 0 0 0 26.065072647212222 -24.479336905382333 0 -24.479336905382333 29.730071216781553 0 0 0 0 380.90857095668161 504.76580884646864 0 504.76580884646864 953.601210079265 0 0 0 0 -556.08522623500176 -338.44454461299756 0 -338.44454461299756 53.309324829482648 0 0 0 0 -270.84604847569653 741.87506125607979 0 741.87506125607979 847.04846844833446 0 0 0 0 -392.60055675212789 166.89490220168591 0 166.89490220168591 711.72231600752275 0 0 0 0 590.49651799770527 473.47376131375131 0 473.47376131375131 795.62002724072954 0 0 0 0 -519.31164892844299 -580.69989152226481 0 -580.69989152226481 -235.30310324476523 0 0 0 0 -1.5077992217185958 -2.4132382239292625 0 -2.4132382239292625 -7.6434334452321266 0 0 0 0 71.222127648123205 -176.0636986999798 0 -176.0636986999798 -897.0605811082678 0 0 0 0 -12.062276475811586 13.751806492784453 0 13.751806492784453 -52.763582923354988 0 0 0 0 -2.6644941005244336 18.975115104015362 0 18.975115104015362 59.583473714417053 0 0 0 0 -7.6872653592386158 15.698824673507019 0 15.698824673507019 10.930580945935723 0 0 0 0 -13.83537565304033 11.560411640702455 0 11.560411640702455 43.513020604863414 0 0 0 0 11.038181338282811 -220.69647506624642 0 -220.69647506624642 -87.36670723071984 0 0 0 0 -10.921575551726745 14.340063775540317 0 14.340063775540317 16.229167452706868 0 0 0 0 -5.377101941093315 -13.712365091403626 0 -13.712365091403626 182.12304312170909 0 0 0 0 10.07532506454595 4.7736510241229553 0 4.7736510241229553 194.81358578666641 0 0 0 0 -13.789757941245631 4.393646524117262 0 4.393646524117262 26.391430512477662 0 0 0 0 61.638432112309602 74.17586057652079 0 74.17586057652079 -248.82339079536177 0 0 0 0 5.8101000975416541 13.169108936511673 0 13.169108936511673 21.978170134875164 0 0 0 0 9.9680052432154227 0.45858202023546824 0 0.45858202023546824 14.525274056417672 0 0 0 0 24.051583671240223 -28.624056243257655 0 -28.624056243257655 70.54348496759394 0 0 0 0 366.47988202886194 -3127.9259531129137 0 -3127.9259531129137 5493.6373025115681 0 0 0 0 92.149859972965459 -552.52682358038282 0 -552.52682358038282 4943.8411825445874 0 0 0 0 227.18627618627397 230.20836532045541 0 230.20836532045541 151.08033597046415 0 0 0 0 244.24275221488833 1037.0033616880664 0 1037.0033616880664 1849.5866128833732 0 0 0 0 5854.7518043377486 4187.8321208724738 0 4187.8321208724738 -252.15110303111942 0 0 0 0 11.415423157011125 -2.9641013721405045 0 -2.9641013721405045 8.1506057289026757 0 0 0 0 555.73285301922397 1005.7249370675008 0 1005.7249370675008 1179.4220930426818 0 0 0 0 204.07163783987244 307.42153250728006 0 307.42153250728006 559.77496904033251 0 0 0 0 331.5226240201776 1040.2676610328424 0 1040.2676610328424 1383.5047592575538 0 0 0 0 853.3950277533155 1051.8918090497282 0 1051.8918090497282 1335.4060926676721 0 0 0 0 -487.92946753929346 2769.3774096193847 0 2769.3774096193847 5492.7854777858911 0 0 0 0 -232.25382629026598 1725.2316058600006 0 1725.2316058600006 4941.7372806429812 0 0 0 0 -387.71936845409698 296.41810009185883 0 296.41810009185883 3022.436407743422 0 0 0 0 -371.05642753428668 426.16466739793862 0 426.16466739793862 3768.6547949634887 0 0 0 0 13.120073207688165 20.757978620888025 0 20.757978620888025 263.97092156821418 0 0 0 0 17.491359754877521 16.439454107985512 0 16.439454107985512 255.17775513133665 0 0 0 0 9.4566254807806676 61.206544419347054 0 61.206544419347054 26.262585437793312 0 0 0 0 20.251978612024686 20.795575057876704 0 20.795575057876704 272.78096545929657 0 0 0 0 1116.3701348269394 1051.2285072971272 0 1051.2285072971272 788.42251817279248 0 0 0 0 7.4295293973822076 66.187736789709561 0 66.187736789709561 30.500890153596728 0 0 0 0 22.058836600981067 19.322775168348016 0 19.322775168348016 259.91817139377235 0 0 0 0 93.79531633841907 -126.33598833810436 0 -126.33598833810436 -217.5757954721671 0 0 0 0 20.321353718069076 25.106161149422405 0 25.106161149422405 271.93102551489301 0 0 0 0 -5.3029588324641299 -37.897044075096574 0 -37.897044075096574 45.960804860899209 0 0 0 0 34.840873182134601 50.32706981935371 0 50.32706981935371 -160.54632694462839 0 0 0 0 126.07880496207235 7.7828607777992147 0 7.7828607777992147 -147.19215489088174 0 0 0 0 -11.584580771039327 58.908920677802598 0 58.908920677802598 -21.237992960059273 0 0 0 0 -18.960539958754453 18.276693956191593 0 18.276693956191593 -72.347218680199148 0 0 0 0 -14.708917792786679 -20.262209639579481 0 -20.262209639579481 -10.665401048358035 0 0 0 0 -282.62607537572967 -13.482448002288947 0 -13.482448002288947 -67.463577993534273 0 0 0 0 17.737826432294241 31.442628447157404 0 31.442628447157404 259.00002276027226 0 0 0 0 6.1611065729423782 -13.027135635736322 0 -13.027135635736322 16.525778348526707 0 0 0 0 28.938361424360437 -346.22572438051395 0 -346.22572438051395 -319.65995817175371 0 0 0 0 16.530418269137954 14.959002184354176 0 14.959002184354176 218.10167923131667 0 0 0 0 18.249726200349414 21.726142339521175 0 21.726142339521175 249.19662535784664 0 0 0 0 -2.5343421427627923 -34.557743393770934 0 -34.557743393770934 17.327004729216156 0 0 0 0 17.284707823749159 21.611927930334787 0 21.611927930334787 254.66516954092367 0 0 0 0 19.098441313217336 24.29154728721187 0 24.29154728721187 250.70538920428953 0 0 0 0 3.5827209691231303 -41.064676527418314 0 -41.064676527418314 32.788606038444371 0 0 0 0 -283.54710753059589 62.554295470512443 0 62.554295470512443 -703.55055972125137 0 0 0 0 -237.01567989050818 -256.79457841712792 0 -256.79457841712792 -159.91211105904767 0 0 0 0 -79.459597521501564 -133.66133574717423 0 -133.66133574717423 -155.86651957323966 0 0 0 0 150.9084944712904 -162.66812874596008 0 -162.66812874596008 -417.23625756306865 0 0 0 0 -13.863324788324462 -45.896032688795458 0 -45.896032688795458 6.0105288144204678 0 0 0 0 -209.71847944665296 -80.653512258428236 0 -80.653512258428236 18.495165774773341 0 0 0 0 -155.74756758991498 -133.04387483158507 0 -133.04387483158507 -4.5187238029411674 0 0 0 0 -19.895312930762884 -148.01827499806495 0 -148.01827499806495 -14.453031463822299 0 0 0 0 -48.847785388609736 -74.510989144342602 0 -74.510989144342602 171.90736266071326 0 0 0 0 -92.46902343655438 -41.936219255086144 0 -41.936219255086144 130.314629478813 0 0 0 0 -2.8498219756220351 -91.049580750192035 0 -91.049580750192035 157.00056713032427 0 0 0 0 -61.783096128581292 -299.42859877354249 0 -299.42859877354249 -140.82757986333854 0 0 0 0 47.155232123577662 -153.1590160227197 0 -153.1590160227197 -55.247312798444 0 0 0 0 119.26968577209846 -81.606485946133034 0 -81.606485946133034 -114.4917688757846 0 0 0 0 104.54367675280082 -49.277425437969214 0 -49.277425437969214 -110.44008057803148 0 0 0 0 42.052135594644824 -107.0804404173914 0 -107.0804404173914 -85.501349919581116 0 0 0 0 -31.64004343614306 -109.05182025528848 0 -109.05182025528848 447.1181912189204 0 0 0 0 -33.926281212199683 78.665062973719614 0 78.665062973719614 301.51395788773198 0 0 0 0 31.363924471987048 -122.068774648812 0 -122.068774648812 149.18632491313838 0 0 0 0 -16.020116493837463 2.6778144571511575 0 2.6778144571511575 275.45461928375516 0 0 0 0 12.134864277652014 -127.45763939011522 0 -127.45763939011522 212.84782416758571 0 0 0 0 81.895101538949802 6.2454937232673728 0 6.2454937232673728 292.07016705602291 0 0 0 0 1.6898702598941782 65.101443117825966 0 65.101443117825966 509.42210797098051 0 0 0 0 28.288537978191926 -63.733192223689912 0 -63.733192223689912 334.2543224266883 0 0 0 0 10.825096069467691 22.399394118363489 0 22.399394118363489 397.16498438682174 0 0 0 0 50.082674941704681 -48.722669470835172 0 -48.722669470835172 389.94014324075761 0 0 0 0 -14.292537844527033 1.154445295502228 0 1.154445295502228 470.70530989038525 0 0 0 0 52.130276988793412 6.1345745855696805 0 6.1345745855696805 255.13888139127448 0 0 0 0 4.1023627409667824 -40.610315818195886 0 -40.610315818195886 251.12569479194269 0 0 0 0 75.501462254799662 17.731179720905857 0 17.731179720905857 271.94863429972065 0 0 0 0 43.616736166714873 -8.0349191942832476 0 -8.0349191942832476 427.18812613235787 0 0 0 0 10.04968678109617 45.476659751329862 0 45.476659751329862 262.81392639122441 0 0 0 0 105.2387176636737 30.090813886103206 0 30.090813886103206 409.61422797213527 0 0 0 0 90.332676763649488 92.425942236984611 0 92.425942236984611 492.21227927273503 0 0 0 0 61.506709096268878 3.8321803425760663 0 3.8321803425760663 414.79209175052802 0 0 0 0 93.813269527096509 34.776249096535139 0 34.776249096535139 216.98732140713764 0 0 0 0 44.533623562328103 65.913723525611204 0 65.913723525611204 204.56204745793138 0 0 0 0 58.639601506952204 91.545399365452795 0 91.545399365452795 171.85333404486028 0 0 0 0 46.389566878525898 -12.017385332372726 0 -12.017385332372726 87.967199471555432 0 0 0 0 47.863145723904381 53.547492610905465 0 53.547492610905465 -20.764680109733717 0 0 0 0 39.291106751215921 -25.928734133867692 0 -25.928734133867692 -10.070997251697918 0 0 0 0 4.3217010961132019 40.473580997681438 0 40.473580997681438 77.367341096043674 0 0 0 0 -51.983779945597234 -54.689236888715641 0 -54.689236888715641 120.44112796317859 0 0 0 0 -0.31002935987609703 14.210185887826654 0 14.210185887826654 152.25381675523022 0 0 0 0 25.131347331739562 -32.161568717820046 0 -32.161568717820046 149.15045378879586 0 0 0 0 9.4566112398649409 1.1935493566566038 0 1.1935493566566038 120.33644171219566 0 0 0 0 -3.8037101388635985 -35.568599443181228 0 -35.568599443181228 25.937887329172295 0 0 0 0 10.009605043542251 -7.8895892717137031 0 -7.8895892717137031 118.94654397792215 0 0 0 0 244.5559797142264 -309.3138541825615 0 -309.3138541825615 -78.815285040830531 0 0 0 0 -260.62807414872623 -284.11479942061305 0 -284.11479942061305 306.82690922300725 0 0 0 0 265.33503185521295 -200.4786712672676 0 -200.4786712672676 295.00866295522883 0 0 0 0 13.454617793920988 34.912637049006207 0 34.912637049006207 438.91260827772567 0 0 0 0 -432.73729196682871 210.84481320769692 0 210.84481320769692 217.62987913770212 0 0 0 0 -352.90828974058059 35.865617213759833 0 35.865617213759833 440.26126365570235 0 0 0 0 76.045841901630411 -3.5291326210626721 0 -3.5291326210626721 18.164345886450064 0 0 0 0 42.513072575968181 108.03752682325376 0 108.03752682325376 102.99244961332806 0 0 0 0 127.88675969416363 44.827908889119044 0 44.827908889119044 -411.12085525063321 0 0 0 0 -178.79719642082819 304.96946615591332 0 304.96946615591332 -189.12567084309831 0 0 0 0 9.8404777909436234 6.7624157216960157 0 6.7624157216960157 108.37755229612594 0 0 0 0 13.877093182686167 22.576207316158616 0 22.576207316158616 251.01528770253208 0 0 0 0 14.478288986030748 22.022442806541221 0 22.022442806541221 250.28661448189087 0 0 0 0 14.764791676043387 22.949409322311112 0 22.949409322311112 249.4550260890137 0 0 0 0 17.675416967886122 21.269655103114928 0 21.269655103114928 250.26707999205973 0 0 0 0 14.233797050122803 22.858517063936233 0 22.858517063936233 250.98712581384461 0 0 0 0 5.7954022748247098 27.645444342966584 0 27.645444342966584 262.83171354384103 0 0 0 0 10.150106173779477 35.893181141382229 0 35.893181141382229 248.38412574922677 0 0 0 0 12.050957125542027 26.544077290138375 0 26.544077290138375 246.94747356337029 0 0 0 0 5.9536451270428827 -14.115937625914576 0 -14.115937625914576 3.6766924602757065 0 0 0 0 11.062035297511102 21.12966427907395 0 21.12966427907395 242.98863926026024 0 0 0 0 7.1898837444575241 51.071435730728481 0 51.071435730728481 24.541541817141624 0 0 0 0 12.70931636195769 24.549738705069103 0 24.549738705069103 237.96840406439696 0 0 0 0 3.9990250789060156 20.759994432437452 0 20.759994432437452 244.65647495007215 0 0 0 0 18.794898272449245 17.085846944188233 0 17.085846944188233 248.79039549192476 0 0 0 0 17.969600494790939 19.432229392590671 0 19.432229392590671 242.24535863711753 0 0 0 0 -360.52282944829756 -428.15337588996749 0 -428.15337588996749 5499.5220645542431 0 0 0 0 -207.09395350091739 -463.06068885498081 0 -463.06068885498081 4911.6535154844387 0 0 0 0 129.16666770805145 -919.550206812547 0 -919.550206812547 5379.7248051568222 0 0 0 0 5.2924720587267045 37.679531266977079 0 37.679531266977079 20.065889247569661 0 0 0 0 58.13221345074929 -886.62681246967759 0 -886.62681246967759 5499.6087969766249 0 0 0 0 192.69057297028689 -1010.9171931561455 0 -1010.9171931561455 5499.9922197313454 0 0 0 0 -27.658177418463652 15.976994392339748 0 15.976994392339748 247.48303090439731 0 0 0 0 9.363193478484618 11.625400961343985 0 11.625400961343985 230.03960963921782 0 0 0 0 -10.385189608488872 42.63222461674377 0 42.63222461674377 196.32279536519491 0 0 0 0 200.10490688146541 -1033.3710921130532 0 -1033.3710921130532 5499.9730510396403 0 0 0 0 -89.878988388766629 109.58736445080649 0 109.58736445080649 114.49107135200711 0 0 0 0 4.2414540808351724 23.350995023998355 0 23.350995023998355 14.644698001521398 0 0 0 0 197.61872757770089 -1025.0608407776999 0 -1025.0608407776999 5485.6134845952147 0 0 0 0 115.7255820777612 -177.03927781545462 0 -177.03927781545462 271.96385865437969 0 0 0 0 -199.24275436288298 -30.105850990485578 0 -30.105850990485578 498.38859169736315 0 0 0 0 27.26590548647701 -67.454673926132273 0 -67.454673926132273 201.19152250160914 0 0 0 0 -7.2291373598998803 -13.051268707170038 0 -13.051268707170038 215.61279413690499 0 0 0 0 -4.141231642929597 12.797807008444579 0 12.797807008444579 118.95280912700628 0 0 0 0 6.7116471392694681 -12.00589236392441 0 -12.00589236392441 20.224715873783271 0 0 0 0 -17.415578797143098 172.92957606555501 0 172.92957606555501 -253.137244577003 0 0 0 0 13.214697522820076 22.09009737963305 0 22.09009737963305 35.052238273681752 0 0 0 0 5.4081109722087604 14.494099289240694 0 14.494099289240694 253.90716287743635 0 0 0 0 -0.50802689895817821 3.7124800845213031 0 3.7124800845213031 249.15435438561963 0 0 0 0 -13.873843088391709 26.523465907070204 0 26.523465907070204 246.84306957702211 0 0 0 0 5.7733402490512109 -14.810976683591846 0 -14.810976683591846 3.5142558541348219 0 0 0 0 12.865665462372817 -7.1863685232056014 0 -7.1863685232056014 109.42469767626608 0 0 0 0 -4.5065117786543851 14.734373282473825 0 14.734373282473825 132.09807305496906 0 0 0 0 -69.067470079025497 668.55059248328712 0 668.55059248328712 640.93324864975352 0 0 0 0 -105.41569781015802 -239.2984177608258 0 -239.2984177608258 613.77012242820456 0 0 0 0 -109.56279193438627 255.68903606695994 0 255.68903606695994 474.36394953620174 0 0 0 0 82.396115195305867 313.97986822191382 0 313.97986822191382 84.232718711508312 0 0 0 0 18.302669711220915 169.95521578355556 0 169.95521578355556 -162.24185206364155 0 0 0 0 -109.35070850335433 75.250911097696189 0 75.250911097696189 49.214981635187996 0 0 0 0 -78.632733419181932 122.34660984297966 0 122.34660984297966 15.198397320913045 0 0 0 0 22.488198204310947 207.5608301738788 0 207.5608301738788 -4.7162778303218147 0 0 0 0 -68.833960786831085 126.83211800502045 0 126.83211800502045 3.1738072969603763 0 0 0 0 -93.510122286583737 197.39966373938387 0 197.39966373938387 -4.8363167183006226 0 0 0 0 8.4446790441962438 49.773512329711444 0 49.773512329711444 96.514008072131915 0 0 0 0 -99.517452529275033 364.42016281525139 0 364.42016281525139 205.06909871462267 0 0 0 0 -143.88877393058101 119.85697572268646 0 119.85697572268646 22.598787939393333 0 0 0 0 -60.605225534699457 34.7621641539954 0 34.7621641539954 119.76099277136382 0 0 0 0 -31.953537578021496 82.4536181560361 0 82.4536181560361 5.8715249525703257 0 0 0 0 9.219001998361243 9.6514745576133834 0 9.6514745576133834 -26.665135831143999 0 0 0 0 -52.994955590559584 70.78363829141017 0 70.78363829141017 227.92764055241423 0 0 0 0 -118.41188271561703 143.74911935136083 0 143.74911935136083 105.71382739150454 0 0 0 0 -38.309034161490672 134.31512334939907 0 134.31512334939907 6.7422960291805794 0 0 0 0 11.726617762120814 64.12564855434762 0 64.12564855434762 95.590522567018652 0 0 0 0 -13.539229610386659 -27.133292055383329 0 -27.133292055383329 44.611291876341241 0 0 0 0 -111.83213568905489 112.5301176229417 0 112.5301176229417 209.82485703359248 0 0 0 0 -86.049089694274244 -84.376505156168037 0 -84.376505156168037 160.89518426094514 0 0 0 0 -109.64493767050317 75.110678483153606 0 75.110678483153606 112.26857954055595 0 0 0 0 0.13330103780454294 25.591950946241795 0 25.591950946241795 68.715396944573399 0 0 0 0 -3.5288684833100241 4.226210154618812 0 4.226210154618812 41.756218049235144 0 0 0 0 -38.717053780892456 156.38465521008402 0 156.38465521008402 -97.01424129246152 0 0 0 0 -108.14692365501196 194.93991396461206 0 194.93991396461206 -4.0781832762950216 0 0 0 0 -40.891555658303787 131.18674562542765 0 131.18674562542765 -46.988745026363176 0 0 0 0 -210.76183532992764 163.67266491460396 0 163.67266491460396 157.18502180356882 0 0 0 0 -121.32780611224962 59.982265593022021 0 59.982265593022021 210.13942005977879 0 0 0 0 -134.13412917039318 164.16243344044915 0 164.16243344044915 123.95958188701479 0 0 0 0 -132.22574281131074 127.25710172468098 0 127.25710172468098 83.874208508736046 0 0 0 0 -44.354139828881671 72.163368385270587 0 72.163368385270587 206.82358441928227 0 0 0 0 -145.91391034791832 181.64639473037096 0 181.64639473037096 88.073696762308828 0 0 0 0 -134.68162051528543 96.198447349484923 0 96.198447349484923 210.44613019107783 0 0 0 0 -93.036140885682471 126.53878051865104 0 126.53878051865104 97.17149953149692 0 0 0 0 -100.96782315850714 126.46289440664259 0 126.46289440664259 138.42944974757847 0 0 0 0 -110.33731688964053 69.987129591008852 0 69.987129591008852 234.36233297643776 0 0 0 0 -57.017735946855737 89.034142992171837 0 89.034142992171837 187.34939788436168 0 0 0 0 -96.064249261207806 78.238896702539932 0 78.238896702539932 184.61954694595624 0 0 0 0 -98.093879780502505 34.087205920829263 0 34.087205920829263 289.78041967967874 0 0 0 0 -98.275390085049366 107.68993593772757 0 107.68993593772757 213.75418913486646 0 0 0 0 -84.880056741848421 39.452093403524486 0 39.452093403524486 261.56340465873291 0 0 0 0 57.728886892013179 20.313915168109816 0 20.313915168109816 261.75084226304898 0 0 0 0 -64.445684637153136 66.880235414922936 0 66.880235414922936 294.35864354422665 0 0 0 0 -34.664022385709579 4.1114032421865119 0 4.1114032421865119 6.8106050414721508 0 0 0 0 -23.966207190125942 -12.62194827588246 0 -12.62194827588246 136.66752691498186 0 0 0 0 2.2431383871489743 -100.36987816987312 0 -100.36987816987312 293.21288936244832 0 0 0 0 -46.711670429202059 22.106927210352296 0 22.106927210352296 244.49581693945947 0 0 0 0 -74.401597997555655 51.368861539378486 0 51.368861539378486 222.89066397427086 0 0 0 0 -39.987817091004487 2.3170360544035162 0 2.3170360544035162 -1.7220921992551652 0 0 0 0 -180.58198948989957 108.82674533959653 0 108.82674533959653 256.41205251387692 0 0 0 0 -28.974399227825415 21.732490717586188 0 21.732490717586188 182.90381286928823 0 0 0 0 -102.72357410661198 -2.7201664785297908 0 -2.7201664785297908 209.86203789951833 0 0 0 0 -43.376785064854367 1.793249860249901 0 1.793249860249901 23.081410783349899 0 0 0 0 -26.780548371966688 58.76998906494191 0 58.76998906494191 154.8115866411481 0 0 0 0 -87.486638868379487 5.8452889937689179 0 5.8452889937689179 130.34035848554777 0 0 0 0 -117.98818235475437 98.472030208085926 0 98.472030208085926 -2.2943212885547837 0 0 0 0 149.33848135122662 136.16970163573569 0 136.16970163573569 -235.3052796144766 0 0 0 0 -11.836445398279011 118.86607864238977 0 118.86607864238977 170.86466209011269 0 0 0 0 49.819617485474737 200.65198488674105 0 200.65198488674105 241.6516086566553 0 0 0 0 -54.490895036561596 91.772105281321274 0 91.772105281321274 154.05618655354556 0 0 0 0 -89.092793634248665 117.4941058073091 0 117.4941058073091 208.4988028706357 0 0 0 0 90.107297644054142 -157.48114626825918 0 -157.48114626825918 349.31262925810006 0 0 0 0 17.706288374150517 -4.7948662827766384 0 -4.7948662827766384 -4.1400165698396449 0 0 0 0 12.789707829079548 3.3171623253610676 0 3.3171623253610676 2.8140132878057997 0 0 0 0 4.1041118752121211 1.3714013756246999 0 1.3714013756246999 2.1960558183968004 0 0 0 0 70.762280544815439 -284.69595312428282 0 -284.69595312428282 703.69980993424542 0 0 0 0 141.19725204558836 -97.696013839515217 0 -97.696013839515217 1197.9936889293967 0 0 0 0 50.06483413532942 -34.57877275743158 0 -34.57877275743158 20.919670315553958 0 0 0 0 202.73483075880654 404.82023680933708 0 404.82023680933708 971.76101791743713 0 0 0 0 0.88409678922778223 0.95040002803968093 0 0.95040002803968093 1.6263513265769092 0 0 0 0 -72.805370204091673 93.18468638842387 0 93.18468638842387 202.82147428121971 0 0 0 0 -40.127862883384978 184.00043612061654 0 184.00043612061654 70.98101519485499 0 0 0 0 44.93180684699837 69.101761790927412 0 69.101761790927412 -207.77283934640582 0 0 0 0 -44.075146307777686 66.48575479919964 0 66.48575479919964 36.592086478227429 0 0 0 0 13.618614731367416 -21.96379707079177 0 -21.96379707079177 75.061771706823492 0 0 0 0 53.323150605721821 47.770401574358402 0 47.770401574358402 -44.772701104147927 0 0 0 0 13.961658889619635 9.58366258050971 0 9.58366258050971 7.0732976000727632 0 0 0 0 -0.68462334169271344 134.1541745290524 0 134.1541745290524 -78.504223603953506 0 0 0 0 -47.14986707351909 76.020132034780545 0 76.020132034780545 86.013519481453841 0 0 0 0 2.2700209021290014 0.41659219525739388 0 0.41659219525739388 2.7887540635391623 0 0 0 0 -10.989425432642747 9.2304674404149409 0 9.2304674404149409 55.316875471493404 0 0 0 0 5.9908720552016348 50.014062807160371 0 50.014062807160371 12.253162970475387 0 0 0 0 8.9554712031404087 17.637675253996775 0 17.637675253996775 11.662303710074923 0 0 0 0 -44.862660747250629 -113.75403081383229 0 -113.75403081383229 487.80472269616439 0 0 0 0 49.819304897634538 -128.73986931296167 0 -128.73986931296167 362.17889972488047 0 0 0 0 50.533600934851393 -179.11070370328162 0 -179.11070370328162 466.08996371669491 0 0 0 0 -17.983480043611507 -54.169563433624717 0 -54.169563433624717 406.94617179767738 0 0 0 0 -155.99279357689511 107.16690517116513 0 107.16690517116513 276.95258313967133 0 0 0 0 -86.968102314842554 -86.15597064872145 0 -86.15597064872145 407.44968260038149 0 0 0 0 -37.252487624736204 -81.530184477633156 0 -81.530184477633156 377.24188365231748 0 0 0 0 -109.28766129274118 -2.416013514786755 0 -2.416013514786755 340.89951045049929 0 0 0 0 -78.639186226773518 47.778318112201305 0 47.778318112201305 149.28612105837237 0 0 0 0 -485.41909886349094 264.53924786279458 0 264.53924786279458 96.631137719426079 0 0 0 0 61.571060224719531 110.37536408463711 0 110.37536408463711 180.14256326824398 0 0 0 0 -2.683749404426635 -47.287794213700181 0 -47.287794213700181 -203.52210628385365 0 0 0 0 198.15103883978873 84.547444977208215 0 84.547444977208215 154.95269138332878 0 0 0 0 557.26413507067718 240.29876714822603 0 240.29876714822603 96.225665897902218 0 0 0 0 205.95507902710182 129.1180129325021 0 129.1180129325021 405.16623805378913 0 0 0 0 362.72078441882604 178.38238719612127 0 178.38238719612127 418.7851467610999 0 0 0 0 52.113748801009024 -28.610824247625715 0 -28.610824247625715 664.83985367311107 0 0 0 0 212.68138769611141 94.190107525180792 0 94.190107525180792 758.53438516258029 0 0 0 0 52.034500299584579 -14.861967303419078 0 -14.861967303419078 434.06764738521451 0 0 0 0 637.26260063515713 354.06728522275716 0 354.06728522275716 798.54126179173181 0 0 0 0 678.4369276773898 577.93404163438208 0 577.93404163438208 1031.4701170833287 0 0 0 0 444.05321433402605 352.7883631011573 0 352.7883631011573 1102.7018138688309 0 0 0 0 242.98628320872922 69.214973837035359 0 69.214973837035359 719.55976191230002 0 0 0 0 678.85823497378669 197.67057991293404 0 197.67057991293404 346.96585828685784 0 0 0 0 439.01636469243385 342.78340942237992 0 342.78340942237992 746.40114791030328 0 0 0 0 951.09313063840591 517.38254918519669 0 517.38254918519669 705.19064107467784 0 0 0 0 924.16276788017467 700.19440950049102 0 700.19440950049102 848.39522313786438 0 0 0 0 885.65208739287255 50.715080848880461 0 50.715080848880461 30.792818334994081 0 0 0 0 719.56661387935856 319.72685956523492 0 319.72685956523492 320.95043486560098 0 0 0 0 538.35572303215451 157.07736668924645 0 157.07736668924645 181.37357859085023 0 0 0 0 718.74984792481473 213.55064478368877 0 213.55064478368877 -13.790892920442275 0 0 0 0 893.73470611631365 65.391734638660637 0 65.391734638660637 56.783241234399611 0 0 0 0 656.91452881101691 37.183448672611121 0 37.183448672611121 88.197543075191788 0 0 0 0 408.39605186649425 257.85662853105896 0 257.85662853105896 -129.68819593757507 0 0 0 0 526.60464955822715 107.25795383804734 0 107.25795383804734 56.216512731887633 0 0 0 0 617.49075311063621 227.56303160132302 0 227.56303160132302 -212.14592293357418 0 0 0 0 510.44774901701794 234.218362462394 0 234.218362462394 27.969048535713227 0 0 0 0 578.78285647679013 244.2424482131446 0 244.2424482131446 -198.0207235652706 0 0 0 0 405.75477985146608 202.60746527141237 0 202.60746527141237 93.153826259953348 0 0 0 0 376.19118049145732 117.40752156311646 0 117.40752156311646 -147.24953121398721 0 0 0 0 271.46818322808895 203.56466880528751 0 203.56466880528751 -97.060644928329566 0 0 0 0 541.98797231367257 113.82370659045773 0 113.82370659045773 -202.77915065612615 0 0 0 0 371.14137780400051 77.209284542434034 0 77.209284542434034 -203.51052652258295 0 0 0 0 745.59281144799399 -117.86811604083414 0 -117.86811604083414 -134.69053933217583 0 0 0 0 556.59593019848398 335.1058105500997 0 335.1058105500997 -354.6067004356446 0 0 0 0 882.45470477772267 230.9166539595526 0 230.9166539595526 -438.25532986215694 0 0 0 0 -197.89900634976766 -30.351496898972982 0 -30.351496898972982 66.308943824566995 0 0 0 0 -347.0226720479186 177.42326558282548 0 177.42326558282548 60.013613584909763 0 0 0 0 -4.6177477904390347 2.4748682011827867 0 2.4748682011827867 15.939103383085133 0 0 0 0 -97.377667139601726 313.02844573515176 0 313.02844573515176 -159.11247872924469 0 0 0 0 77.460529889367081 31.412157350167035 0 31.412157350167035 -88.484667762466415 0 0 0 0 -383.12865877100512 -142.54793183205766 0 -142.54793183205766 121.59832625446506 0 0 0 0 -410.55518277053488 299.28412329013008 0 299.28412329013008 9.1034596453955601 0 0 0 0 365.65081783768289 35.612198909773952 0 35.612198909773952 -120.50306410352641 0 0 0 0 11.096822017521331 19.965366023642432 0 19.965366023642432 28.471998106568421 0 0 0 0 118.32166034954965 -78.921759788566618 0 -78.921759788566618 310.35227604930697 0 0 0 0 314.71930773940858 -1185.3333238671275 0 -1185.3333238671275 1022.4064936151444 0 0 0 0 5.8401883928889253 8.466208503421818 0 8.466208503421818 13.745987917881337 0 0 0 0 -264.70339721338195 646.54137536941744 0 646.54137536941744 5488.7599334188562 0 0 0 0 521.18922676416253 -223.73884071018892 0 -223.73884071018892 5168.8026076619353 0 0 0 0 1.8809530992582206 7.9112993752543659 0 7.9112993752543659 8.256387289352995 0 0 0 0 33.737077156138831 527.59164783413689 0 527.59164783413689 -453.55587588365415 0 0 0 0 207.07869157217954 1600.5506856267129 0 1600.5506856267129 3654.8439322831509 0 0 0 0 373.01931935691107 -201.18642048226138 0 -201.18642048226138 380.77552712081524 0 0 0 0 -220.20013732314149 -85.987531248470987 0 -85.987531248470987 2077.6286504402997 0 0 0 0 310.06816824371748 196.50013057640535 0 196.50013057640535 2196.5745194871342 0 0 0 0 1034.2313547157069 546.69004518023212 0 546.69004518023212 344.42618075780047 0 0 0 0 646.52442067201866 1444.94814747079 0 1444.94814747079 517.63368173425806 0 0 0 0 510.18484700408243 -190.90129447466097 0 -190.90129447466097 -293.82299121265896 0 0 0 0 207.685765063899 1847.7389296952088 0 1847.7389296952088 5153.5291434886021 0 0 0 0 1179.727506583082 1210.0965001238583 0 1210.0965001238583 5580.7404316467509 0 0 0 0 1515.4568060332654 227.74904378417887 0 227.74904378417887 5213.0697199998976 0 0 0 0 -328.14417420930982 481.32335388105275 0 481.32335388105275 5504.5100872341391 0 0 0 0 315.37776891535691 747.94556817168268 0 747.94556817168268 2202.680706149843 0 0 0 0 -77.190893768209364 1160.7599251661359 0 1160.7599251661359 4112.7827961272196 0 0 0 0 300.18569684848813 67.367277391633252 0 67.367277391633252 4761.9884624689694 0 0 0 0 -876.86570785417587 -947.03124562909579 0 -947.03124562909579 5487.9603480007936 0 0 0 0 340.61857138886523 -676.60659838416086 0 -676.60659838416086 3937.1183551373251 0 0 0 0 656.36018490896333 155.85453853739818 0 155.85453853739818 3878.685601944278 0 0 0 0 1730.8930712221888 817.51128919015719 0 817.51128919015719 440.04568884585751 0 0 0 0 0.77846652898186508 3.8185817630193579 0 3.8185817630193579 12.282044990486497 0 0 0 0 659.91941894422439 -30.727294734933821 0 -30.727294734933821 -540.75312773461337 0 0 0 0 180.47481072554706 1285.6005733434286 0 1285.6005733434286 105.41040608247204 0 0 0 0 -1910.3261627896693 281.81514419508676 0 281.81514419508676 1157.1932051562981 0 0 0 0 -842.68742338011316 -2068.5052770686671 0 -2068.5052770686671 3392.0726241776174 0 0 0 0 1596.7621836879359 2904.560096371596 0 2904.560096371596 2039.8735466740909 0 0 0 0 0.0027505510549170192 4.0676074669332518 0 4.0676074669332518 25.096557289373976 0 0 0 0 -668.68262339006947 1793.7419448898254 0 1793.7419448898254 5490.4504520852424 0 0 0 0 -887.35043160531154 665.75175867727012 0 665.75175867727012 2868.8591514331201 0 0 0 0 142.70438398285785 606.05527709708986 0 606.05527709708986 2869.6349566768545 0 0 0 0 59.128032140586811 8.0875767253710364 0 8.0875767253710364 1623.6129949461829 0 0 0 0 217.48426044503589 129.9364397446916 0 129.9364397446916 341.19521069107213 0 0 0 0 705.65483131104304 896.94151153080384 0 896.94151153080384 999.72942482963117 0 0 0 0 15.677396214014351 1051.7157980077791 0 1051.7157980077791 451.80343679622456 0 0 0 0 723.06867834860304 -172.80657103549311 0 -172.80657103549311 750.45136706723679 0 0 0 0 131.19627195001971 -1312.9850099460655 0 -1312.9850099460655 80.960556692312821 0 0 0 0 52.902126789724548 -35.842504266984179 0 -35.842504266984179 1031.0976452328978 0 0 0 0 652.89290870455318 -98.222188287709287 0 -98.222188287709287 1030.8940103678178 0 0 0 0 128.70498887747704 79.824137994677585 0 79.824137994677585 1621.4744781880581 0 0 0 0 26.0708156899918 8.1339047578850199 0 8.1339047578850199 13.860405732456442 0 0 0 0 323.76268263724205 153.9779539426454 0 153.9779539426454 -103.02642609276518 0 0 0 0 332.83617521634073 141.66044807214348 0 141.66044807214348 510.8701400347054 0 0 0 0 14.941945003370165 -90.514429901464609 0 -90.514429901464609 411.9986781909065 0 0 0 0 87.884569592347049 247.7738338875206 0 247.7738338875206 582.90243193192873 0 0 0 0 669.32690855356941 -361.86374970525321 0 -361.86374970525321 -123.71619264622859 0 0 0 0 6.0944984271056413 -4.3468883279162753 0 -4.3468883279162753 11.890614613709346 0 0 0 0 -91.649076236613382 -306.61982764297863 0 -306.61982764297863 401.12659814258222 0 0 0 0 -1322.5814337544714 -746.45593097063465 0 -746.45593097063465 565.51404217538948 0 0 0 0 575.88665027387219 896.6150385772562 0 896.6150385772562 645.05991038240609 0 0 0 0 -1.0543735790604511 1.893939372624752 0 1.893939372624752 20.04322382959748 0 0 0 0 466.8629993827908 668.52960332710427 0 668.52960332710427 205.75401348088781 0 0 0 0 100.21905704112265 629.68574154738599 0 629.68574154738599 940.74251394619932 0 0 0 0 -107.28347699397614 724.79085831580232 0 724.79085831580232 2061.53956525182 0 0 0 0 -232.05892086156655 189.64262302908173 0 189.64262302908173 523.95421117423393 0 0 0 0 224.50402410801235 307.88872416644881 0 307.88872416644881 176.04576997320692 0 0 0 0 124.13055530169481 232.18374159714767 0 232.18374159714767 233.21750292147044 0 0 0 0 0.033094638536943499 6.6896524601316534 0 6.6896524601316534 30.636403123594448 0 0 0 0 383.81458976674008 575.80107460185536 0 575.80107460185536 318.63987230413477 0 0 0 0 -17.940943149874442 357.36712558450381 0 357.36712558450381 374.57798683867441 0 0 0 0 715.42269395641733 -43.419097133421928 0 -43.419097133421928 -18.303422835262609 0 0 0 0 300.14492268965432 367.42052593515655 0 367.42052593515655 -200.13848091838736 0 0 0 0 -2.65259070724382 5.7042630022303698 0 5.7042630022303698 45.074696630343567 0 0 0 0 -1116.0736917264242 165.88518558081705 0 165.88518558081705 165.39766361575312 0 0 0 0 419.18069324920316 553.65183207612245 0 553.65183207612245 17.097694691256038 0 0 0 0 5.0246974303890966 10.440795421462099 0 10.440795421462099 46.159387304724078 0 0 0 0 -0.42005266972915933 15.534357295226073 0 15.534357295226073 63.409473973370041 0 0 0 0 0.0041451037491465614 -3.4042927517321715 0 -3.4042927517321715 17.886502787161305 0 0 0 0 -759.70598811593766 1109.4222105113513 0 1109.4222105113513 5494.2697159284871 0 0 0 0 89.003111428338912 -441.59032123553516 0 -441.59032123553516 951.97791585919913 0 0 0 0 1614.2532991899277 2172.4573471285767 0 2172.4573471285767 964.16218357649632 0 0 0 0 5.4353103401219336 -1.4685003295644279 0 -1.4685003295644279 11.474610090860011 0 0 0 0 1817.9416399849224 -1378.0848953700261 0 -1378.0848953700261 -585.04026479713502 0 0 0 0 1578.6297552519093 -2111.9767264754919 0 -2111.9767264754919 5495.9215673015788 0 0 0 0 126.43283411799698 -837.59603187811626 0 -837.59603187811626 5885.7566419527575 0 0 0 0 6.1757385121371406 -4.5942906237461898 0 -4.5942906237461898 13.00371709951574 0 0 0 0 2.3586130333574715 -791.67752182129334 0 -791.67752182129334 1484.6959141856787 0 0 0 0 1518.6292351240904 -2888.5308990223239 0 -2888.5308990223239 2022.0668964518409 0 0 0 0 -1.6217055566630023 3.3095822310573837 0 3.3095822310573837 48.410433590743025 0 0 0 0 -3.9798308672670282 -827.61760943936599 0 -827.61760943936599 1414.4849317109038 0 0 0 0 -776.91735114258699 267.44241499290001 0 267.44241499290001 661.26218188872735 0 0 0 0 -1.7000724610841189 536.10166704720177 0 536.10166704720177 179.90600972488755 0 0 0 0 -1118.7808540238177 -524.92286685854197 0 -524.92286685854197 727.58592369936378 0 0 0 0 -45.629736141547312 -376.79569539034128 0 -376.79569539034128 557.85740714835993 0 0 0 0 -5.7203731215799962 -927.35305602538574 0 -927.35305602538574 886.04873360591409 0 0 0 0 -39.538208299502458 -153.5513698207069 0 -153.5513698207069 718.57622420919506 0 0 0 0 -217.59832449021212 -1427.5100649024425 0 -1427.5100649024425 2724.3108740367607 0 0 0 0 -162.10711105217104 -582.99839182109281 0 -582.99839182109281 1799.7313934082631 0 0 0 0 343.26822536061513 -1090.0752226324257 0 -1090.0752226324257 1321.568383023543 0 0 0 0 -403.35570042873826 -637.23747768410976 0 -637.23747768410976 1670.8853223328915 0 0 0 0 -558.8630673981155 -2160.1598021673599 0 -2160.1598021673599 5529.0036693686852 0 0 0 0 -639.84136312414478 -1296.402754220835 0 -1296.402754220835 2902.6523197239439 0 0 0 0 -1055.581719326698 82.059464311316333 0 82.059464311316333 5499.8275587255994 0 0 0 0 -660.91478188416556 -1267.2314099817522 0 -1267.2314099817522 3315.0557096468328 0 0 0 0 -179.97147263957845 64.964105784310959 0 64.964105784310959 3086.9650347440256 0 0 0 0 -136.63217573417418 -673.31958072613543 0 -673.31958072613543 1567.8477174501604 0 0 0 0 317.57276225257476 82.20203954243334 0 82.20203954243334 875.24474484920211 0 0 0 0 112.63429786705569 21.543703912830097 0 21.543703912830097 1532.6816901991865 0 0 0 0 118.18432400031702 -297.52260025408759 0 -297.52260025408759 505.59023074887227 0 0 0 0 304.55726023356362 262.73024138692563 0 262.73024138692563 370.88649730980978 0 0 0 0 142.24269825141499 405.78941642351856 0 405.78941642351856 806.41805796524568 0 0 0 0 285.91637437806071 241.41195548087126 0 241.41195548087126 949.28425074911138 0 0 0 0 8.7360098305501754 1.7670888128224362 0 1.7670888128224362 -0.54511287813987508 0 0 0 0 54.473247064189422 471.93114490389416 0 471.93114490389416 1146.958987072001 0 0 0 0 -123.31294593180098 191.9209762440496 0 191.9209762440496 710.98987120254606 0 0 0 0 -1051.9906189906633 357.32968488425831 0 357.32968488425831 -1514.8028475165047 0 0 0 0 -1.6398411971096758 3.3583522929826586 0 3.3583522929826586 14.662809184033037 0 0 0 0 742.03064736951546 1622.5823026683356 0 1622.5823026683356 -1327.0614774076166 0 0 0 0 338.9031662502407 852.34069940402696 0 852.34069940402696 506.08030384742597 0 0 0 0 283.697955534171 163.36340650622878 0 163.36340650622878 -357.27129665328539 0 0 0 0 -503.3015360358022 -102.5617209126649 0 -102.5617209126649 -446.12733807208861 0 0 0 0 51.030816662907455 0.17555965963401832 0 0.17555965963401832 435.36717643111479 0 0 0 0 -764.19292921464591 243.96188033618637 0 243.96188033618637 -21.440387232549256 0 0 0 0 -693.33587718435922 417.40348554004231 0 417.40348554004231 182.18592128399177 0 0 0 0 -629.07965684523083 440.41042178757561 0 440.41042178757561 17.351652910117991 0 0 0 0 -513.81987303761605 169.3006002154907 0 169.3006002154907 257.34057042337372 0 0 0 0 -1303.9187745351028 699.59260628529591 0 699.59260628529591 -63.628653149498859 0 0 0 0 49.679916298530998 274.86218127364555 0 274.86218127364555 -238.7631264700467 0 0 0 0 62.884467732701978 165.07126515867276 0 165.07126515867276 674.07477990229381 0 0 0 0 -199.16416389494157 -372.08220824610851 0 -372.08220824610851 443.52511166184559 0 0 0 0 -201.28576205816526 -96.24305010085061 0 -96.24305010085061 -907.9939769640041 0 0 0 0 -912.97055264155051 64.081818130274769 0 64.081818130274769 106.49498137857881 0 0 0 0 -765.01597062587723 510.593881740906 0 510.593881740906 -874.83989787352039 0 0 0 0 -1680.3815255940553 -213.42461674498918 0 -213.42461674498918 93.446521587327879 0 0 0 0 -3.9920670231990423 0.94786925755506957 0 0.94786925755506957 16.227643439180355 0 0 0 0 -10.457906506557208 16.881226595376489 0 16.881226595376489 32.314736382994937 0 0 0 0 -13.891372424135795 11.593610994743358 0 11.593610994743358 69.076342545231455 0 0 0 0 1.6496207593752956 -4.4993882516173471 0 -4.4993882516173471 140.64257906458806 0 0 0 0 -8.1812074386483591 10.663644571607641 0 10.663644571607641 58.984516961664553 0 0 0 0 -1039.3555255067663 313.62448506492365 0 313.62448506492365 200.23363841841638 0 0 0 0 -7.9881316459977825 -3.5708235689380672 0 -3.5708235689380672 22.030299240606837 0 0 0 0 -9.6770580461646531 13.058126868742931 0 13.058126868742931 36.022607666502083 0 0 0 0 -1699.1914023137192 398.62307967717061 0 398.62307967717061 2.6662882757955231 0 0 0 0 -21.298948439898624 6.6918734459030347 0 6.6918734459030347 58.23633196552197 0 0 0 0 16.116082924929287 -139.73157810304838 0 -139.73157810304838 -98.219875165814301 0 0 0 0 -4.9958030622607801 -8.7937566539659002 0 -8.7937566539659002 31.897917583301037 0 0 0 0 -5.9620148056760627 -4.3602931521527353 0 -4.3602931521527353 142.15382549061542 0 0 0 0 -8.8981056914270198 8.0891760020913352 0 8.0891760020913352 106.75394289602991 0 0 0 0 -5.6020041340822218 2.126624840835575 0 2.126624840835575 79.232582698547048 0 0 0 0 -6.0353268222971224 6.0946587734506465 0 6.0946587734506465 120.03399609943153 0 0 0 0 -11.060513987519011 4.0158342102270979 0 4.0158342102270979 20.223524504027168 0 0 0 0 -99.826109033942885 81.657006325091061 0 81.657006325091061 174.60017019966472 0 0 0 0 40.228278786832561 90.547752693695656 0 90.547752693695656 174.16341941578867 0 0 0 0 -27.453863419253366 28.170781299829287 0 28.170781299829287 273.36875396594405 0 0 0 0 -0.59809337376282201 12.667790268613317 0 12.667790268613317 248.54727255386388 0 0 0 0 -12.144487113176684 -30.644098465078969 0 -30.644098465078969 26.376897435296755 0 0 0 0 -27.110332891525104 -23.801988677943882 0 -23.801988677943882 472.44856475605047 0 0 0 0 -0.37196965833560691 -8.0111745543919 0 -8.0111745543919 4.5103988712335763 0 0 0 0 13.410537165032565 141.11471777823317 0 141.11471777823317 328.96914682677016 0 0 0 0 67.895051348326888 126.74262553523295 0 126.74262553523295 276.51900139772624 0 0 0 0 53.957733927989466 129.46104252350051 0 129.46104252350051 281.36580817747745 0 0 0 0 122.99984787193364 129.21968485922844 0 129.21968485922844 83.162130734228413 0 0 0 0 300.17640684559774 132.43859679870366 0 132.43859679870366 82.269316888799949 0 0 0 0 76.553440723402673 236.74327932886081 0 236.74327932886081 226.17739165308012 0 0 0 0 76.101404902631316 47.349676721915785 0 47.349676721915785 431.70731575661921 0 0 0 0 16.114306383707572 39.690685104578733 0 39.690685104578733 547.2770254680363 0 0 0 0 -40.39080000040849 113.85585237853229 0 113.85585237853229 526.05874597790535 0 0 0 0 0.055524328583032911 89.001120559776609 0 89.001120559776609 537.75107359043614 0 0 0 0 53.903597943248315 117.36849174908275 0 117.36849174908275 536.99792702170089 0 0 0 0 11.136323518279653 69.226995545253885 0 69.226995545253885 485.47133540586219 0 0 0 0 22.288596563434453 246.42907408156316 0 246.42907408156316 480.44034175630077 0 0 0 0 78.216665396406825 92.653443466770113 0 92.653443466770113 546.30965015956463 0 0 0 0 2.7624265140565551 0.43675272141756238 0 0.43675272141756238 -1.5436104820786909 0 0 0 0 -315.40998441021065 -172.46488486503949 0 -172.46488486503949 1585.1497016175272 0 0 0 0 478.60740238793733 907.08364651551528 0 907.08364651551528 -2353.828519703784 0 0 0 0 -191.34065337291946 96.397181599040039 0 96.397181599040039 6.2788296000508126 0 0 0 0 -182.36789090667867 606.78283138381812 0 606.78283138381812 254.22141601779003 0 0 0 0 23.346024431876685 230.37530837683153 0 230.37530837683153 673.804453306293 0 0 0 0 -689.12007862737528 977.74198671367049 0 977.74198671367049 -44.578053313794953 0 0 0 0 57.569435845184444 252.1386160178954 0 252.1386160178954 -592.69986344051722 0 0 0 0 229.9140560344199 649.83978698263309 0 649.83978698263309 278.40333905967418 0 0 0 0 515.55640265790771 538.94544141289953 0 538.94544141289953 -284.46693343418156 0 0 0 0 574.59082450662117 135.87212063826337 0 135.87212063826337 -132.30375005521637 0 0 0 0 4.8515077204976418 -5.1489865662542513 0 -5.1489865662542513 -5.7057387633778376 0 0 0 0 48.887965844400242 -62.468649135920714 0 -62.468649135920714 -19.663210391823668 0 0 0 0 372.11435293501199 -1.0078298396438186 0 -1.0078298396438186 -174.73277967008471 0 0 0 0 1712.2381593002319 540.35976343635411 0 540.35976343635411 -843.45611084738266 0 0 0 0 -128.01242402341268 -262.57397450762073 0 -262.57397450762073 236.57269243284827 0 0 0 0 859.21665470368953 380.32533671018609 0 380.32533671018609 449.20606580161257 0 0 0 0 56.506018297656738 -575.37701638481667 0 -575.37701638481667 -182.64394998800708 0 0 0 0 90.849811778201911 -561.88926221931615 0 -561.88926221931615 94.07878187312599 0 0 0 0 -576.25810836714663 -577.00324981313315 0 -577.00324981313315 232.38409510769998 0 0 0 0 -3.8313173046299198 95.522178900926519 0 95.522178900926519 24.692662876266695 0 0 0 0 -354.83993221160199 -354.53516902965202 0 -354.53516902965202 -298.23028472049918 0 0 0 0 1.5545662340248185 -5.1646997252209133 0 -5.1646997252209133 23.399251330244255 0 0 0 0 60.560441450402323 -17.647969887213549 0 -17.647969887213549 55.649255269592686 0 0 0 0 203.72332209758679 97.411943581188098 0 97.411943581188098 111.4223599270772 0 0 0 0 -16.136352026423538 -70.480024754782789 0 -70.480024754782789 83.459133182383084 0 0 0 0 140.13751791378974 -130.16776423634838 0 -130.16776423634838 102.96257497910119 0 0 0 0 134.74442859923784 42.29621405326543 0 42.29621405326543 390.87296182173304 0 0 0 0 1.0968446900945334 -1.9680561031026917 0 -1.9680561031026917 3.4707758222523069 0 0 0 0 -82.146460900520651 280.60609104079776 0 280.60609104079776 733.74531369959868 0 0 0 0 -278.87850665045562 -26.863863818663958 0 -26.863863818663958 290.89203201332566 0 0 0 0 1504.8099146698428 401.24033531295572 0 401.24033531295572 225.01719224272529 0 0 0 0 223.63395870711201 135.25429750003241 0 135.25429750003241 131.27296401481726 0 0 0 0 119.81419305517375 79.009843657899182 0 79.009843657899182 126.44085175677719 0 0 0 0 7.8092195403559792 -15.900644026955163 0 -15.900644026955163 -4.0315727660084306 0 0 0 0 159.30269703939803 88.388052994421741 0 88.388052994421741 -253.49855416348146 0 0 0 0 80.133287125564493 -55.816935884391569 0 -55.816935884391569 -168.82234079349291 0 0 0 0 213.44336118793535 -191.64490643557656 0 -191.64490643557656 -532.39719684341981 0 0 0 0 -307.31436670973886 6.4027487371618008 0 6.4027487371618008 10.436083089021849 0 0 0 0 -0.3931121207133832 2.053531091057585 0 2.053531091057585 38.405061571191482 0 0 0 0 -69.33380659363479 -103.71280343564285 0 -103.71280343564285 43.372496662159392 0 0 0 0 0.49837940313767604 127.66516939042958 0 127.66516939042958 507.27095359080704 0 0 0 0 152.31473609712248 -961.59349211267545 0 -961.59349211267545 -219.35302133791265 0 0 0 0 -1039.0662972824439 -1882.3614207481587 0 -1882.3614207481587 1887.2932758784154 0 0 0 0 14.206513797670596 123.67254179019801 0 123.67254179019801 -107.81128943441036 0 0 0 0 191.7129258071709 47.184634071061737 0 47.184634071061737 -127.12902060961642 0 0 0 0 1.2213028716091685 -125.35741714722826 0 -125.35741714722826 -97.467399679502705 0 0 0 0 54.86371821777027 -78.157113545189532 0 -78.157113545189532 -57.930393069749698 0 0 0 0 34.310670058608594 49.769898633880075 0 49.769898633880075 -36.618802852070075 0 0 0 0 -95.440642413680507 -84.512873659237812 0 -84.512873659237812 -58.194985863437068 0 0 0 0 -112.32706864181091 27.672749651028425 0 27.672749651028425 -38.04068381131583 0 0 0 0 -174.78019323368727 -99.142173475138407 0 -99.142173475138407 36.207689706876408 0 0 0 0 2.8890960229086691 -13.370219421788008 0 -13.370219421788008 7.4150567664190632 0 0 0 0 415.8280088158491 1201.5534562084122 0 1201.5534562084122 369.15234036593029 0 0 0 0 41.214325481244487 -100.66450302596786 0 -100.66450302596786 -114.48167883704082 0 0 0 0 -0.23015992880482372 -51.024967966041004 0 -51.024967966041004 -44.169107552246714 0 0 0 0 -465.2703630734195 566.07827012854978 0 566.07827012854978 -543.79424614443633 0 0 0 0 -554.37014085740157 -15.325602201784932 0 -15.325602201784932 295.70711337013199 0 0 0 0 -7.9137465952000143 2.8663409950261993 0 2.8663409950261993 91.742091652380708 0 0 0 0 -291.90900968244841 613.77584370526165 0 613.77584370526165 760.12311782702454 0 0 0 0 120.70524827551685 -59.71574573468024 0 -59.71574573468024 18.820428839204396 0 0 0 0 -37.022439892630246 -210.02927335200729 0 -210.02927335200729 116.50553218411369 0 0 0 0 116.30997855807959 94.403789740314096 0 94.403789740314096 379.12930166662409 0 0 0 0 -265.85346595238445 -32.934534158175666 0 -32.934534158175666 344.05038548684024 0 0 0 0 -1664.5844715201624 -31.263056549087196 0 -31.263056549087196 290.33300934379076 0 0 0 0 -9.0879247372495904 -5.2134690214383994 0 -5.2134690214383994 114.35545390337927 0 0 0 0 254.72428867518624 108.557894408641 0 108.557894408641 142.08492207228119 0 0 0 0 254.25918119618518 295.44941064943123 0 295.44941064943123 450.72598939365707 0 0 0 0 491.36248634672029 455.60182129048553 0 455.60182129048553 512.21755314784969 0 0 0 0 300.9157210396238 -53.970762136465055 0 -53.970762136465055 468.08213429659372 0 0 0 0 633.85866096615473 284.91845689037291 0 284.91845689037291 338.26267905675013 0 0 0 0 469.88137379538193 703.51849181786747 0 703.51849181786747 712.40452703802771 0 0 0 0 6.1356311805508224 0.4935120213657882 0 0.4935120213657882 0.031701034753920609 0 0 0 0 533.68900106413525 619.09192282400545 0 619.09192282400545 822.29058549262118 0 0 0 0 609.2971274227707 260.58313228576571 0 260.58313228576571 205.32211185491906 0 0 0 0 354.1680554525301 -88.049919863035029 0 -88.049919863035029 -266.46570804031489 0 0 0 0 463.31604072680693 8.5306122244110156 0 8.5306122244110156 83.534037557796182 0 0 0 0 215.25807650840102 -328.95813655067786 0 -328.95813655067786 704.569969259137 0 0 0 0 52.245740738982931 16.467827021777339 0 16.467827021777339 1442.1856418951966 0 0 0 0 485.41061180329956 115.87932122736402 0 115.87932122736402 564.94168275895936 0 0 0 0 101.88871631496829 159.52890281256077 0 159.52890281256077 710.0893115216677 0 0 0 0 115.12862307460225 206.33511188724606 0 206.33511188724606 875.55800053678831 0 0 0 0 265.52425773227537 429.02270949023659 0 429.02270949023659 439.49107188346534 0 0 0 0 -66.067555251086901 112.97179211502225 0 112.97179211502225 607.57699508208316 0 0 0 0 362.00863314357389 373.30945439268544 0 373.30945439268544 529.83342418126995 0 0 0 0 283.9074866316061 829.48237081926709 0 829.48237081926709 1644.3060660592928 0 0 0 0 -282.67930865550989 -118.25150665688852 0 -118.25150665688852 1994.8150413850744 0 0 0 0 -403.00377154099897 -43.692886294980781 0 -43.692886294980781 2119.7690050957463 0 0 0 0 -215.48295803958672 69.830457440639293 0 69.830457440639293 2499.8447638410798 0 0 0 0 457.79746772825939 -1050.0586599123526 0 -1050.0586599123526 2038.4252223813564 0 0 0 0 -204.54948351765324 -463.00863031380504 0 -463.00863031380504 1986.4747211243957 0 0 0 0 -310.22679558862342 -53.322906606954348 0 -53.322906606954348 1857.8863134446874 0 0 0 0 -472.0621777840347 61.188597304862924 0 61.188597304862924 1883.8326210603445 0 0 0 0 -423.22149871486909 -335.48272456442646 0 -335.48272456442646 1540.6422188424449 0 0 0 0 -455.95818529952919 -113.05417328216481 0 -113.05417328216481 1944.2656253070454 0 0 0 0 -422.99033844818086 8.1595905959493393 0 8.1595905959493393 2009.9402566010758 0 0 0 0 2546.7839062505627 -296.79477012079587 0 -296.79477012079587 -822.80510996245721 0 0 0 0 1471.0230816626527 2418.7529721126975 0 2418.7529721126975 4881.7186461961246 0 0 0 0 3.2027242186636276 10.761634465182127 0 10.761634465182127 49.598236537419609 0 0 0 0 -97.889834587641644 1815.0794077396677 0 1815.0794077396677 1943.9387062587339 0 0 0 0 -786.31879635749647 1256.2764128860144 0 1256.2764128860144 5643.99749649156 0 0 0 0 -992.7119875696103 739.70396149591943 0 739.70396149591943 5074.3140147643135 0 0 0 0 1458.3105977692978 -1261.6478012647385 0 -1261.6478012647385 3041.7227212301877 0 0 0 0 -1538.7197050092477 753.15899810507108 0 753.15899810507108 5865.5735631249809 0 0 0 0 -1605.1851215747333 351.57154282578995 0 351.57154282578995 5540.772212122778 0 0 0 0 11.45772577285169 -25.714692793156416 0 -25.714692793156416 48.47839808772477 0 0 0 0 1307.6234410096422 -3209.8377179524314 0 -3209.8377179524314 385.5062381241878 0 0 0 0 1067.7568868660996 -3907.6788877554491 0 -3907.6788877554491 57.71715669427067 0 0 0 0 -1857.6514146778241 2063.8418470579345 0 2063.8418470579345 3396.2136725407472 0 0 0 0 3794.3520979760533 647.07582162337349 0 647.07582162337349 11.146963575043628 0 0 0 0 -4.6645057710932285 -14.880635184849929 0 -14.880635184849929 110.30277598386829 0 0 0 0 -4533.0833077584603 -773.4265307012065 0 -773.4265307012065 1989.9706072390036 0 0 0 0 -196.64445652302857 -3369.8326674237978 0 -3369.8326674237978 -82.526790976698976 0 0 0 0 2.221865510185439 -11.750284018172938 0 -11.750284018172938 48.076415340173185 0 0 0 0 936.3643496442952 1748.4127634248453 0 1748.4127634248453 2859.2851607619086 0 0 0 0 100.71812229238185 -753.75169348003692 0 -753.75169348003692 4456.505757296065 0 0 0 0 2343.6625500812493 -1481.946689749333 0 -1481.946689749333 2243.193065971449 0 0 0 0 577.54920772691707 1212.9083221545343 0 1212.9083221545343 1697.9169776750496 0 0 0 0 2982.9293280708343 1093.3501176593054 0 1093.3501176593054 561.9737134535244 0 0 0 0 -113.44635335434259 -390.57579549068396 0 -390.57579549068396 -1753.7295833406097 0 0 0 0 42.183535167715036 -1505.7323693086109 0 -1505.7323693086109 5120.0033541254597 0 0 0 0 -35.938755615566151 695.71641358324996 0 695.71641358324996 88.215085349092988 0 0 0 0 -2877.1820859034001 -1615.7955235202862 0 -1615.7955235202862 1602.2337254924641 0 0 0 0 23.397797189424043 -53.208828760864037 0 -53.208828760864037 104.45465387703234 0 0 0 0 433.47502745709664 292.39009777297542 0 292.39009777297542 -321.73699140531244 0 0 0 0 -318.51992592444867 -1639.5060862868668 0 -1639.5060862868668 -457.89145509562513 0 0 0 0 -32.40453990908847 -9.8361108231623007 0 -9.8361108231623007 23.07069477628216 0 0 0 0 125.9327879648099 192.58593012018537 0 192.58593012018537 677.05285129620461 0 0 0 0 -468.61216989351561 74.185587657613269 0 74.185587657613269 1582.7263991351065 0 0 0 0 -1181.4924325083855 63.657164902503609 0 63.657164902503609 108.02012391917378 0 0 0 0 12.890932191109281 -55.786455348742834 0 -55.786455348742834 104.136871067242 0 0 0 0 -998.5046344010666 751.07132343368448 0 751.07132343368448 601.87708345707506 0 0 0 0 -232.23306189872528 440.53616107282505 0 440.53616107282505 -224.43335911496251 0 0 0 0 435.2208805963719 1334.3625651677248 0 1334.3625651677248 798.6647206908674 0 0 0 0 32.999901510011114 2021.7161523128161 0 2021.7161523128161 -1575.6336867977225 0 0 0 0 -10.10791208638936 -0.14441987605516715 0 -0.14441987605516715 0.6461985469493996 0 0 0 0 419.8482661562457 501.50302939416724 0 501.50302939416724 2492.3896224873024 0 0 0 0 -473.08140411596787 233.75856823204231 0 233.75856823204231 2932.1413484331279 0 0 0 0 145.05348853947271 1306.2620111722499 0 1306.2620111722499 3073.2927382044918 0 0 0 0 2815.6882932787557 -727.51088394131511 0 -727.51088394131511 2922.468907992501 0 0 0 0 -59.588135632729063 1557.9504859686713 0 1557.9504859686713 875.64540002860304 0 0 0 0 -429.43526339461334 46.217453704390209 0 46.217453704390209 69.264962726010708 0 0 0 0 -136.4571887295632 64.653479928547313 0 64.653479928547313 -213.74736201754422 0 0 0 0 2.1716367036171675 688.56421573369403 0 688.56421573369403 1767.3810107642494 0 0 0 0 2530.8720528003951 2041.2480603353415 0 2041.2480603353415 614.77667661456508 0 0 0 0 -2.5714866637737477 3.3206290116353472 0 3.3206290116353472 5.5613123016555619 0 0 0 0 267.77873899333372 243.74720011866521 0 243.74720011866521 700.0641012754495 0 0 0 0 2090.1552462548862 274.44631199515425 0 274.44631199515425 116.84717996279505 0 0 0 0 -318.28794337577892 -473.37934860028327 0 -473.37934860028327 130.05308078142116 0 0 0 0 533.022722961412 100.42022978200839 0 100.42022978200839 872.6240811942771 0 0 0 0 -304.79789109031867 -313.54256257301631 0 -313.54256257301631 741.40669156673539 0 0 0 0 148.73223942226338 49.277075618534582 0 49.277075618534582 157.73501873482019 0 0 0 0 12.14607753705036 114.71520150749711 0 114.71520150749711 -2.6071516815427458 0 0 0 0 -57.425268189401606 -96.465364060866705 0 -96.465364060866705 112.33000703364087 0 0 0 0 95.514470668813885 0.5361316176076798 0 0.5361316176076798 11.905274014992756 0 0 0 0 -141.17645650985287 97.54626636946341 0 97.54626636946341 56.983374725445174 0 0 0 0 -2.8014498316707659 71.38375352305593 0 71.38375352305593 -12.799067319392634 0 0 0 0 -3.2595701425732955 75.113770373966872 0 75.113770373966872 50.04466333995515 0 0 0 0 5.1368759091449192 37.798854764823773 0 37.798854764823773 -5.1460488423181232 0 0 0 0 -79.848585357315415 53.263022403858486 0 53.263022403858486 15.647849893168313 0 0 0 0 -23.940848357649315 60.460261449217796 0 60.460261449217796 8.8499178497004323 0 0 0 0 -151.67483971017396 11.145473105745623 0 11.145473105745623 26.449970279456466 0 0 0 0 -94.55384373994309 29.352684215547924 0 29.352684215547924 30.144195751674488 0 0 0 0 -87.530671491523577 23.693470957245154 0 23.693470957245154 29.965355447726324 0 0 0 0 -96.785232602673091 -26.65518620077637 0 -26.65518620077637 29.171614381120889 0 0 0 0 -115.97751921104532 -37.94743334496161 0 -37.94743334496161 44.725589224887699 0 0 0 0 -116.88475597750181 -7.0887292463157792 0 -7.0887292463157792 21.969319087773329 0 0 0 0 -176.50783103387562 -23.447553741469164 0 -23.447553741469164 21.195497679767868 0 0 0 0 -144.5475875921727 6.780433508582064 0 6.780433508582064 22.260791931679705 0 0 0 0 -399.97504063132925 -109.23232166311936 0 -109.23232166311936 49.54962637477729 0 0 0 0 -8.5742583034208923 2.2934207592499192 0 2.2934207592499192 21.861953784079901 0 0 0 0 -174.19124145079212 -83.358287676983309 0 -83.358287676983309 -52.052309386286652 0 0 0 0 -131.44491630951228 -39.353499811211805 0 -39.353499811211805 -34.613133448539884 0 0 0 0 -245.72150299591567 -32.971443387839827 0 -32.971443387839827 23.579513487719851 0 0 0 0 -184.1846464990258 48.390371862857137 0 48.390371862857137 36.200440922380949 0 0 0 0 -81.538781559079155 56.914628037298826 0 56.914628037298826 9.1835811391647439 0 0 0 0 -233.01286221933265 42.729666734696366 0 42.729666734696366 41.15649378595117 0 0 0 0 -175.59824789711533 21.038542398262507 0 21.038542398262507 15.831632197689032 0 0 0 0 -317.96101978481011 -117.2539496639547 0 -117.2539496639547 -1.6150710607034853 0 0 0 0 613.4973476684354 -48.553792344064277 0 -48.553792344064277 -79.642359904159093 0 0 0 0 611.11920425029803 -101.30114366756607 0 -101.30114366756607 3300.0212449565734 0 0 0 0 -3.3372493920277932 3.7342864150671389 0 3.7342864150671389 15.602947945392145 0 0 0 0 867.6807054654787 1509.4453062183093 0 1509.4453062183093 1700.9437791014789 0 0 0 0 -42.773285643399731 853.43114415204036 0 853.43114415204036 2063.7568994073663 0 0 0 0 -140.2201610546997 963.408407863295 0 963.408407863295 1941.2854184412572 0 0 0 0 -37.1368095290062 817.32247342119172 0 817.32247342119172 1691.8328976831981 0 0 0 0 883.2922416603401 1417.0974379437102 0 1417.0974379437102 1296.7330608890843 0 0 0 0 -61.050895848842174 -54.886516225044033 0 -54.886516225044033 -522.46355919832422 0 0 0 0 739.80284977762244 934.74793364443394 0 934.74793364443394 573.17950617443421 0 0 0 0 -2.524284625107315 -8.7922715453487044 0 -8.7922715453487044 26.803482685931243 0 0 0 0 -62.826705218600864 12.224597063199326 0 12.224597063199326 93.798051729871077 0 0 0 0 -135.294125744925 -58.582716922378353 0 -58.582716922378353 34.513467135751853 0 0 0 0 -1244.124848596427 -446.92432002164423 0 -446.92432002164423 394.36651133505802 0 0 0 0 -134.88188148040541 -25.691384011035552 0 -25.691384011035552 6.9497616820881376 0 0 0 0 -9.49487709413164 -0.42969841690486277 0 -0.42969841690486277 46.758099395402553 0 0 0 0 -120.19385323037872 -27.931878842182414 0 -27.931878842182414 56.550335514795734 0 0 0 0 -141.54417575672306 -35.740710433092318 0 -35.740710433092318 44.578847794924513 0 0 0 0 -786.54791846749504 -33.405349142238265 0 -33.405349142238265 92.038437883617007 0 0 0 0 -424.33805125258323 658.65957211748901 0 658.65957211748901 652.0193676056806 0 0 0 0 -1295.5164806924977 91.952254477313545 0 91.952254477313545 648.77469269541325 0 0 0 0 -1183.1819746607775 248.69472066104208 0 248.69472066104208 323.84229122058605 0 0 0 0 -1268.8258704773625 240.32552057547582 0 240.32552057547582 676.73091354846838 0 0 0 0 -451.38820498146924 670.50743865673576 0 670.50743865673576 500.73980718210805 0 0 0 0 -436.74868757452896 545.48402819919284 0 545.48402819919284 902.81998178296999 0 0 0 0 -117.38082220119304 1056.3950453405414 0 1056.3950453405414 832.8324520700553 0 0 0 0 -502.76030864292443 646.94679471351265 0 646.94679471351265 903.62753244122723 0 0 0 0 -214.73925384363793 931.28661476302659 0 931.28661476302659 1072.5453422605788 0 0 0 0 -33.877468610402502 825.12436037659063 0 825.12436037659063 781.43068937336648 0 0 0 0 -26.918289829975947 738.27123193444277 0 738.27123193444277 714.01979526304058 0 0 0 0 -193.97240183265239 684.41729636369564 0 684.41729636369564 973.14312634136877 0 0 0 0 -143.94849833683975 912.3174234317994 0 912.3174234317994 1264.6653271553369 0 0 0 0 -274.02915614705489 783.40506321923021 0 783.40506321923021 1756.3218385879591 0 0 0 0 -77.598145210216899 746.7515207929282 0 746.7515207929282 978.47696707837167 0 0 0 0 -102.90711608867969 737.47566018474754 0 737.47566018474754 1212.1549710993495 0 0 0 0 -144.54005669012975 -59.584452943170618 0 -59.584452943170618 502.96164999747998 0 0 0 0 -213.10335021535661 -34.664708923820399 0 -34.664708923820399 503.02952251090755 0 0 0 0 -301.43538149769131 2.7854203067945491 0 2.7854203067945491 1137.0132348191401 0 0 0 0 -273.3445503875318 -94.650763025353172 0 -94.650763025353172 1157.6170050688161 0 0 0 0 -293.32157215930556 -205.80309498187853 0 -205.80309498187853 1315.6477145197932 0 0 0 0 37.195512713008043 -246.91009235524689 0 -246.91009235524689 858.89581194453103 0 0 0 0 72.759046396958681 -298.379343041639 0 -298.379343041639 862.74055066557048 0 0 0 0 331.15728978097837 -244.75418253092175 0 -244.75418253092175 237.04231548200187 0 0 0 0 67.949780205304251 30.637529424348031 0 30.637529424348031 199.22741824693912 0 0 0 0 87.957037262902872 -120.01084477351469 0 -120.01084477351469 419.1564430795479 0 0 0 0 -136.54696797271208 -271.96154419828235 0 -271.96154419828235 1116.9172664897214 0 0 0 0 4.6062980441558921 -91.126141797634773 0 -91.126141797634773 425.00722759722976 0 0 0 0 -13.928891929123211 41.289691217338259 0 41.289691217338259 71.417846893542446 0 0 0 0 176.12286831847621 -8.3485138525647926 0 -8.3485138525647926 45.065545253179152 0 0 0 0 35.140562931276463 3.62513086754916 0 3.62513086754916 55.955219226416375 0 0 0 0 76.721571513152412 59.183219698225003 0 59.183219698225003 -22.092556385141506 0 0 0 0 8.62803002468263 40.220843889728712 0 40.220843889728712 -26.377719058218645 0 0 0 0 54.76720128795364 18.034300354942388 0 18.034300354942388 -33.216337810095865 0 0 0 0 25.827612655176722 60.759585352250724 0 60.759585352250724 -52.928248864416673 0 0 0 0 -89.927349056478306 -78.589206533026299 0 -78.589206533026299 42.30349520263826 0 0 0 0 -182.68110970800012 102.06455904644099 0 102.06455904644099 -307.10563814291527 0 0 0 0 -277.72158251120413 -148.48311371765885 0 -148.48311371765885 509.79127461574581 0 0 0 0 -443.47003559834502 -177.5751214958691 0 -177.5751214958691 510.67791272102477 0 0 0 0 -181.67967704423336 -110.45091316007347 0 -110.45091316007347 147.36315014367574 0 0 0 0 -819.17809784017868 -214.2064904260078 0 -214.2064904260078 141.59051114213912 0 0 0 0 -176.93770518419296 -219.83656079208231 0 -219.83656079208231 -13.853957417821221 0 0 0 0 -317.17799233261826 -575.39472710113114 0 -575.39472710113114 -569.06018692175712 0 0 0 0 -241.68949650566128 -142.47822597133745 0 -142.47822597133745 77.758844606425555 0 0 0 0 -23.993853727329519 6.6989709761678995 0 6.6989709761678995 35.792078710526425 0 0 0 0 -432.72438685719715 -96.910772160007582 0 -96.910772160007582 121.37551249779062 0 0 0 0 -254.12709227599953 -369.83743003244672 0 -369.83743003244672 32.513994454339809 0 0 0 0 -83.101118126860456 -43.180041397296009 0 -43.180041397296009 199.63813382306671 0 0 0 0 -1021.6846488209603 -75.222597986790788 0 -75.222597986790788 410.59826606393472 0 0 0 0 -412.07047682565008 -315.52541382134223 0 -315.52541382134223 311.60122446224705 0 0 0 0 -444.9453708904357 -402.24890138627416 0 -402.24890138627416 190.37911369201902 0 0 0 0 -269.25671844243971 146.98213873017994 0 146.98213873017994 1260.3825823350708 0 0 0 0 617.63349113076492 -1388.1099195286724 0 -1388.1099195286724 1351.7931551044239 0 0 0 0 -381.62743030463025 -1472.2366608179982 0 -1472.2366608179982 1740.3097325491972 0 0 0 0 -30.173140725503799 -1693.0043558867947 0 -1693.0043558867947 1544.4826933624172 0 0 0 0 -471.74834846680642 -1212.9970809064434 0 -1212.9970809064434 1408.6540704671843 0 0 0 0 530.9274008649104 -966.3865311957943 0 -966.3865311957943 832.99674913281024 0 0 0 0 2132.4097868919462 -1375.5435772148048 0 -1375.5435772148048 913.00726348263834 0 0 0 0 801.54168832282994 -886.84460722609219 0 -886.84460722609219 807.73800321152521 0 0 0 0 -2.5267239713873018 -0.32998177602792467 0 -0.32998177602792467 130.41428562732045 0 0 0 0 273.65374417485964 -415.92318587478462 0 -415.92318587478462 390.84253478625578 0 0 0 0 9.4796211031334678 -847.83977135614987 0 -847.83977135614987 1486.4644569306647 0 0 0 0 -15.551200357414928 -1124.2984957584731 0 -1124.2984957584731 1256.5272904808808 0 0 0 0 -231.24334582547453 -1321.3460180176062 0 -1321.3460180176062 1730.8041732487181 0 0 0 0 -598.8901722497385 -187.72899890111341 0 -187.72899890111341 936.27429408259604 0 0 0 0 69.334700485648682 -168.32746436631885 0 -168.32746436631885 595.94865369163631 0 0 0 0 -78.684813981497882 71.867678818221975 0 71.867678818221975 553.83881815833058 0 0 0 0 -267.81279761411952 -135.09649821302082 0 -135.09649821302082 100.28527844184646 0 0 0 0 -14.060897026882703 21.304200597024881 0 21.304200597024881 194.69942949582625 0 0 0 0 -90.512350244443951 42.355807604698839 0 42.355807604698839 442.67302241127618 0 0 0 0 -44.021337309486626 19.136281270708878 0 19.136281270708878 375.82820871616536 0 0 0 0 -35.625694097122505 4.4254054577413626 0 4.4254054577413626 94.726888530624365 0 0 0 0 -21.666225635583032 17.218995281893513 0 17.218995281893513 235.54942527795902 0 0 0 0 -25.196150585560339 56.373454526223085 0 56.373454526223085 63.230622455415563 0 0 0 0 -21.236148669834293 8.6219355063774614 0 8.6219355063774614 137.03147284970069 0 0 0 0 -121.99930795546425 -556.34713244017348 0 -556.34713244017348 2.7480285520305188 0 0 0 0 -587.59476893319516 -299.11910895354595 0 -299.11910895354595 -725.95487495044063 0 0 0 0 -27.408180511606414 -1.0022970690175512 0 -1.0022970690175512 85.146705432755581 0 0 0 0 -14.80233505207875 15.564812774890536 0 15.564812774890536 14.454225899456077 0 0 0 0 -249.39093027956278 358.71962100516816 0 358.71962100516816 124.60380586061001 0 0 0 0 -113.0303166642916 97.909757105342578 0 97.909757105342578 -507.69978193955831 0 0 0 0 -353.83206873300151 -133.21866479964865 0 -133.21866479964865 -149.79040663851993 0 0 0 0 -19.076433430702309 -255.68895730581062 0 -255.68895730581062 -12.651264888658261 0 0 0 0 -271.42993641608336 -240.75117624046015 0 -240.75117624046015 -11.095667384932312 0 0 0 0 53.732332508610853 655.26642862975223 0 655.26642862975223 510.90062130640581 0 0 0 0 -896.30043408702477 129.42763841689111 0 129.42763841689111 370.98492010375412 0 0 0 0 -46.414125156472437 -189.91197282792746 0 -189.91197282792746 -229.35303019155981 0 0 0 0 38.363523498886934 -8.3341546681092495 0 -8.3341546681092495 -516.51847626910603 0 0 0 0 -297.31209068058524 37.831128777511822 0 37.831128777511822 -436.05104359046527 0 0 0 0 -1470.4527963321343 -376.47146727555264 0 -376.47146727555264 -72.335493738490186 0 0 0 0 631.36345783532306 1890.4531033736371 0 1890.4531033736371 213.34281633931732 0 0 0 0 -1977.4634617716511 773.79624633971196 0 773.79624633971196 742.88864726919383 0 0 0 0 1253.8456526058485 182.50576940072688 0 182.50576940072688 165.68265874576809 0 0 0 0 1990.1891517746444 1685.5146633786339 0 1685.5146633786339 3109.4356472721934 0 0 0 0 1762.2762164396572 -1321.6864039190486 0 -1321.6864039190486 1687.2443201477199 0 0 0 0 7.5760982960736634 10.90767482448355 0 10.90767482448355 37.253920182325963 0 0 0 0 3138.5668006116393 -4615.3124897952857 0 -4615.3124897952857 4955.005999550971 0 0 0 0 -617.16969309717706 -903.44252008787544 0 -903.44252008787544 2295.3379284977154 0 0 0 0 -2076.8973649825512 277.29042212908985 0 277.29042212908985 1530.2579073229672 0 0 0 0 -699.22498165278012 -2375.3002493994409 0 -2375.3002493994409 2823.1280300303461 0 0 0 0 -710.74705561812152 -224.76847960947589 0 -224.76847960947589 1767.614831350877 0 0 0 0 -120.70161940113576 -1414.3507780778164 0 -1414.3507780778164 3558.9961523952315 0 0 0 0 2460.6868670297317 -1080.3289697421012 0 -1080.3289697421012 860.90461380535817 0 0 0 0 -546.29883400060316 605.3115036850495 0 605.3115036850495 3546.7682105872232 0 0 0 0 -374.4307937097758 -105.49265259122001 0 -105.49265259122001 1330.5809883558068 0 0 0 0 -125.53110264661882 -274.19359822272418 0 -274.19359822272418 692.14408841550721 0 0 0 0 495.89456625188359 1010.3392300781711 0 1010.3392300781711 480.17622529649452 0 0 0 0 -15.978004551671695 -99.61330606061037 0 -99.61330606061037 14.028829847763143 0 0 0 0 -313.02324222242794 -73.570697642949199 0 -73.570697642949199 1316.8791676882793 0 0 0 0 264.75987661330146 2.401217145325063 0 2.401217145325063 100.1977650668814 0 0 0 0 157.05053216639499 -1519.1427138542531 0 -1519.1427138542531 2417.2961370075318 0 0 0 0 46.627877581089706 -1247.8276166948644 0 -1247.8276166948644 1797.4532217103697 0 0 0 0 -186.28362487345294 -1417.6596256765824 0 -1417.6596256765824 1934.5965269785938 0 0 0 0 101.95958696501111 -1220.4149596786774 0 -1220.4149596786774 1802.8292313262427 0 0 0 0 164.42588786748638 -1129.340170680181 0 -1129.340170680181 1883.3722078146566 0 0 0 0 370.57492210367946 -1663.5614566166905 0 -1663.5614566166905 2686.6846588503449 0 0 0 0 1613.191762106293 -2096.6008388815553 0 -2096.6008388815553 1754.834109067815 0 0 0 0 -8.7560595594614128 27.079967015324758 0 27.079967015324758 126.75749445045503 0 0 0 0 -59.591268467907874 -90.804309813769478 0 -90.804309813769478 31.155557869191572 0 0 0 0 -253.00920797948311 -40.713280092705645 0 -40.713280092705645 294.41349873417857 0 0 0 0 143.30349270082479 -33.845743612466322 0 -33.845743612466322 -326.87137720237661 0 0 0 0 -1.6758504075338436 -6.9617165789754267 0 -6.9617165789754267 18.634992343841756 0 0 0 0 125.74484100695554 -637.38538821467591 0 -637.38538821467591 1732.1789609125071 0 0 0 0 1423.4774675387789 -1252.1646382436229 0 -1252.1646382436229 1313.1334926502168 0 0 0 0 411.72632768345647 -1721.1567236304409 0 -1721.1567236304409 1228.3081571788935 0 0 0 0 -235.02559665751687 -1239.5554268524102 0 -1239.5554268524102 1403.3381752700079 0 0 0 0 -164.58190777446725 -1435.7802937913657 0 -1435.7802937913657 1934.2095802631957 0 0 0 0 195.25092810119168 -1353.0229249239346 0 -1353.0229249239346 923.55752936865611 0 0 0 0 -29.311545554994076 -34.066830583840201 0 -34.066830583840201 17.157022138042635 0 0 0 0 -1379.5130010274197 -522.1932551018399 0 -522.1932551018399 1186.3832727195377 0 0 0 0 -940.19516562587796 198.14531458854253 0 198.14531458854253 19.464747829528278 0 0 0 0 -206.07025792619879 32.148957440498634 0 32.148957440498634 7.8287111122263013 0 0 0 0 109.23205596212574 108.39193767174584 0 108.39193767174584 22.873414996329302 0 0 0 0 -14.322606389734974 -4.9614331924176831 0 -4.9614331924176831 20.877683664699063 0 0 0 0 -223.91060485861215 24.46590997164185 0 24.46590997164185 400.36994182381022 0 0 0 0 11.098066771095546 -329.52842886406506 0 -329.52842886406506 458.58447978577169 0 0 0 0 113.53364384408633 -140.52299027474874 0 -140.52299027474874 -378.06736802204523 0 0 0 0 45.083926486102428 -337.59502671433802 0 -337.59502671433802 75.535870382933354 0 0 0 0 98.284513414857031 -274.61100450254656 0 -274.61100450254656 344.55776448883989 0 0 0 0 -52.835932048911673 79.104434600412787 0 79.104434600412787 -5.1312253943760879 0 0 0 0 28.847209757375822 109.61945487157936 0 109.61945487157936 781.13758873437473 0 0 0 0 -72.65166004996172 -65.92573727485069 0 -65.92573727485069 330.28305911370626 0 0 0 0 397.68632679105576 -360.32720671531206 0 -360.32720671531206 514.29116433006857 0 0 0 0 46.632830870448743 -265.13511956654474 0 -265.13511956654474 309.83815573532775 0 0 0 0 -194.13618610415858 -28.591394401670414 0 -28.591394401670414 1141.6005040720629 0 0 0 0 -66.799380754328013 369.10632306031403 0 369.10632306031403 326.04954793985235 0 0 0 0 2.5753938511220085 4.987704959121082 0 4.987704959121082 7.188315046121005 0 0 0 0 116.98113986279714 -685.02010427061032 0 -685.02010427061032 1370.0779113840326 0 0 0 0 -195.79889542827686 82.713305661549384 0 82.713305661549384 -123.80632487410185 0 0 0 0 -53.637232998552463 130.31406152262025 0 130.31406152262025 -122.96112031117082 0 0 0 0 -142.49963912606222 134.29766236964861 0 134.29766236964861 156.49932729755528 0 0 0 0 0.85578139554013788 2.4324361467017042 0 2.4324361467017042 -3.9546588036521797 0 0 0 0 48.402797112646113 66.554336759397302 0 66.554336759397302 72.940716377277568 0 0 0 0 -80.650649677529145 -133.22513989989966 0 -133.22513989989966 -45.907292587919073 0 0 0 0 212.2381263461948 -309.71568553356155 0 -309.71568553356155 255.97912913028267 0 0 0 0 31.696977000685365 -310.62861974297994 0 -310.62861974297994 1027.7917571895887 0 0 0 0 249.89896049590516 -240.6258822248019 0 -240.6258822248019 488.26636552414857 0 0 0 0 -17.574362370601193 -5.901128596826311 0 -5.901128596826311 113.11047675573718 0 0 0 0 -8.4684281772261727 107.26621778818856 0 107.26621778818856 45.352218835698295 0 0 0 0 -137.7055038205425 -289.52666454433711 0 -289.52666454433711 1025.1982750401576 0 0 0 0 -251.62781551753551 -373.91164134511564 0 -373.91164134511564 1389.2301177371701 0 0 0 0 8.3888206393943978 18.848433812938211 0 18.848433812938211 16.353646951185965 0 0 0 0 -17.848165186292174 9.3170828404741854 0 9.3170828404741854 5.7332552847355345 0 0 0 0 -108.36117185526518 -757.00423616752232 0 -757.00423616752232 1838.6112160762423 0 0 0 0 1092.8011894443334 225.43036616696918 0 225.43036616696918 601.54095306345698 0 0 0 0 536.34425061761567 -1097.7104956187068 0 -1097.7104956187068 1271.4554149126125 0 0 0 0 -1688.3908625665954 1927.6359609234969 0 1927.6359609234969 145.71976213768357 0 0 0 0 -6.6651601802687059 -1.6220610896273442 0 -1.6220610896273442 14.350846515133725 0 0 0 0 503.66948500244666 -755.67423376975057 0 -755.67423376975057 877.20833301885796 0 0 0 0 -167.82781634298408 1787.3401446255593 0 1787.3401446255593 -610.36333019476842 0 0 0 0 881.76177194261936 422.21827758448853 0 422.21827758448853 -167.83786255535961 0 0 0 0 -620.5092073626015 743.46125692637361 0 743.46125692637361 -175.66283983549511 0 0 0 0 -693.70429604522997 815.34920304278785 0 815.34920304278785 905.08486072465894 0 0 0 0 -58.396556467391747 58.507045245278277 0 58.507045245278277 194.37180669433656 0 0 0 0 -5.54454305322162 1.1815257529247276 0 1.1815257529247276 -1.1330621669012118 0 0 0 0 388.1168121011633 50.897035967907868 0 50.897035967907868 -486.09957810510787 0 0 0 0 63.645631638588384 33.283768086661439 0 33.283768086661439 51.471541883197915 0 0 0 0 234.36316626313385 -231.76262604866656 0 -231.76262604866656 21.670122197785531 0 0 0 0 -13.754827145248782 -41.635433066847327 0 -41.635433066847327 277.14096897988202 0 0 0 0 103.98064257009901 -741.29997693225232 0 -741.29997693225232 1101.9897182784989 0 0 0 0 338.49977990348634 127.81662851102737 0 127.81662851102737 610.59539905736165 0 0 0 0 713.75303956730727 355.12622958343673 0 355.12622958343673 -258.4247064403462 0 0 0 0 1165.1845549792547 -1985.1573987080792 0 -1985.1573987080792 2908.1727689047548 0 0 0 0 2884.71526360383 -171.05245629117053 0 -171.05245629117053 535.69489482028075 0 0 0 0 -372.83002063982917 -649.1466341288583 0 -649.1466341288583 2743.4072969738336 0 0 0 0 388.9043306453359 -774.68038725717633 0 -774.68038725717633 1084.8123849622916 0 0 0 0 -439.51412357817219 9.3366130921044714 0 9.3366130921044714 1291.1024704253286 0 0 0 0 -628.49858010795469 308.53900170047928 0 308.53900170047928 2089.4620405962269 0 0 0 0 -628.40635368837752 -259.71226596216064 0 -259.71226596216064 4306.0787425023664 0 0 0 0 -530.41911740184423 1150.8076133790673 0 1150.8076133790673 1185.5701439199274 0 0 0 0 0.24799370308090118 -2.6461282543865643 0 -2.6461282543865643 47.245750201776815 0 0 0 0 780.84092008452103 -2457.7800232106893 0 -2457.7800232106893 4271.7232575617054 0 0 0 0 4409.5346844064934 -3063.5473000624906 0 -3063.5473000624906 1576.3773816284447 0 0 0 0 179.43809813873918 -2186.5258682251406 0 -2186.5258682251406 2492.133204891783 0 0 0 0 -874.33520487152271 -1372.3177436051337 0 -1372.3177436051337 1506.048452197836 0 0 0 0 -307.32054133586757 -684.19022478689658 0 -684.19022478689658 339.38387683509427 0 0 0 0 -573.55565504508309 -578.54814266621543 0 -578.54814266621543 2217.7832082530495 0 0 0 0 -180.00551269368975 -302.78745500260629 0 -302.78745500260629 -7.1916511387626088 0 0 0 0 -2508.2799368263554 1397.4691288624617 0 1397.4691288624617 921.46555081444239 0 0 0 0 510.17108911685227 1273.6717362477648 0 1273.6717362477648 2985.3088511405367 0 0 0 0 49.67034113571799 166.66470286650292 0 166.66470286650292 726.31395599267125 0 0 0 0 -436.93896256941173 -143.29729295844663 0 -143.29729295844663 399.79578572732862 0 0 0 0 141.11910229362303 95.344218834583444 0 95.344218834583444 -75.855522021316574 0 0 0 0 74.709341655211858 232.80277287268655 0 232.80277287268655 1413.1533358939778 0 0 0 0 357.20050998929946 328.75078116231452 0 328.75078116231452 175.54388707593898 0 0 0 0 313.52263629986066 410.09331068914616 0 410.09331068914616 423.7586086125084 0 0 0 0 0.064934045434908411 298.1795653668396 0 298.1795653668396 1986.2449705144463 0 0 0 0 -192.28966612908494 592.32894901432519 0 592.32894901432519 3919.2193047497858 0 0 0 0 -506.52750212187703 1665.3345812037296 0 1665.3345812037296 5490.1995596755878 0 0 0 0 -592.39358135597956 1215.3039696582291 0 1215.3039696582291 3141.7938152239803 0 0 0 0 302.68241454763256 1410.4699728407722 0 1410.4699728407722 3093.1503188130446 0 0 0 0 198.19423859419385 681.15488688360711 0 681.15488688360711 1340.7192615413223 0 0 0 0 794.12440130692903 500.78269872734199 0 500.78269872734199 691.16660678377957 0 0 0 0 -33.544290405765423 364.59520973489998 0 364.59520973489998 906.57079811608128 0 0 0 0 491.22774317968424 823.06661627631547 0 823.06661627631547 1437.777915094588 0 0 0 0 3.0821184217716908 2940.950006174764 0 2940.950006174764 5493.2373109132532 0 0 0 0 2575.037384335581 3009.7143106025105 0 3009.7143106025105 1117.6067691872449 0 0 0 0 1528.7116813471052 150.45234640458511 0 150.45234640458511 13.269760188180953 0 0 0 0 16.376107270360382 14.664016412068037 0 14.664016412068037 16.294572805559653 0 0 0 0 -685.05286915515205 23.226455541509495 0 23.226455541509495 5482.3284869555646 0 0 0 0 2299.4886077536216 1028.4017155480924 0 1028.4017155480924 -1074.3931167314295 0 0 0 0 -820.93697816710574 118.21029922865273 0 118.21029922865273 817.19128790107789 0 0 0 0 27.892453266122644 32.627420740151422 0 32.627420740151422 33.104625174926241 0 0 0 0 75.071136652321002 380.59981627288653 0 380.59981627288653 27.393840896547772 0 0 0 0 -889.39218659314679 950.90347782168919 0 950.90347782168919 -52.97019270475721 0 0 0 0 -451.06584406351431 71.540306508039066 0 71.540306508039066 73.690024196635932 0 0 0 0 378.23317071384326 38.158748933456081 0 38.158748933456081 186.47006298923225 0 0 0 0 -460.02274737922653 195.88290489451174 0 195.88290489451174 625.95556636848778 0 0 0 0 -290.11311581989412 -294.42544083559915 0 -294.42544083559915 404.25052077211512 0 0 0 0 -394.96375566777988 -102.59314568983245 0 -102.59314568983245 89.268558148411103 0 0 0 0 -326.35554593742563 -579.35382036493684 0 -579.35382036493684 19.011220298869375 0 0 0 0 -561.25521731825097 -619.1673511783174 0 -619.1673511783174 38.903525824120152 0 0 0 0 7.3853843026884363 -40.877977208791037 0 -40.877977208791037 80.847277321027434 0 0 0 0 -296.06512937647722 -4.3270094796607736 0 -4.3270094796607736 16.285106705734506 0 0 0 0 -89.226522950328444 -336.82446638539841 0 -336.82446638539841 414.95980846604652 0 0 0 0 -682.43131007715499 -627.12802776062745 0 -627.12802776062745 -105.62668774666963 0 0 0 0 -199.79431920616253 -138.76915350350464 0 -138.76915350350464 -264.8123930159345 0 0 0 0 221.9204898680473 452.4923599036556 0 452.4923599036556 354.71693499564162 0 0 0 0 -381.81127231036771 -284.16232048350503 0 -284.16232048350503 320.48678522912314 0 0 0 0 -109.56400823992226 283.84546908218181 0 283.84546908218181 746.5721191867633 0 0 0 0 -220.20104659654089 217.73517455752335 0 217.73517455752335 801.57021810537844 0 0 0 0 47.434192779810473 -170.24192562092503 0 -170.24192562092503 -54.348472867161036 0 0 0 0 9.49965565348122 -41.477625810702506 0 -41.477625810702506 81.221356716384207 0 0 0 0 700.53202228805276 -242.8780725066099 0 -242.8780725066099 416.78277475504728 0 0 0 0 212.7216912570002 -43.563584723102394 0 -43.563584723102394 976.30636798168416 0 0 0 0 27.389576405299522 94.503209056456399 0 94.503209056456399 619.11011312171468 0 0 0 0 183.06004183636469 -233.31760689238581 0 -233.31760689238581 1013.8019277452404 0 0 0 0 -74.695420735784865 263.33432766962505 0 263.33432766962505 1349.7981617545884 0 0 0 0 -248.50585408299412 216.88278177745087 0 216.88278177745087 1745.2473759809509 0 0 0 0 11.159833906545828 88.473477043648018 0 88.473477043648018 2062.0178205958146 0 0 0 0 547.77267062441751 -560.61245396488812 0 -560.61245396488812 1613.9859048527433 0 0 0 0 934.69511158636305 -978.5505116212953 0 -978.5505116212953 2140.4621874802106 0 0 0 0 803.79678785989381 -256.92693228113421 0 -256.92693228113421 737.60409296333091 0 0 0 0 374.98682480313073 228.79675800178666 0 228.79675800178666 2371.5724154379132 0 0 0 0 1584.0703536663318 427.2332810232474 0 427.2332810232474 573.38986621855292 0 0 0 0 985.82141107257848 457.35309747629799 0 457.35309747629799 229.02183115590014 0 0 0 0 454.84631503557148 467.83954604782048 0 467.83954604782048 85.1718643741915 0 0 0 0 3.7120488643522549 -514.90897646544909 0 -514.90897646544909 389.31778300743463 0 0 0 0 2.1560117530508762 1.4547748562962965 0 1.4547748562962965 -4.0954535451604102 0 0 0 0 649.72738970909268 -175.83270006527891 0 -175.83270006527891 746.78719855359668 0 0 0 0 1076.126497830739 -40.561279613561055 0 -40.561279613561055 126.60340259640361 0 0 0 0 609.56581375064889 99.85389445265173 0 99.85389445265173 -63.883985725173261 0 0 0 0 575.93094279813704 68.107802698978048 0 68.107802698978048 122.25797776243417 0 0 0 0 675.08794742104328 136.8341673498071 0 136.8341673498071 -45.238531454699114 0 0 0 0 361.67485447710715 212.73480619653856 0 212.73480619653856 109.90265636751428 0 0 0 0 376.60733478485054 186.83078433126502 0 186.83078433126502 131.03558935277397 0 0 0 0 5.7241834592368512 12.868626537286346 0 12.868626537286346 -2.8484396598107651 0 0 0 0 378.93230624302669 234.20745925584924 0 234.20745925584924 118.61974526171252 0 0 0 0 394.49963821174788 235.84483323098539 0 235.84483323098539 176.63522257236764 0 0 0 0 553.09025870201003 286.74463816863135 0 286.74463816863135 91.508429466892267 0 0 0 0 494.84410621301504 101.21026381335105 0 101.21026381335105 -51.783347812677675 0 0 0 0 411.23279853980057 178.55033139695297 0 178.55033139695297 23.644373524424736 0 0 0 0 458.0114285027521 188.37003438873217 0 188.37003438873217 25.193621231941506 0 0 0 0 254.64158381395464 198.92819955830055 0 198.92819955830055 80.548874076106586 0 0 0 0 367.38468734483467 130.65409246558556 0 130.65409246558556 4.0818806479801424 0 0 0 0 371.26713491167902 217.25733671872877 0 217.25733671872877 82.100563561019953 0 0 0 0 417.86438041585643 133.88894295602222 0 133.88894295602222 0.72468594126985408 0 0 0 0 517.67980498647012 150.02237177059578 0 150.02237177059578 -42.533617905311985 0 0 0 0 420.31906720536199 97.594768512850351 0 97.594768512850351 -70.747883433767129 0 0 0 0 467.4209721342886 80.543773214361863 0 80.543773214361863 -64.968696094845654 0 0 0 0 489.13555079152775 41.57750010235759 0 41.57750010235759 -164.52458266168833 0 0 0 0 301.87157708513769 90.654923768524895 0 90.654923768524895 -0.81798123927728739 0 0 0 0 391.40738502995919 45.519592413606006 0 45.519592413606006 -26.815780123200966 0 0 0 0 530.15641414076526 -12.503611968568293 0 -12.503611968568293 -141.55654926592251 0 0 0 0 537.98504270329067 103.29819860751741 0 103.29819860751741 -100.73317639986635 0 0 0 0 512.52305594130303 -25.504422803365742 0 -25.504422803365742 -154.48229065979831 0 0 0 0 494.41125291307981 -16.813912514655385 0 -16.813912514655385 -118.88191251101671 0 0 0 0 391.47452471337601 60.258542058814783 0 60.258542058814783 -164.6033168482536 0 0 0 0 518.97662403126378 -31.386081089411164 0 -31.386081089411164 -284.65388315224845 0 0 0 0 397.5341200814463 -65.731388434757264 0 -65.731388434757264 -219.03451803218923 0 0 0 0 171.27479732835491 -73.295730661746347 0 -73.295730661746347 -30.837866094283527 0 0 0 0 512.07556191511549 -183.25547867439491 0 -183.25547867439491 -15.881764735939214 0 0 0 0 350.80782639425342 27.606467297831841 0 27.606467297831841 229.19067735916178 0 0 0 0 310.5985997130723 -310.21861291031291 0 -310.21861291031291 141.48485266504576 0 0 0 0 -219.80690594667067 -89.531249052815838 0 -89.531249052815838 64.98910633547348 0 0 0 0 233.03077045024293 -193.42901237759179 0 -193.42901237759179 -328.45337104795908 0 0 0 0 -65.108068434814413 -343.84788819681125 0 -343.84788819681125 -230.1309081416257 0 0 0 0 3.8642476722702241 -30.233683868513538 0 -30.233683868513538 73.727458350204472 0 0 0 0 -425.4759603724915 -128.46343739852819 0 -128.46343739852819 159.25310882645135 0 0 0 0 -22.338317493820796 -29.799814086240076 0 -29.799814086240076 -308.4154550000676 0 0 0 0 4.7068525927861629 -93.103668802883476 0 -93.103668802883476 -164.82259501592489 0 0 0 0 392.38582889937607 89.885171590416576 0 89.885171590416576 -415.79258258867776 0 0 0 0 -3.4862881140513267 -8.3050910917792464 0 -8.3050910917792464 18.364469352981303 0 0 0 0 181.04812419540031 -192.48985485463345 0 -192.48985485463345 -160.64030900242506 0 0 0 0 181.28643140471831 267.55362989363493 0 267.55362989363493 270.21955546969366 0 0 0 0 -177.30065763030143 123.49635105533525 0 123.49635105533525 257.94914902414894 0 0 0 0 865.6797640631994 251.16118937381543 0 251.16118937381543 102.33403072191868 0 0 0 0 38.306264661657337 -14.387118672364522 0 -14.387118672364522 495.35506369495124 0 0 0 0 8.8895180580744082 -5.3089874439415468 0 -5.3089874439415468 18.261717246423018 0 0 0 0 49.739456665158286 68.986304979771376 0 68.986304979771376 -69.293041152646765 0 0 0 0 26.873499851433962 26.175539439325291 0 26.175539439325291 42.219646398715213 0 0 0 0 -491.20616598381457 90.86581174506864 0 90.86581174506864 137.23701457531206 0 0 0 0 266.4900630907232 -440.31043013875569 0 -440.31043013875569 222.43966297936277 0 0 0 0 -58.20598366395825 -344.34083825585913 0 -344.34083825585913 539.8182873770711 0 0 0 0 -30.013140280439984 -393.13420896427124 0 -393.13420896427124 487.62625308606948 0 0 0 0 422.3447857612465 -1810.6280579282902 0 -1810.6280579282902 5500.2075109640482 0 0 0 0 531.35533609852382 -750.75552253005299 0 -750.75552253005299 681.95590518368408 0 0 0 0 15.685848319969729 8.9152562217792592 0 8.9152562217792592 12.368879056962953 0 0 0 0 -53.070806611276168 -897.04018084119161 0 -897.04018084119161 3510.38682563779 0 0 0 0 -94.325383438150382 -1008.0845007753887 0 -1008.0845007753887 4942.5055276598287 0 0 0 0 422.42210129701743 -1810.3840938853964 0 -1810.3840938853964 5498.1810951257066 0 0 0 0 39.976619652815202 33.689546021374838 0 33.689546021374838 24.852262460080155 0 0 0 0 -137.36078355527206 -918.01592728501419 0 -918.01592728501419 1361.9947633680858 0 0 0 0 1466.3504243527877 -38.874864055149374 0 -38.874864055149374 -573.4736467020557 0 0 0 0 -466.4832021244365 32.547317455369921 0 32.547317455369921 540.51408657760476 0 0 0 0 480.38060473178484 -325.24036737959977 0 -325.24036737959977 81.597401442704722 0 0 0 0 314.25390396521834 -452.26716665635468 0 -452.26716665635468 429.42297671167034 0 0 0 0 104.57949422330421 -263.20762341929367 0 -263.20762341929367 259.98366786204861 0 0 0 0 1242.2510117577058 -122.7433187195229 0 -122.7433187195229 -51.035397443221882 0 0 0 0 1198.1429401016103 -599.30843668576563 0 -599.30843668576563 69.838910531572765 0 0 0 0 556.29813163675135 -430.76236787703237 0 -430.76236787703237 73.056636322871782 0 0 0 0 826.5653235340942 -248.0806995631574 0 -248.0806995631574 -62.101826857135165 0 0 0 0 684.81706812091579 -58.79500897161779 0 -58.79500897161779 -9.6292538917041384 0 0 0 0 562.11924609460402 -129.72766121888708 0 -129.72766121888708 -50.248885945940856 0 0 0 0 621.41293226313064 30.078677739584236 0 30.078677739584236 -62.024815515847877 0 0 0 0 657.33862732564012 -119.57243210371234 0 -119.57243210371234 -199.18815990944859 0 0 0 0 497.2406426068992 -35.989017604850233 0 -35.989017604850233 -199.23455168928655 0 0 0 0 561.38318553633508 -162.25839730084408 0 -162.25839730084408 -134.04934515053174 0 0 0 0 572.51107417979802 -191.40521996328607 0 -191.40521996328607 -70.893632897445059 0 0 0 0 544.0072656063021 -141.18269189726925 0 -141.18269189726925 -112.71379478796734 0 0 0 0 504.73433809360358 -49.208026519190753 0 -49.208026519190753 -176.23859404449468 0 0 0 0 434.28767255808089 -71.192596086853882 0 -71.192596086853882 -180.44245879852679 0 0 0 0 408.4432202329117 -202.93491565869772 0 -202.93491565869772 74.212394181900891 0 0 0 0 445.69761726663637 -255.26866416458506 0 -255.26866416458506 68.060449761189375 0 0 0 0 451.10092666940363 -87.914897016918985 0 -87.914897016918985 -18.296765306964517 0 0 0 0 486.29123900730701 -40.819026636017952 0 -40.819026636017952 -140.22777401297935 0 0 0 0 337.2581344510254 -91.032578455429757 0 -91.032578455429757 6.0245556429435965 0 0 0 0 264.02682587982781 -22.245876919711009 0 -22.245876919711009 30.68003253597999 0 0 0 0 358.37507322400052 -24.785807019710774 0 -24.785807019710774 4.375654461196973 0 0 0 0 235.29305175344962 -22.127883410859795 0 -22.127883410859795 207.14030398038449 0 0 0 0 167.513821890705 57.51119077403564 0 57.51119077403564 114.04079765712231 0 0 0 0 0.7385816949416153 0.09389412823480825 0 0.09389412823480825 0.73567999241475945 0 0 0 0 1.0773882557239176 22.370109097311797 0 22.370109097311797 73.807436921371846 0 0 0 0 27.895355024505989 74.097182904282818 0 74.097182904282818 378.07446881802753 0 0 0 0 88.794280176192842 -11.348751026183891 0 -11.348751026183891 107.6974860868213 0 0 0 0 6.8800549773477542 -20.316253841578146 0 -20.316253841578146 242.14772956243905 0 0 0 0 -4.2792346588030341 275.03375659891753 0 275.03375659891753 296.78606796115491 0 0 0 0 43.373566700008162 49.480528627574785 0 49.480528627574785 46.552375987099055 0 0 0 0 -38.073021438289288 118.35819872164575 0 118.35819872164575 321.04496815368839 0 0 0 0 43.235302804135245 128.44289110027967 0 128.44289110027967 112.502467169179 0 0 0 0 74.855617453202285 -60.643930842925329 0 -60.643930842925329 163.91070399188902 0 0 0 0 52.896713540566452 -40.086558872962996 0 -40.086558872962996 219.75438592021237 0 0 0 0 -445.42010360205398 482.99890604340544 0 482.99890604340544 3376.0847229009378 0 0 0 0 33.389756225348378 566.01066689634172 0 566.01066689634172 2495.3477207765609 0 0 0 0 -81.458187706065473 286.64412374431777 0 286.64412374431777 -123.38254831805534 0 0 0 0 50.846808283485572 50.671162407744447 0 50.671162407744447 29.949348636118188 0 0 0 0 831.32479278487847 28.440711596176698 0 28.440711596176698 165.07047176422202 0 0 0 0 -628.05382571981977 1802.2177440567248 0 1802.2177440567248 5490.3406291742285 0 0 0 0 -845.33801254573973 166.92898057352431 0 166.92898057352431 5500.5048209200113 0 0 0 0 -771.19998416270369 626.96750169157167 0 626.96750169157167 3348.0549718623661 0 0 0 0 -737.17293356353764 -492.39163169099265 0 -492.39163169099265 5488.8971516173333 0 0 0 0 -740.21986440410058 -54.402352914265066 0 -54.402352914265066 2247.6506547075769 0 0 0 0 784.59458125374692 -1562.8190589433507 0 -1562.8190589433507 1564.0770274477254 0 0 0 0 2.025315201159442 2.0191701258582491 0 2.0191701258582491 23.47692955696067 0 0 0 0 1895.8690188941459 2518.7227607457971 0 2518.7227607457971 2383.7312012000039 0 0 0 0 10.865038276667242 17.429241494279204 0 17.429241494279204 50.852038283752165 0 0 0 0 89.710904567633406 114.71419175680785 0 114.71419175680785 213.48703389253933 0 0 0 0 -106.49647017157179 193.92930148403684 0 193.92930148403684 -25.067996363213751 0 0 0 0 526.71834146888227 522.08318142408825 0 522.08318142408825 111.05445560013686 0 0 0 0 236.47499853002398 -277.8388082970705 0 -277.8388082970705 -289.61038150217792 0 0 0 0 -169.28543759836367 617.27829289198962 0 617.27829289198962 1666.3755915318907 0 0 0 0 4.0964998088870548 -3.0706861628764983 0 -3.0706861628764983 7.6848919184209024 0 0 0 0 -7.5124356416240143 20.561040821209446 0 20.561040821209446 22.410034926472832 0 0 0 0 12.260571392662541 40.125644327839836 0 40.125644327839836 97.840560958677088 0 0 0 0 10.247311014855711 23.044087153812143 0 23.044087153812143 74.295939034956973 0 0 0 0 2.2662358875811526 3.1392969534129804 0 3.1392969534129804 21.164919147037594 0 0 0 0 62.357611565852494 85.949239428780857 0 85.949239428780857 43.833461659902241 0 0 0 0 12.089255719530684 39.416490793431876 0 39.416490793431876 103.34981942127342 0 0 0 0 3.7859926622009894 15.347164480326455 0 15.347164480326455 28.66220866332651 0 0 0 0 -0.99240185422968352 31.865500649670139 0 31.865500649670139 101.33297134886379 0 0 0 0 -9.4935543566984713 11.591779177963417 0 11.591779177963417 73.474087969518024 0 0 0 0 10.172079746810711 40.164524469390344 0 40.164524469390344 42.912205145832047 0 0 0 0 3.3909504552497367 4.9987369446009779 0 4.9987369446009779 17.922516758173373 0 0 0 0 -12.665464051919116 28.673312631843146 0 28.673312631843146 214.88799319382815 0 0 0 0 13.780796356712354 33.078001020255584 0 33.078001020255584 63.592012058264146 0 0 0 0 -10.50691603722953 33.305177052301588 0 33.305177052301588 32.852044433937408 0 0 0 0 8.7929571237464614 48.665580715740781 0 48.665580715740781 71.578362490011671 0 0 0 0 14.732150474681886 48.077818283157455 0 48.077818283157455 71.453135066832886 0 0 0 0 14.820330326795819 38.839012661495303 0 38.839012661495303 116.884569437059 0 0 0 0 -28.663914689008379 72.854118087241659 0 72.854118087241659 155.16078041039873 0 0 0 0 -8.2851921157644028 32.467106576787046 0 32.467106576787046 99.192033868050203 0 0 0 0 -15.508942134343467 1.4221389006061855 0 1.4221389006061855 44.593385910103848 0 0 0 0 3.8880942291275886 6.4326827225080763 0 6.4326827225080763 12.697171606251004 0 0 0 0 138.26017122343183 160.59821133350488 0 160.59821133350488 162.8512689844938 0 0 0 0 -6.0530052032778485 15.821886708877173 0 15.821886708877173 83.076934075681493 0 0 0 0 -5.8798214442018724 10.541342941828002 0 10.541342941828002 70.053629660155764 0 0 0 0 -11.260684932859704 3.5003615380555857 0 3.5003615380555857 110.75603507064807 0 0 0 0 -22.641995181160041 14.033013397402101 0 14.033013397402101 106.73710236803163 0 0 0 0 -6.4181664585332783 5.2478196273659705 0 5.2478196273659705 75.498257817165722 0 0 0 0 -46.888365926785809 86.635617189205732 0 86.635617189205732 236.78954098587565 0 0 0 0 -17.931134048951776 7.8443515961735102 0 7.8443515961735102 113.62252780450217 0 0 0 0 -35.889938642867691 -10.65926243971694 0 -10.65926243971694 45.057569899876938 0 0 0 0 -10.422891809801513 36.228782421327196 0 36.228782421327196 165.91091173505993 0 0 0 0 -55.384647408281126 39.943789659166214 0 39.943789659166214 50.016513527196366 0 0 0 0 3.5493004176986496 32.972007623623497 0 32.972007623623497 90.675588992929022 0 0 0 0 -37.710047227208634 68.267582533466339 0 68.267582533466339 184.60608846269315 0 0 0 0 4.3418844024900176 30.868739186963762 0 30.868739186963762 79.216144286808742 0 0 0 0 0.86982345394972072 13.371751815240714 0 13.371751815240714 203.90816598394304 0 0 0 0 -33.329924488219149 39.177729067974724 0 39.177729067974724 245.38161803058756 0 0 0 0 -31.810239466173698 55.748533769547066 0 55.748533769547066 190.93834853995941 0 0 0 0 14.569138011704126 55.27970236389956 0 55.27970236389956 100.07882643280027 0 0 0 0 -5.1924639234262031 127.49030868937189 0 127.49030868937189 240.07429007446626 0 0 0 0 -2.5693423266902684 38.286447367867538 0 38.286447367867538 8.0878566286098987 0 0 0 0 18.649968172039735 53.203906431765063 0 53.203906431765063 90.917632082782802 0 0 0 0 8.4565285246098938 48.099260368762771 0 48.099260368762771 98.168553233961575 0 0 0 0 -13.632247271504562 35.339846157466113 0 35.339846157466113 94.974799581154798 0 0 0 0 -50.216948264653183 12.243218054296449 0 12.243218054296449 19.45008580503054 0 0 0 0 -25.635069266587745 21.147700101102487 0 21.147700101102487 102.96406073195101 0 0 0 0 -32.878223995725421 -26.578416121774353 0 -26.578416121774353 -22.070927977605606 0 0 0 0 -13.84345418699221 -10.598631656337318 0 -10.598631656337318 9.9903766115482426 0 0 0 0 -15.997001269486308 44.220136912240292 0 44.220136912240292 162.6428705582349 0 0 0 0 20.630027451940805 63.065485221472045 0 63.065485221472045 99.218306940572802 0 0 0 0 138.81294336797146 129.79213773546508 0 129.79213773546508 0.48356235389655922 0 0 0 0 19.848473189075776 55.976631682657171 0 55.976631682657171 94.160643340743263 0 0 0 0 184.24364489256914 58.330058942985488 0 58.330058942985488 112.89134013077273 0 0 0 0 112.22055220579205 103.01103303370473 0 103.01103303370473 94.75591201831412 0 0 0 0 -24.278541191166852 -0.27611064151739129 0 -0.27611064151739129 31.273831264436637 0 0 0 0 145.4247792873357 29.206195307153394 0 29.206195307153394 54.312633257512061 0 0 0 0 301.33691584664007 67.459114437085418 0 67.459114437085418 52.10122026866884 0 0 0 0 19.959932272694047 26.769254897253234 0 26.769254897253234 -20.260854994188804 0 0 0 0 266.42728174718832 248.75721279519712 0 248.75721279519712 96.344302070967387 0 0 0 0 305.37815609533209 152.66623506780888 0 152.66623506780888 -126.85502551631362 0 0 0 0 299.81825263826613 252.31303064292297 0 252.31303064292297 93.765279209648725 0 0 0 0 -113.4878816458513 281.44886810932076 0 281.44886810932076 135.60138415782421 0 0 0 0 40.572082839595168 83.844917084781628 0 83.844917084781628 328.6266221183032 0 0 0 0 -161.32580149534942 -99.109622458388912 0 -99.109622458388912 456.48560394759988 0 0 0 0 -4.022162822982466 3.4252796648235915 0 3.4252796648235915 1.6582526243573739 0 0 0 0 66.597361558571038 433.1221770900047 0 433.1221770900047 -497.34112103938241 0 0 0 0 229.40938336923136 -81.754329172064899 0 -81.754329172064899 -173.79679265600862 0 0 0 0 -167.7123039468388 50.729409844843758 0 50.729409844843758 349.5985615295649 0 0 0 0 240.12244091686443 371.58735825543408 0 371.58735825543408 504.97399029869848 0 0 0 0 105.0566022982166 143.8869724914839 0 143.8869724914839 1022.8175996818172 0 0 0 0 -217.01433216605164 446.12734937437563 0 446.12734937437563 2685.8643637811474 0 0 0 0 652.83983924960921 579.68088072778482 0 579.68088072778482 1183.0632339238582 0 0 0 0 -264.40722524737942 308.32526425773358 0 308.32526425773358 1077.1258556786634 0 0 0 0 -296.53873396818381 80.395262833175366 0 80.395262833175366 1430.2525638612278 0 0 0 0 -449.9773896884908 66.480423900655296 0 66.480423900655296 2286.634198482614 0 0 0 0 -248.90209925400632 148.4219696787186 0 148.4219696787186 1457.9910125000097 0 0 0 0 -338.20057103614272 -142.40868059449713 0 -142.40868059449713 1438.0967589913271 0 0 0 0 -385.95595129529102 -83.951603083318332 0 -83.951603083318332 1796.7109178059327 0 0 0 0 -78.154251167876282 -315.02844308469503 0 -315.02844308469503 955.51055533465842 0 0 0 0 -119.40654904513627 -48.185643481334409 0 -48.185643481334409 882.60256893999758 0 0 0 0 9.0010205788125361 39.418419148534632 0 39.418419148534632 122.15229161536354 0 0 0 0 2.0270417256215296 177.90251160969638 0 177.90251160969638 738.63907429274695 0 0 0 0 393.87065914744107 -779.5112569542398 0 -779.5112569542398 1500.4932199765244 0 0 0 0 -762.83040040433389 -317.062230752912 0 -317.062230752912 36.395286627623136 0 0 0 0 470.76795587666902 -422.88412031934422 0 -422.88412031934422 209.91026222474466 0 0 0 0 -34.660835782356571 -139.07722464473773 0 -139.07722464473773 643.24682396452408 0 0 0 0 -1.3109954564092465 2.9556033673741382 0 2.9556033673741382 0.46040377462588822 0 0 0 0 91.272349461266685 15.417217375241307 0 15.417217375241307 -51.999532114423346 0 0 0 0 -9.2917370481806909 45.220597068041059 0 45.220597068041059 148.51457012515095 0 0 0 0 -13.272483831704733 6.6223543963014322 0 6.6223543963014322 18.480427089945834 0 0 0 0 51.800673784330684 75.661854385456536 0 75.661854385456536 -270.30865518895735 0 0 0 0 -6.2945910789640038 48.704737925290829 0 48.704737925290829 141.31519510538783 0 0 0 0 -214.14700986927983 156.76619184060837 0 156.76619184060837 655.39059819887916 0 0 0 0 -458.74529677968735 188.02533684510854 0 188.02533684510854 2070.5839156912989 0 0 0 0 409.73822059250324 2.5624131408621906 0 2.5624131408621906 363.07899676960369 0 0 0 0 -714.13337470351325 -1148.9432542270297 0 -1148.9432542270297 5582.7111237817135 0 0 0 0 -684.43777232154343 643.61144941974635 0 643.61144941974635 4186.2400446666143 0 0 0 0 -285.89843502680691 -906.89470534927386 0 -906.89470534927386 2936.6483268207812 0 0 0 0 1800.4769428155803 -2410.5596735823856 0 -2410.5596735823856 2752.066738063324 0 0 0 0 -428.05389568095279 -444.14498332122548 0 -444.14498332122548 2022.0267805401236 0 0 0 0 -420.69801424355273 -510.31901587865286 0 -510.31901587865286 2502.1707134140597 0 0 0 0 -599.12007099735001 -284.88299768586876 0 -284.88299768586876 2632.1931418413296 0 0 0 0 -504.62758188403495 -279.8140114381531 0 -279.8140114381531 2279.329149005579 0 0 0 0 -379.16351134752767 -183.14496053059702 0 -183.14496053059702 2619.2980325581184 0 0 0 0 -516.80792214487792 -177.33852469495469 0 -177.33852469495469 2988.4836163168366 0 0 0 0 -159.07574930171359 367.91094223747496 0 367.91094223747496 3966.0245982516499 0 0 0 0 10.988348370752647 -319.96348167906399 0 -319.96348167906399 1336.7287502180989 0 0 0 0 184.34226734154936 -608.95335987789258 0 -608.95335987789258 1285.6280434742366 0 0 0 0 0.61777609620367002 -926.59503148900149 0 -926.59503148900149 2874.8518773441028 0 0 0 0 -273.03022175086744 -174.06526334733644 0 -174.06526334733644 1670.0296726108063 0 0 0 0 -302.64565978030896 -102.96665564578871 0 -102.96665564578871 2607.4464981744204 0 0 0 0 -27.759147755746291 3.5715367413817489 0 3.5715367413817489 19.221710562876545 0 0 0 0 241.29783813036192 -421.82580538629554 0 -421.82580538629554 1144.9245708355738 0 0 0 0 -51.319824215421249 30.463654722640058 0 30.463654722640058 139.53250389304048 0 0 0 0 -71.157915406973189 32.607262432033167 0 32.607262432033167 83.82631553839019 0 0 0 0 -16.364371634401639 12.514151225847385 0 12.514151225847385 65.635217132323419 0 0 0 0 -9.4975113249302012 47.384122029885475 0 47.384122029885475 35.125415586735471 0 0 0 0 -135.50694992271201 99.496925690291391 0 99.496925690291391 -1.3053773959545651 0 0 0 0 -8.8808731480153487 2.2450520205776456 0 2.2450520205776456 -0.9199458629537105 0 0 0 0 -59.686721586582507 -12.807943905821958 0 -12.807943905821958 160.22010450369271 0 0 0 0 -75.035317976192346 395.02477465025004 0 395.02477465025004 477.85389133295575 0 0 0 0 -42.068453567699635 -197.56110257477849 0 -197.56110257477849 -346.27507776724224 0 0 0 0 2.3995173946987052 -63.097100583465362 0 -63.097100583465362 2.9096626015380025 0 0 0 0 -26.646007026766029 -39.91581802177825 0 -39.91581802177825 -5.6801214892670941 0 0 0 0 100.53566477057029 -130.65411902924825 0 -130.65411902924825 100.26127979125886 0 0 0 0 -489.54334482572085 -250.72242615056166 0 -250.72242615056166 98.45087428761326 0 0 0 0 -346.86159028499878 243.58248102620928 0 243.58248102620928 -5.3780896207026672 0 0 0 0 559.16072932125826 -1.2677823611884378 0 -1.2677823611884378 -97.314014781950391 0 0 0 0 498.56335809618122 581.45194559996889 0 581.45194559996889 1002.4247027742822 0 0 0 0 -33.077582847763424 -43.195170904281369 0 -43.195170904281369 5.621579466542606 0 0 0 0 43.150602100148717 -145.20514585659112 0 -145.20514585659112 236.75110205468081 0 0 0 0 -5.1004865798009078 -9.4771266005256081 0 -9.4771266005256081 17.496499400634576 0 0 0 0 448.93511790985076 818.17519505382552 0 818.17519505382552 901.00196073883853 0 0 0 0 386.21219353739252 871.61474590821308 0 871.61474590821308 923.24466499313712 0 0 0 0 -50.143917758920566 1018.3049967808174 0 1018.3049967808174 947.51368876890047 0 0 0 0 401.66612884325878 814.88965692535567 0 814.88965692535567 931.00119642079517 0 0 0 0 -1205.8799387709551 210.96026119929593 0 210.96026119929593 81.978776832984295 0 0 0 0 9.8977203572476959 24.89467574155735 0 24.89467574155735 59.028895913024456 0 0 0 0 -140.1954516285241 -39.87823029228457 0 -39.87823029228457 -74.586496006319067 0 0 0 0 553.16446557912604 -644.90486710914411 0 -644.90486710914411 -320.05227334695519 0 0 0 0 -1373.5009933049478 -407.99380430077872 0 -407.99380430077872 456.60759252615389 0 0 0 0 -538.87143012945853 -1221.2323983067108 0 -1221.2323983067108 341.75049003580352 0 0 0 0 5.913495541435303 10.54786201328703 0 10.54786201328703 23.831906011914299 0 0 0 0 2358.9678639970953 1258.1604198636778 0 1258.1604198636778 -123.56788486171354 0 0 0 0 1426.2795278547892 1446.3552803653947 0 1446.3552803653947 291.78332567125472 0 0 0 0 212.78836124242775 -679.90038908889528 0 -679.90038908889528 2003.6063149481051 0 0 0 0 1092.6229211171303 -1049.315654408485 0 -1049.315654408485 958.21061712001756 0 0 0 0 1484.33850117972 1262.4152855167195 0 1262.4152855167195 758.17859659910027 0 0 0 0 336.57877769318839 1415.9056560971367 0 1415.9056560971367 1536.0413757199422 0 0 0 0 405.05759952576818 1038.4486076491648 0 1038.4486076491648 721.68414008323452 0 0 0 0 332.4225690872845 820.56851238565287 0 820.56851238565287 822.79020081573981 0 0 0 0 1406.9969467263145 546.86970057514554 0 546.86970057514554 836.75335592310876 0 0 0 0 -13.569865604134066 -221.08379554646672 0 -221.08379554646672 734.62585941088037 0 0 0 0 -10.767446434667022 -220.11396569841418 0 -220.11396569841418 634.47763868197217 0 0 0 0 -69.123501657243651 -171.69066929798282 0 -171.69066929798282 595.99139777739038 0 0 0 0 -141.44189123909109 -8.9018288845836651 0 -8.9018288845836651 830.94263749817037 0 0 0 0 53.605142756836358 -355.2777618937107 0 -355.2777618937107 985.57497669293662 0 0 0 0 150.35176852435143 -344.47966058925522 0 -344.47966058925522 724.05111945115482 0 0 0 0 233.52953105960296 -389.94761589512927 0 -389.94761589512927 725.01868958938735 0 0 0 0 274.33652138135403 -208.17175543843041 0 -208.17175543843041 377.65454818324361 0 0 0 0 176.34826718439945 -266.74100777968852 0 -266.74100777968852 478.11251667217584 0 0 0 0 390.8514676917348 -299.80800385864859 0 -299.80800385864859 381.42902735096868 0 0 0 0 371.52111827855333 -221.3891841868317 0 -221.3891841868317 329.16812638450938 0 0 0 0 264.40638524642418 -255.692205110543 0 -255.692205110543 382.98438322558786 0 0 0 0 260.62439690656174 -237.50321739973151 0 -237.50321739973151 303.12589248082077 0 0 0 0 139.88323649661288 -286.60501169846975 0 -286.60501169846975 472.58015836949926 0 0 0 0 138.72736147899695 -276.1792304435312 0 -276.1792304435312 393.39878228877205 0 0 0 0 61.309206708585862 -228.8873459934839 0 -228.8873459934839 459.25634929863736 0 0 0 0 130.78184693154617 -325.17364297776658 0 -325.17364297776658 588.97083638243203 0 0 0 0 -17.177580932309638 -212.01323468771443 0 -212.01323468771443 468.96708041263628 0 0 0 0 2.9225219975960499 -262.58579419537273 0 -262.58579419537273 573.3361096600529 0 0 0 0 -0.19058135732166193 -146.64949887444527 0 -146.64949887444527 296.0751188159411 0 0 0 0 59.863921377843326 -201.28203348081661 0 -201.28203348081661 326.01838126234361 0 0 0 0 63.895983084478758 -214.2891093686485 0 -214.2891093686485 366.73857576109731 0 0 0 0 -300.35801503582661 -12.659820185897843 0 -12.659820185897843 339.27261725283461 0 0 0 0 -8.1002468240157697 -0.86105543526245754 0 -0.86105543526245754 22.143738952044401 0 0 0 0 147.46262877052504 -123.07582650191034 0 -123.07582650191034 211.61920134961838 0 0 0 0 -9.2179467848571015 15.004746872615513 0 15.004746872615513 74.195491811580496 0 0 0 0 -0.76387023592906189 -23.412541785903159 0 -23.412541785903159 88.126940426111105 0 0 0 0 -2.5340956684667546 8.6320510922365088 0 8.6320510922365088 31.18273416753641 0 0 0 0 -63.828401242637483 -24.053239671135088 0 -24.053239671135088 193.66162581487879 0 0 0 0 -49.938530597839282 -39.897730225988184 0 -39.897730225988184 2.8073386235190156 0 0 0 0 -44.362317463415593 -11.186420495469065 0 -11.186420495469065 31.259411479798018 0 0 0 0 -16.841536588740325 -21.487574866165232 0 -21.487574866165232 15.302000828552991 0 0 0 0 3.0893962784202813 -41.019178354050382 0 -41.019178354050382 108.93785482532257 0 0 0 0 -16.319557820478696 -1.0073340427525324 0 -1.0073340427525324 54.925839059856457 0 0 0 0 -10.400881046305045 -7.0181085780452577 0 -7.0181085780452577 23.498674730566293 0 0 0 0 -52.856252073738688 -9.6833501653090934 0 -9.6833501653090934 136.78480993965059 0 0 0 0 -29.542180236957407 -5.9807041773708249 0 -5.9807041773708249 26.343408089731753 0 0 0 0 -6.4194147767821903 36.020705275829897 0 36.020705275829897 58.23391086088381 0 0 0 0 5.7403516037752524 -176.46384858556848 0 -176.46384858556848 329.87252261268441 0 0 0 0 -14.758903740010282 -155.32899457565509 0 -155.32899457565509 316.20751228419249 0 0 0 0 -298.89677257170479 69.604453683656175 0 69.604453683656175 585.67238441804511 0 0 0 0 -43.099830293069367 -60.261727003811529 0 -60.261727003811529 -13.166717649941077 0 0 0 0 -21.667544514399651 -147.22979396626761 0 -147.22979396626761 337.36752383444582 0 0 0 0 -37.857445981821286 -155.47771261451089 0 -155.47771261451089 354.55328561289934 0 0 0 0 -35.519798667520718 -134.86027113001182 0 -134.86027113001182 341.33916336510447 0 0 0 0 -43.30573582187867 -145.74261721388029 0 -145.74261721388029 337.26829528030612 0 0 0 0 -72.431943489255445 -118.83405678168492 0 -118.83405678168492 359.63431375790969 0 0 0 0 -39.990634313650162 -166.57904216363477 0 -166.57904216363477 360.27900396328187 0 0 0 0 -23.568805720057753 -196.21782980897115 0 -196.21782980897115 391.12544620622066 0 0 0 0 -18.163032042493342 -209.61197542799346 0 -209.61197542799346 418.74063423284679 0 0 0 0 -45.586540943596901 -175.48968078719918 0 -175.48968078719918 432.5919102660846 0 0 0 0 -79.295632422477865 -171.04592843672435 0 -171.04592843672435 559.87175081427267 0 0 0 0 -57.993649144662641 -185.54268131801655 0 -185.54268131801655 474.52086832292844 0 0 0 0 -92.865988848930101 -131.95655635022558 0 -131.95655635022558 447.29461891903338 0 0 0 0 -88.952056358512323 -142.69355066108255 0 -142.69355066108255 415.49331095203524 0 0 0 0 -78.070710366480625 -132.51327153759485 0 -132.51327153759485 393.53061169551802 0 0 0 0 -85.790121864070329 -126.98697855152568 0 -126.98697855152568 392.244838148501 0 0 0 0 -70.99327468804438 -118.77087836735154 0 -118.77087836735154 355.63848273264011 0 0 0 0 -122.42465237147917 -90.774513715325156 0 -90.774513715325156 403.08026315775351 0 0 0 0 -109.70255135521916 -111.53928131798602 0 -111.53928131798602 435.55728731892304 0 0 0 0 -158.77733576818241 -41.590760560968192 0 -41.590760560968192 415.65975564657856 0 0 0 0 -139.41571288710747 -65.315973825534456 0 -65.315973825534456 442.87029036553577 0 0 0 0 -154.07730077058471 -33.800199332414195 0 -33.800199332414195 427.34967689201585 0 0 0 0 -183.27164597304701 16.215182251718943 0 16.215182251718943 385.47314461089263 0 0 0 0 -186.81426970766975 -12.208189116121503 0 -12.208189116121503 474.33197784896765 0 0 0 0 -155.10232605949204 -6.4456518060324015 0 -6.4456518060324015 534.65341107114727 0 0 0 0 -77.935194116859975 -146.76341657922967 0 -146.76341657922967 537.82476629180019 0 0 0 0 -136.34524053274345 -119.90795066673309 0 -119.90795066673309 582.69044161209604 0 0 0 0 -155.79834122080683 -90.459632511669042 0 -90.459632511669042 539.1163014221529 0 0 0 0 -127.65858719105154 38.594174632831709 0 38.594174632831709 287.53992124192882 0 0 0 0 -128.61418577302902 42.741434733892675 0 42.741434733892675 272.92814865600894 0 0 0 0 -117.62806624779302 47.969559563340596 0 47.969559563340596 222.46414934619679 0 0 0 0 -117.63278970123338 46.993599470423987 0 46.993599470423987 269.43047502698028 0 0 0 0 -116.61962561891596 91.264541768425261 0 91.264541768425261 260.5912164352776 0 0 0 0 -113.65735518334441 84.786253097263398 0 84.786253097263398 234.26739834490218 0 0 0 0 -135.1811561989075 62.1563530048752 0 62.1563530048752 297.58896558097331 0 0 0 0 -157.87944114440506 79.234541854544659 0 79.234541854544659 284.98472035711166 0 0 0 0 -137.55195664618623 76.207597135828109 0 76.207597135828109 250.06233248556964 0 0 0 0 -175.64024915747177 54.867149154815706 0 54.867149154815706 318.43954998360277 0 0 0 0 -154.46371255298709 67.284290577765205 0 67.284290577765205 308.43469950163853 0 0 0 0 -168.25362521886018 23.816734422616719 0 23.816734422616719 377.95831081048527 0 0 0 0 -152.51520032625376 -4.8009637947543524 0 -4.8009637947543524 368.13550104215392 0 0 0 0 -160.85623989143892 8.5504184144738247 0 8.5504184144738247 349.75022921970231 0 0 0 0 -137.64755604157563 12.496207278265501 0 12.496207278265501 343.86581436361303 0 0 0 0 -144.34557522772911 25.912578702387691 0 25.912578702387691 316.99759692171938 0 0 0 0 -110.49327665996861 -19.216661576225306 0 -19.216661576225306 320.16486558451925 0 0 0 0 -126.77921512401235 -32.40212238082313 0 -32.40212238082313 336.63503941299859 0 0 0 0 -118.08503119068428 -50.033415425205021 0 -50.033415425205021 370.21851372337278 0 0 0 0 -115.08584830380732 -59.727790623495821 0 -59.727790623495821 346.66810966501362 0 0 0 0 -102.0494365330951 -74.989188376144739 0 -74.989188376144739 364.20285478947335 0 0 0 0 -92.396082459087211 -61.643327411497012 0 -61.643327411497012 327.11008973958087 0 0 0 0 -92.902780920022451 -60.365297763768467 0 -60.365297763768467 324.3530576976118 0 0 0 0 -79.090856853585137 -44.157547873153817 0 -44.157547873153817 303.37869788149692 0 0 0 0 -93.524717543504266 -16.124872147011047 0 -16.124872147011047 251.13170613332477 0 0 0 0 -109.62845035270766 3.8197739331517369 0 3.8197739331517369 273.64470083014612 0 0 0 0 -120.62861046408489 -2.3224062168301316 0 -2.3224062168301316 292.78242276757373 0 0 0 0 -104.65568499261099 -5.2950265086838044 0 -5.2950265086838044 288.59646635712124 0 0 0 0 -61.509493003669377 -76.701959555510257 0 -76.701959555510257 293.21819485970627 0 0 0 0 -66.448385382344327 -22.785697770646948 0 -22.785697770646948 212.31317152024712 0 0 0 0 -61.5970791224604 -76.078643858214491 0 -76.078643858214491 294.55529146072513 0 0 0 0 -58.926801834822072 -101.32938937407744 0 -101.32938937407744 330.04140564134286 0 0 0 0 -71.245846044452264 -82.993831843821681 0 -82.993831843821681 307.36477702054253 0 0 0 0 -41.863393294573143 -114.82024673552951 0 -114.82024673552951 328.62954728115437 0 0 0 0 -53.580081361708835 -118.54164585709805 0 -118.54164585709805 336.18612473923713 0 0 0 0 -51.502699434164242 -132.91776154200488 0 -132.91776154200488 383.56121939387958 0 0 0 0 -30.855195201018191 -58.115112886106402 0 -58.115112886106402 -22.654940472235296 0 0 0 0 -17.475669989923517 -118.99531266208214 0 -118.99531266208214 335.13425970188473 0 0 0 0 -13.589829893878232 -146.55276150460122 0 -146.55276150460122 322.8967273747985 0 0 0 0 -177.48111873688686 81.85546210152097 0 81.85546210152097 669.52879973355448 0 0 0 0 -926.36060276282296 34.468958715500776 0 34.468958715500776 724.13585391576635 0 0 0 0 -314.01006586107906 434.89795624230464 0 434.89795624230464 1511.7755980923539 0 0 0 0 -643.159976339477 1268.5525328447402 0 1268.5525328447402 -596.09057205179124 0 0 0 0 -1.2989344471729751 -4.5010996238269456 0 -4.5010996238269456 5.2976519593818736 0 0 0 0 2.4478303079843187 -5.451299286063545 0 -5.451299286063545 11.640725436191246 0 0 0 0 -832.06430392796756 936.12541731225792 0 936.12541731225792 -1029.8905099392869 0 0 0 0 -505.45315522591045 750.93998981620825 0 750.93998981620825 1986.509180227702 0 0 0 0 -43.129445080423466 283.10182260433794 0 283.10182260433794 2431.1443701625394 0 0 0 0 -261.88953764588769 791.21933343001001 0 791.21933343001001 1366.9708511067729 0 0 0 0 14.500687012335675 262.26882815284625 0 262.26882815284625 891.79674424426048 0 0 0 0 249.36963225519503 838.27135471018846 0 838.27135471018846 1336.9627880898042 0 0 0 0 10.193461437368072 -22.770674397070565 0 -22.770674397070565 4.9068111572244746 0 0 0 0 -288.40823043674027 411.38427187948218 0 411.38427187948218 153.57398995039694 0 0 0 0 26.079008372536919 -66.397673298037262 0 -66.397673298037262 93.309467871396919 0 0 0 0 557.67488457119907 -219.00062006193912 0 -219.00062006193912 -135.4386768375698 0 0 0 0 -563.59967422584305 -109.76429739431478 0 -109.76429739431478 942.20091535186657 0 0 0 0 -21.655305063814531 21.256689993722205 0 21.256689993722205 35.746233223696464 0 0 0 0 -194.81234739240608 498.06599080233718 0 498.06599080233718 -1078.8882182931811 0 0 0 0 -7.2291321124685055 36.712240826804191 0 36.712240826804191 110.00090292411187 0 0 0 0 -14.669627660219703 -52.31754241528688 0 -52.31754241528688 151.99434525363904 0 0 0 0 15.349175493824987 -4.0071386456984328 0 -4.0071386456984328 64.290756594651612 0 0 0 0 -3.8204161707408275 -3.9397982856389717 0 -3.9397982856389717 44.913776179411798 0 0 0 0 -41.656903212410903 -10.711938999448279 0 -10.711938999448279 24.26212646769973 0 0 0 0 -100.13126891837965 40.7387946464587 0 40.7387946464587 208.27324678340847 0 0 0 0 -6.2295737545607182 28.540534202997819 0 28.540534202997819 78.093430463232949 0 0 0 0 381.96329343462503 -237.10203729831301 0 -237.10203729831301 283.96757478354266 0 0 0 0 181.88376551742454 930.51306364811717 0 930.51306364811717 1743.9769932912895 0 0 0 0 244.46762559461513 1145.8375813987732 0 1145.8375813987732 1731.8263707181904 0 0 0 0 1750.8099427913075 1768.8865919342497 0 1768.8865919342497 776.10752608526673 0 0 0 0 5.8241240566676709 10.743370127510616 0 10.743370127510616 27.584722729824591 0 0 0 0 1024.8858605277255 -2517.6605757866273 0 -2517.6605757866273 5087.3053698045842 0 0 0 0 918.37533041460119 -2027.7083723302494 0 -2027.7083723302494 2951.8489939912688 0 0 0 0 -48.36316147258367 -129.50603232727372 0 -129.50603232727372 6043.9438210544758 0 0 0 0 2520.5347966136287 1367.6665811255953 0 1367.6665811255953 2669.1080931706711 0 0 0 0 267.84972647796531 1661.8381109517504 0 1661.8381109517504 4849.9057504143857 0 0 0 0 2208.7250086783006 -1847.8544412328756 0 -1847.8544412328756 4556.7141146850481 0 0 0 0 603.30952322336088 43.743144216481596 0 43.743144216481596 2342.94682058547 0 0 0 0 335.74849034872841 -499.71434399424106 0 -499.71434399424106 2978.9472005483985 0 0 0 0 -7.0334719347874852 19.674047281714593 0 19.674047281714593 1839.7670855553006 0 0 0 0 -229.8583040939593 890.71725287871959 0 890.71725287871959 3211.1165473763867 0 0 0 0 -337.94998330766612 521.63493669123272 0 521.63493669123272 2457.7797573896605 0 0 0 0 -321.6208145245073 626.08524391469473 0 626.08524391469473 1664.5710521361325 0 0 0 0 -382.56375612808415 853.99241561340023 0 853.99241561340023 1988.2230192058778 0 0 0 0 -348.42625753859465 717.28915459525888 0 717.28915459525888 1986.0247289987799 0 0 0 0 -214.57540760381016 774.37531622925599 0 774.37531622925599 2048.498657398537 0 0 0 0 -353.94952853868563 747.25328846582852 0 747.25328846582852 2044.606319516417 0 0 0 0 79.459636261236597 500.31960524283386 0 500.31960524283386 1584.292003231385 0 0 0 0 11.439804379873749 860.06721168867807 0 860.06721168867807 1856.6503731634584 0 0 0 0 -269.3960893086205 723.9057932230935 0 723.9057932230935 2322.829852290437 0 0 0 0 -167.03373199177804 760.02359241817612 0 760.02359241817612 1965.7690429705217 0 0 0 0 -327.08136189480865 712.29678763971606 0 712.29678763971606 1954.0046389120835 0 0 0 0 -249.97544201448818 425.04584525912651 0 425.04584525912651 1400.911583765308 0 0 0 0 -48.121893217955403 609.20609444185538 0 609.20609444185538 1368.7875942736864 0 0 0 0 159.14243632049963 28.894273914293194 0 28.894273914293194 1081.2154433466349 0 0 0 0 155.77671924948936 803.1513307674395 0 803.1513307674395 1154.5248600135383 0 0 0 0 6.6828317068442775 -33.694977524723896 0 -33.694977524723896 68.850759576080975 0 0 0 0 -1090.3269564815323 -704.90013425036159 0 -704.90013425036159 -124.54548412075383 0 0 0 0 580.55447402098116 1552.1812240123309 0 1552.1812240123309 4828.1368703117769 0 0 0 0 423.2519167188002 1304.8460232035577 0 1304.8460232035577 3095.5664455515362 0 0 0 0 1031.2506342531788 594.8261750133679 0 594.8261750133679 1118.7536144381493 0 0 0 0 391.93087306205416 -458.10396643282002 0 -458.10396643282002 2195.0786695078714 0 0 0 0 -274.71174916084419 21.063074915990001 0 21.063074915990001 3693.2308224406224 0 0 0 0 41.78799600964885 -457.69013956282288 0 -457.69013956282288 3171.3471098349546 0 0 0 0 93.370547290113336 -14.701799863394626 0 -14.701799863394626 2949.0835388629348 0 0 0 0 182.88685840140801 900.93064595610485 0 900.93064595610485 4610.732412658439 0 0 0 0 9.1454651702880287 -8.6255993610649284 0 -8.6255993610649284 11.9861766326934 0 0 0 0 10.235302634527578 2.1337210761209633 0 2.1337210761209633 1.1904243017409044 0 0 0 0 291.08828639746935 2060.6986710987985 0 2060.6986710987985 4049.1435714723775 0 0 0 0 -110.80598149707293 64.585777971456992 0 64.585777971456992 -16.655813977689832 0 0 0 0 99.418173637721338 461.51396883386769 0 461.51396883386769 -436.55914850017871 0 0 0 0 23.751462016003401 12.828671086550912 0 12.828671086550912 19.915520013727004 0 0 0 0 -45.394290482744196 18.34635793218888 0 18.34635793218888 16.426158111895461 0 0 0 0 -126.60774843135914 88.500976899755187 0 88.500976899755187 112.31795462482842 0 0 0 0 -126.60774843137187 88.50097689969698 0 88.50097689969698 112.31795462477749 0 0 0 0 323.11069542343284 168.40386562190542 0 168.40386562190542 1701.9741344011563 0 0 0 0 -126.60774843134277 88.500976899726084 0 88.500976899726084 112.31795462479931 0 0 0 0 -23.211875018219871 -79.245452620642027 0 -79.245452620642027 2733.8745562523545 0 0 0 0 1.4616695991116515 -51.240396293286437 0 -51.240396293286437 106.70245173430609 0 0 0 0 70.555647698962275 -51.531032439204864 0 -51.531032439204864 143.29459290251543 0 0 0 0 3.2332487176299196 -4.1459561346359521 0 -4.1459561346359521 -5.262145813744695 0 0 0 0 327.18037305156031 -126.45478777238168 0 -126.45478777238168 22.385284852498444 0 0 0 0 -362.78384029291919 199.86915620061336 0 199.86915620061336 2470.4578613310005 0 0 0 0 1.3808729311033527 -6.448684330233668 0 -6.448684330233668 2.824328471430988 0 0 0 0 -49.123481284626905 -78.167004905029899 0 -78.167004905029899 2733.9366746885644 0 0 0 0 132.8848210417691 245.4484196821868 0 245.4484196821868 2179.9433007817715 0 0 0 0 -45.1586708649711 -118.85070571931283 0 -118.85070571931283 2807.6775797815935 0 0 0 0 42.180966505915421 -105.30087081645615 0 -105.30087081645615 2328.707003747113 0 0 0 0 -241.25390861349297 209.854201691247 0 209.854201691247 2799.2776356557151 0 0 0 0 -160.62984217290796 509.21145443446585 0 509.21145443446585 2021.6029619223336 0 0 0 0 341.77649202346947 -29.490157904932857 0 -29.490157904932857 2412.1224053774204 0 0 0 0 65.841894936093013 567.99014039806207 0 567.99014039806207 1460.0166176174243 0 0 0 0 -54.166049226931136 589.04097178869415 0 589.04097178869415 1488.9443325109314 0 0 0 0 483.71226722193387 -589.70515514661383 0 -589.70515514661383 600.06047718218178 0 0 0 0 -84.76912406145675 -72.122966113893199 0 -72.122966113893199 310.86142502033545 0 0 0 0 -87.971425324601796 -390.97823275490009 0 -390.97823275490009 1377.4177473888267 0 0 0 0 -9.8464324971303228 -58.06690717905235 0 -58.06690717905235 -1.4048746372489092 0 0 0 0 -88.538128737125589 -69.179613380671071 0 -69.179613380671071 289.01074394780153 0 0 0 0 -9.5410892106922915 -58.169583737468201 0 -58.169583737468201 273.4463881473639 0 0 0 0 -135.10081716516976 73.173565626122581 0 73.173565626122581 231.34947866859147 0 0 0 0 -90.508296416050143 -61.575065662909765 0 -61.575065662909765 282.25883038276515 0 0 0 0 -11.600110987993709 -9.2418862374651098 0 -9.2418862374651098 184.98976055089406 0 0 0 0 -108.73529211478763 32.113147775911784 0 32.113147775911784 115.11260896050953 0 0 0 0 -126.86707966544418 47.752926610948634 0 47.752926610948634 192.85092084827556 0 0 0 0 -66.47242368359548 -55.16441664694139 0 -55.16441664694139 172.63852822103945 0 0 0 0 -123.82727782445545 -15.755245670989098 0 -15.755245670989098 265.76931155835337 0 0 0 0 -203.02648610190863 27.116943710301712 0 27.116943710301712 252.46946775336983 0 0 0 0 -103.76718983991481 14.709897478376888 0 14.709897478376888 215.59136105663492 0 0 0 0 -131.57506576320156 87.711497527023312 0 87.711497527023312 163.96395386260701 0 0 0 0 -5.0787808266554038 -2.3575524044251068 0 -2.3575524044251068 206.65474325562167 0 0 0 0 -269.13244910187751 49.856390806642594 0 49.856390806642594 255.65461798629258 0 0 0 0 -30.829327312694659 -172.52654393369448 0 -172.52654393369448 246.37909751362167 0 0 0 0 3.6347971715917993 -14.157567324815318 0 -14.157567324815318 108.78556508447218 0 0 0 0 -127.42129473474051 8.5153614457885851 0 8.5153614457885851 163.27613623744401 0 0 0 0 -123.03685247558133 33.566540133084345 0 33.566540133084345 259.03464001337125 0 0 0 0 -108.97016321873161 75.242761104731471 0 75.242761104731471 220.99244893531431 0 0 0 0 -93.428471949296579 -59.537995917460648 0 -59.537995917460648 344.36161256495689 0 0 0 0 -41.692908954359837 -74.53683143107628 0 -74.53683143107628 335.99639030852268 0 0 0 0 -57.737367624623403 -107.54052977642277 0 -107.54052977642277 316.57959349034354 0 0 0 0 -59.855388831778782 -42.793352115266316 0 -42.793352115266316 197.53757376028807 0 0 0 0 -35.490290408242117 -12.187658106304298 0 -12.187658106304298 235.46149858801073 0 0 0 0 -35.105775920107689 -20.007500059662561 0 -20.007500059662561 368.26990127615863 0 0 0 0 -10.100582485888367 107.84818879575323 0 107.84818879575323 356.99784049004666 0 0 0 0 -105.18086031605094 67.175071175362973 0 67.175071175362973 259.00339839086519 0 0 0 0 -116.93812317942889 59.24294205053593 0 59.24294205053593 208.15655946554034 0 0 0 0 -24.443739913916261 35.838164384738775 0 35.838164384738775 194.9400511617132 0 0 0 0 -170.53522836543289 115.73973433894571 0 115.73973433894571 202.85716083055013 0 0 0 0 13.28515996866372 -261.39156150235794 0 -261.39156150235794 37.81891421569162 0 0 0 0 -24.039493814614271 5.1386150644222539 0 5.1386150644222539 -1.8814099686397299 0 0 0 0 -452.50699914430862 -22.99777283590447 0 -22.99777283590447 1192.2861468727206 0 0 0 0 602.09698274643597 423.58007340235054 0 423.58007340235054 529.9197363288913 0 0 0 0 -35.048744707926289 178.57779634827239 0 178.57779634827239 660.02724450058304 0 0 0 0 -7.5124341987054413 0.34983649365798897 0 0.34983649365798897 2.0260384712035773 0 0 0 0 -212.25416044482415 -792.86336609641148 0 -792.86336609641148 17.837168492071214 0 0 0 0 -6.0921803959502085 17.780576424069295 0 17.780576424069295 284.91036130872089 0 0 0 0 38.977109608687385 114.789525288601 0 114.789525288601 465.4580593832361 0 0 0 0 -68.952657895606308 26.322263962869329 0 26.322263962869329 545.49051233369391 0 0 0 0 -7.7695505482148519 -45.859281236866082 0 -45.859281236866082 335.87577082693315 0 0 0 0 -63.020745265453456 8.2012367275892757 0 8.2012367275892757 292.2803623951695 0 0 0 0 -39.508901434109376 -78.575668235476769 0 -78.575668235476769 326.64727046318876 0 0 0 0 -181.83848958639328 -153.77786640400882 0 -153.77786640400882 302.10457152870367 0 0 0 0 49.664074957957951 461.32946902168624 0 461.32946902168624 525.81093034894729 0 0 0 0 -259.07192556690859 1039.1011193319282 0 1039.1011193319282 2401.6058345250058 0 0 0 0 147.55746580864962 -154.20282907383807 0 -154.20282907383807 1261.5046942489425 0 0 0 0 0.13207447161669361 196.67769381776938 0 196.67769381776938 1473.1067536366172 0 0 0 0 -24.758794999043669 -12.732304395819483 0 -12.732304395819483 1270.5939098811941 0 0 0 0 -277.64111518290935 159.84571566801606 0 159.84571566801606 1363.8977754906955 0 0 0 0 1.9808209567233972 -2.6170703331748086 0 -2.6170703331748086 5.5475218853471802 0 0 0 0 12.189311311201374 -11.04757130067685 0 -11.04757130067685 12.35749765404222 0 0 0 0 139.42950625531921 1385.2935856173572 0 1385.2935856173572 1621.8544219244691 0 0 0 0 -394.48568910772883 385.4293753025122 0 385.4293753025122 2366.2153411916224 0 0 0 0 -165.39750395267765 677.1006332214165 0 677.1006332214165 1627.6577160518646 0 0 0 0 -113.43342920136092 109.99705231480766 0 109.99705231480766 162.33251099660993 0 0 0 0 99.457344175641992 779.95963834295981 0 779.95963834295981 344.60391312521824 0 0 0 0 -979.73661469494755 1178.1070103282836 0 1178.1070103282836 6366.4619921260746 0 0 0 0 1476.4484653423742 627.27640879106184 0 627.27640879106184 1172.458119131712 0 0 0 0 -220.4667910952335 503.4562740960173 0 503.4562740960173 2906.1216242366645 0 0 0 0 -726.57394114916985 -1137.1315377767569 0 -1137.1315377767569 1882.1398467981198 0 0 0 0 51.477551782471473 -152.71088211386086 0 -152.71088211386086 457.5819466063549 0 0 0 0 -776.3261905620675 -1537.1313447507418 0 -1537.1313447507418 -198.71669491892681 0 0 0 0 1.3875566459252535 -12.687131403239107 0 -12.687131403239107 32.046158719648531 0 0 0 0 336.29172783012939 2057.3571425263581 0 2057.3571425263581 5480.1080082215194 0 0 0 0 -298.34264276868635 -395.37114824757009 0 -395.37114824757009 323.90005518618273 0 0 0 0 -357.72147271832631 -123.95956776927051 0 -123.95956776927051 -541.46096501599823 0 0 0 0 96.854496687754988 -234.77636889928544 0 -234.77636889928544 521.1768885690617 0 0 0 0 -0.093805868095904618 -16.725080144515232 0 -16.725080144515232 15.014369421471201 0 0 0 0 -10.16133386279445 32.162272924033459 0 32.162272924033459 79.975322132406291 0 0 0 0 11.414496812586428 74.37922105070902 0 74.37922105070902 145.5142729015497 0 0 0 0 -0.10411340557197839 0.0097469309832831641 0 0.0097469309832831641 0.68347344320312686 0 0 0 0 14.104492941970598 98.163895444173249 0 98.163895444173249 320.39525187047548 0 0 0 0 2.2714495032523381 42.162739054088917 0 42.162739054088917 292.60391529853223 0 0 0 0 -12.308519778937608 -65.634870728928945 0 -65.634870728928945 297.05022659107271 0 0 0 0 -56.537737920154598 32.938966084620915 0 32.938966084620915 245.68390203572926 0 0 0 0 -41.869539566264848 25.039776173274731 0 25.039776173274731 136.42839736314272 0 0 0 0 -50.691344820539825 22.748420944219106 0 22.748420944219106 159.45265519552049 0 0 0 0 -28.801737578003099 32.196308024707832 0 32.196308024707832 119.68651250254698 0 0 0 0 -39.455949911272484 26.580988989706384 0 26.580988989706384 116.75820296467282 0 0 0 0 -35.78137700801831 47.326696542371792 0 47.326696542371792 115.06771293164638 0 0 0 0 -43.25361407295361 62.579590133624151 0 62.579590133624151 150.74164662986368 0 0 0 0 -36.255464407046361 46.86665621548309 0 46.86665621548309 120.27027415351768 0 0 0 0 -79.239949017415768 45.10185212957731 0 45.10185212957731 124.60331358131953 0 0 0 0 -34.805242916416404 9.7392537924461067 0 9.7392537924461067 86.40332389093237 0 0 0 0 -53.797968060955142 0.74331111100036651 0 0.74331111100036651 99.712507122967509 0 0 0 0 -31.414005041528526 60.613924569712253 0 60.613924569712253 116.4198735448299 0 0 0 0 -31.661045723921752 43.942837225809967 0 43.942837225809967 127.91359594860114 0 0 0 0 20.268634407115087 45.362052576536371 0 45.362052576536371 120.69669488162617 0 0 0 0 -96.166311213084072 -175.77042402240113 0 -175.77042402240113 -64.956649212981574 0 0 0 0 -55.084290268548784 62.234737587612472 0 62.234737587612472 171.72901394103246 0 0 0 0 -1.4230762526313439 -0.21162283735748133 0 -0.21162283735748133 0.63887039355157071 0 0 0 0 -0.30815386604142792 -0.12142178814386284 0 -0.12142178814386284 0.50738124470859702 0 0 0 0 -126.41976955495663 20.040572496756795 0 20.040572496756795 146.77369051302958 0 0 0 0 -229.47203642485675 -39.060111897444585 0 -39.060111897444585 -97.827891086926684 0 0 0 0 -205.94825863407047 -116.65560998243745 0 -116.65560998243745 17.934515768021811 0 0 0 0 -24.221492901159827 -9.7864354565608664 0 -9.7864354565608664 118.04643364291405 0 0 0 0 -11.160043344583407 -15.219899567811808 0 -15.219899567811808 -17.822906164627057 0 0 0 0 -42.302076991568413 -2.7470608399307821 0 -2.7470608399307821 72.123732233856572 0 0 0 0 -0.31151051940284447 -0.19809259234264687 0 -0.19809259234264687 1.0103653741575158 0 0 0 0 -54.666055455197878 -10.743042822898133 0 -10.743042822898133 83.706686456280295 0 0 0 0 0.21633342866280819 -61.758858800997899 0 -61.758858800997899 212.85016108695709 0 0 0 0 -9.3401270878197931 -30.568592926212659 0 -30.568592926212659 79.982055224027135 0 0 0 0 -40.966642222537104 -14.815170090820175 0 -14.815170090820175 119.90533499862067 0 0 0 0 -38.423894682093731 -23.099606017467522 0 -23.099606017467522 145.64775740198093 0 0 0 0 -26.550535097047302 -5.4400405744381715 0 -5.4400405744381715 154.81880314074806 0 0 0 0 -72.193731449007998 -56.60840169358562 0 -56.60840169358562 225.53181635946385 0 0 0 0 -53.321815280526636 -24.615915767506522 0 -24.615915767506522 178.19764922346803 0 0 0 0 -35.939523115034739 -38.789679861249169 0 -38.789679861249169 152.73946827411419 0 0 0 0 -108.75710004175653 -5.0383268468867755 0 -5.0383268468867755 157.41382683576376 0 0 0 0 -69.709209685028782 -40.625788207893493 0 -40.625788207893493 137.34090993730933 0 0 0 0 -74.23858975633749 -57.484420424323616 0 -57.484420424323616 99.159128722007154 0 0 0 0 -82.071411773656251 -26.055792657047277 0 -26.055792657047277 151.90295404761855 0 0 0 0 -40.37994339711156 -23.739590819226578 0 -23.739590819226578 55.281686695336248 0 0 0 0 -35.884723088187172 -9.3132249873888213 0 -9.3132249873888213 109.45976851903833 0 0 0 0 -35.452249556145546 -8.0452285382052651 0 -8.0452285382052651 104.95668403897798 0 0 0 0 -9.401464380599009 -6.6104177096713101 0 -6.6104177096713101 102.79942576162284 0 0 0 0 -34.98958670725267 -0.79083858433295973 0 -0.79083858433295973 115.90896722278558 0 0 0 0 -23.612408682052774 16.323321437503182 0 16.323321437503182 99.487655277713202 0 0 0 0 -46.493456169035994 -5.2755421016627224 0 -5.2755421016627224 114.19519089248206 0 0 0 0 -59.999583536038131 -29.469009014457697 0 -29.469009014457697 97.924188044766197 0 0 0 0 -93.711553326368289 31.869579396588961 0 31.869579396588961 98.163188656610146 0 0 0 0 -33.703950835355556 37.210134143868345 0 37.210134143868345 45.925091621262254 0 0 0 0 -0.82367915558882032 -2.6684542812727159 0 -2.6684542812727159 88.018187199690146 0 0 0 0 52.401638106378073 -96.940555577224586 0 -96.940555577224586 418.95585237644264 0 0 0 0 -44.354020336284776 -134.98086651326776 0 -134.98086651326776 414.62683573801769 0 0 0 0 -63.159464247765641 -113.16138110359316 0 -113.16138110359316 439.34832166804699 0 0 0 0 -57.226597189672475 -134.0794880852045 0 -134.0794880852045 454.02658945982694 0 0 0 0 -0.8461952076871615 0.6339528912214405 0 0.6339528912214405 -3.5546381601763528 0 0 0 0 -9.3081795028885495 11.01691909286366 0 11.01691909286366 221.92685946986438 0 0 0 0 -117.35948084696338 76.501710113705485 0 76.501710113705485 246.19136829955096 0 0 0 0 -110.48042279596939 61.551245118414954 0 61.551245118414954 270.74199973102077 0 0 0 0 -68.626100831759686 85.40314370917622 0 85.40314370917622 244.18580130056944 0 0 0 0 -113.74450837827499 86.378407730726394 0 86.378407730726394 239.54202613714733 0 0 0 0 -85.272787066304772 88.425409888055583 0 88.425409888055583 239.50517718988704 0 0 0 0 -1.2620557827758923 -17.575695870177043 0 -17.575695870177043 25.219659320622327 0 0 0 0 -44.381355979775776 38.427613760220993 0 38.427613760220993 295.0735809939215 0 0 0 0 -225.40938147710432 -49.998163470852887 0 -49.998163470852887 465.68353357375599 0 0 0 0 -0.30270967040161167 -9.5011853297947368 0 -9.5011853297947368 32.180362600668957 0 0 0 0 -63.470880971535053 -54.544781493510527 0 -54.544781493510527 495.91216631160205 0 0 0 0 -18.649434056973234 -6.5406185086176265 0 -6.5406185086176265 437.38019598362735 0 0 0 0 -9.5181021657895144 0.53167976695112884 0 0.53167976695112884 130.13779525754944 0 0 0 0 -2.629324068229721 20.618190639972454 0 20.618190639972454 101.9104505587602 0 0 0 0 -0.98834274418751544 -3.9044488443938121 0 -3.9044488443938121 28.532488104770721 0 0 0 0 8.0161703788344312 -91.099590853438713 0 -91.099590853438713 261.28359242255101 0 0 0 0 4.8493052505520495 -14.118155765761912 0 -14.118155765761912 109.26519050482239 0 0 0 0 -1.0211558730876504 19.903396999430697 0 19.903396999430697 99.113923175027594 0 0 0 0 -4.989937693776608 13.445014252603329 0 13.445014252603329 83.578947059858194 0 0 0 0 -7.7886062966805909 -3.123818899033779 0 -3.123818899033779 76.718177087054016 0 0 0 0 8.8925688265010194 -13.899186139547965 0 -13.899186139547965 100.40033015125664 0 0 0 0 -14.338548746816016 38.061102560116865 0 38.061102560116865 138.20058206887606 0 0 0 0 1.8495313997474376 23.704919346360299 0 23.704919346360299 69.368724732396515 0 0 0 0 -52.047557406440319 23.027456533949589 0 23.027456533949589 295.86741950199939 0 0 0 0 -80.779919749749752 85.891432854645245 0 85.891432854645245 261.7485920896288 0 0 0 0 -12.905495253294475 49.94145522036888 0 49.94145522036888 261.79027775122086 0 0 0 0 -18.88946932554245 -9.8523608946416061 0 -9.8523608946416061 303.87366925038077 0 0 0 0 8.4720454131493437 -21.260366974008377 0 -21.260366974008377 123.45806782102196 0 0 0 0 -66.077461933601455 -30.745471792941316 0 -30.745471792941316 98.573769062582869 0 0 0 0 2.6339612189035506 9.2342563018901274 0 9.2342563018901274 82.940342676854925 0 0 0 0 -62.768234768217269 60.488720509194536 0 60.488720509194536 102.68802812768263 0 0 0 0 2.355801225376922 7.5763039214507444 0 7.5763039214507444 98.946736052785127 0 0 0 0 -0.36837327391276631 3.708206928022264 0 3.708206928022264 101.92707612128288 0 0 0 0 -21.532495438628416 19.731927271117456 0 19.731927271117456 137.58678835230239 0 0 0 0 -12.797554280660961 10.147348885184329 0 10.147348885184329 136.15947143727681 0 0 0 0 -4.4091117346377287 1.7005383450759268 0 1.7005383450759268 21.68634717881136 0 0 0 0 2.8812304902425581 17.010570061989711 0 17.010570061989711 112.20666053704917 0 0 0 0 -7.2601680801797066 18.024026914535142 0 18.024026914535142 76.827052157438516 0 0 0 0 -7.6962080356779552 -6.0393450042101904 0 -6.0393450042101904 120.56222940115549 0 0 0 0 -3.9061045414530255 1.6782895881825652 0 1.6782895881825652 81.757907004904325 0 0 0 0 -0.68460213108778589 176.06682544724754 0 176.06682544724754 72.116095129546011 0 0 0 0 -51.086424563419996 44.067072377714794 0 44.067072377714794 118.90071455325233 0 0 0 0 2.5797380762080135 7.1607955029950006 0 7.1607955029950006 26.42971715159905 0 0 0 0 3.065703555386861 13.641228971263139 0 13.641228971263139 105.82074043454242 0 0 0 0 -327.58999432848964 155.83957160046702 0 155.83957160046702 278.12395862315316 0 0 0 0 21.575630992560946 250.90156855012174 0 250.90156855012174 218.97803271260636 0 0 0 0 336.21761373491375 268.96960008349561 0 268.96960008349561 71.927744105021702 0 0 0 0 -0.51360122573594058 24.295580247765155 0 24.295580247765155 113.86358662810221 0 0 0 0 87.726349539884723 -59.573822709891829 0 -59.573822709891829 62.719876840244979 0 0 0 0 1.5991308530803363 -2.7761284851375194 0 -2.7761284851375194 3.7536987828312363 0 0 0 0 193.91062247862172 -155.86578546129749 0 -155.86578546129749 90.673252962413244 0 0 0 0 65.625972212450932 -302.07066034554737 0 -302.07066034554737 465.85848323215032 0 0 0 0 63.492253905892035 -92.146984116467365 0 -92.146984116467365 184.82492949673906 0 0 0 0 60.128845255203828 -13.525366030313307 0 -13.525366030313307 -17.888996044261148 0 0 0 0 -11.820909793655233 52.998610444716178 0 52.998610444716178 53.206618910160614 0 0 0 0 52.213098920568314 -7.8744495242135599 0 -7.8744495242135599 110.19700889225351 0 0 0 0 11.416735888885114 -21.091023836721433 0 -21.091023836721433 125.35113442673173 0 0 0 0 -30.959070879793899 17.90426752102212 0 17.90426752102212 192.24143368748628 0 0 0 0 5.9824750180959541 1.5143523812203057 0 1.5143523812203057 154.15256706948276 0 0 0 0 -3.6099554055908856 -0.80072648403285029 0 -0.80072648403285029 -2.5677182775838077 0 0 0 0 -29.936628436624517 30.574108784581767 0 30.574108784581767 140.17020511015289 0 0 0 0 -14.121359243084839 53.470903363435355 0 53.470903363435355 115.13021895112615 0 0 0 0 -183.3834613611067 -43.938867637421936 0 -43.938867637421936 202.40796888236218 0 0 0 0 -41.362861991405595 44.153373814657243 0 44.153373814657243 130.14853247188148 0 0 0 0 -99.228058297181747 164.76071691208926 0 164.76071691208926 7.575469272211194 0 0 0 0 -0.20224978380106373 -0.70087358545526968 0 -0.70087358545526968 -2.9421521957919197 0 0 0 0 2.5460155049752302 32.953941615269287 0 32.953941615269287 89.855274839916092 0 0 0 0 -12.861083728229005 39.043890672037378 0 39.043890672037378 93.818319266487379 0 0 0 0 -29.42821151947777 35.253287781441031 0 35.253287781441031 106.55562813417055 0 0 0 0 -13.723633668084631 27.709513086520019 0 27.709513086520019 109.59965532387287 0 0 0 0 -10.307549664301177 30.852680542870075 0 30.852680542870075 99.966541287356904 0 0 0 0 3.2192003226014094 28.713911193728563 0 28.713911193728563 99.876547131600091 0 0 0 0 3.3368544142261385 20.5338907689802 0 20.5338907689802 104.46744666015729 0 0 0 0 8.6006312789295407 28.50416737839987 0 28.50416737839987 93.566489664110122 0 0 0 0 14.570163499770388 26.204711769067217 0 26.204711769067217 88.543865537649253 0 0 0 0 17.014790512654258 20.888496752420906 0 20.888496752420906 90.372041858856392 0 0 0 0 -11.026816479218496 49.087584486223932 0 49.087584486223932 92.278616842959309 0 0 0 0 13.58497416610453 30.441530551659525 0 30.441530551659525 63.769558173749829 0 0 0 0 -4.6729697646627617 4.4136591937150342 0 4.4136591937150342 22.094743239007784 0 0 0 0 600.69559928862577 -303.72717531933449 0 -303.72717531933449 190.12826076196507 0 0 0 0 -3.5666640404332384 25.998939610330126 0 25.998939610330126 126.63090064066637 0 0 0 0 -5.8644756063140449 38.790106020162057 0 38.790106020162057 111.91588843047793 0 0 0 0 -779.17346174333147 121.22717878370895 0 121.22717878370895 667.7423733114847 0 0 0 0 12.123717165670428 25.389899172863807 0 25.389899172863807 93.954364285891643 0 0 0 0 83.429791166293398 2.7959368282899959 0 2.7959368282899959 21.642411162581993 0 0 0 0 -28.394569690006392 -30.838704366091406 0 -30.838704366091406 110.57313563313437 0 0 0 0 -108.92049420921649 1.4776446890173247 0 1.4776446890173247 132.92363915605529 0 0 0 0 -40.617989890140962 3.9011726453536539 0 3.9011726453536539 91.038393067850848 0 0 0 0 1.6594708810484349 23.952217478808862 0 23.952217478808862 98.275537073632677 0 0 0 0 -66.59517914549815 -34.763529642652429 0 -34.763529642652429 144.37424606218701 0 0 0 0 -29.619851229643245 -18.990472757766838 0 -18.990472757766838 109.01450787234717 0 0 0 0 -19.795296303313989 -81.43360095666867 0 -81.43360095666867 338.20031120366184 0 0 0 0 1044.1654271769603 -288.85914066131227 0 -288.85914066131227 -36.288994754853775 0 0 0 0 -57.648485606775921 -542.32419558374386 0 -542.32419558374386 572.73356251401128 0 0 0 0 77.381848373530374 236.45897499323473 0 236.45897499323473 539.2749762636231 0 0 0 0 373.37110744126971 120.28578163708153 0 120.28578163708153 -103.6908797895303 0 0 0 0 54.344314359162126 97.297176721433061 0 97.297176721433061 193.69186541095405 0 0 0 0 0.98503505928866941 2.3538475107343331 0 2.3538475107343331 3.5050926440844137 0 0 0 0 9.4829723238344066 24.777678791471587 0 24.777678791471587 56.73037472973823 0 0 0 0 4.3136761738647138 17.677730476244278 0 17.677730476244278 58.118823021632522 0 0 0 0 99.958404238401272 304.53037984068214 0 304.53037984068214 72.38251768840928 0 0 0 0 -185.5461140687903 54.551957277977635 0 54.551957277977635 161.53272485575872 0 0 0 0 55.63938834331384 -43.448848707565048 0 -43.448848707565048 -83.164671980921412 0 0 0 0 17.054389254663334 55.112048417995489 0 55.112048417995489 100.33458440532632 0 0 0 0 -49.24323230338905 188.11445131526852 0 188.11445131526852 -7.9789488895621616 0 0 0 0 -19.074601434552278 69.363235224911477 0 69.363235224911477 90.372682946963323 0 0 0 0 -43.19327996045358 27.26430036311109 0 27.26430036311109 26.578022620130938 0 0 0 0 -43.717858731855813 49.597925587557256 0 49.597925587557256 126.27035879308096 0 0 0 0 -13.335631028262469 74.875821670251753 0 74.875821670251753 115.66355131956516 0 0 0 0 -58.339196569589483 91.931377707319996 0 91.931377707319996 166.8589964309358 0 0 0 0 37.858330875431875 137.51089336422592 0 137.51089336422592 167.48555629821658 0 0 0 0 -69.622348624789424 124.47083878769627 0 124.47083878769627 177.81497543414298 0 0 0 0 -98.569794267258203 8.1246301094506634 0 8.1246301094506634 209.21113825235443 0 0 0 0 -16.29064938957211 31.675812574478215 0 31.675812574478215 115.41361649688002 0 0 0 0 -16.542147212379405 33.994026282940467 0 33.994026282940467 120.47835436863534 0 0 0 0 -44.395391592840497 -22.981898714737326 0 -22.981898714737326 132.93613840769103 0 0 0 0 -11.664338403612874 33.5508489102358 0 33.5508489102358 158.31943609370501 0 0 0 0 -5.7451672188010008 10.561786438677757 0 10.561786438677757 35.581670422808088 0 0 0 0 -16.608257879751662 38.543741828006091 0 38.543741828006091 119.32636491358684 0 0 0 0 -4.0975759077955445 27.36826665391709 0 27.36826665391709 124.00601733507938 0 0 0 0 -14.390043908957963 14.564021817390085 0 14.564021817390085 32.16944779388777 0 0 0 0 -14.437929581456046 27.453411778391455 0 27.453411778391455 166.8194960171968 0 0 0 0 -11.016036797717902 39.20618233354071 0 39.20618233354071 126.86954699151102 0 0 0 0 -25.886648947955791 15.308568476799337 0 15.308568476799337 145.37225503496302 0 0 0 0 -14.44156872602116 17.532528893956624 0 17.532528893956624 118.98811775208014 0 0 0 0 -6.0427560763343244 18.133310898575814 0 18.133310898575814 99.589668143035226 0 0 0 0 -16.374822249681749 8.8940643398944701 0 8.8940643398944701 76.062323075322169 0 0 0 0 -14.875479735814224 24.950913496824796 0 24.950913496824796 124.93445034223987 0 0 0 0 235.04657779282689 -126.70808952333755 0 -126.70808952333755 311.21921896436834 0 0 0 0 -1.67844931496015 1.9845869020806788 0 1.9845869020806788 27.88661894348482 0 0 0 0 -49.675161497140834 6.3546379141698708 0 6.3546379141698708 283.86165989481378 0 0 0 0 -69.687992434489615 -44.339901722356444 0 -44.339901722356444 119.40160753620148 0 0 0 0 -3.1701291676222336 -0.38623544797394516 0 -0.38623544797394516 20.680383219377802 0 0 0 0 -23.194408635981745 -49.618308412580518 0 -49.618308412580518 288.63914520307117 0 0 0 0 -10.72596833865282 -98.136895580712007 0 -98.136895580712007 262.49039658466791 0 0 0 0 -184.41876533264804 187.85448127494601 0 187.85448127494601 -41.476020512622199 0 0 0 0 -284.64212768837001 147.03411842724017 0 147.03411842724017 14.321872130982229 0 0 0 0 -51.54315705909346 46.283124409215361 0 46.283124409215361 195.28172127537255 0 0 0 0 -8.2379661822608341 -13.202478630515543 0 -13.202478630515543 142.65617747517535 0 0 0 0 48.688546035926265 -90.573009663479752 0 -90.573009663479752 149.44730208878809 0 0 0 0 2.9035948163400671 -11.983521221841912 0 -11.983521221841912 93.995338148660153 0 0 0 0 -0.32015073316688358 -20.100140913316864 0 -20.100140913316864 111.68843298061984 0 0 0 0 -9.0986291836573994 19.869758697759039 0 19.869758697759039 73.312560611646774 0 0 0 0 3.939586343791234 -35.259317085612565 0 -35.259317085612565 125.91662324059871 0 0 0 0 -9.4977324492210204 1.1310788453553187 0 1.1310788453553187 68.740445167868756 0 0 0 0 -8.3560694655844063 -10.050276877898526 0 -10.050276877898526 67.016718342593379 0 0 0 0 -47.021377351691626 65.391267056693323 0 65.391267056693323 253.58286855525512 0 0 0 0 -59.16840195243276 77.552338283712743 0 77.552338283712743 249.31533849377593 0 0 0 0 59.884746880507009 102.35595340054715 0 102.35595340054715 207.05843829100195 0 0 0 0 -91.36302169220653 129.57077086425852 0 129.57077086425852 217.3503483425593 0 0 0 0 -83.232448666018172 109.84782983138575 0 109.84782983138575 236.40261146904959 0 0 0 0 -44.320138938772288 81.418348795705242 0 81.418348795705242 244.54802885244135 0 0 0 0 -156.05791830075941 163.91215673834085 0 163.91215673834085 195.85477805840492 0 0 0 0 -116.77764333327468 117.62963908634265 0 117.62963908634265 233.37344115495216 0 0 0 0 -6.0683475165518228 10.315339355267724 0 10.315339355267724 9.9623122024281656 0 0 0 0 -253.24092489950999 128.96054440396256 0 128.96054440396256 199.17284969384491 0 0 0 0 -143.96050056585955 86.668730382545618 0 86.668730382545618 -65.178512233018409 0 0 0 0 -143.91626127429117 147.55535469742608 0 147.55535469742608 -71.028527510730783 0 0 0 0 -139.8180377368044 117.52841089843423 0 117.52841089843423 -17.754122435697354 0 0 0 0 -24.016918770608754 -47.188483284873655 0 -47.188483284873655 22.767197767389007 0 0 0 0 -1.774988844695276 2.2052188974197975 0 2.2052188974197975 13.597935085294083 0 0 0 0 -197.39810940407006 172.58202539960621 0 172.58202539960621 13.255614789872197 0 0 0 0 -192.44667087437938 126.83641009891289 0 126.83641009891289 68.109281835932052 0 0 0 0 -198.54668578550354 80.050645299299504 0 80.050645299299504 80.875188252219232 0 0 0 0 -203.65756137844932 130.24862688048142 0 130.24862688048142 95.499629475583788 0 0 0 0 -193.84439136140645 171.56931314511166 0 171.56931314511166 9.7749177234945819 0 0 0 0 -199.26697939783844 143.76763770550315 0 143.76763770550315 98.369399012586655 0 0 0 0 -201.33572201386596 137.43728305248078 0 137.43728305248078 161.10497546993429 0 0 0 0 -214.82372596185633 109.70431026462757 0 109.70431026462757 211.35158717658487 0 0 0 0 -213.36647364055716 105.46973032265669 0 105.46973032265669 225.95670953879016 0 0 0 0 -184.048951568353 136.68251747710747 0 136.68251747710747 241.36196387372911 0 0 0 0 -199.33899115997338 117.09629989047244 0 117.09629989047244 212.40095449921137 0 0 0 0 -214.05854843353063 118.22832525652484 0 118.22832525652484 270.0651633706002 0 0 0 0 -183.68656793785522 104.8522931371117 0 104.8522931371117 275.33262837919756 0 0 0 0 -228.26496615489532 119.3293245977984 0 119.3293245977984 286.60406204056926 0 0 0 0 -190.71452920749471 79.848140171234263 0 79.848140171234263 300.75931764060078 0 0 0 0 -209.04465591453345 88.022512407434988 0 88.022512407434988 342.79591343013453 0 0 0 0 -191.32292497389426 59.628734342259122 0 59.628734342259122 335.39271692693001 0 0 0 0 -197.43918606503394 113.39045697699476 0 113.39045697699476 287.78343005773786 0 0 0 0 -172.18474846159188 87.22935477005376 0 87.22935477005376 312.95890223668539 0 0 0 0 -141.6731336197372 90.702155081409728 0 90.702155081409728 291.43812455260195 0 0 0 0 -174.54584688038517 114.07953209290918 0 114.07953209290918 274.82170114823384 0 0 0 0 -118.71016577966657 108.57172788487514 0 108.57172788487514 254.59223595499498 0 0 0 0 -138.50527609750065 103.8477806420251 0 103.8477806420251 253.7286468068487 0 0 0 0 -100.29450009416723 97.221738268504851 0 97.221738268504851 245.43231944349827 0 0 0 0 -98.585408171067684 113.55834306961333 0 113.55834306961333 238.58487911862903 0 0 0 0 -99.690591673594099 105.96729279037754 0 105.96729279037754 242.59223350562388 0 0 0 0 -110.04779274991233 133.58341488515725 0 133.58341488515725 227.15316425601486 0 0 0 0 -159.05519015061145 133.33869152751868 0 133.33869152751868 250.50785359484144 0 0 0 0 -163.81031511130641 120.601046110678 0 120.601046110678 253.16902941299486 0 0 0 0 -174.33392215846652 126.33025548129808 0 126.33025548129808 259.7776574761956 0 0 0 0 -154.51056203998087 111.67527012526989 0 111.67527012526989 270.50798524307902 0 0 0 0 -141.89180083537212 129.17375676830125 0 129.17375676830125 251.38932550052414 0 0 0 0 -151.666466714134 85.107843020756263 0 85.107843020756263 395.03890973074158 0 0 0 0 -158.93504199613608 97.823541049430787 0 97.823541049430787 609.20348599000135 0 0 0 0 -125.05065905733545 -44.387820179137634 0 -44.387820179137634 564.41657068983477 0 0 0 0 -153.70664518170042 -25.006972024741117 0 -25.006972024741117 483.72154074977152 0 0 0 0 -194.46435447625981 39.593510153601528 0 39.593510153601528 498.51448720647022 0 0 0 0 -160.25661538915978 6.704280077952717 0 6.704280077952717 424.01436474782531 0 0 0 0 -201.33022286766592 71.591733046418085 0 71.591733046418085 438.14006502574193 0 0 0 0 -211.62811281645918 80.864240904644248 0 80.864240904644248 376.28903143902789 0 0 0 0 -185.55270088380894 18.608629224959259 0 18.608629224959259 389.89486435067374 0 0 0 0 -202.10594704053526 57.430800741920393 0 57.430800741920393 321.23099184400053 0 0 0 0 -202.41317244635223 94.909177875331807 0 94.909177875331807 240.92875480203656 0 0 0 0 -226.92594476280885 121.47411240178917 0 121.47411240178917 321.43327280231784 0 0 0 0 -186.67658880910187 49.329292662689113 0 49.329292662689113 354.78844455405488 0 0 0 0 -229.73288248047118 78.540815230968292 0 78.540815230968292 366.01266281463177 0 0 0 0 -221.91498291797757 101.94991232504071 0 101.94991232504071 249.43041015701601 0 0 0 0 -175.86973393391099 135.34120294163586 0 135.34120294163586 269.31619168998441 0 0 0 0 -235.42913756852542 128.07392656834418 0 128.07392656834418 239.42319996774313 0 0 0 0 -200.61316770676851 155.85828695730015 0 155.85828695730015 130.17824210936669 0 0 0 0 -240.48807447997433 133.35749345358636 0 133.35749345358636 127.47263172431849 0 0 0 0 -192.43180022617912 214.92890060927311 0 214.92890060927311 134.7707146936591 0 0 0 0 -143.57894142111809 130.30595438180899 0 130.30595438180899 181.04872324928147 0 0 0 0 -186.17311130228381 105.85260663386725 0 105.85260663386725 407.94280939749297 0 0 0 0 -73.990116876293541 191.54375344442815 0 191.54375344442815 218.10766955341387 0 0 0 0 2.9599953115391315 264.14900743236376 0 264.14900743236376 32.486272471549455 0 0 0 0 -157.9817198196979 183.38293290110596 0 183.38293290110596 -6.9225688959122635 0 0 0 0 -95.630073968449324 288.7111901188473 0 288.7111901188473 -356.84347254270688 0 0 0 0 -197.61747030115725 63.167542350707663 0 63.167542350707663 -117.4392409514985 0 0 0 0 -159.73374098012778 185.97442399863939 0 185.97442399863939 -64.284950315966853 0 0 0 0 -284.87756614822229 -322.33181872566638 0 -322.33181872566638 456.50183940978604 0 0 0 0 -149.91475058847118 454.08171741676779 0 454.08171741676779 -328.83731515333238 0 0 0 0 -143.45761231031184 -27.576143099082401 0 -27.576143099082401 182.92925483678846 0 0 0 0 -124.98744902728026 71.799298560639727 0 71.799298560639727 696.79477641062113 0 0 0 0 -2.7479530401816215 3.0132624744140486 0 3.0132624744140486 1.9517184125514291 0 0 0 0 -71.989466190515941 165.04805378870151 0 165.04805378870151 69.33258866815595 0 0 0 0 -266.19165973165036 379.14030139662646 0 379.14030139662646 -69.093676707369013 0 0 0 0 30.885758927503048 66.149306567633175 0 66.149306567633175 98.948619777496788 0 0 0 0 24.293141006754922 77.575653618150682 0 77.575653618150682 91.802393802659935 0 0 0 0 43.983283212777678 26.01321253356582 0 26.01321253356582 -18.398586034680193 0 0 0 0 45.706588760009254 43.294728439293976 0 43.294728439293976 64.926863140542991 0 0 0 0 171.66959484486688 90.793459680768137 0 90.793459680768137 -47.276299653825845 0 0 0 0 128.92756745453062 -28.739486810431117 0 -28.739486810431117 -270.05807744663616 0 0 0 0 315.34211383409638 247.44572711922228 0 247.44572711922228 -413.23468851333018 0 0 0 0 122.3421904204879 181.85842695178872 0 181.85842695178872 -60.024293176247738 0 0 0 0 38.774303045371653 167.96717258984427 0 167.96717258984427 -50.039604292309377 0 0 0 0 18.939553467640508 226.31426624547021 0 226.31426624547021 262.15423969211406 0 0 0 0 208.45591355094257 383.8059647822738 0 383.8059647822738 182.26887918113061 0 0 0 0 -71.900536831832596 227.06247924099443 0 227.06247924099443 455.75330590331578 0 0 0 0 7.6211073721660796 387.42394716889976 0 387.42394716889976 490.52654550707666 0 0 0 0 407.05231758262289 834.55779660941334 0 834.55779660941334 241.69660114365979 0 0 0 0 7.6521736715349071 285.35180883499919 0 285.35180883499919 891.86837486238801 0 0 0 0 111.82362522939093 175.40180121071535 0 175.40180121071535 805.65520142356399 0 0 0 0 -75.617342050284606 116.20594273993265 0 116.20594273993265 1243.4889629226236 0 0 0 0 -69.543473360923144 20.777742760550609 0 20.777742760550609 671.28519143752055 0 0 0 0 -96.180159453009765 159.87868973432342 0 159.87868973432342 433.16823145444141 0 0 0 0 -109.5822637367628 157.04273165055201 0 157.04273165055201 784.48523393574578 0 0 0 0 1219.4546227541996 -1310.5185808130846 0 -1310.5185808130846 499.59750015753525 0 0 0 0 -501.05557393731505 -129.88557606904283 0 -129.88557606904283 2228.9234266941057 0 0 0 0 1974.2885945729104 799.60188222178112 0 799.60188222178112 503.20213200221042 0 0 0 0 63.336922133619737 499.79018535477371 0 499.79018535477371 2332.527833541797 0 0 0 0 200.61695149053412 -298.83938837229653 0 -298.83938837229653 -118.42754643443914 0 0 0 0 -511.60183046550628 -148.71695874963189 0 -148.71695874963189 -67.314752638383652 0 0 0 0 -95.325317836673094 -748.77159485125048 0 -748.77159485125048 -264.17597796602058 0 0 0 0 386.12781289689974 -35.642030723305652 0 -35.642030723305652 -494.90943353384137 0 0 0 0 2.8375685866155766 -8.6627238552593617 0 -8.6627238552593617 -5.1532633973814654 0 0 0 0 -9.0036785637328194 43.419438198607168 0 43.419438198607168 -191.38362511224113 0 0 0 0 60.189778403327182 -38.969586080133013 0 -38.969586080133013 -48.267188227386214 0 0 0 0 127.92181475442112 -108.88631276774686 0 -108.88631276774686 -19.522283405465714 0 0 0 0 3.8304460394814379 -7.0042225136881413 0 -7.0042225136881413 -2.9314524757949982 0 0 0 0 14.437984735689698 -42.48838174749973 0 -42.48838174749973 52.962461046375466 0 0 0 0 -16.909271615048606 -1.6410199280907705 0 -1.6410199280907705 18.01014155560258 0 0 0 0 223.65197579098049 -82.670005450519966 0 -82.670005450519966 155.72955013741011 0 0 0 0 -40.707959655963009 45.137373935778669 0 45.137373935778669 204.69084564375953 0 0 0 0 -8.1013890925705709 15.393572081808088 0 15.393572081808088 123.77293407366597 0 0 0 0 -11.633623617914964 17.581482912617503 0 17.581482912617503 127.2611255421034 0 0 0 0 -22.409573045342768 16.418750194141467 0 16.418750194141467 166.43707224649552 0 0 0 0 -22.048683213674849 26.032884709118662 0 26.032884709118662 152.47292125264357 0 0 0 0 -10.433671925613453 14.637920768127515 0 14.637920768127515 153.7904544902849 0 0 0 0 -5.2371053813490445 16.604758637153658 0 16.604758637153658 98.220256452713755 0 0 0 0 -2.9726669203720846 -7.3196488120013274 0 -7.3196488120013274 69.047847958260633 0 0 0 0 -15.754248137622653 4.1573084307183308 0 4.1573084307183308 62.626852857385529 0 0 0 0 -264.53394288076197 -48.981945615822042 0 -48.981945615822042 333.08535587443475 0 0 0 0 -17.3249545620547 -7.6452100194219383 0 -7.6452100194219383 99.755065326986369 0 0 0 0 1.4499168057851648 -0.37378265766199092 0 -0.37378265766199092 8.4166897544319994 0 0 0 0 12.50164820277223 -22.224720772763249 0 -22.224720772763249 25.680190224629769 0 0 0 0 2.745215310867188 1.4211254321165256 0 1.4211254321165256 -1.4857579635555993 0 0 0 0 -107.94902953708151 77.375941037935263 0 77.375941037935263 201.23074339916639 0 0 0 0 7.6120146178864161 -35.643507992877858 0 -35.643507992877858 50.118764633953106 0 0 0 0 58.024070124540231 59.920488286559703 0 59.920488286559703 85.303617012854374 0 0 0 0 25.887550255863061 39.356524248469213 0 39.356524248469213 143.65742594146286 0 0 0 0 -59.311928514432978 20.038523897337541 0 20.038523897337541 139.45998653677816 0 0 0 0 127.99069841111759 50.180492067003797 0 50.180492067003797 -17.639899217276252 0 0 0 0 -24.576335351195702 20.023288498026886 0 20.023288498026886 -10.550177932736887 0 0 0 0 3.0040786232639221 46.868977564030502 0 46.868977564030502 143.1863980836315 0 0 0 0 -48.95015391663992 13.39442633955241 0 13.39442633955241 122.62033010837331 0 0 0 0 -8.0485506256039798 16.390499278386415 0 16.390499278386415 15.581810278470222 0 0 0 0 -57.988328235056542 28.862758148738067 0 28.862758148738067 162.51813847565791 0 0 0 0 -4.5775310200342574 78.579533991553035 0 78.579533991553035 68.915152479065 0 0 0 0 21.439932876994135 2.0930565446979017 0 2.0930565446979017 77.320284748551785 0 0 0 0 -12.916860219822411 26.071398681684514 0 26.071398681684514 208.93865267827641 0 0 0 0 -50.434073659261458 -10.609828067076705 0 -10.609828067076705 178.01860769384075 0 0 0 0 -66.737717615865904 100.03046119114242 0 100.03046119114242 152.0071560908691 0 0 0 0 44.100757829601207 4.6287151476280997 0 4.6287151476280997 115.01141113080666 0 0 0 0 26.009503098583082 44.800165380074759 0 44.800165380074759 176.52735701267375 0 0 0 0 16.618957661372406 -18.132040747892461 0 -18.132040747892461 209.28054021008575 0 0 0 0 43.574491384363228 108.9600033824122 0 108.9600033824122 228.40697963867569 0 0 0 0 -532.93776609710403 -13.338974147191038 0 -13.338974147191038 -107.23273431240523 0 0 0 0 -53.679417019935499 -47.77570228411787 0 -47.77570228411787 425.90711381610163 0 0 0 0 4.0992179190919344 -2.5065172582190769 0 -2.5065172582190769 -3.4497840476931501 0 0 0 0 -25.941675756846962 62.835450379556278 0 62.835450379556278 364.08812784738257 0 0 0 0 -82.238583462498354 13.361036212561885 0 13.361036212561885 -157.88099074592901 0 0 0 0 62.022113232335869 17.08425261764387 0 17.08425261764387 144.01599968518713 0 0 0 0 54.42679137057894 -89.680595601035748 0 -89.680595601035748 257.86091898446102 0 0 0 0 -163.83511624612584 282.22674066055333 0 282.22674066055333 -156.27888847007671 0 0 0 0 -46.846442650001336 56.798023274517618 0 56.798023274517618 181.83291390658997 0 0 0 0 248.73147788455572 77.249274798246915 0 77.249274798246915 -51.912292546818207 0 0 0 0 8.7210147342797306 6.0891939144921423 0 6.0891939144921423 20.161472964099872 0 0 0 0 -41.499676561277738 -36.470233219515649 0 -36.470233219515649 197.06886892880721 0 0 0 0 -35.413885387014339 -5.0455815196368832 0 -5.0455815196368832 24.766966061696721 0 0 0 0 9.0156334018559932 44.84494185093088 0 44.84494185093088 98.109126170359048 0 0 0 0 39.143500653506635 -16.680447494917644 0 -16.680447494917644 159.06097272911575 0 0 0 0 -54.583325894789596 164.22252451752138 0 164.22252451752138 253.3933328931962 0 0 0 0 -9.7985930049690069 116.04730463274609 0 116.04730463274609 77.354993717854086 0 0 0 0 -25.826774219851814 6.7754667985391279 0 6.7754667985391279 94.533346538555634 0 0 0 0 -16.289306167354511 14.090935562667369 0 14.090935562667369 24.699518498490214 0 0 0 0 -12.674367649169199 17.738822857278137 0 17.738822857278137 124.54889942338195 0 0 0 0 -3.8382720525300629 12.843669964587528 0 12.843669964587528 71.177243920947774 0 0 0 0 -1.310926112452826 -0.83963814571239936 0 -0.83963814571239936 20.957571215041312 0 0 0 0 -52.690839223208513 24.2649903956044 0 24.2649903956044 144.3154547415179 0 0 0 0 -10.928616949424395 82.752920461542089 0 82.752920461542089 -4.8097974756092299 0 0 0 0 196.7438086350403 -25.651894668924797 0 -25.651894668924797 -60.945120568110724 0 0 0 0 -2.4556531167947924 -25.003137878054076 0 -25.003137878054076 475.02836250349355 0 0 0 0 7.7596599197464045 -0.68079234688943302 0 -0.68079234688943302 -3.1288440281312262 0 0 0 0 -1.9315790007390206 39.628639443775683 0 39.628639443775683 -35.025984009291278 0 0 0 0 -105.28024029769631 1.594412828424538 0 1.594412828424538 177.80698893639783 0 0 0 0 28.652729582778065 57.782534133696686 0 57.782534133696686 98.675322550089959 0 0 0 0 2.8265926358138378 5.3799826742020116 0 5.3799826742020116 18.087975583150779 0 0 0 0 13.557116664311479 84.614871577930899 0 84.614871577930899 -36.507078922440996 0 0 0 0 -67.883279366499664 136.43482609178682 0 136.43482609178682 132.37948482048523 0 0 0 0 51.055375599855324 158.27262905640237 0 158.27262905640237 74.311647866671933 0 0 0 0 -12.369184855239837 53.005404506286141 0 53.005404506286141 34.715101045003394 0 0 0 0 13.007456012072172 48.147372556597062 0 48.147372556597062 105.38863140547792 0 0 0 0 -92.369163214523724 22.697315207740758 0 22.697315207740758 229.44615699797578 0 0 0 0 -222.27699050303181 100.97425746417866 0 100.97425746417866 232.65064964356134 0 0 0 0 -4.8171312189067237 7.4955442955351401 0 7.4955442955351401 29.522650799801056 0 0 0 0 -61.606220256217057 17.742969524282671 0 17.742969524282671 155.39160370701575 0 0 0 0 -99.892818911057475 6.6056118470933143 0 6.6056118470933143 207.24363039204036 0 0 0 0 -34.685288330602816 17.659505331139371 0 17.659505331139371 14.031955531419953 0 0 0 0 342.89816363334103 243.32584837922332 0 243.32584837922332 143.55943039574777 0 0 0 0 203.64335470151127 60.262549304752611 0 60.262549304752611 -48.437779591738945 0 0 0 0 101.82846232873999 -99.916657473084342 0 -99.916657473084342 -23.849956320191268 0 0 0 0 487.58910884273064 112.32672175453627 0 112.32672175453627 -69.941319721321634 0 0 0 0 358.89748689949192 -64.523373250151053 0 -64.523373250151053 -62.402438208664535 0 0 0 0 -391.54002336608573 247.65818813281658 0 247.65818813281658 23.2118290178405 0 0 0 0 -664.13327296454099 -84.042366725640022 0 -84.042366725640022 117.74667323716858 0 0 0 0 -4.5569124636657818 6.9838122070446786 0 6.9838122070446786 5.8522487568610586 0 0 0 0 -19.083133805757825 -31.344954426480399 0 -31.344954426480399 54.6774063789926 0 0 0 0 1.8137902435968449 1.5735643001913644 0 1.5735643001913644 3.9723905934398545 0 0 0 0 -342.45086951952862 63.439619382887031 0 63.439619382887031 389.12288963120955 0 0 0 0 306.49364759059517 221.47902768105996 0 221.47902768105996 -229.25906543912424 0 0 0 0 61.239878387297722 -141.1124207620669 0 -141.1124207620669 271.04809780059441 0 0 0 0 -95.511266088594311 374.46971905927057 0 374.46971905927057 -132.41540179308504 0 0 0 0 4.349694408959504 2.8348403347862785 0 2.8348403347862785 -2.1229641209986312 0 0 0 0 -8.4656754714778799 -5.5222762245175545 0 -5.5222762245175545 48.956038901174907 0 0 0 0 -122.70210730175677 21.008043135887419 0 21.008043135887419 164.0792178655829 0 0 0 0 -94.785364771189052 162.86223351784065 0 162.86223351784065 47.046529457787983 0 0 0 0 -30.063278963049015 48.321950427773118 0 48.321950427773118 40.506713849565131 0 0 0 0 21.812806332063701 93.382092800675309 0 93.382092800675309 38.320322865387425 0 0 0 0 19.040587895808077 28.731863752217734 0 28.731863752217734 39.831774891140981 0 0 0 0 -42.13470097742902 98.61274340422824 0 98.61274340422824 327.99384328133965 0 0 0 0 140.09735348788024 16.713702540390386 0 16.713702540390386 53.76814954195288 0 0 0 0 48.342792308194475 58.803849809126405 0 58.803849809126405 -27.884852021627012 0 0 0 0 147.11651134241311 165.78514761976112 0 165.78514761976112 65.604863825865323 0 0 0 0 78.928333417679823 92.193869503971655 0 92.193869503971655 -39.099192537418276 0 0 0 0 -12.831925215820775 118.67192424043606 0 118.67192424043606 5.3151356661401223 0 0 0 0 41.070415692334791 51.658191064736457 0 51.658191064736457 87.003922777832486 0 0 0 0 -36.455207972328026 32.456776465944131 0 32.456776465944131 -15.700526649539825 0 0 0 0 -28.401301999502721 82.64324134317576 0 82.64324134317576 114.86384377918148 0 0 0 0 -29.798360884989677 81.637938536485308 0 81.637938536485308 149.31512705469504 0 0 0 0 10.267434099423554 25.402303964830935 0 25.402303964830935 199.59660454047844 0 0 0 0 28.981286500848 171.87003304973769 0 171.87003304973769 189.89596337007606 0 0 0 0 -19.284312256804526 95.366897493731813 0 95.366897493731813 141.62438856207882 0 0 0 0 8.0538864374516379 95.187802119409753 0 95.187802119409753 -6.5471170654927846 0 0 0 0 -34.345596024141514 39.611289783490065 0 39.611289783490065 159.0972450938425 0 0 0 0 18.142432592022743 16.588360554332269 0 16.588360554332269 -2.6426208727969538 0 0 0 0 -7.7114904767267944 382.05374445686175 0 382.05374445686175 516.7699406024185 0 0 0 0 152.99574822808472 -3.3948435961137875 0 -3.3948435961137875 -81.617731799458852 0 0 0 0 125.04853174470372 225.39227319923975 0 225.39227319923975 74.856505400384776 0 0 0 0 58.608088482360735 75.127597926380119 0 75.127597926380119 74.0895459486687 0 0 0 0 15.12276476893085 33.493670252205938 0 33.493670252205938 -4.3860944301842437 0 0 0 0 7.9552547198193224 27.417437594747753 0 27.417437594747753 -7.3521335719633498 0 0 0 0 -53.417215238053132 76.84566620332771 0 76.84566620332771 296.8519042985281 0 0 0 0 -49.693047773959961 78.018574588102638 0 78.018574588102638 152.71145616743161 0 0 0 0 -12.915989820269829 143.4155215623905 0 143.4155215623905 350.04252099734731 0 0 0 0 -148.80637590447304 -132.12422618606797 0 -132.12422618606797 -112.24420267080859 0 0 0 0 217.32740355515443 394.15752934652846 0 394.15752934652846 347.13936277074299 0 0 0 0 581.28452024236685 99.539780700579286 0 99.539780700579286 -468.87339076399803 0 0 0 0 143.6694615050983 255.70865906201652 0 255.70865906201652 124.36704766942421 0 0 0 0 21.428887577255409 59.991627927680383 0 59.991627927680383 -78.106204340641852 0 0 0 0 24.580828804505927 116.6086777192686 0 116.6086777192686 71.261524467932759 0 0 0 0 13.052421596147724 48.038014924277377 0 48.038014924277377 -40.54242454697669 0 0 0 0 -39.221550278132781 37.815098315360956 0 37.815098315360956 45.875440532370703 0 0 0 0 4.4032829682664669 43.255215512861469 0 43.255215512861469 -43.186559665380628 0 0 0 0 -21.428329622377376 32.389966471911947 0 32.389966471911947 7.4138921135069467 0 0 0 0 -18.935181471446413 79.633312319812831 0 79.633312319812831 -92.428961636731401 0 0 0 0 20.001412850824345 52.108459658636264 0 52.108459658636264 -15.7590401048583 0 0 0 0 71.762918465128678 55.826111221780593 0 55.826111221780593 -71.774547029592213 0 0 0 0 37.84644696884834 78.770575483547873 0 78.770575483547873 -36.304742920950957 0 0 0 0 -6.3381831085916929 13.97397898696363 0 13.97397898696363 -131.21849319155444 0 0 0 0 7.2471042262137022 30.711327455912244 0 30.711327455912244 -10.203764515238902 0 0 0 0 -167.2648104647144 218.43604038473131 0 218.43604038473131 63.90097468617023 0 0 0 0 116.42108942795818 57.096076714064111 0 57.096076714064111 -65.424598237383179 0 0 0 0 22.476461451062278 39.363197452308668 0 39.363197452308668 2.7121190656180261 0 0 0 0 0.34136137017223644 24.962569303006394 0 24.962569303006394 53.250363819042946 0 0 0 0 -72.641643192670017 69.14950214712735 0 69.14950214712735 37.084906302785384 0 0 0 0 -1.8073405348777669 69.4502209544371 0 69.4502209544371 -2.8157246463233605 0 0 0 0 -142.9498382551883 21.634893251801259 0 21.634893251801259 92.635862313109101 0 0 0 0 305.06219431130432 283.18642869144787 0 283.18642869144787 240.36389824564685 0 0 0 0 2.695798117803462 10.237322956013323 0 10.237322956013323 40.794327002940292 0 0 0 0 -576.59011704827662 113.76493413594289 0 113.76493413594289 156.3484155350161 0 0 0 0 99.972645887114254 86.882815764838597 0 86.882815764838597 -57.543976821863907 0 0 0 0 261.182552017425 27.103284907003399 0 27.103284907003399 -41.665922485102783 0 0 0 0 -128.33123409670463 363.63221875893578 0 363.63221875893578 157.20166322539444 0 0 0 0 204.54859448778143 177.4862645443136 0 177.4862645443136 184.00753873284702 0 0 0 0 -0.58007555945636469 -1.3226195338289912 0 -1.3226195338289912 5.3087424712355187 0 0 0 0 322.24135970672114 56.118416241457453 0 56.118416241457453 79.66029788950982 0 0 0 0 297.77698036341394 32.344574630493298 0 32.344574630493298 -76.482674291590229 0 0 0 0 251.84474741570637 98.319708699855255 0 98.319708699855255 -118.06126281991601 0 0 0 0 176.8201333550478 188.18076691834722 0 188.18076691834722 -36.194437271042261 0 0 0 0 216.15324707432865 126.31540509796469 0 126.31540509796469 100.8421227919207 0 0 0 0 103.00611296149009 31.416444604343269 0 31.416444604343269 -44.230052068465739 0 0 0 0 2.7780414047863742 0.67211023462288466 0 0.67211023462288466 9.672637987314431 0 0 0 0 109.4909599968164 -32.541617572729592 0 -32.541617572729592 -28.57666894805152 0 0 0 0 -26.677649701221753 -22.068072287034738 0 -22.068072287034738 13.363180478685535 0 0 0 0 189.71148390128224 -116.60942392883589 0 -116.60942392883589 -44.595854812971083 0 0 0 0 3.2670660081594178 -79.308939951530192 0 -79.308939951530192 3.2754973427508958 0 0 0 0 23.56737893979323 -3.331177162581298 0 -3.331177162581298 -21.684041343280114 0 0 0 0 26.235019712135681 -10.909143622535339 0 -10.909143622535339 -28.113873900554609 0 0 0 0 49.651773482996759 30.278365673395456 0 30.278365673395456 -31.837233671103604 0 0 0 0 39.910519269787073 -6.1637112271855585 0 -6.1637112271855585 -30.083055533817969 0 0 0 0 35.868059555843502 6.7667515221401118 0 6.7667515221401118 -73.480241354875034 0 0 0 0 23.599810536574296 13.500380417855922 0 13.500380417855922 -52.079433442675509 0 0 0 0 16.736522791044663 24.819317028035641 0 24.819317028035641 3.8954323762033454 0 0 0 0 9.9509933483082218 -0.040459751569414948 0 -0.040459751569414948 -11.811873264605481 0 0 0 0 26.360231172190424 3.7266837878414663 0 3.7266837878414663 -17.641297998663504 0 0 0 0 13.851204744120395 10.781266231470596 0 10.781266231470596 12.419394188839988 0 0 0 0 131.06494999333518 155.82117549316899 0 155.82117549316899 13.800279664603295 0 0 0 0 13.894400912735364 102.55516144799185 0 102.55516144799185 -3.1896246369869914 0 0 0 0 84.860894728142284 30.276097699155798 0 30.276097699155798 -37.520763570588315 0 0 0 0 31.526635666830316 -1.7540259282686748 0 -1.7540259282686748 -63.169532075989991 0 0 0 0 9.2344954884090065 5.4710254152563209 0 5.4710254152563209 -17.230054281316484 0 0 0 0 7.5503597814868044 129.42225937504554 0 129.42225937504554 -57.396354774027714 0 0 0 0 14.474730650403217 16.89938974675897 0 16.89938974675897 1.5473106250865385 0 0 0 0 19.393173275135162 17.614968122802594 0 17.614968122802594 13.346466368626352 0 0 0 0 13.344572806926408 41.12121691714583 0 41.12121691714583 -23.141337957349606 0 0 0 0 13.315559929872506 40.807251207210356 0 40.807251207210356 -12.04527897395019 0 0 0 0 29.786244971691318 38.552567468091354 0 38.552567468091354 19.256233219462217 0 0 0 0 82.444764272302564 -17.544174589711474 0 -17.544174589711474 -9.0296248126978753 0 0 0 0 -72.289803103940358 12.929247866632068 0 12.929247866632068 155.56694086556672 0 0 0 0 -21.922926461095187 21.241408737034362 0 21.241408737034362 80.887594533414813 0 0 0 0 3.7022371061086847 10.088895682243294 0 10.088895682243294 26.748411427879603 0 0 0 0 14.536371899207554 14.784116305886506 0 14.784116305886506 8.487440971252056 0 0 0 0 5.5169489309596429 16.873042609084223 0 16.873042609084223 24.541873725014739 0 0 0 0 -1.7221850082598245 4.1058584054592586 0 4.1058584054592586 28.759590495132215 0 0 0 0 1.6028878748956528 6.0731475238386281 0 6.0731475238386281 6.0556014900438981 0 0 0 0 17.591000452895337 20.708658778963581 0 20.708658778963581 1.1304028584272601 0 0 0 0 21.728519691933428 59.395659902889747 0 59.395659902889747 87.901331349255997 0 0 0 0 -7.1679753815172944 0.45035913327592425 0 0.45035913327592425 94.088045892791342 0 0 0 0 4.1867064512191519 -2.0990563491504872 0 -2.0990563491504872 48.901610809261911 0 0 0 0 21.160504969049924 -20.653783266992832 0 -20.653783266992832 -12.019313710887218 0 0 0 0 -0.015494734716791081 0.37658411371376133 0 0.37658411371376133 4.0409758235458924 0 0 0 0 -1.4320071498648304 6.5082384451525286 0 6.5082384451525286 18.005766762842541 0 0 0 0 40.036857596869027 -30.974154013732914 0 -30.974154013732914 2.8280073403730057 0 0 0 0 14.32346428583848 -4.6109620719620352 0 -4.6109620719620352 -0.50668291747305005 0 0 0 0 21.661076211517297 -40.042955202647136 0 -40.042955202647136 57.124790077272337 0 0 0 0 -9.5953929893993291 18.440114764656755 0 18.440114764656755 30.888160670991056 0 0 0 0 9.0660954256263722 12.286720630858326 0 12.286720630858326 12.985863278212491 0 0 0 0 14.547780338918638 3.3226358819783286 0 3.3226358819783286 10.596751080072508 0 0 0 0 42.536482756086116 4.3080635564110707 0 4.3080635564110707 -6.6513652442372404 0 0 0 0 5.5643289317637823 -4.7896333907610611 0 -4.7896333907610611 9.5876897041773645 0 0 0 0 10.214348595742194 -5.7604740897368174 0 -5.7604740897368174 10.065111017029267 0 0 0 0 62.275472218554569 -13.083078948722687 0 -13.083078948722687 8.219824766041711 0 0 0 0 -20.076339228752204 25.65999278727395 0 25.65999278727395 11.785937515203841 0 0 0 0 12.971420135351764 50.229670381508186 0 50.229670381508186 -27.357485655345954 0 0 0 0 -5.1381898146564708 110.67124391673133 0 110.67124391673133 72.264124878589428 0 0 0 0 -32.444373526123854 -91.30163391053793 0 -91.30163391053793 216.13910726200265 0 0 0 0 -124.52871788800439 99.451070790673839 0 99.451070790673839 -87.764018424786627 0 0 0 0 2.5562876477632837 -3.6023186419669244 0 -3.6023186419669244 0.37480273679057063 0 0 0 0 163.5065183894958 -35.919349806034006 0 -35.919349806034006 45.565020896669012 0 0 0 0 13.631959069175082 -125.6550341007387 0 -125.6550341007387 232.19086570560466 0 0 0 0 188.59032659658988 -312.80326120674727 0 -312.80326120674727 225.30004884124492 0 0 0 0 43.139615247699567 -145.06242981477408 0 -145.06242981477408 620.89666960440809 0 0 0 0 356.16515556673562 -508.99103574491164 0 -508.99103574491164 612.4212447283353 0 0 0 0 167.60701757968127 -6.3956981237861328 0 -6.3956981237861328 60.503650523405668 0 0 0 0 266.40332899668192 -165.34367781637411 0 -165.34367781637411 108.8350201411522 0 0 0 0 8.8225099139235681 -267.66974713123636 0 -267.66974713123636 811.40983255120227 0 0 0 0 59.616798826012655 -254.9202894427217 0 -254.9202894427217 609.47316437300469 0 0 0 0 -35.833616207695741 33.512312863327679 0 33.512312863327679 399.69514233841619 0 0 0 0 87.402084614181263 -147.56118115161189 0 -147.56118115161189 294.39101148988993 0 0 0 0 38.748315646156243 -26.39137852506974 0 -26.39137852506974 574.28411489266728 0 0 0 0 17.313891219862334 -4.3935624752948002 0 -4.3935624752948002 -0.29601667050258129 0 0 0 0 75.457999505141913 34.215279433883552 0 34.215279433883552 25.59295728795405 0 0 0 0 7.2741204232067886 -48.494194698170759 0 -48.494194698170759 87.384238645259757 0 0 0 0 23.703002762959784 -43.779529846608057 0 -43.779529846608057 8.7366342447930947 0 0 0 0 2.1879037000790902 60.719874221671489 0 60.719874221671489 144.13567706397589 0 0 0 0 -6.4355827093706175 -8.0128131458550342 0 -8.0128131458550342 148.66131808777573 0 0 0 0 3.732720092305291 0.1501174489181949 0 0.1501174489181949 0.94785070155239737 0 0 0 0 24.27392296930271 -30.526408718504172 0 -30.526408718504172 86.562107980586006 0 0 0 0 -9.8592469066282149 17.416436586725467 0 17.416436586725467 125.03090478706872 0 0 0 0 6.3817666126144967 -2.5116219758657508 0 -2.5116219758657508 4.5230877337153288 0 0 0 0 3.5202876332538153 -5.4467337721434887 0 -5.4467337721434887 16.988489542316529 0 0 0 0 3.0331082734505888 6.8136976430041187 0 6.8136976430041187 24.09975169728591 0 0 0 0 6.8933148130095105 10.044914554382558 0 10.044914554382558 28.771385835359979 0 0 0 0 10.420073870297301 11.637262982851098 0 11.637262982851098 27.237948007008526 0 0 0 0 2.2920482904016719 12.552990869472069 0 12.552990869472069 37.717075691431091 0 0 0 0 11.139224472629962 10.078301644898602 0 10.078301644898602 27.365950671635801 0 0 0 0 -0.77157327321920377 1.1132768106178048 0 1.1132768106178048 13.230386617030149 0 0 0 0 -94.919589483914024 37.02114001713926 0 37.02114001713926 44.1775610888144 0 0 0 0 0.7586300946695701 50.705489576241234 0 50.705489576241234 44.424431978084613 0 0 0 0 11.800818163710478 16.521628194792157 0 16.521628194792157 21.06943973901258 0 0 0 0 11.171565316562697 6.823617678757131 0 6.823617678757131 6.7885412485554184 0 0 0 0 28.728343541128538 18.020509415102424 0 18.020509415102424 13.654748215791187 0 0 0 0 98.56189585622532 56.282195860556385 0 56.282195860556385 32.321973668731516 0 0 0 0 -29.934381906763576 4.7915792811327265 0 4.7915792811327265 50.405938629526645 0 0 0 0 6.4728856246020872 11.797026107686321 0 11.797026107686321 26.919311511956153 0 0 0 0 3.5874278913911821 18.969430419201331 0 18.969430419201331 14.707082973664569 0 0 0 0 10.436767056445206 32.289677865803242 0 32.289677865803242 35.974929753429024 0 0 0 0 13.048866149434616 46.297886368411127 0 46.297886368411127 28.693929050350562 0 0 0 0 12.862906255174998 21.773312079596906 0 21.773312079596906 25.463493833342454 0 0 0 0 16.401913224711848 43.791947150035412 0 43.791947150035412 24.49446279717813 0 0 0 0 -77.66475378535506 39.745204118480615 0 39.745204118480615 48.877193848544266 0 0 0 0 -25.706794574804917 27.383801362273516 0 27.383801362273516 30.070531364588533 0 0 0 0 -3.8202740048536725 18.269988080151961 0 18.269988080151961 21.226885354699334 0 0 0 0 -24.978606403398317 26.267285605703364 0 26.267285605703364 27.149256186501589 0 0 0 0 4.0731757262817512 16.923306606862042 0 16.923306606862042 20.45856653746398 0 0 0 0 7.8157244044528609 21.977640455988041 0 21.977640455988041 28.802591363090016 0 0 0 0 7.2449141208648911 16.300138045167138 0 16.300138045167138 -3.8452728480884844 0 0 0 0 -14.312813297767882 -4.6798560656307018 0 -4.6798560656307018 30.825268538082923 0 0 0 0 0.65660417256251957 18.377978300454124 0 18.377978300454124 50.267634137150253 0 0 0 0 -0.52326454530902256 4.3168136839556084 0 4.3168136839556084 17.339649880668901 0 0 0 0 -31.836835910641639 19.026096326117113 0 19.026096326117113 35.847494151326828 0 0 0 0 -39.340336742250656 10.483058482241177 0 10.483058482241177 21.772033144545276 0 0 0 0 -30.999419570439386 15.834937858329795 0 15.834937858329795 39.83281005785102 0 0 0 0 -4.2573065723450654 9.8961845212734652 0 9.8961845212734652 30.470917675718283 0 0 0 0 -28.824723308982357 11.771150013548322 0 11.771150013548322 24.850800280080875 0 0 0 0 -12.16661270118065 0.1133619903138765 0 0.1133619903138765 34.671462354502921 0 0 0 0 5.8787645917671441 21.095810327399136 0 21.095810327399136 20.679621283894221 0 0 0 0 4.295429826138113 26.069897468883426 0 26.069897468883426 43.331063723302009 0 0 0 0 -21.066148268747384 4.318919788376661 0 4.318919788376661 86.769917966652429 0 0 0 0 1.155103281913398 49.122940935107181 0 49.122940935107181 -93.070840815693373 0 0 0 0 -16.020931844890583 35.869190220226301 0 35.869190220226301 36.846036642469699 0 0 0 0 -0.72438385995228671 2.9429829520648241 0 2.9429829520648241 12.524748076329814 0 0 0 0 11.088260708442249 47.877873847959563 0 47.877873847959563 27.989623654313618 0 0 0 0 77.118392162564305 -49.586279587005265 0 -49.586279587005265 -24.663237211585511 0 0 0 0 -0.35399291908378672 -0.91907346963989767 0 -0.91907346963989767 4.6304611227920418 0 0 0 0 105.92871630556647 160.7828270141581 0 160.7828270141581 10.61212615238037 0 0 0 0 -28.312153115784895 139.03342344562407 0 139.03342344562407 89.974286380718695 0 0 0 0 74.515932650842842 35.936820828472264 0 35.936820828472264 -1.0610323082655668 0 0 0 0 0.48810722704911846 4.5511516761558042 0 4.5511516761558042 8.2692495632405212 0 0 0 0 101.62370509048628 -49.363980522124621 0 -49.363980522124621 12.245186564512551 0 0 0 0 127.06293943075025 34.846427763353859 0 34.846427763353859 -20.810647328617051 0 0 0 0 -4.2464440420475142 10.111564182048511 0 10.111564182048511 46.048476402126596 0 0 0 0 -15.588812392302316 21.454989701553131 0 21.454989701553131 57.325573879585136 0 0 0 0 38.430252236960996 -37.118747335585795 0 -37.118747335585795 13.814865606676904 0 0 0 0 -182.38458629423815 -246.65641477828467 0 -246.65641477828467 49.362643706495874 0 0 0 0 -40.308224169925779 7.2020246836473234 0 7.2020246836473234 10.952943375625182 0 0 0 0 -2.5240796712130065 -0.62228615393460274 0 -0.62228615393460274 10.491403680020653 0 0 0 0 -3.018524327476074 7.8763150945752916 0 7.8763150945752916 56.729662221145645 0 0 0 0 -513.67808833062793 251.47034758029258 0 251.47034758029258 297.73810245248023 0 0 0 0 -15.41891446889349 11.526644667821529 0 11.526644667821529 55.285455441568047 0 0 0 0 747.95874078188717 -55.104707884194795 0 -55.104707884194795 40.101271601546614 0 0 0 0 122.59487429789709 119.66296453204416 0 119.66296453204416 75.863544126448687 0 0 0 0 120.3283752022362 9.3193234761929489 0 9.3193234761929489 2.8219175201957114 0 0 0 0 1.6449107229365383 4.7179185232613605 0 4.7179185232613605 7.914298254289406 0 0 0 0 407.92723295559563 155.6124028926024 0 155.6124028926024 82.421591868624091 0 0 0 0 115.02243382115626 19.666618141996878 0 19.666618141996878 19.335061799152754 0 0 0 0 -22.941910263432874 91.156752876384417 0 91.156752876384417 93.945988586368912 0 0 0 0 -21.412730240046585 69.301915289412136 0 69.301915289412136 192.24796056651394 0 0 0 0 -88.827642201448725 84.434767990271212 0 84.434767990271212 120.68562943045981 0 0 0 0 -53.751740946801817 32.264485013012745 0 32.264485013012745 172.78145554591902 0 0 0 0 6.5938124872521708 23.322671273777424 0 23.322671273777424 81.973373460737037 0 0 0 0 -5.951755386900814 -3.1145818422603497 0 -3.1145818422603497 15.174986399764521 0 0 0 0 19.377707636169248 37.930010607291479 0 37.930010607291479 45.730748712670902 0 0 0 0 -14.179964953953913 4.4699658251265646 0 4.4699658251265646 55.555293501267442 0 0 0 0 6.9300015869240745 16.509721967514508 0 16.509721967514508 38.861093916312655 0 0 0 0 -2.3426753861867837 10.387710478215013 0 10.387710478215013 25.747540518830647 0 0 0 0 4.1754292404970759 11.973269423904064 0 11.973269423904064 31.479232898130363 0 0 0 0 -5.5120964096968237 56.958071337940055 0 56.958071337940055 27.306468824739568 0 0 0 0 -0.048733016632468207 61.286942742808606 0 61.286942742808606 -35.387816618698707 0 0 0 0 -35.413169964839653 64.446329746999254 0 64.446329746999254 24.980344848620007 0 0 0 0 1.4403541851515911 45.847593178157695 0 45.847593178157695 32.450361853494542 0 0 0 0 2.1161799824803893 79.420252338866703 0 79.420252338866703 22.617600998288253 0 0 0 0 4.9458516635818341 29.558315460031736 0 29.558315460031736 97.684906517461059 0 0 0 0 2.233224958653409 20.840308212878881 0 20.840308212878881 75.835049564819201 0 0 0 0 20.050030412123647 59.232376791696879 0 59.232376791696879 107.96670797881961 0 0 0 0 -3.4337466630249764 16.649598375312053 0 16.649598375312053 145.81409623847867 0 0 0 0 25.754975300647573 -8.0068662263875012 0 -8.0068662263875012 80.39385274113738 0 0 0 0 -4.7083357872287053 24.343605975745959 0 24.343605975745959 103.60343664023094 0 0 0 0 -11.979897482331751 23.25395239017962 0 23.25395239017962 109.82359410965728 0 0 0 0 -22.440758930435095 25.622901836963138 0 25.622901836963138 109.51432226890029 0 0 0 0 -24.510192506275757 16.165761399257462 0 16.165761399257462 105.83309075735451 0 0 0 0 -11.410461137601089 21.819505906518316 0 21.819505906518316 103.86817130052077 0 0 0 0 -1.1095849085590537 18.515779761072281 0 18.515779761072281 86.054750669878558 0 0 0 0 -0.79871107456381196 14.667424164581462 0 14.667424164581462 100.29275236840476 0 0 0 0 -3.4836107323171746 -13.387149659771239 0 -13.387149659771239 61.419589572658879 0 0 0 0 1.8485300601473682 9.8434335745696444 0 9.8434335745696444 48.985543929506093 0 0 0 0 7.9762285100199435 -2.9069197891485032 0 -2.9069197891485032 1.1681188232360142 0 0 0 0 -36.574181878685067 72.197741998737911 0 72.197741998737911 -18.533316463843221 0 0 0 0 16.203646526783871 -1.6187069732077362 0 -1.6187069732077362 48.024306369916303 0 0 0 0 16.660015145827401 -0.65322573069715872 0 -0.65322573069715872 30.114714549286873 0 0 0 0 -8.3256387003067402 10.97265091065492 0 10.97265091065492 58.236950748119853 0 0 0 0 3.1974101027575559 -2.0305836645339923 0 -2.0305836645339923 -0.066365119498556169 0 0 0 0 -3.3245334243958951 9.4308891202090308 0 9.4308891202090308 46.839137665738235 0 0 0 0 -0.68041316056078704 1.1467071376607123 0 1.1467071376607123 7.3897500695870946 0 0 0 0 12.386740606243507 19.083931455672428 0 19.083931455672428 63.560217681646463 0 0 0 0 -2.0882590900553168 -1.6547354095237097 0 -1.6547354095237097 36.405410471925279 0 0 0 0 9.6066635453037748 8.594615034868184 0 8.594615034868184 23.235072685027262 0 0 0 0 3.2023694147673938 -2.2677411066787556 0 -2.2677411066787556 1.4450177257006658 0 0 0 0 -8.7174570039638297 28.966891992044111 0 28.966891992044111 162.96350914270442 0 0 0 0 -3.903244223029148 17.548149450032724 0 17.548149450032724 14.00418780365726 0 0 0 0 -11.09337124735066 -17.008738820150029 0 -17.008738820150029 10.582976528501604 0 0 0 0 16.059564948047921 -3.5838695037097636 0 -3.5838695037097636 0.090820633906474768 0 0 0 0 63.970775848585845 16.41852279457089 0 16.41852279457089 96.35038248624187 0 0 0 0 93.637688209983708 -119.0671661876986 0 -119.0671661876986 497.37098892166978 0 0 0 0 -17.13688598367537 -157.40740227751121 0 -157.40740227751121 826.91224723731284 0 0 0 0 -29.054818370408611 -314.40862667162583 0 -314.40862667162583 1139.5272774251207 0 0 0 0 112.22073979036463 -315.33764416385384 0 -315.33764416385384 987.51696219106088 0 0 0 0 13.376341646694527 -187.98461110649805 0 -187.98461110649805 922.5096730236437 0 0 0 0 61.123391642896877 -237.96400456971605 0 -237.96400456971605 774.19260474287148 0 0 0 0 -15.165594302583486 -217.77460094793059 0 -217.77460094793059 897.41644945739245 0 0 0 0 -57.376592307145984 -119.96020613657311 0 -119.96020613657311 920.91143033054686 0 0 0 0 4.0972563757557054 -254.72558397469402 0 -254.72558397469402 1082.8391912372608 0 0 0 0 56.973809463515181 -57.261284299742329 0 -57.261284299742329 644.03330652127624 0 0 0 0 -40.813921059656423 -66.451649776339764 0 -66.451649776339764 197.9699961606093 0 0 0 0 14.561887478332665 -156.7547513594036 0 -156.7547513594036 552.71791452320758 0 0 0 0 -61.137539310143211 -22.979106683626014 0 -22.979106683626014 106.05707707538386 0 0 0 0 1.343854727573317 -0.38330277224392262 0 -0.38330277224392262 0.35515585395168614 0 0 0 0 10.09482442787286 -2.7361870039771361 0 -2.7361870039771361 0.44939768786910861 0 0 0 0 203.50567128666989 -36.546912575431634 0 -36.546912575431634 177.89753555097559 0 0 0 0 -143.00634946992682 150.34074579152366 0 150.34074579152366 388.16926370939473 0 0 0 0 32.002982127371524 -37.951382767874748 0 -37.951382767874748 -23.405511884935549 0 0 0 0 59.473845362345401 -99.603240003867541 0 -99.603240003867541 98.234394785336917 0 0 0 0 -22.513240617294286 -17.277102768828627 0 -17.277102768828627 41.764200131292455 0 0 0 0 -111.3852379206387 0.49070258635038044 0 0.49070258635038044 100.79515802941751 0 0 0 0 -6.1572458302448467 -66.781132418032939 0 -66.781132418032939 131.81150456034811 0 0 0 0 -34.457372949888395 -123.20996120567725 0 -123.20996120567725 297.95260009000776 0 0 0 0 -2.5026073210738105 -125.13406725626555 0 -125.13406725626555 54.315774343529483 0 0 0 0 42.453313019398593 -87.539486720546847 0 -87.539486720546847 68.722612673576805 0 0 0 0 -16.677748852425793 -40.665463669050951 0 -40.665463669050951 40.976563988690032 0 0 0 0 -3.2040948194239718 -73.75084946359857 0 -73.75084946359857 120.96474774033413 0 0 0 0 53.211940397563012 -126.5650781840086 0 -126.5650781840086 -33.722994411058608 0 0 0 0 33.797883722208326 -50.728489879355038 0 -50.728489879355038 -64.25955744276871 0 0 0 0 18.622312934729962 31.963928753590153 0 31.963928753590153 -29.022663279989501 0 0 0 0 2.9541641534646326 -2.0407348666773544 0 -2.0407348666773544 2.0328924057197355 0 0 0 0 66.84255820311094 321.29179579513675 0 321.29179579513675 362.02659054551623 0 0 0 0 56.00429972548045 -160.69965773605509 0 -160.69965773605509 1358.2266928882964 0 0 0 0 21.185385188620785 -46.184101890015882 0 -46.184101890015882 168.08212287857896 0 0 0 0 -10.996464312390572 -141.2328680047649 0 -141.2328680047649 1375.4609282510501 0 0 0 0 -0.81790736228299643 0.85039533172641768 0 0.85039533172641768 1.4514907836543181 0 0 0 0 4.6672017308128488 -5.7232094421051443 0 -5.7232094421051443 72.859937619388802 0 0 0 0 0.51409596857709161 -2.2323272659402278 0 -2.2323272659402278 -0.40077036585934422 0 0 0 0 -12.752441467544486 -13.810214496887056 0 -13.810214496887056 80.488280204055627 0 0 0 0 -53.543313746744388 131.15126960841008 0 131.15126960841008 247.70054836650525 0 0 0 0 -109.79461807700045 51.747468986781314 0 51.747468986781314 1077.749495230848 0 0 0 0 -73.630908283932968 -37.652196624534554 0 -37.652196624534554 1298.6693015482742 0 0 0 0 -24.915354193341045 -95.187538232246879 0 -95.187538232246879 1004.0175016646972 0 0 0 0 -14.324546368673509 -227.46149157505715 0 -227.46149157505715 1149.461022077041 0 0 0 0 23.878426423164001 -284.07345826625533 0 -284.07345826625533 1234.7866685246699 0 0 0 0 12.774933641076586 -282.60511831091571 0 -282.60511831091571 1252.0445500722271 0 0 0 0 -3.8013323984628187 -174.38943362174541 0 -174.38943362174541 1271.3458566615009 0 0 0 0 6.9445260277070702 -184.22545518123661 0 -184.22545518123661 1248.6675936593092 0 0 0 0 12.084202616568973 -211.00884698220761 0 -211.00884698220761 1370.5569986925693 0 0 0 0 29.282262883197745 -229.63200278603472 0 -229.63200278603472 1325.6671887480188 0 0 0 0 87.693774802314692 -126.44086384226102 0 -126.44086384226102 1388.3068794903229 0 0 0 0 25.31308648387494 -234.78441053401912 0 -234.78441053401912 1460.4031917406974 0 0 0 0 28.94919317612289 -347.20202039115975 0 -347.20202039115975 1421.5729778415989 0 0 0 0 53.31938213965077 -233.25447192366119 0 -233.25447192366119 1424.6515420884825 0 0 0 0 26.043865819806342 -302.89537376197404 0 -302.89537376197404 1385.1731871281372 0 0 0 0 32.650271724296545 -358.6343887031253 0 -358.6343887031253 1303.5463234040362 0 0 0 0 20.570852746959645 -453.8055869241216 0 -453.8055869241216 1276.1161821759852 0 0 0 0 38.428712299745712 -350.80158796522301 0 -350.80158796522301 1290.0595553865132 0 0 0 0 34.311399678012094 -349.08264753717231 0 -349.08264753717231 1144.5129416678446 0 0 0 0 29.996524739466622 -375.12479252096091 0 -375.12479252096091 1271.9258672533615 0 0 0 0 21.767607287351666 -316.69820170399908 0 -316.69820170399908 1533.5482052838561 0 0 0 0 41.609932157595949 -398.07688794062415 0 -398.07688794062415 1376.5851470401394 0 0 0 0 56.45440328757968 -302.49768025422236 0 -302.49768025422236 1473.6038626969093 0 0 0 0 95.208454418241217 -290.30195822261157 0 -290.30195822261157 1452.9043240112078 0 0 0 0 104.28415766102808 -75.697132895118557 0 -75.697132895118557 1541.2386523479581 0 0 0 0 54.549027009985821 -267.67901845808956 0 -267.67901845808956 1578.8431561248726 0 0 0 0 26.809060323113499 -44.696675003433484 0 -44.696675003433484 1845.3246316742152 0 0 0 0 26.247873770502281 -292.67494929070381 0 -292.67494929070381 1707.6741400229221 0 0 0 0 48.840861016246208 -303.68850815307815 0 -303.68850815307815 1525.6198433320023 0 0 0 0 0.15592380773118558 -384.04561897428357 0 -384.04561897428357 1804.9124775868258 0 0 0 0 -115.52817722645659 -205.55399891987327 0 -205.55399891987327 2004.1485900705738 0 0 0 0 -0.054866913196747191 -7.1496522525121691 0 -7.1496522525121691 76.855522058394854 0 0 0 0 -1.6391815438558854 5.500660655008744 0 5.500660655008744 1.9757418791887957 0 0 0 0 -1.0630913084140967 -11.504359264388199 0 -11.504359264388199 8.6843144599924926 0 0 0 0 6.2788508921900128 -601.96180396771524 0 -601.96180396771524 -157.74014175042976 0 0 0 0 -0.046522701069844422 -29.422661734919529 0 -29.422661734919529 29.037611622654367 0 0 0 0 -0.44236005622181812 -4.3571681369197108 0 -4.3571681369197108 10.753972723660418 0 0 0 0 -12.944184100857456 24.401527935289778 0 24.401527935289778 94.990250173890672 0 0 0 0 -9.068622503506095 -3.6599904898873206 0 -3.6599904898873206 3.1631158259338505 0 0 0 0 -42.61535564150654 -40.219665847485885 0 -40.219665847485885 36.261133017240354 0 0 0 0 3.3075369850663305 -1.7791961944749346 0 -1.7791961944749346 1.8115661949968143 0 0 0 0 8.1744290707128293 -8.1653932452462357 0 -8.1653932452462357 5.5126720638303937 0 0 0 0 70.541362589745859 6.4147129857301479 0 6.4147129857301479 122.44118931333651 0 0 0 0 -0.32596708332812341 113.72045732999686 0 113.72045732999686 313.04410479366197 0 0 0 0 24.829137010064187 -75.734627314348472 0 -75.734627314348472 294.7253232638941 0 0 0 0 35.300086141534081 133.2499510526759 0 133.2499510526759 197.34006607381161 0 0 0 0 37.282026301537513 159.00558896746952 0 159.00558896746952 381.93118489036715 0 0 0 0 -0.0040384558688590227 -0.71691120425272814 0 -0.71691120425272814 3.214034779346548 0 0 0 0 -0.40299745391038949 0.066978455524946412 0 0.066978455524946412 2.6981023755328124 0 0 0 0 -0.4630986641064368 -0.41696834539271777 0 -0.41696834539271777 4.9927159417239011 0 0 0 0 -17.546954683914976 5.037752141666715 0 5.037752141666715 5.3364421196165495 0 0 0 0 -4.7729512474045812 -21.017564745485288 0 -21.017564745485288 -30.539719489461277 0 0 0 0 0.39704046835868745 -1.0103714309867797 0 -1.0103714309867797 3.2369366938929716 0 0 0 0 0.0059347688340950534 -4.395793347612198 0 -4.395793347612198 -5.9901682666932174 0 0 0 0 -8.4992464136194315 15.51850770895544 0 15.51850770895544 9.1220615927595645 0 0 0 0 -12.851197799662623 9.8244131427491084 0 9.8244131427491084 143.08056386065437 0 0 0 0 0.15688238223050988 -0.48091966051491397 0 -0.48091966051491397 1.2945334016768584 0 0 0 0 4.9849791124710396 26.521978303630021 0 26.521978303630021 -17.359069876951253 0 0 0 0 15.909350187035457 24.369562962529017 0 24.369562962529017 12.013673607070814 0 0 0 0 52.71856097219343 -85.429128079427755 0 -85.429128079427755 87.201023666581023 0 0 0 0 36.237431753822108 14.563054839527467 0 14.563054839527467 -6.5371312116039917 0 0 0 0 3.547610656564089 2.075271497873473 0 2.075271497873473 -9.2169945273490157 0 0 0 0 23.89314411281147 6.9741522276453907 0 6.9741522276453907 -8.1245779493474402 0 0 0 0 28.012405955443828 -37.792999583766232 0 -37.792999583766232 30.440893733568373 0 0 0 0 8.7307418762548146 -3.3102481400030115 0 -3.3102481400030115 1.2460768865981606 0 0 0 0 248.42413082037456 -257.23341821657959 0 -257.23341821657959 472.17240939334442 0 0 0 0 -266.84014131523509 -177.99440889674588 0 -177.99440889674588 1123.7416859976365 0 0 0 0 -272.93160899900067 135.3062922298559 0 135.3062922298559 172.03031384311907 0 0 0 0 96.807166349530235 -209.35730356766726 0 -209.35730356766726 121.5045733434963 0 0 0 0 -9.6541435380898974 -20.349739206034428 0 -20.349739206034428 114.06707801617449 0 0 0 0 24.7207016389317 21.287978619380738 0 21.287978619380738 102.13163882249501 0 0 0 0 -0.02524570181834751 0.4118378062840975 0 0.4118378062840975 0.86203194891015755 0 0 0 0 -18.42389636519513 -76.895710728356789 0 -76.895710728356789 209.99091427857638 0 0 0 0 -23.355239418416748 47.932766201472987 0 47.932766201472987 49.396039644547272 0 0 0 0 -31.569503699615211 35.406516123344772 0 35.406516123344772 111.09882968041347 0 0 0 0 -25.813769527657207 14.546544955728677 0 14.546544955728677 142.86035817436641 0 0 0 0 -32.253056413180559 11.305264003865886 0 11.305264003865886 102.29604964656755 0 0 0 0 -21.9876517542084 23.694133392695221 0 23.694133392695221 117.23373799297769 0 0 0 0 -35.162439612246374 5.108913384610787 0 5.108913384610787 138.45764487148335 0 0 0 0 -8.2563972910546823 -14.610710710679996 0 -14.610710710679996 52.542527358134976 0 0 0 0 4.3610882219238931 -72.403213715166203 0 -72.403213715166203 174.60330528324266 0 0 0 0 119.32804110097901 -71.070376635587309 0 -71.070376635587309 31.325059407675326 0 0 0 0 59.297425691391979 13.169604726979742 0 13.169604726979742 28.196787115855841 0 0 0 0 0.063798971925474485 0.34153903643544936 0 0.34153903643544936 0.88880177901444313 0 0 0 0 -0.018676368124400045 -19.528479328197136 0 -19.528479328197136 102.84836510446621 0 0 0 0 -0.025775033002521718 -13.790282685275661 0 -13.790282685275661 138.75793634302681 0 0 0 0 45.842037444329591 -97.985132468609663 0 -97.985132468609663 192.82396251196042 0 0 0 0 -30.593106557175478 -21.800925564137287 0 -21.800925564137287 232.7615692338004 0 0 0 0 -12.009086942079456 -58.439504886671784 0 -58.439504886671784 233.97198732191464 0 0 0 0 50.279999445322119 38.843445803158829 0 38.843445803158829 102.33317340188842 0 0 0 0 34.501531963018351 20.75544187000196 0 20.75544187000196 93.297534701021505 0 0 0 0 17.993714588428247 68.255697347747628 0 68.255697347747628 143.6836352630271 0 0 0 0 69.21016941185735 25.565039480088672 0 25.565039480088672 -0.85623967092396924 0 0 0 0 -0.077416708541782953 3.6239483956133256 0 3.6239483956133256 13.237275566812354 0 0 0 0 78.781167419431313 56.728906483607716 0 56.728906483607716 66.177958568689064 0 0 0 0 16.086178397683398 46.497138366758008 0 46.497138366758008 190.09790696836899 0 0 0 0 47.710553596756654 40.538040558654757 0 40.538040558654757 49.874693857353122 0 0 0 0 -8.3192030217560387 32.732112980243983 0 32.732112980243983 108.71252015019127 0 0 0 0 5.6947278022185701 4.4781852980330399 0 4.4781852980330399 20.507983237206481 0 0 0 0 31.095952593626862 57.244860239341506 0 57.244860239341506 67.028777910583813 0 0 0 0 7.1177369699087194 8.5266649378318107 0 8.5266649378318107 228.51363356223737 0 0 0 0 -13.265795813893448 -28.358419268815851 0 -28.358419268815851 65.305865201720735 0 0 0 0 -24.44072157931987 34.302454733471677 0 34.302454733471677 92.69339810184465 0 0 0 0 -16.890819630446231 10.809430979985336 0 10.809430979985336 265.02231201273389 0 0 0 0 1.7867343059247318 -1.4764616431758384 0 -1.4764616431758384 -2.4998250005389089 0 0 0 0 39.478653716733334 86.598175985782291 0 86.598175985782291 400.92230524049774 0 0 0 0 39.527478010653169 -16.324177021291689 0 -16.324177021291689 27.876010131774819 0 0 0 0 -11.253309572435228 42.639681997847219 0 42.639681997847219 371.89310815901263 0 0 0 0 42.571614494081359 10.948705972805328 0 10.948705972805328 47.134849870337348 0 0 0 0 -48.900190184381572 -99.000188807709492 0 -99.000188807709492 168.59039368715457 0 0 0 0 101.1954939359656 95.770584865138517 0 95.770584865138517 376.2174145084573 0 0 0 0 56.159303271608792 109.54813010270482 0 109.54813010270482 435.98410030630475 0 0 0 0 -168.66321867451768 52.967385431307775 0 52.967385431307775 372.14469046206796 0 0 0 0 99.947056462487581 90.093004054386256 0 90.093004054386256 91.593775334898965 0 0 0 0 -48.987435900972173 64.087462758470792 0 64.087462758470792 87.065216664457694 0 0 0 0 19.319643842088453 1.739378232465242 0 1.739378232465242 97.617077065908234 0 0 0 0 45.591078235142504 -10.841130890596105 0 -10.841130890596105 102.61560931754866 0 0 0 0 26.803731540607487 7.0696903621064848 0 7.0696903621064848 88.585798310436076 0 0 0 0 32.707599092036844 -14.995013328189088 0 -14.995013328189088 67.230039919486444 0 0 0 0 12.568062518198985 51.313417314351682 0 51.313417314351682 184.11028709437232 0 0 0 0 7.9239905136442985 24.107951483741999 0 24.107951483741999 201.4718884446047 0 0 0 0 -45.694186173478386 -0.69390631001806469 0 -0.69390631001806469 113.17092513950774 0 0 0 0 10.640791477159723 35.441973742927075 0 35.441973742927075 89.255448559634715 0 0 0 0 -11.767453418721857 108.74746368356318 0 108.74746368356318 132.16944042366958 0 0 0 0 -89.333241712477729 112.98897630802821 0 112.98897630802821 309.99949340608873 0 0 0 0 -29.215429112229572 81.130176440528885 0 81.130176440528885 334.28433226640482 0 0 0 0 -0.98892724381244079 26.864935268108638 0 26.864935268108638 474.5060382960728 0 0 0 0 92.835341301373319 -19.466457059759705 0 -19.466457059759705 190.04779544205849 0 0 0 0 29.800103481921269 22.022184300636582 0 22.022184300636582 191.47918789945834 0 0 0 0 63.289093113949093 77.670081533357916 0 77.670081533357916 235.3977314781514 0 0 0 0 1.4136947615807962 -2.8509341364560896 0 -2.8509341364560896 2.74524039798888 0 0 0 0 68.557407882359257 308.78811891005171 0 308.78811891005171 867.1225686727521 0 0 0 0 264.4566001794592 151.7620114779711 0 151.7620114779711 21.065702690168109 0 0 0 0 210.7540714021261 134.29027662469889 0 134.29027662469889 530.05299905403808 0 0 0 0 87.120833825028967 174.59829856389115 0 174.59829856389115 524.07738659628376 0 0 0 0 20.204898514581146 177.93638226416078 0 177.93638226416078 589.60841348592658 0 0 0 0 16.594827722783521 143.99720569272176 0 143.99720569272176 478.55091759976222 0 0 0 0 29.31994311546714 229.73222455071482 0 229.73222455071482 269.77329226362053 0 0 0 0 -4.9793291610112647 371.95948694591061 0 371.95948694591061 493.7619545920461 0 0 0 0 -11.227553975684486 227.17864168315828 0 227.17864168315828 757.27036070972099 0 0 0 0 18.619413040958534 121.10526490874327 0 121.10526490874327 816.97813554658205 0 0 0 0 -6.578275026200572 250.12831201184599 0 250.12831201184599 569.14414073771695 0 0 0 0 -46.502349842974581 -88.314815696063306 0 -88.314815696063306 144.60081311236718 0 0 0 0 -11.525596733741622 43.49144555064413 0 43.49144555064413 136.771204931174 0 0 0 0 -64.322145262014601 287.97607847266772 0 287.97607847266772 853.66603851419677 0 0 0 0 4.6698458494888975 -6.9784574540143751 0 -6.9784574540143751 5.5712357358430751 0 0 0 0 -33.180311721855105 331.58275502518518 0 331.58275502518518 763.18490766613468 0 0 0 0 2.5072133148823923 39.507804056585883 0 39.507804056585883 133.15158375626197 0 0 0 0 -18.606404154738811 47.395100891597394 0 47.395100891597394 134.99892113453825 0 0 0 0 58.763064299216239 201.89878036566733 0 201.89878036566733 381.775761803161 0 0 0 0 -7.5853055184884397 -10.212711636504537 0 -10.212711636504537 189.48394610090691 0 0 0 0 193.74096425402422 166.69334548496772 0 166.69334548496772 111.10196853935486 0 0 0 0 7.8960827195216199 8.4419174524418636 0 8.4419174524418636 -0.1453966982662962 0 0 0 0 -224.57085668451964 -57.681228909401398 0 -57.681228909401398 478.03841379715595 0 0 0 0 5.4404044294192744 3.2650067275781822 0 3.2650067275781822 2.580186617433597 0 0 0 0 175.13585009294184 27.822592111784616 0 27.822592111784616 43.481792811056948 0 0 0 0 9.7343823306200647 6.919288173696259 0 6.919288173696259 6.4370576249020814 0 0 0 0 -90.881267959106481 91.54580929675285 0 91.54580929675285 443.68288739385025 0 0 0 0 149.65092967337841 -385.64441497939697 0 -385.64441497939697 309.6639932606995 0 0 0 0 1.9386029733480967 -0.90835744360703075 0 -0.90835744360703075 -0.1113681245493936 0 0 0 0 389.8532041844519 643.38098268763861 0 643.38098268763861 1063.5264613019281 0 0 0 0 -0.36007489117842262 2.4280396688290917 0 2.4280396688290917 4.1683502868447988 0 0 0 0 -32.427976173607021 -19.014983268571086 0 -19.014983268571086 138.52191426856734 0 0 0 0 -24.507470344065041 356.04711963165391 0 356.04711963165391 767.38789450196782 0 0 0 0 378.29808518255595 455.34143155625497 0 455.34143155625497 -213.21202237729449 0 0 0 0 25.272337094193063 269.14327767591749 0 269.14327767591749 798.66604371542417 0 0 0 0 14.387581856322868 46.145410432225617 0 46.145410432225617 132.60397309891414 0 0 0 0 16.071174272276949 60.65936162541675 0 60.65936162541675 133.13332915882347 0 0 0 0 104.72551412197367 660.00906834293892 0 660.00906834293892 1148.0112586807372 0 0 0 0 5.9808497133627263 -9.5563691188306876 0 -9.5563691188306876 5.9225388255778029 0 0 0 0 12.250501566693856 56.88246110307955 0 56.88246110307955 149.57822568641132 0 0 0 0 444.23599989241848 152.90709867149417 0 152.90709867149417 912.57299027216322 0 0 0 0 -108.10754555694439 -234.19450030851294 0 -234.19450030851294 894.00353918076144 0 0 0 0 -67.040859537744836 121.39143743741442 0 121.39143743741442 608.04535341792507 0 0 0 0 -83.526796540892974 290.18038502743002 0 290.18038502743002 1045.6675430619871 0 0 0 0 29.259024064475398 32.51987810645187 0 32.51987810645187 142.06227559229592 0 0 0 0 -47.260932633935681 -84.974861907096056 0 -84.974861907096056 -11.157928265311057 0 0 0 0 -80.844159767630117 71.842967939646769 0 71.842967939646769 153.35769279937085 0 0 0 0 30.343768298471073 38.767218375655197 0 38.767218375655197 1.1660225501631931 0 0 0 0 17.792701387073976 52.254324599081883 0 52.254324599081883 125.32829330676759 0 0 0 0 49.246735135553877 144.23213884065808 0 144.23213884065808 -27.488590328466671 0 0 0 0 -0.46530246491420257 56.856994426147139 0 56.856994426147139 135.43107497990786 0 0 0 0 -11.487186468875734 47.098578887773328 0 47.098578887773328 137.24027031553851 0 0 0 0 -47.68641065117481 117.15291267631255 0 117.15291267631255 366.68721340267257 0 0 0 0 -30.278405830102656 29.997415326470218 0 29.997415326470218 327.3173190343914 0 0 0 0 42.542625890718227 2.2375242663947574 0 2.2375242663947574 119.59842632322761 0 0 0 0 11.845244718560398 2.1984400861954327 0 2.1984400861954327 -2.729001922734227 0 0 0 0 7.9498269536663884 -14.724503205114161 0 -14.724503205114161 227.89648000755915 0 0 0 0 3.3288868462100822 161.3775784915415 0 161.3775784915415 159.48056269468725 0 0 0 0 -53.394677478875622 154.62749972045276 0 154.62749972045276 282.40522145351861 0 0 0 0 82.919177643191688 125.47227983517223 0 125.47227983517223 304.2284207683897 0 0 0 0 17.749848485147595 181.71226523268706 0 181.71226523268706 292.43543855890312 0 0 0 0 82.277640163380056 118.25826827192213 0 118.25826827192213 305.70420103012293 0 0 0 0 54.840611188467619 91.119220207085164 0 91.119220207085164 281.4299560203508 0 0 0 0 167.67170402887041 5.0108465470839292 0 5.0108465470839292 399.03731195708679 0 0 0 0 115.98271839308563 -63.840372167469468 0 -63.840372167469468 476.56554655704531 0 0 0 0 51.751213849790474 23.768614964654262 0 23.768614964654262 510.91018944368625 0 0 0 0 62.963770222529092 33.095893948950106 0 33.095893948950106 147.85111159877124 0 0 0 0 31.344800938461049 159.72235823696246 0 159.72235823696246 251.23539524187072 0 0 0 0 55.61650093388198 143.18285581760938 0 143.18285581760938 179.3042703244937 0 0 0 0 126.3413052079768 89.754802079620276 0 89.754802079620276 24.223186888695636 0 0 0 0 30.666844874777347 39.394826994355924 0 39.394826994355924 11.081389839182858 0 0 0 0 40.658152364477246 57.937542647425289 0 57.937542647425289 85.223998099147366 0 0 0 0 -11.271763154435575 39.797221130385878 0 39.797221130385878 125.88351323824099 0 0 0 0 -10.991184258033172 36.47688310801459 0 36.47688310801459 136.60315868461475 0 0 0 0 25.997207304287713 88.615574735205882 0 88.615574735205882 134.27464441851043 0 0 0 0 7.950233959870241 8.0541354998452519 0 8.0541354998452519 17.659210230717427 0 0 0 0 9.9626629515877241 31.734352403252874 0 31.734352403252874 83.578498623001906 0 0 0 0 -2.619994659463373 64.870526981503644 0 64.870526981503644 193.98041672000545 0 0 0 0 12.251163073200587 28.69104513342063 0 28.69104513342063 148.44285298093746 0 0 0 0 12.026841945125852 38.08291864608691 0 38.08291864608691 113.0239280558817 0 0 0 0 23.916907318634003 36.970068614838965 0 36.970068614838965 108.2416403748357 0 0 0 0 14.939067509082406 40.520147734815964 0 40.520147734815964 111.89874292213426 0 0 0 0 16.462488202948066 41.425417154779097 0 41.425417154779097 90.522445564709415 0 0 0 0 8.0919409832740712 27.151017406969913 0 27.151017406969913 101.65319889581224 0 0 0 0 23.029089537875084 49.054923612652587 0 49.054923612652587 21.551312030448674 0 0 0 0 19.808666287980486 75.074304383734102 0 75.074304383734102 81.043282692887374 0 0 0 0 -17.609469225700703 6.1645686215938849 0 6.1645686215938849 30.85777608127464 0 0 0 0 15.227059769300467 70.629343894898739 0 70.629343894898739 92.265737195147267 0 0 0 0 18.151218668604333 38.872570023804982 0 38.872570023804982 33.188372809981963 0 0 0 0 -16.605650856170541 32.977572192563173 0 32.977572192563173 101.87976857145145 0 0 0 0 10.550466812146624 54.8785956967331 0 54.8785956967331 66.036676740384792 0 0 0 0 -0.7599642995539071 25.870100107147124 0 25.870100107147124 52.809387298940408 0 0 0 0 23.587321869550532 45.52707663908334 0 45.52707663908334 9.961493031454479 0 0 0 0 14.069116551369916 12.913839472951622 0 12.913839472951622 62.727667513261622 0 0 0 0 14.783532658458192 6.889178935222489 0 6.889178935222489 13.648310811870765 0 0 0 0 30.323100102054923 20.293307966427165 0 20.293307966427165 63.82867971021642 0 0 0 0 -40.92505962253199 56.384811363778908 0 56.384811363778908 122.73758628893665 0 0 0 0 9.8364784993564172 8.5552966128568642 0 8.5552966128568642 63.517216541310063 0 0 0 0 80.398067195224939 140.17860937626938 0 140.17860937626938 -62.579894490859829 0 0 0 0 25.382406902645016 76.331002489834191 0 76.331002489834191 126.72482727846773 0 0 0 0 58.148641323386983 3.6299975685305981 0 3.6299975685305981 194.69563940046908 0 0 0 0 -65.971872966865703 19.012150223538811 0 19.012150223538811 20.399658567156621 0 0 0 0 -14.45447043826789 17.861001684940675 0 17.861001684940675 201.81984542105829 0 0 0 0 11.322219508034308 2.7197492214979739 0 2.7197492214979739 2.5866216342592669 0 0 0 0 14.473886599014804 56.149695279793832 0 56.149695279793832 121.33671932728475 0 0 0 0 -18.521628554358387 7.2128510096391052 0 7.2128510096391052 8.6587580192452407 0 0 0 0 -248.02337239458211 -449.57287177066701 0 -449.57287177066701 69.773578726035339 0 0 0 0 505.24542170096174 9.9862907528358846 0 9.9862907528358846 313.76981353070732 0 0 0 0 836.51641436995806 -806.5968137328432 0 -806.5968137328432 -472.98136959772273 0 0 0 0 262.92024182670048 -1119.1341894633929 0 -1119.1341894633929 -524.00568556841699 0 0 0 0 7.6787839790284806 -3.7534590656129598 0 -3.7534590656129598 8.4168824920862395 0 0 0 0 188.9233599712561 60.839910745150064 0 60.839910745150064 -219.13030945920764 0 0 0 0 -96.929240583807768 30.790458788250362 0 30.790458788250362 79.269170641705614 0 0 0 0 40.417058730114476 11.07065214831152 0 11.07065214831152 1.9818288881984243 0 0 0 0 49.280762319553105 101.08130288907319 0 101.08130288907319 -46.770540067735283 0 0 0 0 -110.32945066803586 414.52548275510799 0 414.52548275510799 434.43443419302776 0 0 0 0 909.81507563591731 731.78971225574355 0 731.78971225574355 -884.82487463773487 0 0 0 0 -279.03513471119368 800.83739570920079 0 800.83739570920079 1235.2081083348994 0 0 0 0 -188.1052691977784 847.1713986902555 0 847.1713986902555 699.56132488440699 0 0 0 0 15.706728511137186 3.3736317650685628 0 3.3736317650685628 0.968442284843686 0 0 0 0 -922.80647891412627 404.69038739347752 0 404.69038739347752 992.5526878941655 0 0 0 0 -10.079432110574089 -327.48863884773334 0 -327.48863884773334 96.605504448645661 0 0 0 0 368.74748032852722 -724.35661065815748 0 -724.35661065815748 17.417528004300038 0 0 0 0 128.86920136230401 -694.10666171635853 0 -694.10666171635853 49.478678401603247 0 0 0 0 233.37661776933237 -207.95250090118134 0 -207.95250090118134 144.00676808483877 0 0 0 0 1379.5829863648687 -570.8793913217105 0 -570.8793913217105 237.86169106420311 0 0 0 0 475.50562010507338 638.93445034135823 0 638.93445034135823 474.85909925551459 0 0 0 0 -426.03085268301948 169.57705653947232 0 169.57705653947232 62.832422499925087 0 0 0 0 44.439338333919295 -653.99472089356914 0 -653.99472089356914 1504.2286619916722 0 0 0 0 -45.748809568831348 694.61345660196639 0 694.61345660196639 1072.1408959828709 0 0 0 0 2.1490377482828862 19.771824164827194 0 19.771824164827194 213.97087348074274 0 0 0 0 -1830.3380201423497 -94.37211746916546 0 -94.37211746916546 574.38312090157706 0 0 0 0 -164.55521133228467 387.39646109075602 0 387.39646109075602 486.31391300435735 0 0 0 0 -21.156581970938468 -49.701101413764263 0 -49.701101413764263 18.241437256798861 0 0 0 0 -253.82472631470705 73.250314751569874 0 73.250314751569874 317.06805187141822 0 0 0 0 -36.157596586444924 115.14351541243536 0 115.14351541243536 263.22069810021139 0 0 0 0 -32.82305845675608 -26.306810639196222 0 -26.306810639196222 180.30829013231045 0 0 0 0 -36.710728637100601 -16.665281545070837 0 -16.665281545070837 274.36872203875606 0 0 0 0 -204.18222872640399 439.12140788744881 0 439.12140788744881 580.40923837895025 0 0 0 0 -48.162958802848152 157.8670233123774 0 157.8670233123774 112.1801942812433 0 0 0 0 17.665637887130806 26.925649626150836 0 26.925649626150836 -10.119985530058077 0 0 0 0 366.80251438682535 245.37381827111818 0 245.37381827111818 6.3930074605782465 0 0 0 0 433.7640740197312 346.40262170608503 0 346.40262170608503 113.45007746870851 0 0 0 0 64.12775929739837 61.279171084241284 0 61.279171084241284 -57.45805454218555 0 0 0 0 95.440871732964297 328.35625653834813 0 328.35625653834813 222.38941526214967 0 0 0 0 217.04889042611467 334.6550347139941 0 334.6550347139941 209.33291530567658 0 0 0 0 53.460750480066338 91.329534133976949 0 91.329534133976949 55.198999487989902 0 0 0 0 32.115305955574513 84.95620779498131 0 84.95620779498131 171.69097182061159 0 0 0 0 253.62890701192009 187.20438653568704 0 187.20438653568704 7.0137989462805308 0 0 0 0 13.259540202006248 52.527500361197589 0 52.527500361197589 93.836809124234634 0 0 0 0 43.494728927802043 91.657828770185006 0 91.657828770185006 157.79410009559797 0 0 0 0 62.157432006311282 97.784559669967877 0 97.784559669967877 62.362579278357224 0 0 0 0 79.197880953413346 108.72958411780564 0 108.72958411780564 90.276523559623456 0 0 0 0 44.908645308440782 110.71608918399579 0 110.71608918399579 178.42693713997869 0 0 0 0 43.979254038566225 101.11033673463908 0 101.11033673463908 174.66558245012129 0 0 0 0 40.916121040650523 96.215440627143835 0 96.215440627143835 167.48228953978105 0 0 0 0 19.234539935988991 91.636270468912244 0 91.636270468912244 216.17854710337997 0 0 0 0 1.6397497783908648 84.989615109901933 0 84.989615109901933 300.26992005367356 0 0 0 0 -18.697209016090937 42.853051366109867 0 42.853051366109867 214.52503858825685 0 0 0 0 6.6296609232566048 25.032857257069722 0 25.032857257069722 99.360450312600847 0 0 0 0 4.9006036688083441 64.679867574166565 0 64.679867574166565 213.364270143049 0 0 0 0 10.644672464151881 64.651146048163355 0 64.651146048163355 205.46124985237111 0 0 0 0 2.7052099565676873 8.7922382034936959 0 8.7922382034936959 20.856715121395268 0 0 0 0 10.529428645385906 31.39917203976438 0 31.39917203976438 157.0937152471306 0 0 0 0 22.503911784572423 65.26408022969008 0 65.26408022969008 143.91429566946317 0 0 0 0 -538.57032635445535 -53.911007425722346 0 -53.911007425722346 82.025430711742956 0 0 0 0 1.8740134448666954 -1.343360460909615 0 -1.343360460909615 0.067141735497614263 0 0 0 0 171.76699353046399 278.25409183973898 0 278.25409183973898 460.58397614517435 0 0 0 0 45.272220808305065 104.2906130684205 0 104.2906130684205 392.3000753582819 0 0 0 0 41.369216002576195 119.85343950077367 0 119.85343950077367 332.85831781405432 0 0 0 0 13.752402946859945 75.727503068821534 0 75.727503068821534 279.60302875176421 0 0 0 0 84.030857693229564 153.96278400238225 0 153.96278400238225 240.25782648889435 0 0 0 0 166.96846191760469 196.2913433085414 0 196.2913433085414 273.29143558129726 0 0 0 0 106.14330148954878 110.85399360626252 0 110.85399360626252 161.3997573954548 0 0 0 0 81.854871713435273 115.83278566755325 0 115.83278566755325 161.01885528405455 0 0 0 0 -165.44315596912207 97.584648499851028 0 97.584648499851028 88.272568035543372 0 0 0 0 88.470115322526681 137.87620119857456 0 137.87620119857456 143.50946213039788 0 0 0 0 8.6500059324880461 15.700914442769346 0 15.700914442769346 27.736106878467893 0 0 0 0 -258.88130047685456 -27.100643408948599 0 -27.100643408948599 82.052602693598601 0 0 0 0 -270.61002828037277 72.854023221865646 0 72.854023221865646 255.9034320548526 0 0 0 0 -255.33101246180138 89.602128956499655 0 89.602128956499655 217.5202997610686 0 0 0 0 -4.5010036926295829 5.3381605442473017 0 5.3381605442473017 37.535586422097296 0 0 0 0 -18.244913480102383 -13.247534916128643 0 -13.247534916128643 237.43601843342185 0 0 0 0 -18.301029198945287 -0.70364542257448193 0 -0.70364542257448193 204.92450514024313 0 0 0 0 -40.278384184454694 -1.1394517927292327 0 -1.1394517927292327 349.35844181304856 0 0 0 0 -316.34126137118756 250.32836033682906 0 250.32836033682906 329.60909835729399 0 0 0 0 -9.2811187633114365 -0.83045736292210393 0 -0.83045736292210393 -4.1973409832234836 0 0 0 0 88.016561318253594 34.964374601186137 0 34.964374601186137 217.01389975679922 0 0 0 0 -691.34162728342744 163.27639537813593 0 163.27639537813593 370.492045411047 0 0 0 0 -746.73868727567049 -267.67170612093469 0 -267.67170612093469 154.35052964002534 0 0 0 0 -367.97061196935357 23.465326842808281 0 23.465326842808281 237.67979830006152 0 0 0 0 -360.08518095179306 -168.58640955172086 0 -168.58640955172086 182.61873862190259 0 0 0 0 -325.42903999175519 -26.040252342125314 0 -26.040252342125314 268.56663056048274 0 0 0 0 -272.1593881889595 -328.24648599546708 0 -328.24648599546708 -341.54772003346443 0 0 0 0 -93.007168868798431 -91.848730320551113 0 -91.848730320551113 -29.790566645679064 0 0 0 0 43.357463202081362 -16.915050515861367 0 -16.915050515861367 -139.20199739892269 0 0 0 0 -86.351497212278332 -124.40657984777135 0 -124.40657984777135 -51.654094203349814 0 0 0 0 9.203064885952017 -20.041735800328752 0 -20.041735800328752 -58.080047911164002 0 0 0 0 15.70415534274025 -42.973313498096104 0 -42.973313498096104 48.396287742740242 0 0 0 0 -38.237741570938795 -45.602988325565093 0 -45.602988325565093 76.568902009625162 0 0 0 0 -20.343118716088867 -80.01348290500755 0 -80.01348290500755 25.642185007935041 0 0 0 0 -11.327093232874063 -14.147493753986055 0 -14.147493753986055 90.071520190153024 0 0 0 0 -153.52914748987973 -71.357313515961096 0 -71.357313515961096 200.97404689173709 0 0 0 0 -134.20665127107935 45.153460680602166 0 45.153460680602166 359.416743961272 0 0 0 0 -51.95137673198542 34.15283611810446 0 34.15283611810446 449.23006260735565 0 0 0 0 58.733108330398068 43.192483301216271 0 43.192483301216271 244.61402978680235 0 0 0 0 -179.00573648111458 185.74380088606995 0 185.74380088606995 488.60799891182251 0 0 0 0 -5.0584951266881131 -0.83136465166597873 0 -0.83136465166597873 0.65738403103486576 0 0 0 0 341.70879207817552 -447.07048257804126 0 -447.07048257804126 -150.6550424269808 0 0 0 0 -441.80435588976638 602.68789491525968 0 602.68789491525968 79.694240078053554 0 0 0 0 -712.72645898121118 -716.26836252131034 0 -716.26836252131034 -49.971889395223116 0 0 0 0 -3.603721780465428 0.41022313114470421 0 0.41022313114470421 1.8943333441995946 0 0 0 0 -194.25880846474985 12.729406469137757 0 12.729406469137757 317.53777120939048 0 0 0 0 -922.44609423729105 -379.50273517568348 0 -379.50273517568348 415.33193602338451 0 0 0 0 -336.5912495058717 174.1797102280907 0 174.1797102280907 654.10924039405654 0 0 0 0 -438.29116311070328 -42.08224610475736 0 -42.08224610475736 488.50451690044429 0 0 0 0 -352.28080609136327 68.564448391058249 0 68.564448391058249 409.72371248400304 0 0 0 0 -81.457682356724149 -108.30125329690054 0 -108.30125329690054 109.69630036875606 0 0 0 0 -1513.4360665971194 -1260.0439848816604 0 -1260.0439848816604 535.07926481612958 0 0 0 0 -1856.0909284910122 -576.27881304256152 0 -576.27881304256152 -28.020305023528636 0 0 0 0 -129.00718019597829 -85.614635207755782 0 -85.614635207755782 113.1652204326092 0 0 0 0 0.80597618467018939 -23.759979067132178 0 -23.759979067132178 88.550643262750157 0 0 0 0 -1089.3365132003019 27.212837147191749 0 27.212837147191749 -298.28212814469589 0 0 0 0 -482.28302433476603 -386.41155708804354 0 -386.41155708804354 -123.59126534339157 0 0 0 0 -1568.2870197510201 287.83910874012508 0 287.83910874012508 888.75821854795504 0 0 0 0 -1088.5549281443878 -223.8886963943296 0 -223.8886963943296 -490.27535659715068 0 0 0 0 -3058.0517503649498 -909.38335658432334 0 -909.38335658432334 33.592221459606662 0 0 0 0 -17.791334927678559 16.097910874254012 0 16.097910874254012 20.677418269989232 0 0 0 0 -97.67912501876998 -53.429988684467389 0 -53.429988684467389 91.663212029598071 0 0 0 0 -90.54267262137698 -47.131300117198407 0 -47.131300117198407 43.840411324621527 0 0 0 0 -87.634690472291652 -74.126121876543039 0 -74.126121876543039 36.470640578874736 0 0 0 0 -63.359749067783241 -22.721932378966812 0 -22.721932378966812 53.892735819848895 0 0 0 0 -61.196896922172044 3.6425307533863815 0 3.6425307533863815 128.07679903162352 0 0 0 0 -38.46822869332749 112.55864552241837 0 112.55864552241837 329.82629191092929 0 0 0 0 21.818978846485948 1.1017337618359306 0 1.1017337618359306 74.229208940294484 0 0 0 0 -22.589146358679216 -38.09423828436411 0 -38.09423828436411 83.243705115612102 0 0 0 0 -55.351053828438324 -53.994100564847031 0 -53.994100564847031 74.273930055023811 0 0 0 0 -66.304281544103787 -79.393538395772339 0 -79.393538395772339 212.76918679830851 0 0 0 0 -69.508779045745598 -43.241191705368692 0 -43.241191705368692 97.341116807452636 0 0 0 0 -26.094589141663164 0.86636112652922748 0 0.86636112652922748 38.437304506180226 0 0 0 0 -63.883781184219814 4.0844039615599286 0 4.0844039615599286 49.750719839343219 0 0 0 0 -40.709413047911312 -24.340319655912026 0 -24.340319655912026 80.423717797137215 0 0 0 0 3.3022116327352933 -15.418768650510174 0 -15.418768650510174 20.334736922377488 0 0 0 0 -30.76007426610164 24.247453054354992 0 24.247453054354992 -10.028458582179155 0 0 0 0 -16.993053030195142 -82.812461525831168 0 -82.812461525831168 95.919273287614487 0 0 0 0 -110.26173950391075 -9.5385633460828103 0 -9.5385633460828103 168.41799786375486 0 0 0 0 41.118116799941276 -29.109698423275404 0 -29.109698423275404 160.25809136680982 0 0 0 0 -106.41241569977976 71.695007591331887 0 71.695007591331887 437.55065616545471 0 0 0 0 -24.631264463014617 -210.27304801119953 0 -210.27304801119953 -150.96648577997985 0 0 0 0 -0.66052363670161507 -0.36530709609739631 0 -0.36530709609739631 -0.66815775745563144 0 0 0 0 41.905737470758709 -57.856120339503832 0 -57.856120339503832 144.63336693340898 0 0 0 0 -118.02309328576916 15.441532180051581 0 15.441532180051581 114.54258896075407 0 0 0 0 -45.646528541768703 22.520066462504474 0 22.520066462504474 117.68182290662662 0 0 0 0 -38.322099316607364 -122.13553942154977 0 -122.13553942154977 12.898123940827645 0 0 0 0 -78.15505462713655 -9.371327654014749 0 -9.371327654014749 157.00035824804945 0 0 0 0 -5.5496687206433588 -0.84741705339307316 0 -0.84741705339307316 12.717206488683928 0 0 0 0 7.3369656890932813 -30.825298633338093 0 -30.825298633338093 85.791299713981488 0 0 0 0 -19.482112897085244 13.831813877965033 0 13.831813877965033 124.18621244800215 0 0 0 0 -21.034248449021106 7.3237401190781384 0 7.3237401190781384 120.95103358595134 0 0 0 0 -13.684305812660341 12.00272148253498 0 12.00272148253498 120.75094652672124 0 0 0 0 -11.837198253326278 18.867958276321588 0 18.867958276321588 124.69768342089174 0 0 0 0 -17.255917515362626 -1.9020102789131954 0 -1.9020102789131954 -0.28463413661719983 0 0 0 0 -18.881959981004002 18.474157769109297 0 18.474157769109297 135.53605622573923 0 0 0 0 -122.90056608354811 15.01069247101259 0 15.01069247101259 354.70939806102251 0 0 0 0 -11.179425413690296 6.2862702238344355 0 6.2862702238344355 103.38669449367444 0 0 0 0 -7.4166470927489172 17.016665166993334 0 17.016665166993334 112.58341357894824 0 0 0 0 -18.784967579164004 8.9089264517097035 0 8.9089264517097035 114.40493296358727 0 0 0 0 6.5913784123936239 -2.0648548472076982 0 -2.0648548472076982 113.60488660357078 0 0 0 0 5.6623445957675358 -9.4850603760351078 0 -9.4850603760351078 100.00164850564033 0 0 0 0 1.421821199183114 33.937264295347632 0 33.937264295347632 142.49269107083092 0 0 0 0 -16.582512343518463 -1.3204809928537173 0 -1.3204809928537173 1.6908715528568976 0 0 0 0 29.212883431060618 47.402272041519609 0 47.402272041519609 66.39522268284054 0 0 0 0 12.73368907770066 -31.702712373734357 0 -31.702712373734357 47.531257168782759 0 0 0 0 24.224757602185491 -17.127965448788018 0 -17.127965448788018 78.327712139853247 0 0 0 0 -16.366902526250442 -35.976734728221345 0 -35.976734728221345 0.68455250677652657 0 0 0 0 -8.9663689242925102 -7.817998386140971 0 -7.817998386140971 107.16797992901411 0 0 0 0 -116.51136442564166 41.464795440599119 0 41.464795440599119 303.13765531375248 0 0 0 0 -600.80249196638488 -326.44565044629417 0 -326.44565044629417 -200.66452516736172 0 0 0 0 -0.77358063497726981 -0.33602912306068333 0 -0.33602912306068333 0.09256550154518095 0 0 0 0 -16.466538794800062 -1.4106826820615765 0 -1.4106826820615765 0.25314776256705329 0 0 0 0 -397.3724968374554 -258.06546315210289 0 -258.06546315210289 234.03213679212058 0 0 0 0 45.435301153737782 11.334338638887857 0 11.334338638887857 107.60163841346275 0 0 0 0 32.039417792237828 -22.640338383062044 0 -22.640338383062044 106.47787421567773 0 0 0 0 13.270165664070191 123.73163572705107 0 123.73163572705107 91.959211155422963 0 0 0 0 -68.282407256698207 -32.945597796846414 0 -32.945597796846414 357.95941495247826 0 0 0 0 -8.2726449482916422 -6.0305481176250453 0 -6.0305481176250453 1.9491218942938389 0 0 0 0 -65.150071409378143 -89.645266618281312 0 -89.645266618281312 348.54351915011648 0 0 0 0 -6.8880427296753624 -11.833370679771178 0 -11.833370679771178 10.846490341820754 0 0 0 0 -119.7215123658716 -123.31171065317176 0 -123.31171065317176 319.08980448918737 0 0 0 0 -55.975589681815137 -82.116898622110966 0 -82.116898622110966 334.92343653578428 0 0 0 0 -94.981441622781858 -77.885877622349653 0 -77.885877622349653 336.091586874114 0 0 0 0 71.353142364714586 -31.504869982643868 0 -31.504869982643868 307.85961770129506 0 0 0 0 -9.444635090752854 -91.238863567996304 0 -91.238863567996304 332.03756993285788 0 0 0 0 16.71865828533555 116.1304444739726 0 116.1304444739726 375.89175728414557 0 0 0 0 -51.725102151049214 -32.581508498515177 0 -32.581508498515177 49.03824073272699 0 0 0 0 -2.8089270656182634 -17.834427636254986 0 -17.834427636254986 120.68332974662917 0 0 0 0 -4.8039730620037506 -5.3336273345430385 0 -5.3336273345430385 7.1014028772937365 0 0 0 0 67.175892242735927 -79.946529505741182 0 -79.946529505741182 42.06191489250341 0 0 0 0 -27.668633668478304 -4.5432934842288546 0 -4.5432934842288546 6.2989705229899755 0 0 0 0 -32.293281923709401 5.2743463418373722 0 5.2743463418373722 114.36468427372165 0 0 0 0 -26.235644095227698 -19.859969726676439 0 -19.859969726676439 12.098490113814989 0 0 0 0 -24.533656733856333 -16.811564874456963 0 -16.811564874456963 133.82839390907611 0 0 0 0 -19.171706490693179 15.476302320628875 0 15.476302320628875 6.4228455667221667 0 0 0 0 -16.845417253820415 17.793044184347309 0 17.793044184347309 95.763778135238681 0 0 0 0 -182.15260796553775 -229.99917733414622 0 -229.99917733414622 192.44903961347154 0 0 0 0 17.68652096383812 -37.437719950179599 0 -37.437719950179599 -91.808879407748464 0 0 0 0 -125.45544296786829 106.59745928803386 0 106.59745928803386 493.22151723878051 0 0 0 0 -3.6153585957680363 -3.7260457585515638 0 -3.7260457585515638 1.3612284898979752 0 0 0 0 -81.729583290667506 -35.480030762060778 0 -35.480030762060778 347.18466571885801 0 0 0 0 67.37192698517174 134.80877544105897 0 134.80877544105897 -268.81046735285781 0 0 0 0 -9.7160183673295251 17.960862948071735 0 17.960862948071735 68.23403161056558 0 0 0 0 -53.941699432623864 -49.091314222263463 0 -49.091314222263463 184.81807073154778 0 0 0 0 -1.8873740082635777 204.87900944889407 0 204.87900944889407 128.68214456757414 0 0 0 0 -124.62045525262511 79.078919173247414 0 79.078919173247414 102.74551699039512 0 0 0 0 -367.01098320920983 -80.196550858199771 0 -80.196550858199771 151.96301942572609 0 0 0 0 -345.65033380961904 -67.999130941512703 0 -67.999130941512703 158.91902307769487 0 0 0 0 -131.30894316243393 2.7720568937729695 0 2.7720568937729695 99.435074797341258 0 0 0 0 -268.73867022406853 46.343145303831989 0 46.343145303831989 158.88818263796566 0 0 0 0 -347.97820240909186 -59.697570656691823 0 -59.697570656691823 119.5325444296177 0 0 0 0 -293.15229472467217 -310.48393116298394 0 -310.48393116298394 -349.30600358147058 0 0 0 0 -165.94186392235707 52.832947858494663 0 52.832947858494663 96.791523731197231 0 0 0 0 -511.86229663791698 -157.72332015872962 0 -157.72332015872962 264.29658970332821 0 0 0 0 -368.15223381963187 -31.301647073858476 0 -31.301647073858476 89.754125406878302 0 0 0 0 -475.17813157854715 -327.88630299222496 0 -327.88630299222496 -117.30905389471445 0 0 0 0 -304.44934253898566 -0.55415658508900378 0 -0.55415658508900378 30.697722735494608 0 0 0 0 -320.22025467043966 40.485577083997669 0 40.485577083997669 185.11389688877534 0 0 0 0 -284.33741025471272 -79.661835926199274 0 -79.661835926199274 -264.23182970979542 0 0 0 0 -192.12802196784469 -159.00124366852106 0 -159.00124366852106 -37.464980336178996 0 0 0 0 -6.7031839459052245 0.9804222943565577 0 0.9804222943565577 4.3526927346209732 0 0 0 0 -194.29456796867453 4.990634691901505 0 4.990634691901505 178.07580287607561 0 0 0 0 -152.01842252129495 38.117493648995151 0 38.117493648995151 13.693438771384535 0 0 0 0 -12.76233098538321 -1.1100837780907398 0 -1.1100837780907398 1.2803928073676616 0 0 0 0 -187.02973339751134 17.342449393399875 0 17.342449393399875 54.881878508203954 0 0 0 0 -127.85604775115013 -93.12292143652212 0 -93.12292143652212 -221.68722171522677 0 0 0 0 -411.61492315197211 -415.01718435451039 0 -415.01718435451039 -205.10751023898274 0 0 0 0 -296.43774441391452 -119.48539450265525 0 -119.48539450265525 201.46383185681771 0 0 0 0 -401.50927377643984 -40.762998864840483 0 -40.762998864840483 225.19777363374669 0 0 0 0 195.0091795522552 115.8943326200033 0 115.8943326200033 148.16638429106388 0 0 0 0 35.974067140426996 237.24193823363748 0 237.24193823363748 176.20478043078765 0 0 0 0 -561.2490906688281 158.54259737343091 0 158.54259737343091 226.62891014662455 0 0 0 0 -30.260615086094731 -95.359710127377184 0 -95.359710127377184 -518.67568185556956 0 0 0 0 -9.9420552125008079 -2.2005705716154296 0 -2.2005705716154296 0.95175401072730637 0 0 0 0 99.444512548137936 65.270355645756354 0 65.270355645756354 412.49567155782279 0 0 0 0 117.42715755079985 360.82905283989203 0 360.82905283989203 229.59839216133696 0 0 0 0 -3.1999940895103007 0.39634539064694252 0 0.39634539064694252 2.2155829555693458 0 0 0 0 -486.49408668334399 -435.69922696244612 0 -435.69922696244612 -125.42840546008665 0 0 0 0 -9.4225135000669979 -53.269366015127162 0 -53.269366015127162 232.47615663939359 0 0 0 0 58.833383759279968 40.358457002206706 0 40.358457002206706 190.06869784140144 0 0 0 0 106.28456027229549 -13.232697107232525 0 -13.232697107232525 45.860833945742343 0 0 0 0 -1.1004294271825401 2.9705119956188497 0 2.9705119956188497 1.194052381834009 0 0 0 0 -5.0201633677097561 -171.21952426459757 0 -171.21952426459757 -134.55992791510653 0 0 0 0 -84.425745243497659 -146.76701121823862 0 -146.76701121823862 124.49972883144801 0 0 0 0 -161.41343617411621 -104.84245232396643 0 -104.84245232396643 97.576653024472762 0 0 0 0 -88.345292574551422 -132.46962152757624 0 -132.46962152757624 90.597259941030643 0 0 0 0 -200.46519851002131 -99.812611401086997 0 -99.812611401086997 110.35057699552272 0 0 0 0 -204.91090794735646 -154.69881553627783 0 -154.69881553627783 101.29738591393107 0 0 0 0 -107.94653308175839 -198.72637342986854 0 -198.72637342986854 99.540954044962973 0 0 0 0 -114.44921028461249 -182.67731740830641 0 -182.67731740830641 285.96208928227134 0 0 0 0 -56.579045036925294 -123.52153909350977 0 -123.52153909350977 200.467440768698 0 0 0 0 -38.35646293378818 -262.55148733415263 0 -262.55148733415263 -459.98444562640361 0 0 0 0 -271.9060197197623 -493.01454959366674 0 -493.01454959366674 -78.528311749447312 0 0 0 0 -197.26575943096032 -153.00668704357668 0 -153.00668704357668 252.35864489559754 0 0 0 0 -157.18891959413054 273.50411109253037 0 273.50411109253037 -316.33490114244341 0 0 0 0 -613.35889091887702 -11.837335515017912 0 -11.837335515017912 266.8676843837975 0 0 0 0 -491.89033781032367 -378.56058273892995 0 -378.56058273892995 -258.91971466314908 0 0 0 0 -234.61942192714628 -55.922880198555504 0 -55.922880198555504 124.13698308571475 0 0 0 0 -217.55913585197823 -71.033991077500104 0 -71.033991077500104 54.897092850020272 0 0 0 0 -85.710184870399644 40.366044655755104 0 40.366044655755104 100.80614029908747 0 0 0 0 -81.986362017973534 143.05409159112969 0 143.05409159112969 -19.262947602845088 0 0 0 0 -173.33375724988491 203.98284083766157 0 203.98284083766157 349.49954445587355 0 0 0 0 -105.96606947293071 77.460445412074478 0 77.460445412074478 358.57916470764076 0 0 0 0 -72.647196836299599 29.00938370914082 0 29.00938370914082 160.53103210881818 0 0 0 0 4.569233353626978 3.9580537582785666 0 3.9580537582785666 3.1472945203836389 0 0 0 0 18.011401815018189 -273.70261475403095 0 -273.70261475403095 770.44449351278308 0 0 0 0 29.962494475857966 253.55425294085944 0 253.55425294085944 16.167493144283071 0 0 0 0 -213.58231655304871 286.29863501808723 0 286.29863501808723 902.19998773003317 0 0 0 0 280.42693949820296 30.102671075990656 0 30.102671075990656 257.42395497605594 0 0 0 0 -248.56858017238847 40.553231981961289 0 40.553231981961289 934.15430242253569 0 0 0 0 -119.81104290013991 -416.85352126952421 0 -416.85352126952421 630.65423175277829 0 0 0 0 -191.55630788275221 -131.05857253032809 0 -131.05857253032809 330.03533265521401 0 0 0 0 -194.8474415679193 -132.72880314938084 0 -132.72880314938084 474.42017733237299 0 0 0 0 -215.08042328439183 -278.42709261120626 0 -278.42709261120626 322.62848237804428 0 0 0 0 -255.27603379669199 -30.249894129323366 0 -30.249894129323366 377.67590237365221 0 0 0 0 -141.3717881936318 4.7029725396641879 0 4.7029725396641879 383.67201761751494 0 0 0 0 -46.253120454430473 106.2432605400968 0 106.2432605400968 197.85273390500515 0 0 0 0 -8.8361930582418609 345.45174427216352 0 345.45174427216352 447.79657571097778 0 0 0 0 -51.276311438236917 73.872723949090869 0 73.872723949090869 163.23273275216343 0 0 0 0 -52.973360721640574 14.572357384962743 0 14.572357384962743 40.815599881665548 0 0 0 0 24.542337470835264 95.435914129491721 0 95.435914129491721 63.036375792289618 0 0 0 0 -19.507053176113914 72.149861044170393 0 72.149861044170393 23.434663764513971 0 0 0 0 -31.173968741243243 34.945841630460563 0 34.945841630460563 11.654447496694047 0 0 0 0 -45.950210137201793 25.339364392821153 0 25.339364392821153 118.41402796437615 0 0 0 0 -47.233523569730096 30.203365674817178 0 30.203365674817178 -6.3553452135638508 0 0 0 0 -47.204188696148776 71.167828204153921 0 71.167828204153921 19.559291021178979 0 0 0 0 -88.738075516369463 27.83808333001798 0 27.83808333001798 5.3903286298373132 0 0 0 0 -75.788216401437239 16.16403445169999 0 16.16403445169999 19.915769934483251 0 0 0 0 -71.009094603577523 38.783710768198944 0 38.783710768198944 10.25644759714487 0 0 0 0 -80.736132456173436 29.542882894296781 0 29.542882894296781 9.1065357475745259 0 0 0 0 9.0552018986467502 10.066235201714065 0 10.066235201714065 11.672299152018695 0 0 0 0 -145.44247016383133 32.270937399516697 0 32.270937399516697 31.125471392602776 0 0 0 0 -39.445114989628564 -0.57521524637559196 0 -0.57521524637559196 -11.076465803726023 0 0 0 0 37.227359938475274 203.46038510752987 0 203.46038510752987 167.8088827728061 0 0 0 0 113.8336467256222 106.97200957498535 0 106.97200957498535 67.547372335087857 0 0 0 0 58.506699603502057 100.38991985014582 0 100.38991985014582 68.113743148234789 0 0 0 0 89.178112059860723 128.33637588898273 0 128.33637588898273 90.886596395081142 0 0 0 0 -44.196472693991382 45.662984822418366 0 45.662984822418366 191.91733478193055 0 0 0 0 -162.4137037068449 10.417355123694506 0 10.417355123694506 261.94145543879131 0 0 0 0 -28.58130074357905 86.987538389905239 0 86.987538389905239 177.43628971725411 0 0 0 0 -67.099510517989984 117.25325741697361 0 117.25325741697361 281.18675305019133 0 0 0 0 -18.61419180678422 124.31972180726734 0 124.31972180726734 314.27804676177038 0 0 0 0 -86.275918684934368 194.95859057811685 0 194.95859057811685 294.55608765593206 0 0 0 0 -239.17953794536515 227.01971005985979 0 227.01971005985979 287.97569122134882 0 0 0 0 391.20046750741676 327.16284931758128 0 327.16284931758128 203.79471594619281 0 0 0 0 -528.97317773364557 31.905660173659271 0 31.905660173659271 156.80025196036877 0 0 0 0 0.037837733435535981 1.8739967735657359 0 1.8739967735657359 1.1655146399099863 0 0 0 0 -61.880629485036479 -91.124943980899843 0 -91.124943980899843 216.73286181601725 0 0 0 0 -409.95138878390844 -111.64072735078662 0 -111.64072735078662 270.99256945567322 0 0 0 0 -104.01876284144419 -22.029445811058395 0 -22.029445811058395 292.80709694034522 0 0 0 0 -75.942247859689815 -32.405147092991683 0 -32.405147092991683 296.47163718353841 0 0 0 0 -203.50471431548067 63.595661183451739 0 63.595661183451739 366.54940834276204 0 0 0 0 -80.974437344200851 -21.955675224875449 0 -21.955675224875449 316.26787322736345 0 0 0 0 -165.37344879889133 -76.738664018070267 0 -76.738664018070267 316.78102216333355 0 0 0 0 -56.841107796944016 -82.380416367281214 0 -82.380416367281214 316.10085771266313 0 0 0 0 -100.66941378038246 -140.03792429673194 0 -140.03792429673194 328.75566990517837 0 0 0 0 -142.41606190000675 -115.49678591241172 0 -115.49678591241172 311.21756727285538 0 0 0 0 -142.87060191853919 -28.210183176812734 0 -28.210183176812734 254.12042130313057 0 0 0 0 -53.257461022074494 -34.279803261888446 0 -34.279803261888446 187.3804886578946 0 0 0 0 2.4616307876553023 -0.23947914276575943 0 -0.23947914276575943 -3.840355209417055 0 0 0 0 -16.363230581721382 -180.69473079103591 0 -180.69473079103591 -61.038569719967199 0 0 0 0 -721.22790266320408 210.29019449352199 0 210.29019449352199 138.49888013122109 0 0 0 0 -577.94913089698639 376.7672506554336 0 376.7672506554336 -162.36926853943442 0 0 0 0 -515.53821614525259 91.141088688775199 0 91.141088688775199 90.185972010847763 0 0 0 0 1.9433281756990866 -0.12234211820084795 0 -0.12234211820084795 -3.2533811804192396 0 0 0 0 8.8821905695154335 16.035928128920663 0 16.035928128920663 2.4286800164954343 0 0 0 0 81.886516880881345 119.82851772845129 0 119.82851772845129 58.020237516568159 0 0 0 0 -520.21610981658864 152.2767463229311 0 152.2767463229311 48.644551269186195 0 0 0 0 -309.06598848288559 173.14551733282133 0 173.14551733282133 -32.984846563391329 0 0 0 0 9.8494036599043753 55.452990149119557 0 55.452990149119557 117.13996209479342 0 0 0 0 -189.04114116225992 216.93075470600161 0 216.93075470600161 183.18404809694039 0 0 0 0 -8.424731296917976 -2.4308966601812187 0 -2.4308966601812187 11.185511687128056 0 0 0 0 -128.83476224239348 -79.968883263820317 0 -79.968883263820317 108.51396277026652 0 0 0 0 249.00348298025347 138.02796896999644 0 138.02796896999644 11.077631614141865 0 0 0 0 161.43319230825364 92.022608925151872 0 92.022608925151872 10.652704736770829 0 0 0 0 3.7107277713985156 34.300506847750754 0 34.300506847750754 3.3680138837970048 0 0 0 0 -40.0210366174515 114.59014216622018 0 114.59014216622018 58.477361497469246 0 0 0 0 226.06052236124015 178.4610753658053 0 178.4610753658053 63.621748552453937 0 0 0 0 77.893579987678095 110.80264377185085 0 110.80264377185085 41.340497669385513 0 0 0 0 53.047619693646993 90.574585118418327 0 90.574585118418327 13.758274068895844 0 0 0 0 20.429976933125047 44.069857683375332 0 44.069857683375332 17.748000020560028 0 0 0 0 44.231515627906745 51.793660381216441 0 51.793660381216441 56.04035598697395 0 0 0 0 -55.355126875914721 44.387116212165893 0 44.387116212165893 63.937216213278589 0 0 0 0 1211.5526396010891 262.98386033829593 0 262.98386033829593 -291.51585217367392 0 0 0 0 -3.7394622033908531 17.921249818728995 0 17.921249818728995 31.665290038612738 0 0 0 0 -78.181594534495616 -114.24782721267547 0 -114.24782721267547 -73.031763328239322 0 0 0 0 66.902447231417682 280.78377704069135 0 280.78377704069135 603.3144519138732 0 0 0 0 165.51190128437202 615.54612341328902 0 615.54612341328902 -349.86427341267699 0 0 0 0 366.00581635495746 227.98966071920586 0 227.98966071920586 -72.238854614959564 0 0 0 0 811.1169722865634 717.51862772379536 0 717.51862772379536 -72.778530188195873 0 0 0 0 740.38837566166876 -78.775851181877442 0 -78.775851181877442 72.539109126490075 0 0 0 0 423.20066515728104 -55.788486619741889 0 -55.788486619741889 -58.477186826174147 0 0 0 0 273.51730346809472 248.99992166757147 0 248.99992166757147 156.70498698111624 0 0 0 0 3.1360208375412526 6.0566219523468874 0 6.0566219523468874 0.13068784123856858 0 0 0 0 261.58939564674802 114.35647222091211 0 114.35647222091211 295.0650685740984 0 0 0 0 644.85919665081019 246.13139456219506 0 246.13139456219506 682.39454231061973 0 0 0 0 490.610201834701 -19.77455423749052 0 -19.77455423749052 226.67011317971628 0 0 0 0 4.6976291280334408 185.66790220423718 0 185.66790220423718 221.29856504319469 0 0 0 0 132.91549734797991 297.49780921514321 0 297.49780921514321 200.16787294280948 0 0 0 0 379.75110325423248 163.31175217348209 0 163.31175217348209 129.54765846626833 0 0 0 0 3.4483540919130462 79.687046738389654 0 79.687046738389654 69.160633334133308 0 0 0 0 10.246960413056513 246.27571730624186 0 246.27571730624186 151.21386784198694 0 0 0 0 773.03045088274757 293.848724183179 0 293.848724183179 -166.48312225495465 0 0 0 0 -653.5079798442066 198.0407341291575 0 198.0407341291575 245.24162973530474 0 0 0 0 -25.883273086288455 278.50597583453782 0 278.50597583453782 91.717617965798127 0 0 0 0 -299.21157465531746 48.609245664412583 0 48.609245664412583 243.92853071773425 0 0 0 0 -503.30274022232777 -30.958997889232705 0 -30.958997889232705 179.06930980988545 0 0 0 0 6.3786213195439601 60.788583291643974 0 60.788583291643974 139.37548751609688 0 0 0 0 -974.47350341750894 851.25367543668835 0 851.25367543668835 -520.69212257987238 0 0 0 0 -24.199188828542994 -9.2635292710173474 0 -9.2635292710173474 18.50335678046207 0 0 0 0 -575.50088747766858 219.0633824209508 0 219.0633824209508 152.66615637467476 0 0 0 0 -683.73577443560862 75.738567631131446 0 75.738567631131446 507.53431062189338 0 0 0 0 -520.12360246445678 -77.475929152860772 0 -77.475929152860772 177.94952726008341 0 0 0 0 -537.95481981155262 -82.819113139232286 0 -82.819113139232286 388.82033727016824 0 0 0 0 -249.88956635673594 175.94984521104379 0 175.94984521104379 58.472285946329066 0 0 0 0 -868.64712296977996 407.88720835616323 0 407.88720835616323 -2.390890969967586 0 0 0 0 -883.87433954806693 286.36943408351408 0 286.36943408351408 292.80346120770264 0 0 0 0 2.4560167083319016 1.047361936946686 0 1.047361936946686 -0.063763945146405376 0 0 0 0 -1053.9298636125404 598.00602902627361 0 598.00602902627361 -54.129926198760586 0 0 0 0 -635.22151943424433 266.1554292522851 0 266.1554292522851 181.52013270180032 0 0 0 0 -647.1269802151437 318.10670687835955 0 318.10670687835955 36.330042114514072 0 0 0 0 92.560975684993991 405.57943597811391 0 405.57943597811391 -167.09645010565873 0 0 0 0 -1556.1141634460846 293.03842307386276 0 293.03842307386276 813.83772739669075 0 0 0 0 24.614762980591845 68.160655083287907 0 68.160655083287907 143.19994499667632 0 0 0 0 8.6388076783320731 23.554651620600886 0 23.554651620600886 -17.325484820660108 0 0 0 0 -331.62761808252708 -390.81836298116832 0 -390.81836298116832 -82.109091761965828 0 0 0 0 663.30865232147698 -69.242878408404067 0 -69.242878408404067 -149.97043552353239 0 0 0 0 649.63226423573133 239.71841342093103 0 239.71841342093103 -3.9464618358906591 0 0 0 0 444.59503030013866 -299.27637892464554 0 -299.27637892464554 -473.99579977105168 0 0 0 0 685.31652596860113 943.37992605791078 0 943.37992605791078 71.002061219478492 0 0 0 0 1934.4103632528359 -223.08473771583522 0 -223.08473771583522 -428.37205858725065 0 0 0 0 -692.02514149193576 998.29211643490999 0 998.29211643490999 560.34136683127144 0 0 0 0 2.2672217438820583 5.4851993598143842 0 5.4851993598143842 8.5325315306083098 0 0 0 0 -67.115354086139405 -429.83271045850415 0 -429.83271045850415 20.545139384532376 0 0 0 0 -41.834734560121433 48.33005089416838 0 48.33005089416838 -251.97121132745815 0 0 0 0 -61.424559365170808 308.09535731439246 0 308.09535731439246 -109.198152197132 0 0 0 0 70.045006917870865 -163.86815280736482 0 -163.86815280736482 -579.32492823189386 0 0 0 0 -143.59826597435426 26.779959021980176 0 26.779959021980176 52.904930212964246 0 0 0 0 -4.9465354151423107 0.50774486524146312 0 0.50774486524146312 0.77433658608626388 0 0 0 0 -18.818503552608156 -13.237918622717643 0 -13.237918622717643 0.54532353203103412 0 0 0 0 -72.813773494992347 20.144822994130664 0 20.144822994130664 -22.102949824577081 0 0 0 0 -163.37774317310948 111.5404230051563 0 111.5404230051563 -37.179066522629 0 0 0 0 -45.192292177956006 59.48420377527691 0 59.48420377527691 -59.927073387341807 0 0 0 0 -43.189142981324039 29.880935680754192 0 29.880935680754192 -68.063263556181482 0 0 0 0 3.2340913990017839 0.35581758188740764 0 0.35581758188740764 -3.3917239710307001 0 0 0 0 372.37731832286045 -658.92601605540403 0 -658.92601605540403 617.79570508355391 0 0 0 0 38.919472037405285 -271.65584367405972 0 -271.65584367405972 662.54024315449351 0 0 0 0 41.217945215104223 -9.260492436077044 0 -9.260492436077044 346.1538009178912 0 0 0 0 -28.499604935110256 -444.2830850464743 0 -444.2830850464743 327.17420897551347 0 0 0 0 287.50266622616073 -248.88474668229173 0 -248.88474668229173 417.8540297250147 0 0 0 0 3.6445177410750453 4.6586107115152231 0 4.6586107115152231 6.5359044736884471 0 0 0 0 -482.53933350783427 315.46603165515262 0 315.46603165515262 -0.61334638109838124 0 0 0 0 -500.73891200454909 -109.14429214779375 0 -109.14429214779375 419.62810207014263 0 0 0 0 -362.67922360154262 -349.5434927329261 0 -349.5434927329261 460.50632574872907 0 0 0 0 -344.44383452285058 -678.47733096772504 0 -678.47733096772504 355.14205579500413 0 0 0 0 478.81412718024876 -853.08433488520677 0 -853.08433488520677 3.9069971478893422 0 0 0 0 2653.2154725431396 -212.55775462869497 0 -212.55775462869497 -331.96951047416587 0 0 0 0 -56.73875847428161 -285.39214632516041 0 -285.39214632516041 160.07762955762155 0 0 0 0 545.4746684596123 -569.40381906702532 0 -569.40381906702532 276.13410590095737 0 0 0 0 253.34169044929843 12.787644598589395 0 12.787644598589395 92.94329594449664 0 0 0 0 116.12110003036491 124.31952184101829 0 124.31952184101829 338.4725944713573 0 0 0 0 321.76727043474239 572.05521193728782 0 572.05521193728782 891.52243346392061 0 0 0 0 1590.223271381735 437.84469287439424 0 437.84469287439424 293.69289606413804 0 0 0 0 173.1318417014528 841.64920342275582 0 841.64920342275582 1367.8618637679901 0 0 0 0 1660.6473651556223 1855.6847140231912 0 1855.6847140231912 1885.1556779228558 0 0 0 0 14.209092993522972 587.83357096313193 0 587.83357096313193 972.6719634551846 0 0 0 0 -163.17536215274595 461.39151868427871 0 461.39151868427871 1284.1662764636421 0 0 0 0 -163.82949874100495 486.20762407542134 0 486.20762407542134 978.89568815969687 0 0 0 0 -228.37582054077347 195.20522643962977 0 195.20522643962977 1459.5217362472231 0 0 0 0 -94.377454738497136 73.325325012621761 0 73.325325012621761 267.15836233837763 0 0 0 0 -120.37114325659741 273.49269851910503 0 273.49269851910503 915.88195803046983 0 0 0 0 259.66436979476174 447.7735197773456 0 447.7735197773456 206.30921310893609 0 0 0 0 443.83939531078386 -264.81982454355602 0 -264.81982454355602 816.3145767787264 0 0 0 0 65.634023032778373 87.881742879168087 0 87.881742879168087 524.9802305384801 0 0 0 0 620.03984573051594 542.53461054993022 0 542.53461054993022 707.77659750125895 0 0 0 0 122.79122639003299 750.45251522229592 0 750.45251522229592 1200.2038047504102 0 0 0 0 7.6598773380786707 6.7488292761637609 0 6.7488292761637609 6.2813869942382894 0 0 0 0 183.61464740101928 702.50709798496246 0 702.50709798496246 1278.343191245438 0 0 0 0 860.25173922738691 627.65524072821063 0 627.65524072821063 94.862159679483739 0 0 0 0 101.29545210689048 186.86908172578296 0 186.86908172578296 11.244886169035453 0 0 0 0 -137.50110452876413 157.18443020370614 0 157.18443020370614 224.78039899645228 0 0 0 0 -191.12628796162892 -25.16300156199577 0 -25.16300156199577 184.94453323733342 0 0 0 0 421.89531382258883 624.69233766448815 0 624.69233766448815 531.55540602918336 0 0 0 0 40.954797268911534 -0.85839796172149363 0 -0.85839796172149363 438.93600986392994 0 0 0 0 87.025292460316635 137.31249478844416 0 137.31249478844416 -111.61553281881788 0 0 0 0 131.32979450143728 265.16701552027098 0 265.16701552027098 -26.559207365120528 0 0 0 0 75.834884114053693 88.185172365570907 0 88.185172365570907 -38.874332102721382 0 0 0 0 -127.76942202368605 89.154477699259132 0 89.154477699259132 42.311052719858708 0 0 0 0 -31.450298499556084 172.00868340192392 0 172.00868340192392 -55.925990269977774 0 0 0 0 12.496382116700428 18.815084596706313 0 18.815084596706313 16.830160130834003 0 0 0 0 30.017289443303071 5.8575056550835143 0 5.8575056550835143 -260.0682046412694 0 0 0 0 -7.1392417097455585 9.4217139176269171 0 9.4217139176269171 6.2781930537299502 0 0 0 0 9.6403304392222235 17.139892599291301 0 17.139892599291301 16.614965551205614 0 0 0 0 -11.729014955742741 58.972354673867812 0 58.972354673867812 15.76524408430123 0 0 0 0 -22.757404269450035 34.387991060731792 0 34.387991060731792 23.706879792516702 0 0 0 0 65.123830249101786 70.547578261739545 0 70.547578261739545 15.422552737432397 0 0 0 0 43.206378294116575 56.404978146107169 0 56.404978146107169 -35.397053354674426 0 0 0 0 62.300816325620474 -0.04619591173104709 0 -0.04619591173104709 100.55573194338649 0 0 0 0 -10.957763536435246 7.570045042452719 0 7.570045042452719 5.4119204589308367 0 0 0 0 18.188363080836098 9.1534146887652241 0 9.1534146887652241 -58.701651338647935 0 0 0 0 -146.12034862356438 -67.029565983473731 0 -67.029565983473731 -14.662448009927175 0 0 0 0 52.900512132383938 142.15771360703184 0 142.15771360703184 143.22771314821875 0 0 0 0 -231.60374765574579 -354.07955121840496 0 -354.07955121840496 36.816381841191287 0 0 0 0 98.80827928927647 135.17969403298048 0 135.17969403298048 -80.433990069985157 0 0 0 0 -375.25014047773948 -281.70532203788753 0 -281.70532203788753 -48.690984838220174 0 0 0 0 6.9290560400987076 0.4250200927607608 0 0.4250200927607608 -0.85911912381513389 0 0 0 0 105.37066499458388 -108.66524886138723 0 -108.66524886138723 -45.908664933253021 0 0 0 0 -5.8027788417078856 -0.49058283680933812 0 -0.49058283680933812 0.83511694311444273 0 0 0 0 -6.9404170732425428 40.627569156004029 0 40.627569156004029 127.51406021239382 0 0 0 0 -60.894878470562489 143.19126114467463 0 143.19126114467463 422.80242543188797 0 0 0 0 25.998039182164575 -51.215254574388382 0 -51.215254574388382 44.640294173281291 0 0 0 0 107.20172854397879 142.4173583196789 0 142.4173583196789 -116.12871243543486 0 0 0 0 145.14005742230074 -8.8584285966262541 0 -8.8584285966262541 98.645961873451597 0 0 0 0 67.355786981057804 138.52918244195916 0 138.52918244195916 308.2927593856657 0 0 0 0 33.067918770766482 9.0243876562090009 0 9.0243876562090009 706.16858138367388 0 0 0 0 234.24514316822319 23.699378372402862 0 23.699378372402862 325.43672205071925 0 0 0 0 45.428488238581849 240.09368867842568 0 240.09368867842568 452.32628385125508 0 0 0 0 15.719691362492767 182.88521225890872 0 182.88521225890872 340.15754324021782 0 0 0 0 -8.3406872393142635 185.8503661356317 0 185.8503661356317 397.60924484397401 0 0 0 0 -69.589831401623869 60.898609631810132 0 60.898609631810132 411.15535428882868 0 0 0 0 -33.992894799332646 73.720301424229547 0 73.720301424229547 414.14067155176599 0 0 0 0 -93.521521420350723 156.68376080879534 0 156.68376080879534 298.52819149293737 0 0 0 0 10.502093547830668 -21.323025089681323 0 -21.323025089681323 158.02733542556598 0 0 0 0 2.8724374452599353 -0.33491025532637764 0 -0.33491025532637764 -0.3627963962520937 0 0 0 0 26.02000450128071 16.65147644651006 0 16.65147644651006 31.69933988716366 0 0 0 0 -0.049750188066301604 -1.0063709210102658 0 -1.0063709210102658 5.933561323605602 0 0 0 0 -146.51535635034998 -101.39039952273015 0 -101.39039952273015 25.049220612403587 0 0 0 0 15.147698506749293 20.474316305131651 0 20.474316305131651 5.9437334631547856 0 0 0 0 0.54692243036060972 10.524694035499579 0 10.524694035499579 8.182872121265973 0 0 0 0 10.822440129618371 8.1419037388805009 0 8.1419037388805009 2.5111725166207179 0 0 0 0 -186.17607005499667 18.123845612659352 0 18.123845612659352 246.75115295912838 0 0 0 0 0.046531889321826725 1.4684512471535491 0 1.4684512471535491 3.2564311523963454 0 0 0 0 20.352456284093478 3.9537306594575057 0 3.9537306594575057 3.74731835599232 0 0 0 0 10.14544599054534 100.40997413920559 0 100.40997413920559 -94.841346738685388 0 0 0 0 38.277667915939674 -12.306879911440774 0 -12.306879911440774 184.92890910755887 0 0 0 0 94.258456474415652 67.367730831691006 0 67.367730831691006 297.05730874584697 0 0 0 0 29.863556679869362 79.330124300053285 0 79.330124300053285 308.07488300864497 0 0 0 0 114.44309892229558 78.815732893948734 0 78.815732893948734 122.04918718493718 0 0 0 0 160.89266142825727 133.59147164028764 0 133.59147164028764 314.05606747061393 0 0 0 0 74.688889181008562 13.159704033765593 0 13.159704033765593 341.35574856610037 0 0 0 0 50.406958526895323 -2.9815156869153725 0 -2.9815156869153725 260.39329672809254 0 0 0 0 -52.238965770688083 12.082317466723907 0 12.082317466723907 13.678257265120919 0 0 0 0 87.417762019629663 76.361285896229674 0 76.361285896229674 43.241342065106437 0 0 0 0 113.94445451029969 61.238486397807719 0 61.238486397807719 119.07309639002779 0 0 0 0 18.572584020388604 -30.311317949279328 0 -30.311317949279328 68.918148812015716 0 0 0 0 73.612473657780356 -23.080394782715302 0 -23.080394782715302 -35.863543793151621 0 0 0 0 20.822004099460173 -54.31245952937752 0 -54.31245952937752 -43.43792859813766 0 0 0 0 -36.059589936907287 -157.77407372622838 0 -157.77407372622838 4.6360965266940184 0 0 0 0 76.829660742529086 -60.833901968580903 0 -60.833901968580903 55.293156044470379 0 0 0 0 16.117436697737503 -49.694677452884207 0 -49.694677452884207 58.252312721269845 0 0 0 0 26.461179457859544 -33.72835856252641 0 -33.72835856252641 -46.566571198141901 0 0 0 0 -31.802198789159775 -25.343967019543925 0 -25.343967019543925 -61.026428772049258 0 0 0 0 27.087247162209678 -4.5225325175561011 0 -4.5225325175561011 -135.7322705012175 0 0 0 0 8.5781325436661326 0.49091653128662927 0 0.49091653128662927 -0.47870438906193158 0 0 0 0 408.57424384089245 264.59803240482142 0 264.59803240482142 24.944107876537601 0 0 0 0 30.968424279523788 -25.988667360175896 0 -25.988667360175896 -106.65030944702448 0 0 0 0 -4.9340673393217003 -63.450141202956729 0 -63.450141202956729 -31.57618864620963 0 0 0 0 -22.803215318688672 -2.3701304848800646 0 -2.3701304848800646 -74.225635924682138 0 0 0 0 52.892170730898215 -43.980359412234975 0 -43.980359412234975 -142.20204699932219 0 0 0 0 33.200817289982297 -71.7238777574712 0 -71.7238777574712 -108.01330778069678 0 0 0 0 47.367452919591415 137.37435787676623 0 137.37435787676623 323.42966082850762 0 0 0 0 236.71858811197126 -2.7839242195841507 0 -2.7839242195841507 377.37100421208015 0 0 0 0 -252.05528405676887 -406.20440356797189 0 -406.20440356797189 273.61634389026221 0 0 0 0 0.79525667183931148 1.4796877793182048 0 1.4796877793182048 4.013914213632944 0 0 0 0 373.9404237878955 600.38102895921838 0 600.38102895921838 1384.4326257602515 0 0 0 0 171.16402829556682 636.89904053798091 0 636.89904053798091 1477.686790593656 0 0 0 0 121.25711642017086 394.16205194780196 0 394.16205194780196 669.34900709734939 0 0 0 0 707.79593125314386 850.9603449610222 0 850.9603449610222 764.08285743254237 0 0 0 0 9.2096413909512194 -25.581867831540876 0 -25.581867831540876 96.300715438461339 0 0 0 0 0.78677918528560831 -0.099084826468772036 0 -0.099084826468772036 6.9353058083321457 0 0 0 0 -25.367171424459229 13.665880430562538 0 13.665880430562538 165.09921489491535 0 0 0 0 168.10113866460324 407.83624640154812 0 407.83624640154812 651.65147705301933 0 0 0 0 166.76836582917667 415.56384578746838 0 415.56384578746838 679.05255237053643 0 0 0 0 9.973897618088813 -21.623558609870088 0 -21.623558609870088 26.437541709750803 0 0 0 0 -1.8902426060365727 0.31313570858989692 0 0.31313570858989692 4.8504046248286841 0 0 0 0 56.424264788227447 227.92547827852832 0 227.92547827852832 735.86331841124047 0 0 0 0 157.29725134529781 320.40647294310111 0 320.40647294310111 808.92745706179994 0 0 0 0 -13.145886215103019 86.811621722816199 0 86.811621722816199 954.51104710360596 0 0 0 0 -9.5835865460812784 40.541694159463077 0 40.541694159463077 717.42889694506039 0 0 0 0 89.678176586412519 136.09252628848117 0 136.09252628848117 925.88051660760539 0 0 0 0 15.618237141924567 7.6480357896366229 0 7.6480357896366229 2.4349472551276783 0 0 0 0 71.61210670528817 -45.447478638518078 0 -45.447478638518078 1339.3018026848658 0 0 0 0 -99.537595347941533 180.15274412166036 0 180.15274412166036 -224.35727347463398 0 0 0 0 66.555884193125166 -38.508124804655381 0 -38.508124804655381 -10.908436209851061 0 0 0 0 -41.330397836331031 149.20536137371528 0 149.20536137371528 156.86246078818658 0 0 0 0 632.79385078211453 759.24159372319264 0 759.24159372319264 994.85459131457173 0 0 0 0 6.2154000588605243 1.5422373981223672 0 1.5422373981223672 1.3084864267046044 0 0 0 0 152.01576810028928 128.29146952761221 0 128.29146952761221 1550.4821443323563 0 0 0 0 -106.66343890404733 487.76698290664353 0 487.76698290664353 2260.8707064200498 0 0 0 0 145.97796080353146 348.80057455279893 0 348.80057455279893 -618.56107937237175 0 0 0 0 -147.85297047041877 106.200210358199 0 106.200210358199 175.76002123078797 0 0 0 0 324.88464305360958 763.16594516839541 0 763.16594516839541 337.81224289100646 0 0 0 0 -211.17609264263501 371.03025154130955 0 371.03025154130955 597.9614874312465 0 0 0 0 65.441728733307627 350.3986900360178 0 350.3986900360178 232.52256063889945 0 0 0 0 -332.37164446896713 105.82111235585762 0 105.82111235585762 176.00593285885043 0 0 0 0 -99.934443986250699 221.09483036967868 0 221.09483036967868 460.72968675504671 0 0 0 0 -62.747253253453891 -192.44725379558804 0 -192.44725379558804 474.43224666836159 0 0 0 0 -259.91798753808689 22.252595998103061 0 22.252595998103061 261.03397451220371 0 0 0 0 -5.6963746529526844 -1.1974722748220898 0 -1.1974722748220898 2.2044846061394168 0 0 0 0 17.630467551416587 127.63498673494905 0 127.63498673494905 353.14314381411896 0 0 0 0 -9.3477316497537686 144.14747706853814 0 144.14747706853814 417.46715654386935 0 0 0 0 83.628196702436981 101.64674192155508 0 101.64674192155508 436.80808491428616 0 0 0 0 -22.94964657116001 4.7683877386108122 0 4.7683877386108122 0.62986462815311484 0 0 0 0 -81.935734122752365 168.36840525509615 0 168.36840525509615 600.62189376581227 0 0 0 0 27.594251565920786 14.02381680788676 0 14.02381680788676 190.42266997296974 0 0 0 0 15.842907069531066 89.240927770013514 0 89.240927770013514 258.4409044400345 0 0 0 0 -40.398955467228461 90.59244260745254 0 90.59244260745254 246.00336446883011 0 0 0 0 -278.76773228712136 -54.694796861884242 0 -54.694796861884242 457.31027305800671 0 0 0 0 -14.081472283359748 0.5744078499698162 0 0.5744078499698162 2.0746528588581157 0 0 0 0 12.1405727223555 52.919384440356225 0 52.919384440356225 326.30336330385762 0 0 0 0 -113.34282894477838 -102.27637257037713 0 -102.27637257037713 397.04486008376261 0 0 0 0 12.327555437987712 87.296404399270614 0 87.296404399270614 455.10527453727263 0 0 0 0 -12.397758364514958 0.53098032418381536 0 0.53098032418381536 0.92918344242360718 0 0 0 0 -12.568125342499313 0.57010367436203069 0 0.57010367436203069 0.95613059661873478 0 0 0 0 -102.31516739053905 76.707560348189872 0 76.707560348189872 434.08279098515777 0 0 0 0 -22.886156322220359 60.273598350748216 0 60.273598350748216 403.378937587775 0 0 0 0 13.353429552607395 5.8669512033375213 0 5.8669512033375213 120.11361573779868 0 0 0 0 -65.213976723996893 99.925561387950438 0 99.925561387950438 230.47395100564609 0 0 0 0 -0.89000689074259753 65.123932070466253 0 65.123932070466253 339.08582736228709 0 0 0 0 60.569838121735984 44.754299662981794 0 44.754299662981794 253.42068262612884 0 0 0 0 -39.466392578170598 79.099978574242414 0 79.099978574242414 418.5662672611943 0 0 0 0 -10.119967566232354 0.0039044692016148019 0 0.0039044692016148019 1.06907030015374 0 0 0 0 -96.663477290754599 39.813244585478969 0 39.813244585478969 430.38329597881238 0 0 0 0 -27.789144660129296 125.3759471557496 0 125.3759471557496 286.17778573927353 0 0 0 0 -7.7833761625865918 -78.627507424964278 0 -78.627507424964278 205.76077733265993 0 0 0 0 -3.6449094204065204 43.408796455674747 0 43.408796455674747 27.76254963093379 0 0 0 0 25.766559657468861 47.907985926169204 0 47.907985926169204 217.06250154054885 0 0 0 0 -116.04495454595417 -16.609015361369529 0 -16.609015361369529 216.31972503016004 0 0 0 0 -127.83594806321707 -147.37083536186401 0 -147.37083536186401 -14.7037712566962 0 0 0 0 -0.98176638091392832 -4.6370013267662387 0 -4.6370013267662387 7.1473108020773566 0 0 0 0 -63.977847231423993 76.914291166747716 0 76.914291166747716 295.30999002646422 0 0 0 0 46.189974870296282 -2.7420735530540696 0 -2.7420735530540696 278.44636817589344 0 0 0 0 18.307757251927796 60.437532379866752 0 60.437532379866752 169.56857742312422 0 0 0 0 -73.538422402189553 419.62106247397605 0 419.62106247397605 620.69515718473122 0 0 0 0 -198.02494451216899 -334.64364400679187 0 -334.64364400679187 -172.21007758708583 0 0 0 0 -1.2613775671907224 -1.7227309597663378 0 -1.7227309597663378 3.3710705305993542 0 0 0 0 -239.57614167451993 240.69095324035152 0 240.69095324035152 382.05500436411967 0 0 0 0 154.43319830591554 327.49219278820965 0 327.49219278820965 336.10153315596835 0 0 0 0 -131.91959507918818 -35.332983557833359 0 -35.332983557833359 233.24608761933268 0 0 0 0 177.00699293149864 88.084582321243943 0 88.084582321243943 250.25441357814998 0 0 0 0 -120.78114454531897 -209.67783137843071 0 -209.67783137843071 -226.11346088115533 0 0 0 0 -41.153570708665939 14.808844948949627 0 14.808844948949627 -106.79506361750828 0 0 0 0 -169.5285776160672 -2.7949492184561677 0 -2.7949492184561677 141.14191018983547 0 0 0 0 -43.063281117247698 -36.27740095302579 0 -36.27740095302579 23.693167220742907 0 0 0 0 48.479869557472739 37.603143090804224 0 37.603143090804224 166.05670640715107 0 0 0 0 -68.359104240691522 37.692596738997963 0 37.692596738997963 186.34817083042435 0 0 0 0 -87.196166425300362 66.949347604197101 0 66.949347604197101 -101.25628055821289 0 0 0 0 33.688851683844746 -54.969360754848822 0 -54.969360754848822 333.86785087132012 0 0 0 0 52.808405079145359 -41.913205185772313 0 -41.913205185772313 89.985169107851107 0 0 0 0 -5.7756648735366456 8.7504629482077974 0 8.7504629482077974 -12.147491037826967 0 0 0 0 9.0334616566196928 -15.648626839072676 0 -15.648626839072676 175.35669715602126 0 0 0 0 -160.69676575469293 -30.760754607181298 0 -30.760754607181298 178.44603221377474 0 0 0 0 -329.89120110986732 -230.48975366121158 0 -230.48975366121158 47.576682270859237 0 0 0 0 -150.32919958321168 -55.785950733250502 0 -55.785950733250502 75.568927323882235 0 0 0 0 -130.34270019359428 -293.86445871036267 0 -293.86445871036267 549.72945424674253 0 0 0 0 -284.36586156197154 -47.725211970333476 0 -47.725211970333476 711.31188289522834 0 0 0 0 -152.8580769963728 -81.972573315098998 0 -81.972573315098998 265.66422527754912 0 0 0 0 -156.68572283098911 -9.5963047948025633 0 -9.5963047948025633 288.10012637148611 0 0 0 0 -246.67204726340788 21.915238787376438 0 21.915238787376438 289.25490665555117 0 0 0 0 -157.81597830064129 -19.248204517483828 0 -19.248204517483828 267.51582284993492 0 0 0 0 81.603468992519993 296.18159855768317 0 296.18159855768317 -41.222043796093203 0 0 0 0 -53.261353354001244 47.307322707608193 0 47.307322707608193 25.800521402508082 0 0 0 0 -8.7696060374837543 -81.308794888536795 0 -81.308794888536795 262.94112954581215 0 0 0 0 61.322943483351992 66.907663775427864 0 66.907663775427864 654.96006775961723 0 0 0 0 90.236404074137681 -6.310164787559188 0 -6.310164787559188 287.73087521709385 0 0 0 0 -44.57038473087232 -28.608811227342812 0 -28.608811227342812 396.28882458838052 0 0 0 0 -61.548657672268746 -116.6061432830902 0 -116.6061432830902 388.56065999541352 0 0 0 0 -136.80242527699011 -55.43389032088453 0 -55.43389032088453 297.0396160002856 0 0 0 0 -179.97049646865344 -35.048812083754456 0 -35.048812083754456 293.57438234554138 0 0 0 0 -178.05241968756309 -25.049554799436009 0 -25.049554799436009 318.89649067498976 0 0 0 0 -158.59412163485831 -48.7558426305186 0 -48.7558426305186 330.71529308648314 0 0 0 0 -68.791373917236342 -79.877437024115352 0 -79.877437024115352 317.18560271081515 0 0 0 0 -139.21558837304474 -57.89697586182956 0 -57.89697586182956 352.22473856259603 0 0 0 0 -58.876828310993005 -106.44342050551495 0 -106.44342050551495 306.66815493852482 0 0 0 0 -165.84870848699939 -58.920052426954499 0 -58.920052426954499 326.54672134743305 0 0 0 0 -166.08535202313578 -52.607725244044559 0 -52.607725244044559 261.35743651054509 0 0 0 0 -193.06973159269546 -0.29917579982429743 0 -0.29917579982429743 277.19652822826174 0 0 0 0 -162.38382363486744 -23.054815964977024 0 -23.054815964977024 290.28606589233095 0 0 0 0 -120.76105050803744 47.688601910267607 0 47.688601910267607 297.90763653976319 0 0 0 0 -156.6125525160187 -25.816885667496535 0 -25.816885667496535 231.98023442213889 0 0 0 0 -153.98687124798744 -47.453008232580032 0 -47.453008232580032 257.75573422273737 0 0 0 0 -160.99651059580538 -79.784215489191411 0 -79.784215489191411 208.59553624680848 0 0 0 0 -60.234931341757687 -33.206521700938765 0 -33.206521700938765 87.766164507585927 0 0 0 0 -161.67925619124071 -72.650422849328606 0 -72.650422849328606 188.90528839576291 0 0 0 0 -115.177048429352 19.705491195534705 0 19.705491195534705 128.63061224491685 0 0 0 0 -74.857979425275033 36.082017855391086 0 36.082017855391086 -80.749341999908211 0 0 0 0 -12.075391236178323 -9.1907946374028313 0 -9.1907946374028313 28.465305539233555 0 0 0 0 25.023218720673412 21.480155381004806 0 21.480155381004806 168.25840039532341 0 0 0 0 -85.848112402102743 17.990303091651526 0 17.990303091651526 58.601347387913336 0 0 0 0 16.382384763124719 -183.99021647803602 0 -183.99021647803602 133.44982881034957 0 0 0 0 -19.033592867147693 20.35356738647809 0 20.35356738647809 1.6493576977957218 0 0 0 0 103.22230046900313 -153.12578248061936 0 -153.12578248061936 148.60337339129183 0 0 0 0 -155.54894316236459 -24.707668866380118 0 -24.707668866380118 143.94221756373736 0 0 0 0 21.797404876240762 54.631244520707696 0 54.631244520707696 -34.884737476357259 0 0 0 0 -169.35757940413896 51.758351988406503 0 51.758351988406503 166.66378216940211 0 0 0 0 -72.347535163133671 30.958228672109129 0 30.958228672109129 42.239008933068533 0 0 0 0 17.353986971545055 45.320891588591621 0 45.320891588591621 50.136133325999253 0 0 0 0 0.5808411056277123 -10.116775914544775 0 -10.116775914544775 15.90765151821553 0 0 0 0 -83.19484303995705 325.8458859956736 0 325.8458859956736 319.16507422353607 0 0 0 0 -138.68828371416748 -69.935866038649692 0 -69.935866038649692 175.24453653069213 0 0 0 0 -42.064313585422823 -4.4331378345169412 0 -4.4331378345169412 49.599088312960362 0 0 0 0 419.58770058958305 235.67171894619241 0 235.67171894619241 1415.1822396864245 0 0 0 0 105.41088388934895 53.68435966213292 0 53.68435966213292 658.98698568757391 0 0 0 0 -340.07553118399528 -105.84881671468611 0 -105.84881671468611 863.80647393858817 0 0 0 0 46.387857769041204 -240.81157242845984 0 -240.81157242845984 830.01503928413149 0 0 0 0 -201.79640790492613 183.5454308980552 0 183.5454308980552 686.31257591085887 0 0 0 0 468.0454581300927 -448.19498354673124 0 -448.19498354673124 208.04946448846022 0 0 0 0 445.32140987728712 -421.77929750143085 0 -421.77929750143085 377.47874247370055 0 0 0 0 1099.2758948825312 -449.78782144549768 0 -449.78782144549768 517.25816993811168 0 0 0 0 465.2577424730905 -324.37415819076705 0 -324.37415819076705 492.45276881029713 0 0 0 0 549.93496252961529 -496.83742016007454 0 -496.83742016007454 470.38199511129642 0 0 0 0 180.02959981008848 -612.47563501019613 0 -612.47563501019613 916.94977599132108 0 0 0 0 -131.78364323595915 -368.51598572896728 0 -368.51598572896728 848.30578015040373 0 0 0 0 -131.06299274226194 -356.15966299702995 0 -356.15966299702995 706.94347817561356 0 0 0 0 -196.88335176185706 -385.54637928969169 0 -385.54637928969169 1033.470312464 0 0 0 0 -171.71588667642607 -331.13475856513469 0 -331.13475856513469 884.23356065561529 0 0 0 0 197.92843449881286 -887.08529031447688 0 -887.08529031447688 1598.1628508257272 0 0 0 0 38.880351112912848 6.8527859041168995 0 6.8527859041168995 18.229450718485168 0 0 0 0 -171.58066091381511 206.69385720492573 0 206.69385720492573 907.46403277490026 0 0 0 0 0.44357248837446506 -2.2090811074466306 0 -2.2090811074466306 11.362945325323608 0 0 0 0 985.46200557558404 -719.75145069554128 0 -719.75145069554128 464.83815297753608 0 0 0 0 201.89707650935202 -401.691018503745 0 -401.691018503745 714.48053034197073 0 0 0 0 138.08360836635711 -602.07832835792215 0 -602.07832835792215 1486.7385865252518 0 0 0 0 232.22513529319167 -370.12757903139573 0 -370.12757903139573 520.87665191255655 0 0 0 0 117.75790253923333 -285.96678670003894 0 -285.96678670003894 574.2197797050103 0 0 0 0 107.55850222014305 -187.0533980588516 0 -187.0533980588516 444.30888685776154 0 0 0 0 -33.115684147940556 -158.29273785187979 0 -158.29273785187979 731.59383870882448 0 0 0 0 109.31540839319041 -286.9074935835888 0 -286.9074935835888 632.39352073526243 0 0 0 0 73.82578298792032 -146.21226625451527 0 -146.21226625451527 422.52219929787316 0 0 0 0 107.24249232256261 -182.37594507726317 0 -182.37594507726317 473.75973672290274 0 0 0 0 82.631535627671838 -66.279901623507612 0 -66.279901623507612 558.59109096426982 0 0 0 0 3.5123515568266157 -115.52615825163957 0 -115.52615825163957 687.09419215997332 0 0 0 0 77.920322224685151 -92.721312565568951 0 -92.721312565568951 411.12742303490086 0 0 0 0 -56.767537497084959 -97.374121433786058 0 -97.374121433786058 857.14648652324831 0 0 0 0 -0.22666747083142269 4.8097276575512637 0 4.8097276575512637 2.8490493658318599 0 0 0 0 -186.66347898442473 33.302902014169376 0 33.302902014169376 -298.62590227632609 0 0 0 0 -36.385675245694074 -138.88507995732652 0 -138.88507995732652 677.49803496027016 0 0 0 0 86.951164011619312 169.16606051771669 0 169.16606051771669 387.16906570884021 0 0 0 0 -34.381181719053529 -131.71341050887713 0 -131.71341050887713 1158.7046628077078 0 0 0 0 -5.6686644792098377 -116.42484128932119 0 -116.42484128932119 651.43039547337685 0 0 0 0 -6.9071782545288443 -180.19203674911842 0 -180.19203674911842 561.68828276821296 0 0 0 0 89.366063436012155 119.43390068977897 0 119.43390068977897 -398.11342983636132 0 0 0 0 -29.920506133707143 53.97921339417428 0 53.97921339417428 12.175837100736516 0 0 0 0 2.7124947355995204 8.419938224395338 0 8.419938224395338 5.8105878299548834 0 0 0 0 -175.6211096936313 89.725980244693346 0 89.725980244693346 -360.41316894133342 0 0 0 0 -49.113853722300291 109.93570411035762 0 109.93570411035762 127.44135742184881 0 0 0 0 -41.981726311884586 86.284422655400704 0 86.284422655400704 163.70801008535182 0 0 0 0 -98.933529379683023 105.85992133291438 0 105.85992133291438 147.1216842814174 0 0 0 0 17.067345807995935 172.48499573570007 0 172.48499573570007 -198.13415470100153 0 0 0 0 0.37685475402471713 -0.4625789734552086 0 -0.4625789734552086 0.078688330695257491 0 0 0 0 55.5458404258641 63.794227733331354 0 63.794227733331354 204.13796025226475 0 0 0 0 4.3052303220229078 99.327609886997379 0 99.327609886997379 230.5833999261813 0 0 0 0 11.11879790906778 108.91947167938633 0 108.91947167938633 147.18623706070639 0 0 0 0 33.096215333697728 84.596731590150739 0 84.596731590150739 160.40372501910315 0 0 0 0 27.843859485774374 61.045591867470648 0 61.045591867470648 216.9073335036519 0 0 0 0 -79.366074985493469 115.10278541388107 0 115.10278541388107 161.93085763018098 0 0 0 0 -116.58605719779177 111.6924700544696 0 111.6924700544696 184.47077628626721 0 0 0 0 -61.655254443636409 92.204044424302992 0 92.204044424302992 188.65933776163729 0 0 0 0 -36.957770983815408 129.89401104769786 0 129.89401104769786 152.45318769081496 0 0 0 0 -33.225915177087018 113.37109022364893 0 113.37109022364893 172.14983209417551 0 0 0 0 -18.275504762572837 99.787710971402703 0 99.787710971402703 176.75293825667177 0 0 0 0 -81.132001950086988 153.07578739039309 0 153.07578739039309 143.52702510211384 0 0 0 0 -13.183503907042905 96.50695870196796 0 96.50695870196796 134.50168484638743 0 0 0 0 -226.53192659389174 128.42141292989254 0 128.42141292989254 180.69801380425633 0 0 0 0 -56.013207622311995 34.754783776093973 0 34.754783776093973 163.29483680748672 0 0 0 0 -1.4773257170715266 1.5821242958716937 0 1.5821242958716937 0.33170355251641581 0 0 0 0 -135.99515076245302 24.166208217982785 0 24.166208217982785 162.85456747120043 0 0 0 0 -17.256785409630879 74.754816478656721 0 74.754816478656721 201.16888656637457 0 0 0 0 -98.769531565657189 97.326611591488472 0 97.326611591488472 187.54157280457002 0 0 0 0 -131.11915629882049 76.007509612041758 0 76.007509612041758 216.28629152048961 0 0 0 0 -72.298477716006005 42.887101546308259 0 42.887101546308259 219.76200001406687 0 0 0 0 69.291961470985598 117.66725204295653 0 117.66725204295653 -413.33705615540384 0 0 0 0 -31.733130217248004 45.304706733862986 0 45.304706733862986 194.15812143029325 0 0 0 0 6.4268862049852942 -43.043944777076831 0 -43.043944777076831 154.5251972725091 0 0 0 0 -61.826957526658134 30.191668296974967 0 30.191668296974967 211.24876156069513 0 0 0 0 -91.074042570873303 72.671502708704793 0 72.671502708704793 185.01554813000257 0 0 0 0 -6.114448352259565 54.212035327726511 0 54.212035327726511 25.138454198319195 0 0 0 0 528.8261501926961 -316.74691921280464 0 -316.74691921280464 121.68186069888179 0 0 0 0 -76.889220040268214 35.731436679045146 0 35.731436679045146 209.24606657461845 0 0 0 0 -59.260204220108392 3.4771532130107516 0 3.4771532130107516 265.2237560437643 0 0 0 0 371.01499333835727 -124.30545374614303 0 -124.30545374614303 151.41349651120981 0 0 0 0 3.4179737770624929 9.6556874225107663 0 9.6556874225107663 -11.923362199264915 0 0 0 0 -122.47026700900278 -56.234122849127743 0 -56.234122849127743 535.76208686313475 0 0 0 0 -164.28432641977611 -125.09199132907088 0 -125.09199132907088 670.64606842165813 0 0 0 0 -30.813721426581196 -285.63867120181385 0 -285.63867120181385 704.16783335991204 0 0 0 0 -72.959970422925664 -168.75314916446951 0 -168.75314916446951 509.94480437220773 0 0 0 0 226.9264060572948 -371.49402873229701 0 -371.49402873229701 629.42510407767259 0 0 0 0 191.42515064857344 -279.3288791879022 0 -279.3288791879022 473.46364560426355 0 0 0 0 468.53979095397358 -209.15281690008123 0 -209.15281690008123 242.07764974038582 0 0 0 0 79.545064193256621 -236.3547415775829 0 -236.3547415775829 173.19317369269265 0 0 0 0 -33.318570397107806 12.663138777861604 0 12.663138777861604 226.11474433611147 0 0 0 0 -45.92183201639989 -47.72673868345737 0 -47.72673868345737 385.22693102704943 0 0 0 0 -86.025208664605088 -7.1281988922855817 0 -7.1281988922855817 586.2937253441778 0 0 0 0 -156.68086894299586 -43.587084429062088 0 -43.587084429062088 1251.5422208496602 0 0 0 0 121.76860103343188 -587.49510003469186 0 -587.49510003469186 319.2820783189818 0 0 0 0 -39.70366130722141 -919.33383719186531 0 -919.33383719186531 1071.3476626484189 0 0 0 0 -170.12471871101269 515.91673796760915 0 515.91673796760915 1828.2020837776945 0 0 0 0 -64.63201937920735 207.52243788911437 0 207.52243788911437 200.28298942671972 0 0 0 0 114.87926250656551 42.222421570288134 0 42.222421570288134 95.645152303390205 0 0 0 0 37.378122205962882 -178.85629789152881 0 -178.85629789152881 280.47103790566325 0 0 0 0 162.94341583435971 121.50066852615419 0 121.50066852615419 136.27709922590293 0 0 0 0 -9.1485126700598585 -17.11554395093291 0 -17.11554395093291 15.49280403322831 0 0 0 0 215.95223780208971 298.63721115158114 0 298.63721115158114 431.35308021531091 0 0 0 0 -17.490816655023593 77.10505510072835 0 77.10505510072835 245.58240835963807 0 0 0 0 70.563689892431285 190.22865288340836 0 190.22865288340836 361.00638526900002 0 0 0 0 -5.2527211061328769 7.8958797357571768 0 7.8958797357571768 25.127327138235927 0 0 0 0 8.299810207982091 -112.46160113317455 0 -112.46160113317455 -56.962926136548049 0 0 0 0 64.381340529351519 181.78015864259214 0 181.78015864259214 15.990703118295642 0 0 0 0 86.431516774148974 131.51482148326977 0 131.51482148326977 -2.8735289488686249 0 0 0 0 -4.3585916293024773 0.016745902821071468 0 0.016745902821071468 0.14810101214614235 0 0 0 0 -199.49874810286474 -135.89111397897068 0 -135.89111397897068 68.57664739644315 0 0 0 0 101.93370509354008 134.25416708336707 0 134.25416708336707 -126.60180674417643 0 0 0 0 110.27887000730948 233.18675329706457 0 233.18675329706457 -91.660241349498392 0 0 0 0 -192.89401661286644 -193.35970865815398 0 -193.35970865815398 112.58719693476451 0 0 0 0 53.1594694005571 -14.561358483508229 0 -14.561358483508229 8.6352453136059921 0 0 0 0 14.640864294239236 -31.15953433294635 0 -31.15953433294635 97.628484817189019 0 0 0 0 14.956633179334176 -51.576929427930736 0 -51.576929427930736 129.30897919389827 0 0 0 0 44.714253058697523 -90.427820581979176 0 -90.427820581979176 128.52488837705459 0 0 0 0 23.602100806301678 -12.707838892900327 0 -12.707838892900327 123.18925195708289 0 0 0 0 62.304916590187986 -105.99210110530839 0 -105.99210110530839 141.50898650956151 0 0 0 0 124.85953916262929 -55.538431642504293 0 -55.538431642504293 74.461063803348225 0 0 0 0 -108.54617697230719 32.007444714159647 0 32.007444714159647 141.86522265525127 0 0 0 0 27.759930434831404 -16.414538628529044 0 -16.414538628529044 112.04706902787439 0 0 0 0 7.5385906143383181 -98.779378175386228 0 -98.779378175386228 75.332576906133909 0 0 0 0 61.337503970800526 22.010665515088476 0 22.010665515088476 207.78739726816275 0 0 0 0 -10.317290047917865 0.21864030588164951 0 0.21864030588164951 0.78711054733804531 0 0 0 0 -119.71138451651996 47.005010023800423 0 47.005010023800423 365.50716356054909 0 0 0 0 -113.98756260453047 -21.999922561575659 0 -21.999922561575659 345.89033383940114 0 0 0 0 61.190381710340795 72.571009060522655 0 72.571009060522655 173.68338230237714 0 0 0 0 -84.557817341999112 182.98209752909315 0 182.98209752909315 32.834385770518566 0 0 0 0 -5.6870189362834935 -125.82103243310848 0 -125.82103243310848 105.10613550287962 0 0 0 0 -187.85227568739538 -122.24815238897281 0 -122.24815238897281 298.65964909686591 0 0 0 0 -19.78520559690196 80.241033284193691 0 80.241033284193691 541.85100375401089 0 0 0 0 -5.0128014537314503 -1.0894517462818385 0 -1.0894517462818385 1.6341629837356066 0 0 0 0 -123.18781373595206 36.788044352462066 0 36.788044352462066 144.47023313301906 0 0 0 0 48.099401855079122 -321.64552631803235 0 -321.64552631803235 -218.28152868884354 0 0 0 0 -288.16014844613983 -252.83558767567592 0 -252.83558767567592 276.96277498226846 0 0 0 0 -207.27341724618759 31.520116853296713 0 31.520116853296713 340.6197955738171 0 0 0 0 49.982258909899883 125.859513480842 0 125.859513480842 310.48454431306163 0 0 0 0 145.09199732271281 7.2726995289995102 0 7.2726995289995102 155.29669229999854 0 0 0 0 -54.580640141863114 117.68642261914283 0 117.68642261914283 601.76823530928232 0 0 0 0 83.177401758109781 201.3044147237602 0 201.3044147237602 500.78232918700087 0 0 0 0 -54.483309851491867 -196.93046443007916 0 -196.93046443007916 475.23158610346582 0 0 0 0 66.950876508057718 10.368381588021293 0 10.368381588021293 447.41336726088775 0 0 0 0 -9.1459683743312326 -136.80924734677683 0 -136.80924734677683 764.71440494873968 0 0 0 0 1.8473789687316753 -102.48645014373506 0 -102.48645014373506 606.09230685743387 0 0 0 0 17.115895376693516 -75.053488150158955 0 -75.053488150158955 408.18344494933262 0 0 0 0 11.421060289068919 -3.419360068262904 0 -3.419360068262904 382.1317080619483 0 0 0 0 19.728106251253394 -94.231568516841435 0 -94.231568516841435 444.45207260159077 0 0 0 0 -57.557825465762107 140.60840390439262 0 140.60840390439262 686.0681449332842 0 0 0 0 -66.672023529940361 130.78034328509602 0 130.78034328509602 697.71877975779353 0 0 0 0 80.918922131685605 458.14266998268954 0 458.14266998268954 918.03040174215857 0 0 0 0 -142.84648628110608 363.27835498602508 0 363.27835498602508 1086.4787306586659 0 0 0 0 -154.33869785829484 110.22918892623056 0 110.22918892623056 1229.1052641834976 0 0 0 0 -193.45632403972991 348.62890358639561 0 348.62890358639561 1679.8006677896919 0 0 0 0 173.02660697397653 -589.5604438410046 0 -589.5604438410046 1778.7414177918399 0 0 0 0 -81.68944825885842 310.48830503066711 0 310.48830503066711 1455.407661091027 0 0 0 0 -166.37773382939821 488.60278267876674 0 488.60278267876674 3378.0794075023296 0 0 0 0 -52.764648239040525 -521.25102504582901 0 -521.25102504582901 1845.4765525267285 0 0 0 0 210.91112610012635 -421.54370461618237 0 -421.54370461618237 352.87983288650867 0 0 0 0 124.37197935633253 -187.06545194286446 0 -187.06545194286446 530.7527591483813 0 0 0 0 336.83113553841781 -7.9529960331128677 0 -7.9529960331128677 -415.16409489061334 0 0 0 0 1357.8543923821298 241.27346129442594 0 241.27346129442594 720.19691332353977 0 0 0 0 1024.4337422805047 1665.8964956243472 0 1665.8964956243472 898.82248932946823 0 0 0 0 6.0948337265186474 12.408432556144241 0 12.408432556144241 26.27575074193021 0 0 0 0 2245.0874447518681 422.94941570445371 0 422.94941570445371 -557.53997693362908 0 0 0 0 7.0542446497305882 4.0752803170305327 0 4.0752803170305327 0.61777671743473661 0 0 0 0 962.78733462694959 2760.7229648395733 0 2760.7229648395733 2194.1241458855511 0 0 0 0 -11.817374445636233 -257.61307615169062 0 -257.61307615169062 1889.4978527481871 0 0 0 0 -86.572529428275629 272.4655179633628 0 272.4655179633628 -89.741949213734188 0 0 0 0 -1346.0987604484744 1052.6636392020064 0 1052.6636392020064 -297.11902007630852 0 0 0 0 -1174.9604043274267 182.64929906349062 0 182.64929906349062 777.28249133853387 0 0 0 0 197.99879694139145 874.08664502863394 0 874.08664502863394 206.04283529685927 0 0 0 0 181.46836783806242 599.81583250156996 0 599.81583250156996 -907.62425213832466 0 0 0 0 -178.92422043105944 1820.5911818757013 0 1820.5911818757013 -339.09733529954246 0 0 0 0 9.1976941167215482 16.469452012272612 0 16.469452012272612 29.576580833585638 0 0 0 0 329.18696980826735 -1400.0364518332208 0 -1400.0364518332208 2898.3330745619023 0 0 0 0 -94.894553309719413 1434.618804604921 0 1434.618804604921 1427.8293507929193 0 0 0 0 62.648663830091181 1341.4608258470835 0 1341.4608258470835 34.451591809280217 0 0 0 0 -480.30826973847979 95.545008535773377 0 95.545008535773377 3221.873355421063 0 0 0 0 -479.89328514133831 181.14847442803148 0 181.14847442803148 855.91360220039496 0 0 0 0 -106.69406621188676 892.41624062901246 0 892.41624062901246 1484.0435697329231 0 0 0 0 10.999391944450508 540.34545469499426 0 540.34545469499426 217.67922616786382 0 0 0 0 -193.932734874152 515.09732488900772 0 515.09732488900772 271.03562279135804 0 0 0 0 -382.48924155669283 202.89069692815247 0 202.89069692815247 844.68171073886333 0 0 0 0 -460.15866716522578 34.503579698182875 0 34.503579698182875 335.50278063671431 0 0 0 0 -408.82825035756832 25.693429469538387 0 25.693429469538387 263.09273867195589 0 0 0 0 2.856367372050725 32.819686463922352 0 32.819686463922352 113.31541403439104 0 0 0 0 -477.42352396895149 4.1830716317199403 0 4.1830716317199403 283.04255862225546 0 0 0 0 -477.23013991596781 6.7792628931783838 0 6.7792628931783838 227.39487748302054 0 0 0 0 -58.654201769001929 -120.62853896821616 0 -120.62853896821616 -284.48808813480719 0 0 0 0 -368.08062886806874 70.02896125279949 0 70.02896125279949 286.72302078531357 0 0 0 0 -27.057560365115023 302.00848864465661 0 302.00848864465661 -21.556257053125591 0 0 0 0 -438.21872293140223 -10.176146191632142 0 -10.176146191632142 220.72599563290714 0 0 0 0 -144.27097471262812 282.28604671466019 0 282.28604671466019 79.057491694256896 0 0 0 0 11.14961574806312 29.072941004680416 0 29.072941004680416 71.991396552162769 0 0 0 0 -37.593505443587674 410.7206370969252 0 410.7206370969252 138.96979177740286 0 0 0 0 -39.047380521202967 117.79554494792683 0 117.79554494792683 175.80993208617292 0 0 0 0 184.38469127027383 162.90867332532071 0 162.90867332532071 -250.37754491443047 0 0 0 0 736.04246876843513 599.47196746225382 0 599.47196746225382 -45.398741477372823 0 0 0 0 669.02774783061091 1035.9693294016906 0 1035.9693294016906 -326.42105861756136 0 0 0 0 198.02962994126733 -768.78014868707032 0 -768.78014868707032 1497.4656679294712 0 0 0 0 -35.723689927618352 463.00058743510817 0 463.00058743510817 2072.5467853747832 0 0 0 0 -1.7720581579360934 -0.16348163204374044 0 -0.16348163204374044 -2.4657396354608636 0 0 0 0 -58.611231688337284 132.17962544460534 0 132.17962544460534 228.72655712804408 0 0 0 0 -1721.2979609364252 275.63329290261754 0 275.63329290261754 945.59974142702413 0 0 0 0 -438.39318256239994 26.713812732901715 0 26.713812732901715 1282.4400870787649 0 0 0 0 -168.40208623431226 -0.70396867790987017 0 -0.70396867790987017 355.40587316043093 0 0 0 0 -201.42482925217428 -276.14787830386194 0 -276.14787830386194 795.34946551684698 0 0 0 0 25.734858206252397 58.601304021152174 0 58.601304021152174 116.0748053749536 0 0 0 0 -164.97252646471634 550.19393206339373 0 550.19393206339373 335.31464058029815 0 0 0 0 -1006.4675737589514 132.1748378153352 0 132.1748378153352 324.60860831048922 0 0 0 0 -284.13039494749455 -132.85066293788259 0 -132.85066293788259 801.63721296965377 0 0 0 0 16.147390656572661 41.16251334838779 0 41.16251334838779 84.250810827603516 0 0 0 0 -50.134332143999018 -226.152030828016 0 -226.152030828016 799.14293378333969 0 0 0 0 125.75229588529601 -371.94325477241364 0 -371.94325477241364 913.17153683344077 0 0 0 0 -241.05405296622484 -315.38487879610329 0 -315.38487879610329 1134.2943496551816 0 0 0 0 -328.51128293592683 -148.35959504354105 0 -148.35959504354105 1022.8427309579492 0 0 0 0 -306.72499301335392 -194.36752645850356 0 -194.36752645850356 939.65817664400674 0 0 0 0 -230.6875325671715 -305.22052549752698 0 -305.22052549752698 1009.050336219836 0 0 0 0 -150.58156357292228 -419.54088668212353 0 -419.54088668212353 1110.3271406038402 0 0 0 0 -107.59583113219105 -385.72403541494714 0 -385.72403541494714 1096.6985447268235 0 0 0 0 104.6725032352183 -557.62741107754846 0 -557.62741107754846 1035.3533909647958 0 0 0 0 -58.252755632001936 -259.29781849448045 0 -259.29781849448045 890.64067963024718 0 0 0 0 121.87788273521619 -356.72047646378633 0 -356.72047646378633 865.61142019797262 0 0 0 0 63.814633783480531 -258.85061531366955 0 -258.85061531366955 890.61244692999981 0 0 0 0 -56.967953426266398 -390.2229426449552 0 -390.2229426449552 862.59080616742722 0 0 0 0 380.18039078054971 -476.57936246198369 0 -476.57936246198369 707.82467469505355 0 0 0 0 190.60426415319125 -300.85124691136298 0 -300.85124691136298 654.91232343191223 0 0 0 0 -546.74875704173883 -514.44779424164153 0 -514.44779424164153 2202.3564571188181 0 0 0 0 -777.2096681657473 123.63385981306419 0 123.63385981306419 1954.312011943839 0 0 0 0 12.307609213382747 13.467864580918928 0 13.467864580918928 16.243627065858021 0 0 0 0 11.133100782846782 5.4172576373821357 0 5.4172576373821357 50.902993324445561 0 0 0 0 158.53165652824578 -293.17213365773932 0 -293.17213365773932 1891.7855644171941 0 0 0 0 9.8081224145144095 -2.4072070685840856 0 -2.4072070685840856 6.5209053121529337 0 0 0 0 -124.65843210931212 -558.85980050334911 0 -558.85980050334911 2322.8035556831455 0 0 0 0 100.33999522097565 -471.57602354134724 0 -471.57602354134724 2010.0759481185814 0 0 0 0 174.65640162281761 -766.22876709284901 0 -766.22876709284901 2385.155312214134 0 0 0 0 7.1721841327415063 -4.5930512557441148 0 -4.5930512557441148 -0.94822899472711697 0 0 0 0 -56.858088764071454 -721.66740571849368 0 -721.66740571849368 2179.1208975044283 0 0 0 0 149.56295366468294 -629.19759616599185 0 -629.19759616599185 1957.5920573673575 0 0 0 0 147.13621156837962 -535.54415280437388 0 -535.54415280437388 2007.520138919499 0 0 0 0 189.57882384685763 -773.95705730852933 0 -773.95705730852933 1330.566578415659 0 0 0 0 149.81148969628157 -640.20132551761344 0 -640.20132551761344 1888.363780124726 0 0 0 0 146.7650737941903 -547.59011026996313 0 -547.59011026996313 1904.4418019375007 0 0 0 0 37.241187827706852 8.353578096551928 0 8.353578096551928 6.6972735629562692 0 0 0 0 65.188817891750659 114.65453603384958 0 114.65453603384958 1171.3921742316161 0 0 0 0 -127.15312736745545 -94.375635065072856 0 -94.375635065072856 749.06308434564562 0 0 0 0 48.082886808009704 8.3521044070272978 0 8.3521044070272978 -0.19332952897008227 0 0 0 0 -272.86883751317373 -342.39295792608209 0 -342.39295792608209 1483.8427875881898 0 0 0 0 668.28274056635109 -212.50058340467513 0 -212.50058340467513 444.01498453289969 0 0 0 0 -241.89019816560676 -350.98400515574031 0 -350.98400515574031 1682.0230076376756 0 0 0 0 736.1201605478127 -716.31381845183205 0 -716.31381845183205 1718.2538319974574 0 0 0 0 272.3551056586075 -1198.5948418346234 0 -1198.5948418346234 3214.458413733897 0 0 0 0 262.72809480768228 -237.58664011501969 0 -237.58664011501969 2671.2695316994213 0 0 0 0 0.52574373743500269 -7.0599957981930146 0 -7.0599957981930146 2.772658657069428 0 0 0 0 930.51219211662647 -1441.6097618537897 0 -1441.6097618537897 1799.5011281473562 0 0 0 0 989.69927180973536 -1799.2621333885145 0 -1799.2621333885145 2383.7735154875554 0 0 0 0 201.14381427211993 -846.80869792643352 0 -846.80869792643352 2549.0834820268792 0 0 0 0 15.85583212368581 -75.824721828555994 0 -75.824721828555994 27.229430441146349 0 0 0 0 115.8052350607868 -212.79691648056178 0 -212.79691648056178 -535.67989521234995 0 0 0 0 -320.34502501913585 24.734029290411854 0 24.734029290411854 121.88020024920115 0 0 0 0 14.833956949729327 -100.2520555930605 0 -100.2520555930605 -85.810159044573084 0 0 0 0 -24.351548159862432 -170.83492347368156 0 -170.83492347368156 20.228395212820033 0 0 0 0 -367.71238519623284 204.09850149886915 0 204.09850149886915 265.69585298464517 0 0 0 0 -328.33067496361127 156.21025961025589 0 156.21025961025589 -88.935013072536094 0 0 0 0 -469.70906324994939 -111.89427224996325 0 -111.89427224996325 35.024062294236501 0 0 0 0 -381.89653102700504 -60.725134258085745 0 -60.725134258085745 304.80768502210594 0 0 0 0 -29.677413593636174 -769.64373072592571 0 -769.64373072592571 2420.7075055862369 0 0 0 0 -52.708200339769306 -13.093121058121739 0 -13.093121058121739 13.194155461253388 0 0 0 0 -15.186310015258471 53.474752675428135 0 53.474752675428135 2367.6123611319199 0 0 0 0 -345.58945380655018 1083.5209421657783 0 1083.5209421657783 -1050.3065750309252 0 0 0 0 -21.305154158017373 2.9528271051684101 0 2.9528271051684101 2.8866899653415885 0 0 0 0 -222.98731127973861 61.910870793915819 0 61.910870793915819 -133.43671700156119 0 0 0 0 -532.26625706703965 25.874495076925086 0 25.874495076925086 526.17472915461985 0 0 0 0 -160.2797139670464 -569.60658613080886 0 -569.60658613080886 947.39175072798389 0 0 0 0 -132.40466581253804 -579.78766585672565 0 -579.78766585672565 815.79237599975022 0 0 0 0 538.64090368198094 -1522.3227544963665 0 -1522.3227544963665 1707.9030186929158 0 0 0 0 -1285.2843557610545 892.63357083791925 0 892.63357083791925 698.09402649869662 0 0 0 0 -604.91803058587595 -685.6899962186144 0 -685.6899962186144 990.21952348671039 0 0 0 0 -36.140537243718427 49.918045465019532 0 49.918045465019532 842.19551056390628 0 0 0 0 18.407167587283766 82.261914093280211 0 82.261914093280211 859.8957193242386 0 0 0 0 -0.49518875072739021 -9.2774667464061054 0 -9.2774667464061054 87.824704685881613 0 0 0 0 5.5773956911976832 -0.96464007564065923 0 -0.96464007564065923 11.754205665205404 0 0 0 0 148.52186834782242 165.41284054931748 0 165.41284054931748 856.9142651175498 0 0 0 0 86.958134092567889 209.06846444998519 0 209.06846444998519 976.2315456274664 0 0 0 0 -116.32064212051591 130.35706887434935 0 130.35706887434935 1117.6169260138704 0 0 0 0 -63.928877833194747 90.028529034927487 0 90.028529034927487 1012.5936332590645 0 0 0 0 -187.08419355397928 -0.66206262964988127 0 -0.66206262964988127 1085.0107237622724 0 0 0 0 -153.34586934264553 6.2134268613590393 0 6.2134268613590393 978.71233374829171 0 0 0 0 -256.12204748165959 -100.38815850229003 0 -100.38815850229003 963.31647618522402 0 0 0 0 0.20279546028382911 45.498077735359885 0 45.498077735359885 21.652578820996553 0 0 0 0 4.2990521357865719 17.103437114452873 0 17.103437114452873 19.058765384054908 0 0 0 0 0.59525177346949931 0.48525765526574105 0 0.48525765526574105 96.232464688917389 0 0 0 0 -109.57377269419158 -67.240941084688529 0 -67.240941084688529 783.52351501036901 0 0 0 0 2.3782280934988194 119.1501133205893 0 119.1501133205893 129.67701757265604 0 0 0 0 -258.19396959000642 -149.55320153612411 0 -149.55320153612411 1054.117965339974 0 0 0 0 -205.96579002899307 -108.55240478774067 0 -108.55240478774067 882.46559921087464 0 0 0 0 -105.28781867149291 -5.8382559286255855 0 -5.8382559286255855 863.80115366610698 0 0 0 0 -182.73613966540506 -53.00369617663091 0 -53.00369617663091 978.11206367478007 0 0 0 0 -214.24040053026465 -231.5644383585277 0 -231.5644383585277 785.93593417550437 0 0 0 0 -149.56722286996683 -284.47060276690172 0 -284.47060276690172 820.83273677936813 0 0 0 0 -280.66827828271016 -212.79676572862081 0 -212.79676572862081 924.38916643176344 0 0 0 0 -212.5120693150875 -215.92651472397847 0 -215.92651472397847 907.62716918537626 0 0 0 0 -187.31121459780297 -133.40056992752943 0 -133.40056992752943 855.92824823965202 0 0 0 0 -142.21041715274259 -181.95223538012942 0 -181.95223538012942 803.73617933905916 0 0 0 0 -166.40098239403233 -165.72678007383365 0 -165.72678007383365 792.92085115981172 0 0 0 0 -55.338196657507979 252.02348864561645 0 252.02348864561645 374.9095925129368 0 0 0 0 -113.76912577901294 -42.631046227383194 0 -42.631046227383194 811.08102362038335 0 0 0 0 6.4063207139986389 -72.07996178267058 0 -72.07996178267058 134.8166131889584 0 0 0 0 -316.85506613743746 -279.05256840676157 0 -279.05256840676157 21.630520167382201 0 0 0 0 -24.373046563683154 -52.028617823873361 0 -52.028617823873361 65.386426047596956 0 0 0 0 36.566460371699122 -167.88944140233798 0 -167.88944140233798 342.96723002916769 0 0 0 0 -405.35784732332104 -54.955823522614082 0 -54.955823522614082 71.228061440808233 0 0 0 0 -385.24642383503124 -183.21642911358504 0 -183.21642911358504 301.89580224949168 0 0 0 0 -364.93085654405297 -154.83970617071463 0 -154.83970617071463 280.33766126941191 0 0 0 0 -493.40374879981573 -199.95996851804375 0 -199.95996851804375 436.28873347808258 0 0 0 0 -63.818794712940871 -507.10833666197141 0 -507.10833666197141 -600.01393874188943 0 0 0 0 -647.54745684901991 -503.97134789504344 0 -503.97134789504344 253.97902586974669 0 0 0 0 -589.90047654187583 124.80628886300383 0 124.80628886300383 -305.7696241492813 0 0 0 0 725.65437297432891 -1000.9059029544005 0 -1000.9059029544005 388.55884428153513 0 0 0 0 -442.7432969920111 0.36286720986026921 0 0.36286720986026921 1145.6265429229534 0 0 0 0 965.13893437579645 7.36871476523811 0 7.36871476523811 -1361.7388772808481 0 0 0 0 2026.1864290499771 -1638.1668453302846 0 -1638.1668453302846 99.842267775005894 0 0 0 0 1081.1204165302881 -333.89904038964232 0 -333.89904038964232 -1227.2022330904292 0 0 0 0 293.15266805878946 813.19146584990085 0 813.19146584990085 -309.25278887865716 0 0 0 0 -465.25921603135248 1378.5110884405876 0 1378.5110884405876 2045.792346105758 0 0 0 0 202.31352375629285 -778.62389914353844 0 -778.62389914353844 1342.6220973095333 0 0 0 0 399.40425040757145 -280.23401264764834 0 -280.23401264764834 1691.2230395982624 0 0 0 0 27.861626488780615 -0.85814491636747903 0 -0.85814491636747903 8.1310508665244683 0 0 0 0 17.836188838691669 23.827863805141533 0 23.827863805141533 34.511131869789097 0 0 0 0 -40.506748225152705 21.19225999885748 0 21.19225999885748 67.011523808934726 0 0 0 0 2.5788690096025331 -0.87402929343403457 0 -0.87402929343403457 1.9207294097527381 0 0 0 0 254.45444283577854 -145.58738540553895 0 -145.58738540553895 2432.1964102833881 0 0 0 0 101.08195650680864 460.57436248539307 0 460.57436248539307 1162.216897521459 0 0 0 0 -12.940764518853939 25.545148721706937 0 25.545148721706937 1612.3147762332956 0 0 0 0 832.21683152397634 -896.75669669561194 0 -896.75669669561194 2114.9121249227901 0 0 0 0 288.307158423283 -279.91830979149381 0 -279.91830979149381 1591.4272874863527 0 0 0 0 716.56221797177727 -123.75016899720868 0 -123.75016899720868 1379.88745856678 0 0 0 0 656.12897829375652 -840.52066523818939 0 -840.52066523818939 1559.2008209421911 0 0 0 0 434.22742488913536 -726.39349741690967 0 -726.39349741690967 2227.439405143974 0 0 0 0 450.66331199076922 -695.32699962504557 0 -695.32699962504557 2008.7152045286493 0 0 0 0 366.08851902923743 -788.39172504450835 0 -788.39172504450835 2295.5487200055068 0 0 0 0 330.26814753082363 -690.8471218370978 0 -690.8471218370978 2149.8340366934208 0 0 0 0 210.65754160934557 -794.80065941941575 0 -794.80065941941575 2211.7872264330508 0 0 0 0 52.678150223262065 -3.8954962193011227 0 -3.8954962193011227 0.65354672174839834 0 0 0 0 -444.07973227888579 -444.40186334611644 0 -444.40186334611644 650.03341501823161 0 0 0 0 -134.23840539547382 -564.38779737715959 0 -564.38779737715959 -213.68987971966271 0 0 0 0 13.363942430347379 -9.2361348033591639 0 -9.2361348033591639 331.05027558920847 0 0 0 0 984.32187884533323 767.74371771362712 0 767.74371771362712 -781.09850861833547 0 0 0 0 954.94946052398336 -1706.1098152449558 0 -1706.1098152449558 3001.1164260250516 0 0 0 0 15.401460320526059 6.4279112370934683 0 6.4279112370934683 4.0851336388632546 0 0 0 0 2518.6237567894605 -789.20837132163433 0 -789.20837132163433 948.9983112400223 0 0 0 0 679.01729583472115 -193.13836877892027 0 -193.13836877892027 -125.73911667694483 0 0 0 0 1039.1190712242242 -1972.3950700948626 0 -1972.3950700948626 -194.84998834811267 0 0 0 0 -98.186873493340954 -1858.4064905702835 0 -1858.4064905702835 989.75235786740086 0 0 0 0 -1553.6813380224044 -103.73505757472594 0 -103.73505757472594 1536.9132356597111 0 0 0 0 -972.72835082404356 -1135.1502687961511 0 -1135.1502687961511 69.125799128232757 0 0 0 0 376.75323672712148 565.56289999373257 0 565.56289999373257 857.19161091022943 0 0 0 0 156.849876445002 235.9115571983275 0 235.9115571983275 1244.3085370923509 0 0 0 0 -722.73800907244276 -143.80446758405014 0 -143.80446758405014 1378.9746489280951 0 0 0 0 -525.79422875071168 -415.27852970456297 0 -415.27852970456297 941.76350524567533 0 0 0 0 -334.38101326734431 146.63982422559639 0 146.63982422559639 1408.6614936706592 0 0 0 0 -474.67924947260371 -183.455416827921 0 -183.455416827921 1090.870968925592 0 0 0 0 2.3289252100903468 142.73255715625146 0 142.73255715625146 1108.5813893218292 0 0 0 0 -284.14879552924822 -371.39180822487106 0 -371.39180822487106 928.52794215711765 0 0 0 0 -304.80511542327395 -277.63908496810473 0 -277.63908496810473 981.48264616873348 0 0 0 0 -384.18486868863874 -221.7988676308596 0 -221.7988676308596 1019.0004011043347 0 0 0 0 -321.73429546481748 -263.17136001671315 0 -263.17136001671315 1039.4132796181366 0 0 0 0 -334.29444213953684 -99.570960741257295 0 -99.570960741257295 1140.7283553371381 0 0 0 0 -476.49713448683815 -344.93199123727391 0 -344.93199123727391 1012.7057795999062 0 0 0 0 -417.51207919363878 -231.06603573242319 0 -231.06603573242319 1129.6044367199938 0 0 0 0 -261.92180977876615 -409.30521388034686 0 -409.30521388034686 819.62388625243329 0 0 0 0 -42.14285011574384 -188.78036974878341 0 -188.78036974878341 -382.0288824211857 0 0 0 0 -11.149935786436572 30.707107079259004 0 30.707107079259004 351.76982415792008 0 0 0 0 -12.065154804880422 6.4296980107028503 0 6.4296980107028503 132.61648730709146 0 0 0 0 -281.12462634093117 -334.43404530643602 0 -334.43404530643602 850.70036336289922 0 0 0 0 -524.609081796787 -444.87909072685579 0 -444.87909072685579 953.36134651332395 0 0 0 0 -368.32360036925547 -611.73209052706079 0 -611.73209052706079 141.97903738345485 0 0 0 0 -15.782972867030809 -6.3332641829608178 0 -6.3332641829608178 -2.4071795918742964 0 0 0 0 91.631954434148838 6.0025592567762942 0 6.0025592567762942 62.345797539921477 0 0 0 0 -404.69764833360637 -491.53934582107468 0 -491.53934582107468 99.250292899276246 0 0 0 0 159.4698160869757 -42.102590449871059 0 -42.102590449871059 86.456871245893126 0 0 0 0 241.38455838298341 -444.48490857533761 0 -444.48490857533761 822.70824792315398 0 0 0 0 752.91316136461228 -1344.5276862111568 0 -1344.5276862111568 364.6747426019574 0 0 0 0 -8.3485840286504214 -6.9879756939183437 0 -6.9879756939183437 0.14269847984110129 0 0 0 0 77.599863445257085 -186.32731191782113 0 -186.32731191782113 -705.60899663204327 0 0 0 0 -655.26285746000963 -1179.1492574779841 0 -1179.1492574779841 181.07226666407951 0 0 0 0 459.38030932659422 -1269.9787265649793 0 -1269.9787265649793 -1026.1058293636597 0 0 0 0 1129.1479513252561 -250.04130511820767 0 -250.04130511820767 -784.33100253506564 0 0 0 0 586.20209153815904 -796.19725011418632 0 -796.19725011418632 39.947882115768152 0 0 0 0 675.81384768228054 -908.36001746416878 0 -908.36001746416878 -572.03193248534808 0 0 0 0 129.08595794974099 -330.01554235906224 0 -330.01554235906224 -364.5025385242925 0 0 0 0 668.69861622847748 -259.02799814437094 0 -259.02799814437094 -361.19714746726095 0 0 0 0 14.307185688240345 1.5240439820380516 0 1.5240439820380516 -7.6953225851670197 0 0 0 0 -299.2597601535017 147.35842057983973 0 147.35842057983973 891.37065655555489 0 0 0 0 -113.882512596688 -232.91612283584845 0 -232.91612283584845 44.827552117785672 0 0 0 0 -213.81120787659165 -153.82895473573444 0 -153.82895473573444 6.3920824325978174 0 0 0 0 -151.14289417183682 -124.02372698111867 0 -124.02372698111867 -37.575677134853322 0 0 0 0 -174.28825531385883 -490.30676276783197 0 -490.30676276783197 271.77971404761047 0 0 0 0 -718.57545251488409 -307.38254045627764 0 -307.38254045627764 380.72875007456605 0 0 0 0 254.35979557294399 -361.52850570518876 0 -361.52850570518876 -154.57524117572757 0 0 0 0 -0.10944164863095551 -8.4873557164673983 0 -8.4873557164673983 -3.8812041895594689 0 0 0 0 -132.23809919100177 -92.100904258199989 0 -92.100904258199989 -50.437324423779501 0 0 0 0 -131.00777611770172 -93.78913823714538 0 -93.78913823714538 -48.292358454331406 0 0 0 0 -125.830845061937 -119.09077190677635 0 -119.09077190677635 -37.32650321557594 0 0 0 0 -194.33119133868604 -11.852916789976007 0 -11.852916789976007 -135.99920518659201 0 0 0 0 67.7522743310019 -442.91669596518841 0 -442.91669596518841 22.270192876254441 0 0 0 0 96.515941278208629 -339.31562932490488 0 -339.31562932490488 342.63243526085716 0 0 0 0 881.01834398209985 -411.46111671054678 0 -411.46111671054678 75.474945148511324 0 0 0 0 1208.2533039235259 -606.7434631551514 0 -606.7434631551514 226.06611895898095 0 0 0 0 698.71021371138022 -665.24707118538936 0 -665.24707118538936 766.88745463432861 0 0 0 0 -8.0301421516008187 -12.280943122314568 0 -12.280943122314568 -11.815574123707165 0 0 0 0 1070.1594372703466 -1103.267293723824 0 -1103.267293723824 596.77759947211598 0 0 0 0 155.41348987265155 -117.03712043967971 0 -117.03712043967971 53.211272865781211 0 0 0 0 1077.0203447701765 -817.59495902327035 0 -817.59495902327035 262.13442229817156 0 0 0 0 -482.10175788153811 -347.8783711335891 0 -347.8783711335891 -98.385188416432356 0 0 0 0 106.95658096233819 43.212230162447668 0 43.212230162447668 -247.54829086521931 0 0 0 0 -9.1549181121579295 112.09053705419501 0 112.09053705419501 111.33840435382444 0 0 0 0 10.320871137345382 5.9149754785343589 0 5.9149754785343589 -1.4102231705072228 0 0 0 0 257.28399537823952 -685.69773032475496 0 -685.69773032475496 740.56567339798494 0 0 0 0 113.40679099805061 -615.8077242964282 0 -615.8077242964282 991.52610828061006 0 0 0 0 437.02574470150648 -456.98265914031072 0 -456.98265914031072 589.49833120835319 0 0 0 0 -21.34195128598958 253.46645917346541 0 253.46645917346541 543.91911210355465 0 0 0 0 -540.93083217431558 -518.13492955503898 0 -518.13492955503898 1120.4766973832884 0 0 0 0 -25.534108804598873 -807.6165424327337 0 -807.6165424327337 -1062.7591627146321 0 0 0 0 -504.3452399034345 -945.51225753846302 0 -945.51225753846302 243.11941248518997 0 0 0 0 746.44397336736711 -624.74016916241089 0 -624.74016916241089 -270.17632764560403 0 0 0 0 -251.854451017065 -7.3527691016643075 0 -7.3527691016643075 -649.86941702457261 0 0 0 0 14.629726959068975 -37.195457355118677 0 -37.195457355118677 48.94187987075918 0 0 0 0 -106.3067866961772 -73.914491896721302 0 -73.914491896721302 -78.002113260146871 0 0 0 0 -67.367957499810473 -25.959736032811634 0 -25.959736032811634 68.519895062258001 0 0 0 0 -537.22290958045051 -353.93390164792072 0 -353.93390164792072 -37.131071419862565 0 0 0 0 -0.53492799817801284 -87.807496201207684 0 -87.807496201207684 34.667168899103501 0 0 0 0 -319.43472613565245 -828.62036114056536 0 -828.62036114056536 -699.57973211401259 0 0 0 0 14.035818073563901 -18.557562661662502 0 -18.557562661662502 22.960010029506606 0 0 0 0 -431.25673275494592 -291.61880995733372 0 -291.61880995733372 -69.562112188570609 0 0 0 0 -548.29724671812983 -362.22281029295846 0 -362.22281029295846 337.23076335803489 0 0 0 0 -446.72325406122945 -25.485046250687446 0 -25.485046250687446 358.02736654976616 0 0 0 0 -455.33547581996936 -291.35946134518599 0 -291.35946134518599 -28.206502459885087 0 0 0 0 -113.75744604928332 -105.81647126910684 0 -105.81647126910684 144.36541052325629 0 0 0 0 32.370456698590409 -89.715652077578653 0 -89.715652077578653 23.138837881433574 0 0 0 0 -443.18430857039129 -212.52354274733807 0 -212.52354274733807 170.00397197504935 0 0 0 0 -112.05853879967299 -195.32864778922522 0 -195.32864778922522 -76.630700270703528 0 0 0 0 -1.3403189392467567 -24.335830982290901 0 -24.335830982290901 -0.36629658141379196 0 0 0 0 -120.04734386866039 -145.96605778620869 0 -145.96605778620869 -39.257696891152591 0 0 0 0 18.99704287851587 -76.889946756728435 0 -76.889946756728435 -44.276718868506691 0 0 0 0 -88.702534589647257 -129.68689703789278 0 -129.68689703789278 -66.545399731199723 0 0 0 0 -123.79594922236311 -106.643345649195 0 -106.643345649195 -79.173340178385843 0 0 0 0 -124.38325048912156 -84.976194534565366 0 -84.976194534565366 -85.871883063751739 0 0 0 0 -147.64248417981435 -84.277425564047007 0 -84.277425564047007 -19.614711680784239 0 0 0 0 -70.805371279351675 -420.55904509164611 0 -420.55904509164611 25.756170446668875 0 0 0 0 -158.10435846684777 -64.203885913324484 0 -64.203885913324484 -56.589430809981422 0 0 0 0 -21.743014665901068 -60.607551602798473 0 -60.607551602798473 -66.305027814040528 0 0 0 0 11.765159458353754 -31.959241168923903 0 -31.959241168923903 58.75373976649729 0 0 0 0 199.72060479482695 267.41534407611107 0 267.41534407611107 -440.44496115652146 0 0 0 0 -553.01386825733061 -682.27241407777183 0 -682.27241407777183 479.04491503958707 0 0 0 0 -11.687837453183707 -30.005506253023782 0 -30.005506253023782 37.94034790520908 0 0 0 0 -199.63527031988039 -420.82443289757066 0 -420.82443289757066 136.85228734157863 0 0 0 0 23.256436414230372 -11.257677209102724 0 -11.257677209102724 3.3294251077961121 0 0 0 0 39.885229200955109 -78.743022512167954 0 -78.743022512167954 189.90226089635689 0 0 0 0 20.849108596227325 24.419597828440601 0 24.419597828440601 188.11432189289189 0 0 0 0 40.492374158045095 -65.207206143531948 0 -65.207206143531948 39.386438083030953 0 0 0 0 22.841229549336049 43.679979876294965 0 43.679979876294965 67.559734298993135 0 0 0 0 -47.106681015320191 -121.74436879714631 0 -121.74436879714631 129.4636715466404 0 0 0 0 74.101656014847435 -72.998676783437986 0 -72.998676783437986 11.328041472734185 0 0 0 0 -1.2031478182270803 -109.1458577394078 0 -109.1458577394078 167.40642135115195 0 0 0 0 133.73120457261257 -262.06286610567622 0 -262.06286610567622 292.83884569686779 0 0 0 0 531.11071416369396 -42.855262612021761 0 -42.855262612021761 71.643325320830627 0 0 0 0 534.62736639309605 -498.95226190003416 0 -498.95226190003416 12.122996017453261 0 0 0 0 302.73458535851785 -362.93573359095171 0 -362.93573359095171 82.688676534438855 0 0 0 0 263.18765177442901 -521.94164203825039 0 -521.94164203825039 -425.73929245388717 0 0 0 0 462.48077914520684 -143.93299563568144 0 -143.93299563568144 22.648803454940207 0 0 0 0 9.5632940675106486 -26.49902283660753 0 -26.49902283660753 51.52990445617553 0 0 0 0 391.67213694950647 -277.96243668939132 0 -277.96243668939132 -163.22424329495698 0 0 0 0 1.1961375343920819 -4.8491108317711218 0 -4.8491108317711218 7.228856617602446 0 0 0 0 1657.1553968868539 -151.60488183333655 0 -151.60488183333655 -935.7813918532629 0 0 0 0 -1108.4512039751908 -737.59105193819414 0 -737.59105193819414 747.39829354100948 0 0 0 0 -1395.2879477817723 61.709812111388601 0 61.709812111388601 1250.5841691571768 0 0 0 0 4.3028422417917582 -14.01421372267775 0 -14.01421372267775 22.026840151009736 0 0 0 0 914.60110894794093 273.4301594278204 0 273.4301594278204 -912.55150483868783 0 0 0 0 -1045.0875794550957 -348.63197791115999 0 -348.63197791115999 209.40302877215436 0 0 0 0 -415.92220019992601 -694.06170771658071 0 -694.06170771658071 -376.5633347341136 0 0 0 0 512.01524207889815 -373.18238982279036 0 -373.18238982279036 -468.70430682547158 0 0 0 0 -28.13108391245256 -44.260589820864489 0 -44.260589820864489 -34.90240972380272 0 0 0 0 -194.05063009063088 39.112240255373763 0 39.112240255373763 -9.9497920256399084 0 0 0 0 351.76202996964366 11.748586469158909 0 11.748586469158909 -273.80365977357724 0 0 0 0 -493.87671435320408 319.66495274414774 0 319.66495274414774 219.14637170303467 0 0 0 0 284.7423182139737 -88.459622078538814 0 -88.459622078538814 -11.096343751589302 0 0 0 0 295.26150010404672 -428.72600423816039 0 -428.72600423816039 -714.13349664902489 0 0 0 0 465.21152276182693 -273.8835829272648 0 -273.8835829272648 133.10206026703236 0 0 0 0 -546.40839045252687 -1532.0225382571061 0 -1532.0225382571061 412.17164722809321 0 0 0 0 566.15036003913519 -592.23881687023822 0 -592.23881687023822 1114.0601411117023 0 0 0 0 102.78224283016971 -28.970475436588458 0 -28.970475436588458 727.588107962918 0 0 0 0 -374.02796942555233 -1187.0501170365424 0 -1187.0501170365424 2691.9279913966602 0 0 0 0 847.54131323232468 -1053.6257912242581 0 -1053.6257912242581 -1017.7389190573158 0 0 0 0 6.6776045608146148 -5.1629952655121656 0 -5.1629952655121656 0.040891770137648109 0 0 0 0 974.87891374658648 -1431.8991423025509 0 -1431.8991423025509 -5.0406024618714582 0 0 0 0 829.2714646021177 -644.20173053453618 0 -644.20173053453618 -695.48344753253332 0 0 0 0 1078.7566548384893 -666.6871642705737 0 -666.6871642705737 -879.6612193190449 0 0 0 0 668.23352081402481 -255.27273940773739 0 -255.27273940773739 -1452.8418990641258 0 0 0 0 -525.10575149704437 -1046.9986005477804 0 -1046.9986005477804 -1488.5704535824188 0 0 0 0 -343.74495697852308 185.36874105012248 0 185.36874105012248 2283.3593059493651 0 0 0 0 2.1897275045777178 -7.826205666319467 0 -7.826205666319467 8.6688860393892782 0 0 0 0 1797.0095277532391 -465.52416891940629 0 -465.52416891940629 176.23916234838543 0 0 0 0 -894.47476902303652 1158.2113523516273 0 1158.2113523516273 958.81187029968714 0 0 0 0 -1168.3694606771478 716.81224144067164 0 716.81224144067164 2831.998586459762 0 0 0 0 4.8542731468872784 -10.727592309305074 0 -10.727592309305074 21.763118379614099 0 0 0 0 1223.598119066135 -1079.3212474674219 0 -1079.3212474674219 759.53738177286141 0 0 0 0 4156.6170646932878 -1309.4543810624309 0 -1309.4543810624309 669.43437009234185 0 0 0 0 -0.10148258249810027 -12.471345528260883 0 -12.471345528260883 14.632620371532866 0 0 0 0 -700.45284114502238 -695.3251863833666 0 -695.3251863833666 -808.10347558450667 0 0 0 0 -42.900864819344861 420.03094326496648 0 420.03094326496648 1652.3667826860037 0 0 0 0 -744.97884667252947 318.23264948709402 0 318.23264948709402 1676.8922943598773 0 0 0 0 -405.56227094983024 703.02667367029426 0 703.02667367029426 217.37382511315082 0 0 0 0 -57.256048388575437 -193.86186203465513 0 -193.86186203465513 581.45486456964863 0 0 0 0 222.75928949630361 -894.91374223789899 0 -894.91374223789899 1817.0664313224806 0 0 0 0 162.0698421109164 -440.92949955329823 0 -440.92949955329823 20.315678396509611 0 0 0 0 -113.64232405440271 -159.94219270632311 0 -159.94219270632311 11.456825264293002 0 0 0 0 -76.697136039668294 -409.2959980325395 0 -409.2959980325395 -48.098494311925606 0 0 0 0 -296.43654070886623 -121.96417366576497 0 -121.96417366576497 -8.7716287790535716 0 0 0 0 216.00210239421494 -246.56157946492021 0 -246.56157946492021 -39.402934492150962 0 0 0 0 338.07029772779629 -496.9793904895123 0 -496.9793904895123 -4.3155821895197732 0 0 0 0 700.45016746173951 -372.56371065423082 0 -372.56371065423082 -19.081959944218397 0 0 0 0 744.65911630918208 -555.74490407572375 0 -555.74490407572375 41.04956315686286 0 0 0 0 651.98207034435279 -376.27767568434501 0 -376.27767568434501 -32.884057742863661 0 0 0 0 710.43206660122814 -558.79287979251967 0 -558.79287979251967 30.147959198940953 0 0 0 0 500.72581052738542 -294.07026167888398 0 -294.07026167888398 23.322344279411482 0 0 0 0 721.54114837138422 -509.34108088518769 0 -509.34108088518769 181.27684948481328 0 0 0 0 969.51462462992549 -668.07984101885086 0 -668.07984101885086 88.790461726021022 0 0 0 0 660.88086517408192 -593.08718377945479 0 -593.08718377945479 390.15071519605408 0 0 0 0 168.70349207920026 -380.01535049569065 0 -380.01535049569065 140.52431727947987 0 0 0 0 818.76592532479231 -450.95773269433266 0 -450.95773269433266 -5.4246898067358416 0 0 0 0 226.90588212803141 -326.81506715279465 0 -326.81506715279465 -13.304401133093052 0 0 0 0 -325.45714647484783 -106.19063602075039 0 -106.19063602075039 136.31580646030852 0 0 0 0 -363.39475560679057 -184.70834982246743 0 -184.70834982246743 0.89897265084437095 0 0 0 0 -884.09304999643064 138.21580135699332 0 138.21580135699332 89.46362573200895 0 0 0 0 -782.83235263622919 -118.22951296018437 0 -118.22951296018437 100.76488283657091 0 0 0 0 0.021099768891311932 -6.1002416097614365 0 -6.1002416097614365 -13.023884913637914 0 0 0 0 -84.958971860694874 50.25456944124744 0 50.25456944124744 -73.397589832457015 0 0 0 0 -6.9298699946921261 -7.9434585433227767 0 -7.9434585433227767 -83.356198599576601 0 0 0 0 -1173.6846495425234 -94.824571755540092 0 -94.824571755540092 201.16340860254422 0 0 0 0 -784.80874778137149 -175.01968568732264 0 -175.01968568732264 -118.28984629965271 0 0 0 0 -151.11121522165467 -98.635630983755618 0 -98.635630983755618 20.521855173836229 0 0 0 0 -8.2738502313126396 -2.9016369666320188 0 -2.9016369666320188 -26.252398252231586 0 0 0 0 -1045.5905828993527 53.502625110177178 0 53.502625110177178 24.355824350146577 0 0 0 0 -87.427185539550919 72.984902308107849 0 72.984902308107849 -47.492035186654903 0 0 0 0 -852.36951831646002 93.407494642749953 0 93.407494642749953 -157.79511498466127 0 0 0 0 -386.68144727077015 -279.46007507276954 0 -279.46007507276954 50.699184406417771 0 0 0 0 -431.31430015198748 -54.328107650391757 0 -54.328107650391757 -66.094575611437904 0 0 0 0 -834.66614530556546 -83.627724579348978 0 -83.627724579348978 64.444793753529666 0 0 0 0 -611.70307265994052 -74.120341929607093 0 -74.120341929607093 3.4053365489598946 0 0 0 0 -567.18768542368798 -262.5493629500088 0 -262.5493629500088 1.4360517172608525 0 0 0 0 -677.98788368002351 -197.54125331607793 0 -197.54125331607793 -34.270177559330477 0 0 0 0 -648.27571006616017 -148.79076686123153 0 -148.79076686123153 4.970321454689838 0 0 0 0 -1038.1141834406008 -74.464894722048484 0 -74.464894722048484 43.490006160725898 0 0 0 0 -1136.0424041204942 -127.73838859496755 0 -127.73838859496755 0.76241882497561164 0 0 0 0 -1045.7819863520417 -53.345348420953087 0 -53.345348420953087 -117.87917900274624 0 0 0 0 -584.99171533948993 -350.84015855470716 0 -350.84015855470716 -191.1545133289037 0 0 0 0 -21.533997789076796 -27.670932302304664 0 -27.670932302304664 -1.4287003053264016 0 0 0 0 337.16933300605865 67.442833904155123 0 67.442833904155123 594.30519159219693 0 0 0 0 1087.0990345869077 256.86501938125366 0 256.86501938125366 316.90489566745237 0 0 0 0 -994.15054339729704 50.864203862244722 0 50.864203862244722 -85.708564044907689 0 0 0 0 -1488.6948714772589 363.10570764429576 0 363.10570764429576 -136.75052508968656 0 0 0 0 -1257.926172238027 257.51927053445615 0 257.51927053445615 -213.5086220495723 0 0 0 0 1080.4127046119538 -1147.7175899861395 0 -1147.7175899861395 -28.191247870872758 0 0 0 0 -9.5674295675317325 -9.7931964488569037 0 -9.7931964488569037 -11.818956399901936 0 0 0 0 -2146.563687148966 156.6271204881923 0 156.6271204881923 76.821439313345763 0 0 0 0 614.95026583999152 -494.08972638207047 0 -494.08972638207047 312.47101080275024 0 0 0 0 1507.5980335516902 -1335.1897977542089 0 -1335.1897977542089 -263.82627814880107 0 0 0 0 -10.655545761714885 -5.3565011616276319 0 -5.3565011616276319 4.355551159581438 0 0 0 0 1527.9090146978633 -328.10210523308706 0 -328.10210523308706 -952.31162501833023 0 0 0 0 1078.5025347763112 -789.26789669939899 0 -789.26789669939899 792.07814828264964 0 0 0 0 -2116.1236455121125 -497.76600379375668 0 -497.76600379375668 -90.928903342573904 0 0 0 0 -289.52521892705954 -318.25556487648646 0 -318.25556487648646 -681.07080925110495 0 0 0 0 -1250.8075000646795 -342.86951064341883 0 -342.86951064341883 -108.68667007314798 0 0 0 0 -1175.750990115861 -178.69069681721885 0 -178.69069681721885 -150.20623623835854 0 0 0 0 -1648.0358725001679 24.490154478611657 0 24.490154478611657 -16.15552545319224 0 0 0 0 -296.25868803918092 -195.75992727210905 0 -195.75992727210905 -206.5605950818026 0 0 0 0 150.86100558849671 -242.02528642969264 0 -242.02528642969264 -393.69552899128757 0 0 0 0 -469.35915370937437 -207.79992109981322 0 -207.79992109981322 -104.14493443602987 0 0 0 0 -262.68888002225174 -458.10176225184478 0 -458.10176225184478 -161.25568639372068 0 0 0 0 255.63335746889129 -373.226298237023 0 -373.226298237023 -231.00695011977223 0 0 0 0 -212.16952495188343 -245.37699517075816 0 -245.37699517075816 -33.525567753255018 0 0 0 0 -335.75468280889436 -379.00184932188131 0 -379.00184932188131 -110.16161323378765 0 0 0 0 730.17916587590116 -377.60728286589801 0 -377.60728286589801 -248.65743064679555 0 0 0 0 664.27521728509873 -447.5082445791486 0 -447.5082445791486 -140.56977450778504 0 0 0 0 252.01800290250026 -376.93271622645261 0 -376.93271622645261 -31.907893609884923 0 0 0 0 199.77530969885811 -391.53874664042633 0 -391.53874664042633 -61.610871640383266 0 0 0 0 286.59651772155894 -100.70463320055569 0 -100.70463320055569 -210.71022596904004 0 0 0 0 1101.0680526451897 -484.62171671572651 0 -484.62171671572651 355.18654909565521 0 0 0 0 1097.1181357281475 -430.19947220064932 0 -430.19947220064932 -158.95167291971302 0 0 0 0 888.2230924116393 -117.13229281897657 0 -117.13229281897657 -34.458256333517056 0 0 0 0 1400.1946742412383 -28.122572320266045 0 -28.122572320266045 -64.677516179221129 0 0 0 0 1508.2920195307261 -303.47613063415702 0 -303.47613063415702 -96.851538123031787 0 0 0 0 -16.81663203980861 -145.99159758222231 0 -145.99159758222231 283.59682535182219 0 0 0 0 -4.4512597198283004 -7.0637060267174689 0 -7.0637060267174689 6.3991860961452574 0 0 0 0 -32.480961555220347 16.112019555830557 0 16.112019555830557 20.649419166365988 0 0 0 0 1646.8664207333777 -367.68185728664321 0 -367.68185728664321 -134.91744803501206 0 0 0 0 734.95902404911158 -309.06572356566357 0 -309.06572356566357 17.510686570851249 0 0 0 0 956.93630373705309 -598.72769295376929 0 -598.72769295376929 -10.522878808173118 0 0 0 0 1165.1455296663753 -441.65450354256609 0 -441.65450354256609 -70.723807110756752 0 0 0 0 969.93926357415148 -560.17104774508334 0 -560.17104774508334 149.89332490391098 0 0 0 0 962.27783848567469 -485.28174106602819 0 -485.28174106602819 15.578353104850976 0 0 0 0 1143.7025692651423 -311.51217497596599 0 -311.51217497596599 219.21659053121402 0 0 0 0 11.822249454192036 -17.171033900883394 0 -17.171033900883394 -10.736209002789735 0 0 0 0 11.254613012600338 -89.306166343972635 0 -89.306166343972635 77.184845014701352 0 0 0 0 1006.8014515664599 -491.66318349690118 0 -491.66318349690118 141.10414294354632 0 0 0 0 81.149598306888038 -84.652404164829932 0 -84.652404164829932 73.694631127786124 0 0 0 0 48.086632650206411 -149.2539638324015 0 -149.2539638324015 101.94293857811135 0 0 0 0 1000.4250127537251 -542.2315612125476 0 -542.2315612125476 157.73802550358232 0 0 0 0 867.88304630250423 -621.38363790172298 0 -621.38363790172298 582.89579874913761 0 0 0 0 29.156311755901697 -156.9803351624505 0 -156.9803351624505 -45.561371947255566 0 0 0 0 50.530782578949584 -7.7390850219089771 0 -7.7390850219089771 -43.169234874393169 0 0 0 0 90.145562037271702 -8.6448085478823486 0 -8.6448085478823486 -98.519173327484168 0 0 0 0 73.452157625664768 -160.82846845085805 0 -160.82846845085805 111.10322434669069 0 0 0 0 40.7888412091703 -25.186809236961494 0 -25.186809236961494 -57.629161148521405 0 0 0 0 -73.881305372771749 -116.99837534140897 0 -116.99837534140897 153.90582893466308 0 0 0 0 151.94057434780734 -187.01911368218134 0 -187.01911368218134 112.40097027836964 0 0 0 0 -52.076518558822578 -41.368655681645592 0 -41.368655681645592 57.436669665777657 0 0 0 0 151.70368479922564 -191.93927304231261 0 -191.93927304231261 81.376862690769485 0 0 0 0 21.102481074998241 -30.692016268768498 0 -30.692016268768498 -59.560317533412956 0 0 0 0 476.20592300218959 -342.32470693910727 0 -342.32470693910727 121.26650285426149 0 0 0 0 23.47505947417919 -10.841443899175019 0 -10.841443899175019 -27.85322666623189 0 0 0 0 336.28538873960446 -352.06449842628263 0 -352.06449842628263 317.58171545912046 0 0 0 0 395.90158027261168 -151.77023878358887 0 -151.77023878358887 239.0941282053027 0 0 0 0 76.965265280723543 -178.81739604986797 0 -178.81739604986797 355.3804754926532 0 0 0 0 -93.08988496105485 -36.667546109460091 0 -36.667546109460091 272.87835671845232 0 0 0 0 920.25663418731619 -1766.5658207872257 0 -1766.5658207872257 2242.7918127333542 0 0 0 0 138.0871681534577 -181.66120612685881 0 -181.66120612685881 289.4838861701428 0 0 0 0 -9.3105734557295889 3.384655288585833 0 3.384655288585833 7.7030817037438197 0 0 0 0 -156.37800817297398 465.31099637722946 0 465.31099637722946 -751.55106372461887 0 0 0 0 18.049680559121043 29.488034322110252 0 29.488034322110252 79.966506330907578 0 0 0 0 84.350305261238645 -196.01518439453321 0 -196.01518439453321 142.44654662247194 0 0 0 0 -60.255743264271587 109.75077448473894 0 109.75077448473894 156.70192421499814 0 0 0 0 -55.667590662372852 -22.616543995822042 0 -22.616543995822042 66.829348281049874 0 0 0 0 135.90879282375317 -352.09087819788692 0 -352.09087819788692 204.64732532671587 0 0 0 0 -97.824724923657413 65.217375236456064 0 65.217375236456064 31.083243984758155 0 0 0 0 40.822042564435833 -55.098019734903652 0 -55.098019734903652 57.296697843225161 0 0 0 0 -155.2130346669469 -330.81812906534833 0 -330.81812906534833 -378.02126931274324 0 0 0 0 511.27192221716268 -1152.1123139868687 0 -1152.1123139868687 809.39463633229025 0 0 0 0 1301.6502687330267 -893.24210362702433 0 -893.24210362702433 -922.34648238688533 0 0 0 0 -219.42420136052169 -468.93638025757537 0 -468.93638025757537 -624.12745623958835 0 0 0 0 514.70467455917151 434.47768597672257 0 434.47768597672257 -922.8601863917429 0 0 0 0 -0.5074603639265316 -11.506631225062094 0 -11.506631225062094 13.826609925847208 0 0 0 0 -1382.8474614756451 1057.4913997903204 0 1057.4913997903204 -872.80760291390106 0 0 0 0 414.16972548435479 -151.76976033795654 0 -151.76976033795654 -1025.3291482749846 0 0 0 0 -199.87357199767757 176.05629803788179 0 176.05629803788179 -381.29538666890585 0 0 0 0 411.13603219125423 -412.85618175668969 0 -412.85618175668969 -211.60269321931992 0 0 0 0 337.37003424336444 -367.3092430741126 0 -367.3092430741126 -236.17056674382911 0 0 0 0 360.48642746555106 -715.66828834919579 0 -715.66828834919579 -279.5378766339345 0 0 0 0 181.08366504662172 -595.60526614745322 0 -595.60526614745322 560.59644360250968 0 0 0 0 144.03076535503351 -417.07309882386471 0 -417.07309882386471 -69.87914110521524 0 0 0 0 348.69559392308474 -303.83885439138248 0 -303.83885439138248 30.658351108279021 0 0 0 0 -5.7127643211712211 -195.9390073068962 0 -195.9390073068962 102.43295803686487 0 0 0 0 189.03787428795044 31.302301443560282 0 31.302301443560282 -30.755492647149367 0 0 0 0 122.71689986763772 -434.09669480761659 0 -434.09669480761659 -39.235640950966626 0 0 0 0 -77.182033162897994 -32.935544912794285 0 -32.935544912794285 32.667996362382837 0 0 0 0 -67.497477630632375 -126.10395187695758 0 -126.10395187695758 -19.192434291369864 0 0 0 0 -0.24331852841841251 -7.0951091181998081 0 -7.0951091181998081 8.5353180830351931 0 0 0 0 12.364850751311797 -9.4091780161325929 0 -9.4091780161325929 -0.41885019266939594 0 0 0 0 -10.039929297352501 -26.857273137477023 0 -26.857273137477023 294.5639336457898 0 0 0 0 7.9726622851703723 -146.27292926503287 0 -146.27292926503287 962.38404928047748 0 0 0 0 34.458293789994968 51.313798295315792 0 51.313798295315792 15.195587417390016 0 0 0 0 87.110553921229439 4.5062995542527915 0 4.5062995542527915 29.288475163404655 0 0 0 0 -25.780248271177697 -35.805230090408713 0 -35.805230090408713 23.295163123890234 0 0 0 0 86.16154100098538 12.756974094354518 0 12.756974094354518 -16.624206694381428 0 0 0 0 201.53549905323052 -12.272199729541171 0 -12.272199729541171 -100.89879899948482 0 0 0 0 118.97919006791199 42.540784912591334 0 42.540784912591334 9.2083318189688725 0 0 0 0 127.36522703999071 19.249720561310824 0 19.249720561310824 18.864760063628637 0 0 0 0 70.006260226217364 -80.294076985293941 0 -80.294076985293941 5.4682359865873877 0 0 0 0 101.65588134044356 -87.822116474366339 0 -87.822116474366339 -112.67023531793529 0 0 0 0 152.16633346993422 -16.201761285963585 0 -16.201761285963585 -13.574265197981731 0 0 0 0 -1.1700633812024783 -13.519355035065885 0 -13.519355035065885 6.6850569319223894 0 0 0 0 30.659259338635366 -28.78100454803257 0 -28.78100454803257 30.244119771974511 0 0 0 0 191.21951761498531 -35.450647682344425 0 -35.450647682344425 -26.249799450451974 0 0 0 0 4.2844029693448142 -5.0303603913602721 0 -5.0303603913602721 -0.18148488346963632 0 0 0 0 44.299271962470812 -70.163950047608523 0 -70.163950047608523 21.826680570928147 0 0 0 0 51.93254836490695 -40.851501551435433 0 -40.851501551435433 23.164224019223184 0 0 0 0 2.9814682430164794 -27.042812123789023 0 -27.042812123789023 36.299412655979438 0 0 0 0 13.552957698338918 3.1992543507488485 0 3.1992543507488485 -11.988467382297756 0 0 0 0 129.79150774061509 -85.836879328922805 0 -85.836879328922805 -7.6863863338985539 0 0 0 0 50.296379283930378 -45.56303060130449 0 -45.56303060130449 22.437409079022473 0 0 0 0 76.834038417926536 -65.389833344439467 0 -65.389833344439467 6.3466121373930946 0 0 0 0 7.9077481519358095 -5.925142063770835 0 -5.925142063770835 -19.518950565085731 0 0 0 0 38.782643546396685 -77.673890653335548 0 -77.673890653335548 20.068049841709581 0 0 0 0 116.77678297081718 -30.625498703698213 0 -30.625498703698213 -44.130299962780555 0 0 0 0 118.23471254922697 -38.615979021539715 0 -38.615979021539715 -103.15966511506122 0 0 0 0 103.22460499648514 21.24528217734769 0 21.24528217734769 -71.888361073855776 0 0 0 0 18.713215013312134 -28.302185115945605 0 -28.302185115945605 31.404541462015743 0 0 0 0 27.445115214001156 -49.883489379672831 0 -49.883489379672831 63.481945742086452 0 0 0 0 7.6960709980817228 -47.063550216993463 0 -47.063550216993463 28.622991210977489 0 0 0 0 25.631742961936197 -24.410337838813575 0 -24.410337838813575 287.52275532891508 0 0 0 0 11.768341437699045 -30.698666845676584 0 -30.698666845676584 20.000586921045112 0 0 0 0 -18.880837004283649 -29.773448027313862 0 -29.773448027313862 32.184023964476182 0 0 0 0 -32.085281711148127 -74.923910211131442 0 -74.923910211131442 24.36338576531125 0 0 0 0 -40.253264274483627 7.4856612729272456 0 7.4856612729272456 82.121027605346171 0 0 0 0 21.018728316262774 -27.005865839214991 0 -27.005865839214991 31.114471525622946 0 0 0 0 1.1728755848221226 -47.560792523123382 0 -47.560792523123382 59.692268270940986 0 0 0 0 37.18548888487112 -42.512660137348576 0 -42.512660137348576 16.80492685574427 0 0 0 0 25.968428120239764 -195.07665418054103 0 -195.07665418054103 -181.65051530586788 0 0 0 0 178.49724499970762 -43.204350123822223 0 -43.204350123822223 -261.1770813186231 0 0 0 0 78.984837057675577 12.76313742237835 0 12.76313742237835 -134.61274544330081 0 0 0 0 287.13150935081285 -124.4555024713045 0 -124.4555024713045 -120.25774678995367 0 0 0 0 -282.20935406460558 -542.97438522052107 0 -542.97438522052107 133.15921034551866 0 0 0 0 -159.54949932265845 -80.873020837061631 0 -80.873020837061631 130.15269222531788 0 0 0 0 23.403299576120503 -47.940052618521264 0 -47.940052618521264 85.587254662680436 0 0 0 0 176.1422816417471 64.142314319731668 0 64.142314319731668 23.812177047526347 0 0 0 0 -210.99231055281052 36.647018925094017 0 36.647018925094017 291.50676111588837 0 0 0 0 -188.89231621315048 -109.14320967051754 0 -109.14320967051754 151.69771874858998 0 0 0 0 -270.55799977117749 -309.7057083109612 0 -309.7057083109612 19.902163509643287 0 0 0 0 229.44320943426294 -400.04949567356289 0 -400.04949567356289 370.65176844809321 0 0 0 0 0.30302308919161824 -23.979855675109661 0 -23.979855675109661 70.706778852302989 0 0 0 0 -211.25476839224757 -110.98715583365993 0 -110.98715583365993 275.71542650346237 0 0 0 0 75.668847603396031 -64.28269097032495 0 -64.28269097032495 84.552024371121661 0 0 0 0 123.56108547339591 -534.80869674086352 0 -534.80869674086352 656.58139333166764 0 0 0 0 11.437689614252209 -4.9959914135298931 0 -4.9959914135298931 -6.3897607720028873 0 0 0 0 156.4969881496836 25.14657889973023 0 25.14657889973023 2.8737224604337825 0 0 0 0 99.816969167767184 19.816809600295528 0 19.816809600295528 11.209931027769926 0 0 0 0 175.13019007745606 124.6270594427333 0 124.6270594427333 212.16068160106079 0 0 0 0 -0.95210351590868925 -4.685555541980932 0 -4.685555541980932 5.8787336809455155 0 0 0 0 189.54303246752352 193.40571355525026 0 193.40571355525026 -85.875325789675117 0 0 0 0 139.67430805618551 186.96599180090561 0 186.96599180090561 224.46707467184751 0 0 0 0 -55.483766198847661 -357.99487063386914 0 -357.99487063386914 658.53895063349046 0 0 0 0 -6.0386449321995315 -386.18940039514564 0 -386.18940039514564 90.044797153399486 0 0 0 0 29.058742876509818 -51.388775362178336 0 -51.388775362178336 81.646844867964774 0 0 0 0 437.76003461762775 158.42119139793795 0 158.42119139793795 -216.34448325954145 0 0 0 0 -106.47907013691292 68.206995949811244 0 68.206995949811244 -95.338210610847455 0 0 0 0 5.0987305188218492 -38.51726746546349 0 -38.51726746546349 99.520600672003582 0 0 0 0 12.455612261128266 -40.474409575212292 0 -40.474409575212292 99.429703108057709 0 0 0 0 187.35615873387235 -104.46437147877828 0 -104.46437147877828 51.308302924880991 0 0 0 0 -218.52012354195676 -170.83298647898755 0 -170.83298647898755 145.44610934072989 0 0 0 0 -209.67964585836035 -96.978680292399986 0 -96.978680292399986 203.52033962574205 0 0 0 0 -178.10455685556008 -83.703099524253048 0 -83.703099524253048 228.2988831434559 0 0 0 0 -171.94788177057853 -60.345639528823085 0 -60.345639528823085 280.97013340689591 0 0 0 0 -135.62847397181031 -101.58743475144729 0 -101.58743475144729 191.80739636250655 0 0 0 0 -11.839536541141818 -46.216706370592604 0 -46.216706370592604 116.74693386540952 0 0 0 0 -161.31789857864533 -84.384206826522131 0 -84.384206826522131 191.87263543123845 0 0 0 0 170.73519167201266 -179.788761983531 0 -179.788761983531 172.07767731332569 0 0 0 0 96.946427937358749 -53.588741971427226 0 -53.588741971427226 92.287491163529921 0 0 0 0 153.40242385970487 -136.4433828146939 0 -136.4433828146939 157.12654805889179 0 0 0 0 -121.86378378216614 -104.86254703390296 0 -104.86254703390296 63.173363770238211 0 0 0 0 -130.9485074311051 -109.30752345670044 0 -109.30752345670044 221.31762403759058 0 0 0 0 -21.074696189694805 -75.767070403599064 0 -75.767070403599064 202.37902408145965 0 0 0 0 -137.59934360181069 -104.65973640772972 0 -104.65973640772972 295.37934931073687 0 0 0 0 -104.44826209150051 -64.533082135996665 0 -64.533082135996665 276.43936390989984 0 0 0 0 17.680360719594773 -145.95526825251727 0 -145.95526825251727 290.98085221720976 0 0 0 0 71.570248117697702 -116.81362828634883 0 -116.81362828634883 283.1432228848862 0 0 0 0 95.177300621854556 -131.19809143277962 0 -131.19809143277962 375.40773789258674 0 0 0 0 174.07322342715997 -222.85345726669038 0 -222.85345726669038 269.1630620233409 0 0 0 0 163.08143792715305 -172.90272852839007 0 -172.90272852839007 219.8202428453078 0 0 0 0 236.79093049172752 -197.98974793999514 0 -197.98974793999514 170.68637395200494 0 0 0 0 184.66698357944824 -171.82009855326032 0 -171.82009855326032 162.44856621233339 0 0 0 0 232.94435327087012 -212.15408544042293 0 -212.15408544042293 169.81427173154225 0 0 0 0 1.2906739839413457 -2.6259989264055505 0 -2.6259989264055505 -0.76936148523105885 0 0 0 0 257.09386435277065 -198.2196342250536 0 -198.2196342250536 177.51612670584291 0 0 0 0 184.05066608954678 -196.39626991276373 0 -196.39626991276373 187.76123235939303 0 0 0 0 181.42608003916459 -109.24674007252725 0 -109.24674007252725 98.995653200719971 0 0 0 0 182.98271989237946 -256.94787635534885 0 -256.94787635534885 394.15586405705108 0 0 0 0 284.12017768136275 -195.26505311903747 0 -195.26505311903747 117.51757267082576 0 0 0 0 206.92669161935646 -253.15475219226937 0 -253.15475219226937 236.47227113728877 0 0 0 0 242.09037482932581 -268.37336345807125 0 -268.37336345807125 203.63273747916173 0 0 0 0 -9.0070493707012247 -8.2585650275979816 0 -8.2585650275979816 30.954393251968668 0 0 0 0 177.91904389291403 -115.0900949506613 0 -115.0900949506613 167.47582851460174 0 0 0 0 458.13368361597304 -218.33802046685378 0 -218.33802046685378 72.859621183102718 0 0 0 0 109.74444084338421 -176.02058120236779 0 -176.02058120236779 124.17742972532869 0 0 0 0 -34.376466681452719 -26.488743861605258 0 -26.488743861605258 -7.2581912803857733 0 0 0 0 -75.440013793259467 -77.229405372818292 0 -77.229405372818292 79.389318694265967 0 0 0 0 134.14544751984158 -97.50688833744789 0 -97.50688833744789 14.239343262466718 0 0 0 0 -7.5611849389786681 -9.2919739012874629 0 -9.2919739012874629 0.49728641525200601 0 0 0 0 222.68812120088478 -107.08385660735075 0 -107.08385660735075 54.871910589252366 0 0 0 0 -2.9857228862856573 -25.042582682173816 0 -25.042582682173816 105.9396858194159 0 0 0 0 25.02092513640946 -43.866995806289196 0 -43.866995806289196 5.3311513240769273 0 0 0 0 12.777303972711024 -36.476195489641668 0 -36.476195489641668 2.639649362579803 0 0 0 0 10.222951067889881 -37.006402684222849 0 -37.006402684222849 -3.2439295014482923 0 0 0 0 -14.854450499718224 -33.639295212700375 0 -33.639295212700375 4.6582732965517266 0 0 0 0 2.5449370698514713 -2.2919909493899269 0 -2.2919909493899269 1.7838462730738343 0 0 0 0 19.396435109352751 -90.197515252264566 0 -90.197515252264566 67.4304986575371 0 0 0 0 133.91886686857652 -63.573389598110225 0 -63.573389598110225 -9.1552602348965593 0 0 0 0 169.16451025781498 -143.10274509782903 0 -143.10274509782903 -5.2703004654968026 0 0 0 0 124.15973010882226 -91.424211500430829 0 -91.424211500430829 58.536070505128009 0 0 0 0 135.3941956872477 -154.51907668344211 0 -154.51907668344211 82.55194924036914 0 0 0 0 -4.9598332459007466 -10.426340051137743 0 -10.426340051137743 -18.720935616990289 0 0 0 0 1153.6791527850201 -1000.0550952198214 0 -1000.0550952198214 417.71590625525278 0 0 0 0 153.6920540581923 -158.05502108278597 0 -158.05502108278597 76.362411192734726 0 0 0 0 155.41681709167233 -141.2570738774848 0 -141.2570738774848 97.910561595577747 0 0 0 0 -82.140521106625783 -22.880702894266506 0 -22.880702894266506 -3.0011478654050734 0 0 0 0 -7.1424415397975061 -6.173654820016452 0 -6.173654820016452 1.504384865833174 0 0 0 0 269.13376390827125 -162.24700563870647 0 -162.24700563870647 49.011059923155699 0 0 0 0 -12.897422311390407 -37.010764265005179 0 -37.010764265005179 12.723790911864057 0 0 0 0 237.72288503707387 -124.75604235443461 0 -124.75604235443461 44.687101474264637 0 0 0 0 78.418490737361935 -95.496748501980619 0 -95.496748501980619 53.673024357791292 0 0 0 0 196.08276948120329 -183.3267209824262 0 -183.3267209824262 108.46638210896344 0 0 0 0 34.424649229655188 -9.3445878488564631 0 -9.3445878488564631 -48.095887147515896 0 0 0 0 36.041540442467067 -13.099946466743859 0 -13.099946466743859 -70.832888726581587 0 0 0 0 82.616585455994027 -63.75289517454803 0 -63.75289517454803 -46.915605136033264 0 0 0 0 29.02634186074647 98.499391408280644 0 98.499391408280644 -183.16194658339373 0 0 0 0 -1.8438456429326209 3.2316022503362944 0 3.2316022503362944 5.55227250513272 0 0 0 0 -10.037142724690966 29.514634739112807 0 29.514634739112807 -72.623642053411459 0 0 0 0 261.60403089407373 -193.36082467182132 0 -193.36082467182132 146.05886371228553 0 0 0 0 11.717542684228276 -24.523454280010249 0 -24.523454280010249 -19.397182773156544 0 0 0 0 237.96989749410318 -226.21746114046255 0 -226.21746114046255 183.71596373786451 0 0 0 0 41.876376291842121 -1.1531742045481224 0 -1.1531742045481224 -79.611036448222876 0 0 0 0 39.560542758001475 -1.9344181781561929 0 -1.9344181781561929 -66.823471751238685 0 0 0 0 6.6923897918905197 4.6215027050804167 0 4.6215027050804167 5.8148187412270431 0 0 0 0 49.857222408296138 -129.69769243357587 0 -129.69769243357587 346.98980687937001 0 0 0 0 96.241918578886043 -118.14658507054264 0 -118.14658507054264 183.99058289262393 0 0 0 0 -0.73704782862362106 -0.90108035421019395 0 -0.90108035421019395 -0.15351650024376795 0 0 0 0 -0.0080271680800556577 -0.19270679945461211 0 -0.19270679945461211 0.27894179792014029 0 0 0 0 27.164546211845447 -46.185070851322962 0 -46.185070851322962 173.79039151897814 0 0 0 0 79.583691575051873 -89.440484935192217 0 -89.440484935192217 233.2324002693349 0 0 0 0 0.3471802482231785 -71.000956437710556 0 -71.000956437710556 171.55803383084094 0 0 0 0 33.767004188316449 -9.2258751727713388 0 -9.2258751727713388 52.698902348958654 0 0 0 0 -0.053392911016324658 -44.787840150755073 0 -44.787840150755073 140.8927829548993 0 0 0 0 65.366664611145239 -89.656727551697259 0 -89.656727551697259 118.75223686679965 0 0 0 0 95.893503562900321 -132.67289019241798 0 -132.67289019241798 187.97597884766583 0 0 0 0 0.11398259871716998 -0.30714843122157731 0 -0.30714843122157731 0.17094499548306885 0 0 0 0 -41.956149430870937 -126.74910789474961 0 -126.74910789474961 259.27988512805314 0 0 0 0 -53.324167898475139 8.7589434824185446 0 8.7589434824185446 202.25589621148538 0 0 0 0 -2.6098592148878335 -2.2693752319138696 0 -2.2693752319138696 -0.92668833106546344 0 0 0 0 -67.94505493162319 -106.71364981026272 0 -106.71364981026272 397.66643293967354 0 0 0 0 151.8621369146224 65.696666987787466 0 65.696666987787466 191.74478435970377 0 0 0 0 173.57166849633177 -121.29062089627769 0 -121.29062089627769 97.72231108089909 0 0 0 0 -1.4520559244528632 -1.6508025893792819 0 -1.6508025893792819 -1.0342579718594038 0 0 0 0 -255.16245947288326 -101.22282343215193 0 -101.22282343215193 177.97463968018565 0 0 0 0 203.93546036128987 -163.13755558493722 0 -163.13755558493722 -82.785802999511361 0 0 0 0 -65.824227334790521 -5.0675285058678128 0 -5.0675285058678128 197.71099234600842 0 0 0 0 123.71390775111468 2.8374696286045946 0 2.8374696286045946 124.84245427444694 0 0 0 0 -248.37613092075935 -111.95824135819566 0 -111.95824135819566 159.77110262634233 0 0 0 0 -84.476024285911706 -24.964600339197204 0 -24.964600339197204 148.61009717301931 0 0 0 0 -232.48239041800298 -72.647736364975572 0 -72.647736364975572 169.51507217795006 0 0 0 0 -75.37545702389798 -70.992729232551937 0 -70.992729232551937 140.91854225518182 0 0 0 0 66.744779001896859 -57.006263318093261 0 -57.006263318093261 98.309380663500633 0 0 0 0 -53.324187183398863 -32.064257502752298 0 -32.064257502752298 168.44097251875792 0 0 0 0 -56.894950545000029 -52.690595441305049 0 -52.690595441305049 55.165346629917622 0 0 0 0 121.83252933190579 -150.87616739259101 0 -150.87616739259101 186.96463623334421 0 0 0 0 56.107443501193302 -95.963344002579106 0 -95.963344002579106 160.0763348187902 0 0 0 0 80.118394420224831 -77.491657597056474 0 -77.491657597056474 145.65954567032168 0 0 0 0 18.704728143286047 -96.542999500554288 0 -96.542999500554288 203.55206182005654 0 0 0 0 91.042296947171167 -110.37537234189949 0 -110.37537234189949 237.82130113308085 0 0 0 0 20.506440027600092 11.140751113416627 0 11.140751113416627 362.340595000147 0 0 0 0 0.81994172284760225 -116.48405310549424 0 -116.48405310549424 564.17018983553862 0 0 0 0 22.643785161295455 27.780498527223244 0 27.780498527223244 203.46808422338518 0 0 0 0 -197.49681705341209 55.928174356959062 0 55.928174356959062 184.62001943393261 0 0 0 0 -48.35717825201823 -43.721019962562423 0 -43.721019962562423 215.27733208137215 0 0 0 0 -262.90915940123045 -127.81982777074154 0 -127.81982777074154 1389.6362223078759 0 0 0 0 -415.61195430886346 333.22846492128883 0 333.22846492128883 580.91729781304457 0 0 0 0 -188.28495035799619 16.895857524577877 0 16.895857524577877 681.48551171545114 0 0 0 0 -145.01662506400521 -207.74236737265892 0 -207.74236737265892 1128.4740627734282 0 0 0 0 -43.081910804420204 -180.52711406748858 0 -180.52711406748858 659.72174084275412 0 0 0 0 29.091682297536067 -95.014322525537864 0 -95.014322525537864 359.4190057340893 0 0 0 0 9.4903189474874239 -180.24452585885592 0 -180.24452585885592 659.54750348100788 0 0 0 0 46.720029344280874 -211.00967259003664 0 -211.00967259003664 282.72829469356657 0 0 0 0 0.040242375254519624 -300.0075468078964 0 -300.0075468078964 581.655321899103 0 0 0 0 -75.357818110198309 -159.97415199986426 0 -159.97415199986426 816.53849972916942 0 0 0 0 -0.14121758720597119 -346.29067167008907 0 -346.29067167008907 989.12996641820064 0 0 0 0 -16.314845006742644 -416.22983810777805 0 -416.22983810777805 1244.1814911646652 0 0 0 0 -123.65057109901147 -384.02823205151071 0 -384.02823205151071 1268.7470022563648 0 0 0 0 -87.636265483665497 -279.48542127315159 0 -279.48542127315159 1148.902250734187 0 0 0 0 -0.026181036115981549 -397.49288508488098 0 -397.49288508488098 1225.9881490726912 0 0 0 0 -67.966349282263053 -397.90031849045772 0 -397.90031849045772 1322.9731937862816 0 0 0 0 19.424132298481254 -397.67614551796578 0 -397.67614551796578 1383.1451395124022 0 0 0 0 -27.632751084229426 -450.32112249648344 0 -450.32112249648344 1345.7607236006879 0 0 0 0 23.870366099062974 -374.74593186806305 0 -374.74593186806305 1328.7675282598939 0 0 0 0 0.022241495758617391 -419.37579739710054 0 -419.37579739710054 1403.9287071577273 0 0 0 0 4.7871313921577894 -497.34587342763552 0 -497.34587342763552 1259.0166555529504 0 0 0 0 24.925683171431047 -457.88126005177764 0 -457.88126005177764 1279.0329044303217 0 0 0 0 6.8274504763285222 -477.71004136730335 0 -477.71004136730335 1309.8013955076876 0 0 0 0 36.258876200842678 -433.77450734100421 0 -433.77450734100421 1301.4043635010603 0 0 0 0 10.147673770133906 -472.07945819544693 0 -472.07945819544693 1318.0499791579787 0 0 0 0 -94.93313017929745 -453.03569440134743 0 -453.03569440134743 1324.1187784547401 0 0 0 0 95.187982889638988 -563.46182950440561 0 -563.46182950440561 1307.3697176360729 0 0 0 0 -21.565322848919777 -521.98156998185732 0 -521.98156998185732 1349.8721199443098 0 0 0 0 -19.164870903361134 -521.15318883864165 0 -521.15318883864165 1338.0795905690175 0 0 0 0 -121.10891368516286 -295.72839780584764 0 -295.72839780584764 1099.9529130021256 0 0 0 0 -175.94174909143544 -392.8831500489905 0 -392.8831500489905 1410.4557412287104 0 0 0 0 -166.69886376375439 -423.26396514732551 0 -423.26396514732551 1611.3334908354445 0 0 0 0 -119.64244907363513 -338.78928640452978 0 -338.78928640452978 1223.868602249102 0 0 0 0 160.08205088144769 -736.07951341720036 0 -736.07951341720036 1878.6021239215479 0 0 0 0 798.40759507516486 -489.41449134331197 0 -489.41449134331197 1381.5511397579467 0 0 0 0 360.3144226809211 -248.33420512486191 0 -248.33420512486191 2357.4401983880089 0 0 0 0 224.027900137713 -673.20783186364861 0 -673.20783186364861 1424.046970535368 0 0 0 0 287.76820722482671 -420.09502215099928 0 -420.09502215099928 1396.9001138351887 0 0 0 0 187.09475028389033 -450.93989155511008 0 -450.93989155511008 1186.4206056990661 0 0 0 0 225.55894282133613 -527.14941617630393 0 -527.14941617630393 1312.304568534877 0 0 0 0 395.06559143711638 -336.25810722082315 0 -336.25810722082315 1116.9847981053463 0 0 0 0 172.37844782548109 -325.90535876918875 0 -325.90535876918875 953.67492227242292 0 0 0 0 63.171763668337917 -439.12006375256897 0 -439.12006375256897 1194.8731639183679 0 0 0 0 95.201674984994952 -428.65073117570137 0 -428.65073117570137 1129.830396824269 0 0 0 0 130.19293520867905 -255.29830923963164 0 -255.29830923963164 802.66800425024485 0 0 0 0 114.87765173938988 -366.70774398729554 0 -366.70774398729554 1116.1719776491955 0 0 0 0 111.52540467735298 -156.63732898781018 0 -156.63732898781018 1056.8680405835767 0 0 0 0 94.37508434066558 -143.09683449305157 0 -143.09683449305157 1262.6936659691855 0 0 0 0 190.13001744597295 -313.13876256361982 0 -313.13876256361982 1135.9113954368368 0 0 0 0 224.27221602239251 -200.03929383626382 0 -200.03929383626382 1375.8144146733393 0 0 0 0 237.65505031486282 -390.18900979562022 0 -390.18900979562022 1464.9205933528901 0 0 0 0 405.97968266769203 -273.86289829148154 0 -273.86289829148154 1545.3021992880967 0 0 0 0 248.63560934635572 -194.35895216909739 0 -194.35895216909739 1362.0929650656471 0 0 0 0 298.24100918433078 -539.31408073050625 0 -539.31408073050625 1198.5814703100186 0 0 0 0 885.73960855707764 -638.04200388192112 0 -638.04200388192112 1215.0166510927229 0 0 0 0 642.31352288478865 -852.11337139926036 0 -852.11337139926036 1084.713707970106 0 0 0 0 -35.005915184028709 -41.169626086077187 0 -41.169626086077187 895.5915084019216 0 0 0 0 440.8464784885532 -417.03952974226559 0 -417.03952974226559 524.43974606494885 0 0 0 0 675.19287096909466 -1020.6968038812265 0 -1020.6968038812265 1020.9908239923971 0 0 0 0 344.43284081017987 -725.0460677081428 0 -725.0460677081428 1935.0865283244057 0 0 0 0 825.95246140830659 -1446.7019429447391 0 -1446.7019429447391 2195.6906709450741 0 0 0 0 1.4256234807419439 2.805947935589657 0 2.805947935589657 11.425711154868111 0 0 0 0 -26.871306201132938 -77.047815116384299 0 -77.047815116384299 1787.4194021288531 0 0 0 0 -0.50211659659675156 0.52542427489359511 0 0.52542427489359511 0.89887306905154674 0 0 0 0 -179.80303268396756 28.098388278667699 0 28.098388278667699 -169.30584755547898 0 0 0 0 -419.68459423485109 493.85235162106142 0 493.85235162106142 90.804144497204106 0 0 0 0 16.369800765771288 95.132278444863914 0 95.132278444863914 12.653224064066308 0 0 0 0 -3.0197109229914245 -4.2292214922187839 0 -4.2292214922187839 2.8056108598821083 0 0 0 0 -18.823996220456593 -59.590049216392799 0 -59.590049216392799 112.35558062671771 0 0 0 0 -350.47268609873288 19.692288310699951 0 19.692288310699951 47.916645249672001 0 0 0 0 -315.90552253802571 -82.218657020377577 0 -82.218657020377577 78.384423885698197 0 0 0 0 -232.52135788322903 -54.366258666457725 0 -54.366258666457725 71.803791898768395 0 0 0 0 -302.26139166960547 -164.00303400165285 0 -164.00303400165285 109.04112457635347 0 0 0 0 -290.40772717304299 -96.54332507221261 0 -96.54332507221261 156.17285810015164 0 0 0 0 -296.82460909391898 -69.027945251546043 0 -69.027945251546043 39.73601278377464 0 0 0 0 -154.08814532085307 -136.17111269774614 0 -136.17111269774614 55.415211220126366 0 0 0 0 -98.286318467573437 -222.70976385191898 0 -222.70976385191898 46.462860804400407 0 0 0 0 -265.31493948419484 -195.23537460513762 0 -195.23537460513762 43.096766158065293 0 0 0 0 -380.66939191621532 -203.49358459468931 0 -203.49358459468931 128.31751945397991 0 0 0 0 -259.64915099216569 -105.30960029867128 0 -105.30960029867128 177.60217105800984 0 0 0 0 -138.50487322121535 -85.777435068157502 0 -85.777435068157502 -4.9056410027551465 0 0 0 0 -204.99512594008024 -52.150717181997607 0 -52.150717181997607 -19.619627257168759 0 0 0 0 -0.47081674877483515 -5.217125420374316 0 -5.217125420374316 7.3817513913976427 0 0 0 0 -4.1257786122778271 -0.60855628097488079 0 -0.60855628097488079 58.097775496251415 0 0 0 0 -6.4856073555447438 0.50677797338721575 0 0.50677797338721575 78.084226031322032 0 0 0 0 -222.62644523318113 -26.318692093103891 0 -26.318692093103891 -18.228455655073049 0 0 0 0 1.8086668328687665 -7.5905963796103606 0 -7.5905963796103606 31.082729935456882 0 0 0 0 4.1113013996255177 -10.396980486169923 0 -10.396980486169923 31.231265451555373 0 0 0 0 -1.0175483839755017 -3.0666165989177898 0 -3.0666165989177898 26.554402819660936 0 0 0 0 -0.13428895520630313 -2.0946819779722574 0 -2.0946819779722574 24.713639447113565 0 0 0 0 -1.5645040023919385 -8.8680139284778079 0 -8.8680139284778079 27.569785727295368 0 0 0 0 2.0271815237065312 -8.8241845301090507 0 -8.8241845301090507 32.55544955622463 0 0 0 0 4.0520008195253467 -9.0930073749623261 0 -9.0930073749623261 29.40445578804065 0 0 0 0 149.04182487678918 -277.03634873005649 0 -277.03634873005649 297.81020192475989 0 0 0 0 983.87854874175719 -7.760685672154068 0 -7.760685672154068 98.795313494629227 0 0 0 0 -150.36198880531265 268.97903476256033 0 268.97903476256033 103.25226963765454 0 0 0 0 4.3952844708083134 -0.86887041830388512 0 -0.86887041830388512 2.4667928506146382 0 0 0 0 4.04817134523935 -0.80794730339255239 0 -0.80794730339255239 8.7865760640841586 0 0 0 0 638.69376159735066 -145.41657473402665 0 -145.41657473402665 -6.9706439857836813 0 0 0 0 953.02374318006287 -707.40852029576126 0 -707.40852029576126 214.50237455358729 0 0 0 0 94.457118986961177 -359.2664036033384 0 -359.2664036033384 1177.1848114781878 0 0 0 0 -26.285952378493789 3.858581786216746 0 3.858581786216746 47.643962911562994 0 0 0 0 2.6946491925837908 6.7570614459662437 0 6.7570614459662437 29.5544697246238 0 0 0 0 521.92986133493923 -206.86390374925395 0 -206.86390374925395 996.78580813182634 0 0 0 0 606.77628622074462 -150.80689052747766 0 -150.80689052747766 677.81948288278636 0 0 0 0 884.41356885373079 -524.57785531938498 0 -524.57785531938498 1151.9975756553467 0 0 0 0 809.28672869815273 -339.70327292552975 0 -339.70327292552975 690.4163606311231 0 0 0 0 1201.8723071061263 -347.94219659780356 0 -347.94219659780356 10.972116848395672 0 0 0 0 1101.2904048157652 -216.47446830598346 0 -216.47446830598346 -52.616744633152848 0 0 0 0 598.92046839867453 6.1015699762137956 0 6.1015699762137956 230.20316889435344 0 0 0 0 604.55296631992496 90.566340490120638 0 90.566340490120638 -162.81137515509909 0 0 0 0 -0.89225734606898044 1.7019900777407031 0 1.7019900777407031 2.367293701054308 0 0 0 0 52.556745148565597 -49.152941206390096 0 -49.152941206390096 429.53502993828442 0 0 0 0 -3.1319851966960268 2.4700952036854176 0 2.4700952036854176 3.0246139577821509 0 0 0 0 258.64068625414075 31.071945550109376 0 31.071945550109376 964.49779225638486 0 0 0 0 23.028148952473202 -194.79225134690205 0 -194.79225134690205 962.33465180144412 0 0 0 0 262.34349047336127 -89.199128132699116 0 -89.199128132699116 1093.6455513455076 0 0 0 0 94.244017044370594 -20.251451142292353 0 -20.251451142292353 1077.0256849446887 0 0 0 0 -61.481429855640499 -157.33227303239619 0 -157.33227303239619 1123.1830706178444 0 0 0 0 118.70861031379866 -105.63579118582493 0 -105.63579118582493 1115.8501269486587 0 0 0 0 155.07328767992294 -31.603735032927943 0 -31.603735032927943 1207.6186685560224 0 0 0 0 105.81941195910508 -84.29031755298638 0 -84.29031755298638 1215.7758030674449 0 0 0 0 400.19884415653405 -240.73266414911632 0 -240.73266414911632 1233.6246911574126 0 0 0 0 254.49542295073024 -105.41231621660154 0 -105.41231621660154 1147.9981834959472 0 0 0 0 580.09783036063254 -254.15893513504125 0 -254.15893513504125 1043.4072364337844 0 0 0 0 263.68525244121611 -174.38717990152509 0 -174.38717990152509 1218.7498375167761 0 0 0 0 350.5867460354425 -389.09309785228834 0 -389.09309785228834 1470.378800134582 0 0 0 0 155.6814088780784 -142.75364964417531 0 -142.75364964417531 1355.557847590142 0 0 0 0 115.07052957740962 -87.653968136015465 0 -87.653968136015465 1318.840622472002 0 0 0 0 49.406850862425927 -142.72363840865 0 -142.72363840865 1272.7254234364664 0 0 0 0 151.33978980461188 -258.45246363444312 0 -258.45246363444312 1322.4071923193987 0 0 0 0 79.605306649934391 -233.85525780279568 0 -233.85525780279568 1093.2785741010593 0 0 0 0 3.1811963102843492 -103.55055630662901 0 -103.55055630662901 1253.492462139664 0 0 0 0 -2.481690431079187 -228.57759923479171 0 -228.57759923479171 1042.702648270948 0 0 0 0 -17.706269512768188 -119.26300172853826 0 -119.26300172853826 973.20900743047241 0 0 0 0 26.587825536429591 -135.162700011173 0 -135.162700011173 1062.1715194461431 0 0 0 0 33.882219038262917 -77.627293692252351 0 -77.627293692252351 1309.4497293292952 0 0 0 0 -23.962307336065393 -241.88041842560324 0 -241.88041842560324 1276.0494202891132 0 0 0 0 76.032878418769542 -193.51683023553051 0 -193.51683023553051 1054.7611001996956 0 0 0 0 -33.186168649465998 -382.20506671991507 0 -382.20506671991507 1031.0271530890313 0 0 0 0 -41.453541818433905 -116.78004574886654 0 -116.78004574886654 1299.6988904457539 0 0 0 0 16.02930484309627 -100.30470145821164 0 -100.30470145821164 1281.0770385580763 0 0 0 0 256.78718607289352 -123.76894192762848 0 -123.76894192762848 1299.0541972128121 0 0 0 0 8.7007379969759882 -70.147903141667484 0 -70.147903141667484 1554.9183178049861 0 0 0 0 243.01616743256545 150.67979692423251 0 150.67979692423251 1369.9262632391328 0 0 0 0 11.101729117029549 -29.525497156886559 0 -29.525497156886559 1402.0579091322725 0 0 0 0 125.76655796084378 20.039966114083654 0 20.039966114083654 1346.8889790653557 0 0 0 0 160.45193054892027 -50.267602749404432 0 -50.267602749404432 1240.0229025668814 0 0 0 0 116.70666196266529 -83.282576734905888 0 -83.282576734905888 1169.7134814982273 0 0 0 0 135.92521189874691 6.1438326783882076 0 6.1438326783882076 1188.6773276306049 0 0 0 0 288.62787876588345 -113.43763995457994 0 -113.43763995457994 1046.4854374144925 0 0 0 0 333.54280418140655 193.9180510701608 0 193.9180510701608 237.57495021930663 0 0 0 0 3.9678364117404841 5.5671443959450642 0 5.5671443959450642 7.5541831429572994 0 0 0 0 379.98145233502146 485.4426098211261 0 485.4426098211261 1745.4230171154486 0 0 0 0 208.18551477748724 -33.836436974364915 0 -33.836436974364915 978.48039568320382 0 0 0 0 354.28305845474438 -407.83748913281306 0 -407.83748913281306 1789.2704924656841 0 0 0 0 471.02370933861988 132.47223382030097 0 132.47223382030097 1248.0746565455338 0 0 0 0 137.54649625178388 -107.46135011859587 0 -107.46135011859587 1100.3373946873762 0 0 0 0 581.50640385012468 -344.99055469996347 0 -344.99055469996347 1197.6570362965867 0 0 0 0 159.24152426771093 5.453673777916265 0 5.453673777916265 1128.9338096440479 0 0 0 0 1.6782751815549246 4.3075954071577982 0 4.3075954071577982 15.852801490501975 0 0 0 0 -475.38896828242196 -481.14597716850403 0 -481.14597716850403 1528.9845721763268 0 0 0 0 1689.2433934860828 447.44675320752867 0 447.44675320752867 -64.87288859461114 0 0 0 0 -18.970270642123751 52.302426412541536 0 52.302426412541536 1889.0668708616795 0 0 0 0 -111.25157065313601 -213.16017273395119 0 -213.16017273395119 2628.1371742560877 0 0 0 0 950.75431976960022 -280.70160878328534 0 -280.70160878328534 987.08993959942018 0 0 0 0 141.7261208785485 -439.55819436172897 0 -439.55819436172897 462.93098619278317 0 0 0 0 -94.46742078870227 -324.89275239060953 0 -324.89275239060953 988.13268231753318 0 0 0 0 361.65810149731851 -177.6664585518738 0 -177.6664585518738 122.14236970503407 0 0 0 0 9.2939045002101608 13.230204890988063 0 13.230204890988063 14.332450761621431 0 0 0 0 223.83847347143038 -343.3599870647522 0 -343.3599870647522 1008.1226814140246 0 0 0 0 -3.2821843473220724 9.5064834676013561 0 9.5064834676013561 108.65860435826471 0 0 0 0 418.10508226579827 -407.98550606188655 0 -407.98550606188655 1322.7335653888877 0 0 0 0 2.9110575100427072 -1.4068653262028477 0 -1.4068653262028477 1.4425385116089728 0 0 0 0 -47.909360974491392 -390.41658013065171 0 -390.41658013065171 2572.7880560451194 0 0 0 0 390.52456670118386 43.839543753558246 0 43.839543753558246 1438.0383460736339 0 0 0 0 42.956730172452126 553.28326294337603 0 553.28326294337603 709.46012438143953 0 0 0 0 257.26354109497061 -217.7852995645153 0 -217.7852995645153 1176.1026500360167 0 0 0 0 525.0127011754148 -203.04743218014482 0 -203.04743218014482 1022.2471907872823 0 0 0 0 271.83117025872525 -183.61106285837013 0 -183.61106285837013 1035.1286424164864 0 0 0 0 39.919527993972224 -289.01289133055252 0 -289.01289133055252 1173.9496886684792 0 0 0 0 275.28807263638191 -194.11060920433374 0 -194.11060920433374 1027.2532064478364 0 0 0 0 96.762797953806057 -295.44637739636528 0 -295.44637739636528 996.37266453942357 0 0 0 0 99.307880905931142 -79.320849881398317 0 -79.320849881398317 1171.8802862004595 0 0 0 0 82.69128066995836 -242.3193892922136 0 -242.3193892922136 1111.1644535643863 0 0 0 0 -83.174475147047815 -209.14500658975157 0 -209.14500658975157 1158.9708558420898 0 0 0 0 18.760802418245476 -210.23990874132141 0 -210.23990874132141 1162.6180648750596 0 0 0 0 4.1332546201783771 -233.97732484537119 0 -233.97732484537119 1118.2241323530034 0 0 0 0 19.593157231689474 -292.05678511346923 0 -292.05678511346923 1211.811412391442 0 0 0 0 -5.4150206619822256 -243.39428447311366 0 -243.39428447311366 1118.2060536119388 0 0 0 0 -109.53509887907376 49.709454525247565 0 49.709454525247565 1079.6369055227751 0 0 0 0 -10.278522211586733 -101.46416452447011 0 -101.46416452447011 876.58269003173336 0 0 0 0 -75.493874286798018 -108.6453367094291 0 -108.6453367094291 875.8940990589017 0 0 0 0 2.4648850120818224 -116.10028126595716 0 -116.10028126595716 361.5874545754632 0 0 0 0 42.667245967328881 139.32608941053331 0 139.32608941053331 360.31231249755365 0 0 0 0 -5.7021171821743337 -97.023762344353599 0 -97.023762344353599 274.61776728002951 0 0 0 0 -53.363111354789453 236.37025496265414 0 236.37025496265414 1562.6973001837614 0 0 0 0 77.352880741174886 -492.62555751224863 0 -492.62555751224863 370.25047309840738 0 0 0 0 -8.6010272860676196 101.69439060889999 0 101.69439060889999 1871.6326587882359 0 0 0 0 2.8843544111411248 -3.0723711343493392 0 -3.0723711343493392 4.3726019279476986 0 0 0 0 159.90445889690636 176.85247218344011 0 176.85247218344011 -151.36124141943583 0 0 0 0 1759.5379904461251 -829.46487966339919 0 -829.46487966339919 405.12659838890249 0 0 0 0 3.2612641166280456 -5.8809074071392757 0 -5.8809074071392757 8.2869991957626326 0 0 0 0 9.2172368859364724 -1042.8878063410375 0 -1042.8878063410375 2293.7183384638047 0 0 0 0 -183.1148072923952 -148.2131298835302 0 -148.2131298835302 938.55682384804823 0 0 0 0 946.51623300938627 57.364006239527953 0 57.364006239527953 222.57416158521664 0 0 0 0 926.58615645861482 -1028.8171984975779 0 -1028.8171984975779 2132.324120116682 0 0 0 0 1006.5316805874536 348.50196354553918 0 348.50196354553918 1496.8446396925447 0 0 0 0 1067.6657957059851 -385.13403149567603 0 -385.13403149567603 919.97732110695506 0 0 0 0 571.50847441678343 -235.27683842872648 0 -235.27683842872648 1044.5270319738192 0 0 0 0 176.12755385552919 -417.63959311734652 0 -417.63959311734652 1271.1228630817204 0 0 0 0 278.38411281050048 -323.72587348142406 0 -323.72587348142406 1134.0027253042499 0 0 0 0 373.33701327977769 -598.60163138489588 0 -598.60163138489588 1903.980742968095 0 0 0 0 -253.43461486477099 -103.21602014872769 0 -103.21602014872769 140.39751431942568 0 0 0 0 -102.5739001761649 -80.19482664737734 0 -80.19482664737734 70.362129285174888 0 0 0 0 -50.068318658789032 -20.009459752694227 0 -20.009459752694227 33.369734260821957 0 0 0 0 0.59851949281983252 -29.012974010722246 0 -29.012974010722246 34.255935536217294 0 0 0 0 -40.204063089702686 9.0363832157381694 0 9.0363832157381694 108.1138488703873 0 0 0 0 -102.55271023531168 11.213791139714886 0 11.213791139714886 145.18631246907171 0 0 0 0 -174.50619481672038 -32.744518980674911 0 -32.744518980674911 124.18823737296771 0 0 0 0 -155.25995883673386 -118.69695620243328 0 -118.69695620243328 84.255155917315278 0 0 0 0 10.63691844660292 -11.932373640799256 0 -11.932373640799256 16.357077520287646 0 0 0 0 -56.632824675303709 -199.06323136383435 0 -199.06323136383435 48.864047168957768 0 0 0 0 146.5532486734246 -56.385101353058417 0 -56.385101353058417 1.5474612788530067 0 0 0 0 70.534971206430782 -96.334624308161438 0 -96.334624308161438 96.172441849426832 0 0 0 0 -40.105134233934223 -40.110055557423038 0 -40.110055557423038 78.670752148522297 0 0 0 0 2.1652626869915004 -30.315141673228304 0 -30.315141673228304 28.24968511645352 0 0 0 0 111.63099863906245 -26.515422979660798 0 -26.515422979660798 -23.670882954145782 0 0 0 0 23.66126456176336 -1.8653322519149356 0 -1.8653322519149356 6.025706061505602 0 0 0 0 119.16088008522365 -123.76951836371154 0 -123.76951836371154 147.42981050009257 0 0 0 0 451.63914743148052 -48.401673492509872 0 -48.401673492509872 -59.401320615346776 0 0 0 0 17.144600394261488 -53.497592852567323 0 -53.497592852567323 -67.81675313677988 0 0 0 0 9.3821901490903166 -15.565544290583084 0 -15.565544290583084 22.236610598420157 0 0 0 0 -34.847777194688661 -54.769624854045105 0 -54.769624854045105 23.837503960356116 0 0 0 0 -92.717338624132253 -16.890225479284709 0 -16.890225479284709 10.716710614753538 0 0 0 0 -18.783110578440755 65.702107107383199 0 65.702107107383199 -191.83539082987409 0 0 0 0 -12.902929927439358 -25.100126247527584 0 -25.100126247527584 20.124027518605118 0 0 0 0 -89.843715487288137 -3.1091352851944976 0 -3.1091352851944976 92.221164734983176 0 0 0 0 1.1074463911430215 -9.0671604433423738 0 -9.0671604433423738 11.690403934991991 0 0 0 0 -23.83065730139333 1.7578235408873297 0 1.7578235408873297 34.970717442571186 0 0 0 0 51.000559141459519 95.56240358208197 0 95.56240358208197 153.81113930135325 0 0 0 0 -25.710314659094632 -5.2910921455834057 0 -5.2910921455834057 10.699968057266403 0 0 0 0 -33.39493093822621 1.3990443939491684 0 1.3990443939491684 12.240333980138843 0 0 0 0 -8.4448882663762941 -0.25083944398488711 0 -0.25083944398488711 5.8424068827418125 0 0 0 0 -29.239246392077575 10.38377444256912 0 10.38377444256912 12.267998459130467 0 0 0 0 -49.578956961383938 19.902087634123745 0 19.902087634123745 9.6865807717149437 0 0 0 0 -0.3216319358535884 109.27554648671867 0 109.27554648671867 276.7195808745746 0 0 0 0 -26.374732705774001 9.9700956883702361 0 9.9700956883702361 0.1791465231351026 0 0 0 0 -91.918335550290067 1.7287677353160689 0 1.7287677353160689 43.292134560237173 0 0 0 0 -46.647119112276414 3.453118513309164 0 3.453118513309164 9.8463763500913046 0 0 0 0 1.3045176877961637 -5.1352083553182979 0 -5.1352083553182979 0.16867784796909291 0 0 0 0 -33.588520242030299 6.0052237765734446 0 6.0052237765734446 7.5363734392252582 0 0 0 0 -12.577799324075386 49.256962282481254 0 49.256962282481254 154.26222727212007 0 0 0 0 -94.294938244320292 30.552719607047038 0 30.552719607047038 162.35476144077256 0 0 0 0 -99.234242354032176 6.7627163718861993 0 6.7627163718861993 149.54708986265177 0 0 0 0 -156.37671832558044 13.863385939941509 0 13.863385939941509 213.54278134964989 0 0 0 0 -262.10584933554128 -99.76361107712728 0 -99.76361107712728 239.49958477113978 0 0 0 0 -131.38405983782832 -68.771447257258842 0 -68.771447257258842 164.51042517097085 0 0 0 0 78.816237123564321 296.63022614671354 0 296.63022614671354 854.07195105793653 0 0 0 0 31.735895413412436 49.327283635837375 0 49.327283635837375 237.79358631717332 0 0 0 0 -80.708666909393742 46.618949873176462 0 46.618949873176462 375.44722804729827 0 0 0 0 -6.7105522193878642 -236.33930324447283 0 -236.33930324447283 86.285600591858383 0 0 0 0 -15.932640006393889 -136.10288435797838 0 -136.10288435797838 362.33076411683578 0 0 0 0 -1.0179327385149008 -289.02512760226819 0 -289.02512760226819 207.48012535186717 0 0 0 0 -138.47737352431068 -234.22220950797782 0 -234.22220950797782 435.06723486377086 0 0 0 0 -181.33401367042279 -206.16700042717275 0 -206.16700042717275 152.34490450122394 0 0 0 0 -168.15963021797324 -145.76379523858486 0 -145.76379523858486 262.74457637808518 0 0 0 0 -280.62067189753907 -122.24663827117183 0 -122.24663827117183 98.486483986314852 0 0 0 0 44.51955595993963 -92.905126336109717 0 -92.905126336109717 93.072829899550356 0 0 0 0 -397.8571931042552 -228.58947832570266 0 -228.58947832570266 171.2037579867756 0 0 0 0 -828.49320067776534 -689.11015406456863 0 -689.11015406456863 1174.4290972305462 0 0 0 0 32.137815537843061 -84.826936750447459 0 -84.826936750447459 71.668295924620793 0 0 0 0 -228.28957327886383 -193.47393473158445 0 -193.47393473158445 22.041907208971679 0 0 0 0 -214.76011523570196 -61.122405060916208 0 -61.122405060916208 160.75215194542034 0 0 0 0 -207.31510717502169 -39.630774566889158 0 -39.630774566889158 71.475485677423421 0 0 0 0 -47.26863237519683 -218.78141128816787 0 -218.78141128816787 -274.97190966113703 0 0 0 0 107.24308787435803 -566.47769098262506 0 -566.47769098262506 -939.44104489161236 0 0 0 0 270.05881073027194 -116.42922361200181 0 -116.42922361200181 -918.8229211501457 0 0 0 0 87.255298434396536 -48.612070674396819 0 -48.612070674396819 -240.87814039032673 0 0 0 0 91.428868271879765 -120.94606409106927 0 -120.94606409106927 -588.57899190756143 0 0 0 0 -75.857797685774131 -421.01909160810465 0 -421.01909160810465 -533.4198921966472 0 0 0 0 13.913739931533762 -2.0911713989694363 0 -2.0911713989694363 -3.1748116290263795 0 0 0 0 -45.640685731084432 20.581479459361617 0 20.581479459361617 1055.7702225546818 0 0 0 0 -211.60133153533934 -731.3011349633307 0 -731.3011349633307 535.21894600340966 0 0 0 0 41.748805184528393 -95.892559837589886 0 -95.892559837589886 109.1478725597857 0 0 0 0 -330.64603593651918 69.711847372633201 0 69.711847372633201 165.7338055760265 0 0 0 0 131.32864129757399 47.287715045524237 0 47.287715045524237 -201.41201605823881 0 0 0 0 -16.179344259592284 -10.358436123801482 0 -10.358436123801482 27.732767485111097 0 0 0 0 -346.2877134888713 -622.48083117673377 0 -622.48083117673377 -458.15492559714767 0 0 0 0 -370.61539598883246 -307.13454139081296 0 -307.13454139081296 84.091120092656638 0 0 0 0 -615.7364632169265 -546.52947803744973 0 -546.52947803744973 295.99527383134409 0 0 0 0 -116.2487110287293 -73.644820403249469 0 -73.644820403249469 -218.13249593617002 0 0 0 0 -273.79449890125397 -236.56445347242698 0 -236.56445347242698 155.89854076459051 0 0 0 0 -277.00781194169213 -318.24739571131795 0 -318.24739571131795 767.37355005680001 0 0 0 0 -471.93931266570144 -248.39764216708136 0 -248.39764216708136 512.62068593249569 0 0 0 0 -388.49436513786168 -245.43486686063261 0 -245.43486686063261 30.642378824195475 0 0 0 0 -269.39169233001667 74.920587876571517 0 74.920587876571517 299.78490163947208 0 0 0 0 -360.66084080611108 -30.335404337689397 0 -30.335404337689397 220.13218649494229 0 0 0 0 -351.82662442529727 160.72730082108683 0 160.72730082108683 229.22632852420793 0 0 0 0 -361.53260837725429 182.06813062584115 0 182.06813062584115 1163.2429300369768 0 0 0 0 303.73378336957671 -547.85350606615248 0 -547.85350606615248 236.51715812851762 0 0 0 0 140.23187580485364 -178.86838524353516 0 -178.86838524353516 -137.14908159029437 0 0 0 0 99.296194029647722 -105.70442173556512 0 -105.70442173556512 4.7494583376392256 0 0 0 0 -2.462989832472704 -2.8991285656883292 0 -2.8991285656883292 2.8329689306859791 0 0 0 0 -504.70714283589768 -196.19118306233577 0 -196.19118306233577 242.15786367430701 0 0 0 0 -176.56719052037397 -211.71532103760183 0 -211.71532103760183 222.42202507454203 0 0 0 0 -256.89818745452067 -106.07837203273812 0 -106.07837203273812 61.12889408924093 0 0 0 0 34.564420729050674 -76.066987338697913 0 -76.066987338697913 103.42078037299959 0 0 0 0 7.6594828541744846 -128.21652797643037 0 -128.21652797643037 103.54952848398534 0 0 0 0 47.666024959785545 -3.4950870600878261 0 -3.4950870600878261 492.01740147333476 0 0 0 0 -78.073737758165407 -402.96535300970572 0 -402.96535300970572 -178.66746708503342 0 0 0 0 37.661425228673863 -76.638881190953526 0 -76.638881190953526 98.401427650312257 0 0 0 0 -135.50313223171452 -28.690867077151779 0 -28.690867077151779 269.41261398746428 0 0 0 0 12.508630775705676 -15.439946845463055 0 -15.439946845463055 22.778264853835807 0 0 0 0 -205.35033720906358 -289.36233541052934 0 -289.36233541052934 68.335389158301041 0 0 0 0 -160.00701730806304 -225.26013555641475 0 -225.26013555641475 92.016957696730969 0 0 0 0 284.96487963350432 -306.78561062803783 0 -306.78561062803783 131.96815034025349 0 0 0 0 -121.15261895796537 -136.59070131933004 0 -136.59070131933004 62.713216516698594 0 0 0 0 257.44833737744159 -205.6339915110002 0 -205.6339915110002 257.28382041298028 0 0 0 0 677.49207672523698 -273.38413751673943 0 -273.38413751673943 -195.96845378747093 0 0 0 0 729.634359281466 -377.23661365410953 0 -377.23661365410953 -18.834494284208631 0 0 0 0 721.34222977708851 -491.16961857041315 0 -491.16961857041315 -107.35246669807748 0 0 0 0 11.916700330687775 4.1929839253723742 0 4.1929839253723742 -5.30891916977356 0 0 0 0 557.19397372559706 -168.83441331402719 0 -168.83441331402719 -740.31483429249784 0 0 0 0 70.353497364298619 -258.14151530724484 0 -258.14151530724484 1256.28022025885 0 0 0 0 737.15473817940892 -757.43824988124834 0 -757.43824988124834 591.20086212278693 0 0 0 0 963.64300113800027 -436.79201031563207 0 -436.79201031563207 88.52649660037423 0 0 0 0 489.15035315475689 -348.9905113541754 0 -348.9905113541754 105.73115091694126 0 0 0 0 682.15013541572216 -608.56338408975716 0 -608.56338408975716 19.988041882028483 0 0 0 0 430.71784838061626 -321.4474896136453 0 -321.4474896136453 78.772185869645909 0 0 0 0 -49.22183916456197 -26.833470092344214 0 -26.833470092344214 -4.110592776665726 0 0 0 0 209.55320188650512 -55.294741107347363 0 -55.294741107347363 142.1618715679142 0 0 0 0 531.75612005343737 -156.0879089563532 0 -156.0879089563532 492.96697072748793 0 0 0 0 403.59814383712546 -351.50095671246527 0 -351.50095671246527 217.6396669364749 0 0 0 0 312.18792447166106 -163.6609042015989 0 -163.6609042015989 199.97303723107325 0 0 0 0 -326.92949736336232 130.19421938046071 0 130.19421938046071 81.944015243236208 0 0 0 0 -6.7259064369671151 -2.1460444138314045 0 -2.1460444138314045 18.445863592506953 0 0 0 0 375.0874365616728 -297.0839830316836 0 -297.0839830316836 276.89115776617837 0 0 0 0 534.61689268575537 -243.30296717420424 0 -243.30296717420424 255.48980190949806 0 0 0 0 669.06023877704411 -500.92869525383139 0 -500.92869525383139 242.17772717383923 0 0 0 0 524.09197933246105 -297.87754967945511 0 -297.87754967945511 12.75282639991201 0 0 0 0 833.73541842333179 -254.78117987179212 0 -254.78117987179212 -10.895020668947836 0 0 0 0 649.45463692338672 -211.10763731269981 0 -211.10763731269981 -18.796801187083474 0 0 0 0 317.89959539641495 1.4284606435103342 0 1.4284606435103342 -2.2640619270969182 0 0 0 0 371.55399329982174 -175.69229373030248 0 -175.69229373030248 -12.701509014873409 0 0 0 0 13.305473770348478 -29.126797100053409 0 -29.126797100053409 51.862785057209976 0 0 0 0 158.22524229375267 -370.23078060033731 0 -370.23078060033731 -83.497033917490626 0 0 0 0 333.15891862832723 -156.19602066712105 0 -156.19602066712105 -25.68729528208496 0 0 0 0 588.73308321888544 -55.85277133519412 0 -55.85277133519412 -29.733936343400273 0 0 0 0 -163.81235996895703 -148.09144700909383 0 -148.09144700909383 210.13511435300461 0 0 0 0 -109.08790645612271 367.56699348497386 0 367.56699348497386 145.77899925300153 0 0 0 0 24.772345867108669 9.2249164335044895 0 9.2249164335044895 7.4268186761935109 0 0 0 0 157.15177795461386 193.51867764403869 0 193.51867764403869 1167.7227450639621 0 0 0 0 -68.327094648540879 90.610694492581388 0 90.610694492581388 2805.7794357709645 0 0 0 0 1100.0369343939929 -1263.3350560065301 0 -1263.3350560065301 2378.1514178110228 0 0 0 0 298.82493018486275 -238.41991056260304 0 -238.41991056260304 1553.148173481648 0 0 0 0 173.15599282793028 409.43344770301337 0 409.43344770301337 1477.0270048276288 0 0 0 0 756.27475303398387 -550.47623071398993 0 -550.47623071398993 3503.7932037069695 0 0 0 0 2748.9740341114302 222.4681105024647 0 222.4681105024647 69.14999379805522 0 0 0 0 14.841092399246509 -3.4200908054877175 0 -3.4200908054877175 10.226672451099887 0 0 0 0 3065.4662219067814 -1650.7884867866105 0 -1650.7884867866105 1002.1126653873944 0 0 0 0 0.27499647966956076 3.6104275273177109 0 3.6104275273177109 11.649870640026608 0 0 0 0 892.6039608787105 814.17914656360517 0 814.17914656360517 -276.5185019243504 0 0 0 0 1238.1240872407943 -508.7895110604004 0 -508.7895110604004 349.04875119251665 0 0 0 0 2023.1178624484965 -369.49469020878314 0 -369.49469020878314 -247.83382820914267 0 0 0 0 936.9447506786164 -118.63154007523553 0 -118.63154007523553 -136.25440877619985 0 0 0 0 920.76224036097119 220.34847370276111 0 220.34847370276111 -46.682778588874498 0 0 0 0 1098.6493347029759 -158.75180199823626 0 -158.75180199823626 -149.8602456439985 0 0 0 0 1068.0172505237506 -506.71893264491882 0 -506.71893264491882 27.531126452697208 0 0 0 0 440.9991764566621 -555.57550722207816 0 -555.57550722207816 397.91470255069726 0 0 0 0 408.74311572768875 -372.11596528345399 0 -372.11596528345399 331.86869782672147 0 0 0 0 170.40754369792967 -303.24373570056923 0 -303.24373570056923 499.45153634206508 0 0 0 0 139.79483714034359 -275.15519169454819 0 -275.15519169454819 885.34660873483517 0 0 0 0 -188.25316990703004 -113.74516288383165 0 -113.74516288383165 910.56825125493924 0 0 0 0 -51.032311081275566 -211.32445873862889 0 -211.32445873862889 85.450647872083209 0 0 0 0 6.4460052494369204 -1.4994871522721382 0 -1.4994871522721382 -4.1312848474233306 0 0 0 0 -283.47028354558427 -756.30541774204539 0 -756.30541774204539 1004.8400617352745 0 0 0 0 -163.94692407586535 170.27040514737746 0 170.27040514737746 296.73223196607432 0 0 0 0 1364.9750626003665 -1182.4200101132756 0 -1182.4200101132756 823.1525421225524 0 0 0 0 781.55683193764708 -98.721626744110836 0 -98.721626744110836 1156.034861776363 0 0 0 0 -386.33508194951355 89.875195483436983 0 89.875195483436983 203.35657080172678 0 0 0 0 1034.705909734791 850.45828637565137 0 850.45828637565137 -145.06536479611532 0 0 0 0 -32.318757614126298 44.121177458888269 0 44.121177458888269 65.849295647398321 0 0 0 0 -8.3854840824839627 4.6983902008129803 0 4.6983902008129803 -1.3798979699605241 0 0 0 0 76.126051287715654 10.277304695133353 0 10.277304695133353 -1.1667275143699953 0 0 0 0 -118.52034568014551 -101.922058494456 0 -101.922058494456 -69.628328311628138 0 0 0 0 -51.059515101901752 11.903951295555999 0 11.903951295555999 45.569550765008898 0 0 0 0 -30.727904111911812 102.72898709434958 0 102.72898709434958 -37.198867823273758 0 0 0 0 -42.245359126025505 -11.831870216403331 0 -11.831870216403331 36.136809232324595 0 0 0 0 -36.784104984002227 11.626447400730967 0 11.626447400730967 89.297302148188464 0 0 0 0 630.44040827882964 95.856035131087992 0 95.856035131087992 55.853563531840337 0 0 0 0 1120.9377006620325 -194.8897871459485 0 -194.8897871459485 -185.88094659737544 0 0 0 0 1152.5990468412574 -125.03221580859827 0 -125.03221580859827 -216.63050269996165 0 0 0 0 708.64316546219106 195.39958106611084 0 195.39958106611084 -96.903138167224824 0 0 0 0 776.71241623903768 -527.51856234913157 0 -527.51856234913157 113.10913190539577 0 0 0 0 827.78428357114171 -128.85061408554611 0 -128.85061408554611 -17.66329013343784 0 0 0 0 1536.3466268369302 -416.13029308681143 0 -416.13029308681143 83.697050354086969 0 0 0 0 576.45590746827475 -170.80390922895458 0 -170.80390922895458 201.16875648431596 0 0 0 0 599.33371721334333 -382.43752069100447 0 -382.43752069100447 925.58035284554353 0 0 0 0 773.45275994557051 -556.89598296527402 0 -556.89598296527402 928.54403719078982 0 0 0 0 3218.8959717230664 -385.04763247072697 0 -385.04763247072697 329.59691405238118 0 0 0 0 1250.4435558140312 -148.22931716489984 0 -148.22931716489984 494.66142318508355 0 0 0 0 1559.0552272487676 -116.20796478968987 0 -116.20796478968987 -103.3892355288624 0 0 0 0 -480.89961893122017 -133.94573248129745 0 -133.94573248129745 424.03736206214671 0 0 0 0 89.260465082250448 -260.2958320702528 0 -260.2958320702528 -443.92808758516912 0 0 0 0 -166.67706312837436 -194.04721673819586 0 -194.04721673819586 766.61974462610669 0 0 0 0 -92.400760648062715 362.04718914401019 0 362.04718914401019 691.17505521970452 0 0 0 0 86.147782271464166 305.20337210840808 0 305.20337210840808 -21.08648165599152 0 0 0 0 232.43084822788433 -1.0360311486074352 0 -1.0360311486074352 719.27575671454542 0 0 0 0 349.28455460788246 -180.96570278570289 0 -180.96570278570289 711.82406165250632 0 0 0 0 10.113357977093983 1.100920123339165 0 1.100920123339165 90.428306888250518 0 0 0 0 702.98234274992319 -247.86723202704161 0 -247.86723202704161 -376.94385492579022 0 0 0 0 -28.157113398468937 23.697325794433709 0 23.697325794433709 77.18988602385798 0 0 0 0 -1.3498069132717916 0.33989346853763891 0 0.33989346853763891 5.1443285078283196 0 0 0 0 866.4900594443734 -330.68752188891085 0 -330.68752188891085 97.403668636572547 0 0 0 0 -255.33222791925436 203.01669561260496 0 203.01669561260496 86.143866919315769 0 0 0 0 8.5031507947951468 -32.540507531753974 0 -32.540507531753974 84.523155092319939 0 0 0 0 -0.05607444676478579 -4.9526861258742372 0 -4.9526861258742372 4.0848852624606025 0 0 0 0 14.724130230380979 -34.185550974099897 0 -34.185550974099897 53.281949659925885 0 0 0 0 7.0468344793705029 -11.871066312848541 0 -11.871066312848541 27.840501736129568 0 0 0 0 2.0546794865485509 -9.9554207697968877 0 -9.9554207697968877 33.694594295324634 0 0 0 0 18.999798152675794 5.2671102458261885 0 5.2671102458261885 45.506185076519614 0 0 0 0 -1.8573301374453877 -6.9576809092686744 0 -6.9576809092686744 26.421429556183284 0 0 0 0 4.4904663937267024 -17.755228606593676 0 -17.755228606593676 22.746719028294365 0 0 0 0 0.09868457880989645 -16.205904537868975 0 -16.205904537868975 26.559514201045033 0 0 0 0 -2.1775594545006243 -23.107309505867306 0 -23.107309505867306 79.319474979798542 0 0 0 0 -5.7452284429764404 -13.738757403232739 0 -13.738757403232739 69.16330488382664 0 0 0 0 24.115367645187916 -28.870534862689965 0 -28.870534862689965 17.383422871498624 0 0 0 0 -8.4259375401034049 -21.949310179858003 0 -21.949310179858003 47.461275996596669 0 0 0 0 -37.682299229397813 171.11183643685945 0 171.11183643685945 156.386955033493 0 0 0 0 -0.47140160218495097 -1.4712617389451452 0 -1.4712617389451452 2.2612181564113598 0 0 0 0 -384.96850955500395 -208.28103898378322 0 -208.28103898378322 -379.69179644196993 0 0 0 0 -418.14253822562705 -461.37425065484786 0 -461.37425065484786 -109.45990554394666 0 0 0 0 128.47356850884717 -0.38990536720666569 0 -0.38990536720666569 62.951985434687231 0 0 0 0 -103.96433438690383 -25.906772922433447 0 -25.906772922433447 60.988570541594527 0 0 0 0 2.6488675737416543 15.653974103239307 0 15.653974103239307 73.556627174490131 0 0 0 0 -166.49238003826122 96.070541827997658 0 96.070541827997658 226.87837454298278 0 0 0 0 -38.910233171521668 -91.417035891980049 0 -91.417035891980049 113.33139587727055 0 0 0 0 -102.57122342293825 146.36606473606196 0 146.36606473606196 104.9594531095936 0 0 0 0 0.29435072287587616 113.46494244898531 0 113.46494244898531 -29.490204742236529 0 0 0 0 -0.62641056538905104 -39.46690349013079 0 -39.46690349013079 13.885550606006291 0 0 0 0 13.244095639860213 -30.175725190169373 0 -30.175725190169373 35.37751448881022 0 0 0 0 89.312273691049541 -255.97106812739003 0 -255.97106812739003 666.6833645584411 0 0 0 0 -7.8074695064602153 -4.1367405812175093 0 -4.1367405812175093 13.931913696178697 0 0 0 0 -153.94482337665067 192.98327091700048 0 192.98327091700048 283.67582038704131 0 0 0 0 442.39247852573544 235.94422578391823 0 235.94422578391823 897.52340780079248 0 0 0 0 254.66867639287193 -242.5845366780959 0 -242.5845366780959 662.29261699851486 0 0 0 0 -293.88065057298354 609.64246415634989 0 609.64246415634989 2208.8988753333688 0 0 0 0 1.6184215665105128 0.23529364267804453 0 0.23529364267804453 1.5089432142403401 0 0 0 0 52.166516632409184 368.16356269580137 0 368.16356269580137 -375.14208046289673 0 0 0 0 -5.5282955299326204 679.74545859577483 0 679.74545859577483 354.25280885116081 0 0 0 0 -247.09289656730289 224.53942867336445 0 224.53942867336445 352.98156666485011 0 0 0 0 -227.08968340200727 159.44871260895889 0 159.44871260895889 555.80841782290372 0 0 0 0 -145.20359641192772 98.335620654412196 0 98.335620654412196 95.910050992868491 0 0 0 0 -119.26601932440917 26.920792644210451 0 26.920792644210451 159.57504691112263 0 0 0 0 -51.560375512537576 37.958681584153965 0 37.958681584153965 106.40771598430001 0 0 0 0 -44.441026900953148 -6.0395256159536075 0 -6.0395256159536075 115.00283101621608 0 0 0 0 26.371004112490482 -7.0482064626121428 0 -7.0482064626121428 112.93617201520829 0 0 0 0 -249.13569021070361 224.7681467910661 0 224.7681467910661 1769.276146463686 0 0 0 0 9.8194459839901 6.2577900193046219 0 6.2577900193046219 1.156225052040142 0 0 0 0 -15.245008190377121 -53.468290640012128 0 -53.468290640012128 1093.8829988664365 0 0 0 0 10.314476765248401 242.47199037807877 0 242.47199037807877 1180.6265195640008 0 0 0 0 60.088030671904562 -5.8478846410434926 0 -5.8478846410434926 87.186224455901538 0 0 0 0 25.643288137711352 -3.0643899354763562 0 -3.0643899354763562 91.174114372278154 0 0 0 0 13.054657181168295 -47.063025436887983 0 -47.063025436887983 79.911798693821765 0 0 0 0 430.88112449535038 -172.30717132100835 0 -172.30717132100835 -401.3193306158646 0 0 0 0 -747.62810026609804 555.37336781402701 0 555.37336781402701 203.01113643146527 0 0 0 0 38.241583756189357 -278.71892348752226 0 -278.71892348752226 674.91812989744358 0 0 0 0 -109.17945577770456 -12.052760398769351 0 -12.052760398769351 186.96899958860013 0 0 0 0 -71.736778721960945 -75.396392675596871 0 -75.396392675596871 101.07986122995499 0 0 0 0 -48.822721443819319 -53.238889974134509 0 -53.238889974134509 81.430982775826124 0 0 0 0 -22.860032940829115 -349.16331593986251 0 -349.16331593986251 456.6662329309911 0 0 0 0 40.674107439380471 -61.174034970121284 0 -61.174034970121284 82.618689607725344 0 0 0 0 -105.62244788306089 -31.232849704436376 0 -31.232849704436376 114.03712581898435 0 0 0 0 -330.7149897249983 -13.935209350100195 0 -13.935209350100195 116.19185036714771 0 0 0 0 -60.396486981057933 -106.94230929590412 0 -106.94230929590412 153.15069576946553 0 0 0 0 -417.83628693413266 253.21401996975328 0 253.21401996975328 -23.063634684309363 0 0 0 0 -5.3050988746323213 -2.9906991548225363 0 -2.9906991548225363 10.031742277815852 0 0 0 0 464.84551931993974 -494.68455028301105 0 -494.68455028301105 483.19352428143611 0 0 0 0 -166.12555774148495 -29.856401061311772 0 -29.856401061311772 -29.496453697487595 0 0 0 0 89.087552666416741 -46.006859546985652 0 -46.006859546985652 -32.645917422654747 0 0 0 0 -179.11959389028198 -10.19611636515765 0 -10.19611636515765 151.2978960058681 0 0 0 0 108.89912362584437 -46.761163980558194 0 -46.761163980558194 88.281524543115665 0 0 0 0 -809.15579507753864 -354.28972977952799 0 -354.28972977952799 -71.774923911817496 0 0 0 0 -15.443489669320419 5.6012622438219637 0 5.6012622438219637 20.379287348333435 0 0 0 0 -71.636948722304851 98.91008806314494 0 98.91008806314494 296.06347711157287 0 0 0 0 -69.597979175937709 70.204594324691243 0 70.204594324691243 204.24214824481169 0 0 0 0 167.67511809041025 -212.7107385677009 0 -212.7107385677009 212.39342407214281 0 0 0 0 -66.412169184818907 0.0063899944529168806 0 0.0063899944529168806 155.79052155982856 0 0 0 0 98.161361333953209 -0.24584586100536399 0 -0.24584586100536399 160.27277258227696 0 0 0 0 55.188129701446428 -90.119964415900625 0 -90.119964415900625 119.09607443280754 0 0 0 0 -175.02019418873624 -275.63050926110009 0 -275.63050926110009 10.852572359523037 0 0 0 0 -141.2641388710731 -353.9913770907151 0 -353.9913770907151 -167.33855030848645 0 0 0 0 -431.82558835955933 -957.24846983884345 0 -957.24846983884345 -978.45697861618828 0 0 0 0 -204.254287419928 -589.68630409492471 0 -589.68630409492471 -502.2784833824262 0 0 0 0 4.3975578271362341 -22.835007348897079 0 -22.835007348897079 24.529830675151459 0 0 0 0 -766.34648649717951 -479.02797776217631 0 -479.02797776217631 -273.43964936072007 0 0 0 0 -1129.7850959945372 -500.58991674555 0 -500.58991674555 -84.404276459539687 0 0 0 0 -687.08580183980303 -816.15027972671669 0 -816.15027972671669 -1281.0578126566252 0 0 0 0 -770.27347071588338 -203.285167079448 0 -203.285167079448 502.4552814377239 0 0 0 0 -1477.269082177887 -261.11337937277858 0 -261.11337937277858 585.76451997959521 0 0 0 0 -793.89773796936333 -163.73317505871819 0 -163.73317505871819 496.51252063235734 0 0 0 0 -492.15284487093231 -12.134481354180025 0 -12.134481354180025 562.83550579447183 0 0 0 0 -963.7026486302475 -480.83077585585124 0 -480.83077585585124 364.49679500726052 0 0 0 0 -601.63525893025235 -461.80586070675781 0 -461.80586070675781 223.44008981925435 0 0 0 0 -541.81190047530799 -281.27511633277754 0 -281.27511633277754 451.02401340658253 0 0 0 0 -471.72414911804754 -167.41065013135085 0 -167.41065013135085 533.10265267489012 0 0 0 0 -361.99839783450261 -220.6097007127828 0 -220.6097007127828 382.31666644608777 0 0 0 0 -417.98696324716411 23.858215875108726 0 23.858215875108726 673.83242011949187 0 0 0 0 -366.7521096934961 -80.631136553478427 0 -80.631136553478427 511.20533488476212 0 0 0 0 -625.5086234731607 -224.79934567410965 0 -224.79934567410965 485.97692338918569 0 0 0 0 -193.63084840382362 -245.10373133068788 0 -245.10373133068788 10.059795715850669 0 0 0 0 -367.79020889379808 -244.8714814689738 0 -244.8714814689738 280.99303493814659 0 0 0 0 -247.97074523205083 -75.229798082655179 0 -75.229798082655179 159.87634660856565 0 0 0 0 -245.1092236809427 -50.150988988843892 0 -50.150988988843892 338.99006277820445 0 0 0 0 -164.52785815390416 122.93745087586285 0 122.93745087586285 607.89541684481082 0 0 0 0 -355.7876890485777 74.785968253418105 0 74.785968253418105 743.1748196274857 0 0 0 0 -304.56590634645181 32.190140649894602 0 32.190140649894602 503.68851389002884 0 0 0 0 -335.31820522949147 -15.062819369268254 0 -15.062819369268254 431.57738566989428 0 0 0 0 -57.92646689499179 191.0782831232209 0 191.0782831232209 504.23859517472738 0 0 0 0 -44.062505167967174 493.2747265251528 0 493.2747265251528 1004.9356901846484 0 0 0 0 18.454546100978405 424.89628458119114 0 424.89628458119114 931.02171010730672 0 0 0 0 163.51765908439688 239.16764301489093 0 239.16764301489093 626.10739996546181 0 0 0 0 -92.72802850464268 227.37553351082897 0 227.37553351082897 1004.2587894237328 0 0 0 0 -106.71914470865977 93.468605109650525 0 93.468605109650525 567.1113820449682 0 0 0 0 30.497890334339125 487.48857659894929 0 487.48857659894929 1326.88535476377 0 0 0 0 760.09250596180095 503.49953950659255 0 503.49953950659255 962.46716433691472 0 0 0 0 299.6107383290875 -31.88387158921978 0 -31.88387158921978 720.910096549429 0 0 0 0 -397.7162951428968 -74.692454189396813 0 -74.692454189396813 567.71752848260803 0 0 0 0 -230.08301493311774 164.60388648421213 0 164.60388648421213 837.55745425669011 0 0 0 0 -178.68870671883633 81.871325947606238 0 81.871325947606238 447.32455497561023 0 0 0 0 -556.6907814475353 102.04495228226006 0 102.04495228226006 505.36061180266552 0 0 0 0 -97.725556997416788 -197.67574154499016 0 -197.67574154499016 478.35291127890378 0 0 0 0 -718.77801817520822 -508.26955620080116 0 -508.26955620080116 -277.6223801021988 0 0 0 0 -0.33682642798022044 -2.8099159450459581 0 -2.8099159450459581 2.4737938282052028 0 0 0 0 -123.77788703982219 -107.95908479647915 0 -107.95908479647915 256.25790696041076 0 0 0 0 -84.839378405944245 145.31435546108241 0 145.31435546108241 639.4627329071227 0 0 0 0 -227.12326228714085 -79.634623719925003 0 -79.634623719925003 63.413738187970011 0 0 0 0 -158.90077186599638 -221.61629161633027 0 -221.61629161633027 97.735961711659911 0 0 0 0 1.7724739996552445 -4.2700126350912342 0 -4.2700126350912342 3.6886253995274956 0 0 0 0 -666.36687443963774 -519.32897246068751 0 -519.32897246068751 -276.06740231953881 0 0 0 0 -669.40557057852175 -484.06797607635963 0 -484.06797607635963 -274.06401827145601 0 0 0 0 0.5156340359030982 -53.777077471626399 0 -53.777077471626399 -114.36547007560148 0 0 0 0 177.81445458568285 -224.91348388032202 0 -224.91348388032202 -131.73196633631596 0 0 0 0 2.7644830503049711 152.72763136699723 0 152.72763136699723 656.87041284685256 0 0 0 0 -0.20274757359024451 110.00016161278472 0 110.00016161278472 787.31242240403662 0 0 0 0 195.60941053982367 275.84497468666086 0 275.84497468666086 216.49967153996113 0 0 0 0 241.16623586593764 431.36473279213715 0 431.36473279213715 1214.2201916363847 0 0 0 0 125.32424546476994 368.96701719741395 0 368.96701719741395 1890.265942637634 0 0 0 0 372.61542759610296 -16.566624568338739 0 -16.566624568338739 671.27974324093429 0 0 0 0 -0.25259023626143173 -3.5614490222227175 0 -3.5614490222227175 8.4491128312702131 0 0 0 0 -379.72475089436318 -413.91945033796947 0 -413.91945033796947 -89.901897239557002 0 0 0 0 486.03736440336576 1249.6261040513054 0 1249.6261040513054 1957.3853491572081 0 0 0 0 -0.11762785255246559 73.233125853264937 0 73.233125853264937 256.81625723102479 0 0 0 0 -392.57438665146077 -147.79197407518222 0 -147.79197407518222 1473.1905769176592 0 0 0 0 -113.52648861982664 -71.785321509341884 0 -71.785321509341884 123.8282107636478 0 0 0 0 -0.041201021241651661 2.1211495245806873 0 2.1211495245806873 -26.422913148824591 0 0 0 0 -56.885049526785103 -36.372534145315512 0 -36.372534145315512 -52.10442907558172 0 0 0 0 -114.46217900696968 -78.761106915961136 0 -78.761106915961136 18.333743868559395 0 0 0 0 -63.260957705436006 -61.052481248510958 0 -61.052481248510958 -88.814365183847258 0 0 0 0 -112.09293802089026 -48.924418660099036 0 -48.924418660099036 -121.33515720978266 0 0 0 0 -189.01023004382304 -46.490123389085056 0 -46.490123389085056 22.605770638358081 0 0 0 0 -145.13411892026255 -189.46125486673554 0 -189.46125486673554 -129.01567822924699 0 0 0 0 1.6640354469710201 -12.462687167144026 0 -12.462687167144026 21.617629630728288 0 0 0 0 363.44201291960076 895.85612197840965 0 895.85612197840965 1184.8688877074237 0 0 0 0 515.35696565912258 560.21741815557471 0 560.21741815557471 586.93523279268993 0 0 0 0 68.535277977047144 460.86741339207947 0 460.86741339207947 994.92633727219072 0 0 0 0 7.025311420660346 -22.330270016843258 0 -22.330270016843258 33.730830815803756 0 0 0 0 220.28780405495172 413.38190351410594 0 413.38190351410594 1007.841793188767 0 0 0 0 -35.080559291354803 -211.42390170463477 0 -211.42390170463477 9.4086529429187067 0 0 0 0 109.13578764791657 -63.088810108514735 0 -63.088810108514735 89.37100913899485 0 0 0 0 -174.88759677491845 -63.204456052801106 0 -63.204456052801106 122.43798980547581 0 0 0 0 2.8858059511065903 17.071907904610271 0 17.071907904610271 -65.441557865822688 0 0 0 0 -173.44964401194545 -108.42713937595545 0 -108.42713937595545 243.15946135987178 0 0 0 0 -116.28460488125219 134.80491180749232 0 134.80491180749232 433.58740182846668 0 0 0 0 -1.4066503243817507 -1.4583102839793582 0 -1.4583102839793582 0.67323503627457626 0 0 0 0 -18.316282446440368 -250.68228886614088 0 -250.68228886614088 -611.88546321667673 0 0 0 0 -44.323043234947363 -216.86953544046264 0 -216.86953544046264 -231.6437421568844 0 0 0 0 -122.56379349846884 -18.36206262561609 0 -18.36206262561609 -371.31335012576892 0 0 0 0 -184.83250997889328 -291.26707387765055 0 -291.26707387765055 -290.21816195439897 0 0 0 0 -145.40018807316318 -88.92226441179082 0 -88.92226441179082 -139.35344433237333 0 0 0 0 -3.7994159849112381 -2.7025651283425418 0 -2.7025651283425418 0.83091528090419331 0 0 0 0 -85.925730434886191 -18.760619573804433 0 -18.760619573804433 304.07552573559224 0 0 0 0 98.63513778049105 -151.75511469290359 0 -151.75511469290359 -209.15522351193067 0 0 0 0 -213.94030945616316 -116.67782286083093 0 -116.67782286083093 -51.510457820899319 0 0 0 0 100.48245494773073 -381.87415478820913 0 -381.87415478820913 80.067456949152984 0 0 0 0 32.877248386665997 -312.19753211759962 0 -312.19753211759962 -151.62798410619143 0 0 0 0 -140.30479679291466 -446.74380789059796 0 -446.74380789059796 -148.99036171019543 0 0 0 0 -92.042347482622517 -306.1135915639461 0 -306.1135915639461 -37.407544787021834 0 0 0 0 7.2400074907645831 -311.90781293148757 0 -311.90781293148757 -122.41316280594037 0 0 0 0 -138.46189471157879 -365.81287113148574 0 -365.81287113148574 -108.3681289855158 0 0 0 0 -32.397279912597924 -276.49839885816618 0 -276.49839885816618 -106.74247623590054 0 0 0 0 -86.132514454358898 -408.23442474423791 0 -408.23442474423791 -176.83296343107941 0 0 0 0 -13.408686016932734 -134.72852492351376 0 -134.72852492351376 -124.5605296100548 0 0 0 0 -159.51660264083819 -206.10584486916196 0 -206.10584486916196 -119.35828187502921 0 0 0 0 51.000854852459042 -223.39759353597765 0 -223.39759353597765 -119.07565826954669 0 0 0 0 74.326558135608479 -61.515285473957192 0 -61.515285473957192 -12.574113308772212 0 0 0 0 -60.29683441533183 -82.362322287619463 0 -82.362322287619463 5.8657442498370074 0 0 0 0 6.8611012073360769 -53.044498590359581 0 -53.044498590359581 26.012665806018049 0 0 0 0 -113.32982564708033 -42.809385156273493 0 -42.809385156273493 25.15146513957734 0 0 0 0 2.433655159370403 -25.220284018520033 0 -25.220284018520033 -121.90647212477052 0 0 0 0 -66.644900502893393 -22.465684781316668 0 -22.465684781316668 109.36707807899074 0 0 0 0 18.407469412398246 25.270492827519774 0 25.270492827519774 33.152255588356638 0 0 0 0 -41.031352055415766 -16.7055341341038 0 -16.7055341341038 24.568881275808963 0 0 0 0 0.052830131979055513 -37.627932032904937 0 -37.627932032904937 -73.611820058722515 0 0 0 0 -183.89013171474951 -91.738771188029204 0 -91.738771188029204 -76.507323257799726 0 0 0 0 0.79870877723231093 -320.19314362050864 0 -320.19314362050864 1131.2059486165235 0 0 0 0 97.565463032422102 -358.64732722015833 0 -358.64732722015833 965.43397277237818 0 0 0 0 -62.435496549952859 -245.07102050714457 0 -245.07102050714457 1022.2024347608167 0 0 0 0 6.9951244944186328 -243.71866421202139 0 -243.71866421202139 1012.2578549075988 0 0 0 0 -44.732556261230741 -176.34328381946307 0 -176.34328381946307 1017.427884368808 0 0 0 0 -70.986970134500211 -388.35969186601505 0 -388.35969186601505 819.21508364622423 0 0 0 0 -0.13460989432544807 -333.09291246349312 0 -333.09291246349312 798.66214726839826 0 0 0 0 -124.19770851185956 -350.0051468141246 0 -350.0051468141246 965.12248495215499 0 0 0 0 -81.565879574209362 -435.5258931793287 0 -435.5258931793287 693.62834560313058 0 0 0 0 -58.056577888468269 -354.15129960091872 0 -354.15129960091872 650.10508640616899 0 0 0 0 0.27654334023828575 -403.19437247219321 0 -403.19437247219321 677.69962713358109 0 0 0 0 -156.40832241247881 -415.49604008602182 0 -415.49604008602182 639.23854998916067 0 0 0 0 -101.60266583701139 -67.961177960565692 0 -67.961177960565692 315.12562301938306 0 0 0 0 1.0922894691802381 -2.0454235287500069 0 -2.0454235287500069 2.4789390987865545 0 0 0 0 -102.54289629654248 -121.6878579347449 0 -121.6878579347449 1007.8322656627861 0 0 0 0 -314.62459424810845 -392.05011387652485 0 -392.05011387652485 281.98961302930547 0 0 0 0 -226.10617174112929 -239.88923356672603 0 -239.88923356672603 497.68236574779439 0 0 0 0 -421.06213039805351 -159.8127031756685 0 -159.8127031756685 484.02890603878768 0 0 0 0 -129.57551519058794 -310.78472600323585 0 -310.78472600323585 773.06355181470281 0 0 0 0 -226.73779971757745 -416.69690946937772 0 -416.69690946937772 677.00730380126333 0 0 0 0 -117.32982951584745 -215.17550127304276 0 -215.17550127304276 466.89475849413429 0 0 0 0 -23.096923384827051 -318.96136496485269 0 -318.96136496485269 726.04111955349254 0 0 0 0 98.296218563071989 -256.41074476023641 0 -256.41074476023641 257.87841689126799 0 0 0 0 -120.23986558440038 -289.43378680844035 0 -289.43378680844035 730.01524985335982 0 0 0 0 -50.014890827946374 -124.64381517514994 0 -124.64381517514994 325.25773585849311 0 0 0 0 -89.930308186037408 -31.080600287513334 0 -31.080600287513334 182.27366365661146 0 0 0 0 -93.883974975533192 -3.9577039545401931 0 -3.9577039545401931 272.88279785169289 0 0 0 0 -99.764881229069942 -77.849646016053157 0 -77.849646016053157 292.95769341000414 0 0 0 0 106.54014638240915 -218.32605238029646 0 -218.32605238029646 259.44739868737906 0 0 0 0 -59.132029390081968 43.259904586345556 0 43.259904586345556 124.79673380884924 0 0 0 0 -65.155561982695289 25.624272109181618 0 25.624272109181618 172.11392041507264 0 0 0 0 -80.169584596009372 -86.531688293209299 0 -86.531688293209299 366.84683368728292 0 0 0 0 -63.939956755764214 364.94052997801737 0 364.94052997801737 148.81211442541098 0 0 0 0 -52.753718609803052 41.223627171530666 0 41.223627171530666 196.37733686974829 0 0 0 0 121.25572402669013 -239.73219062306453 0 -239.73219062306453 134.26586783388711 0 0 0 0 66.054516014509176 -150.09284944578212 0 -150.09284944578212 400.69225502896006 0 0 0 0 440.56883814329103 -632.38680521510832 0 -632.38680521510832 613.67275944770518 0 0 0 0 744.68100562681661 92.683823502500672 0 92.683823502500672 -52.397401917143725 0 0 0 0 617.58756675311338 -333.29850442868883 0 -333.29850442868883 999.99490288548986 0 0 0 0 512.29928306807449 -689.57062819394923 0 -689.57062819394923 769.21104966661369 0 0 0 0 110.73687223845513 -449.97613070255466 0 -449.97613070255466 1071.5489562528237 0 0 0 0 103.1512327879982 -228.84292111787363 0 -228.84292111787363 1204.9038993752765 0 0 0 0 -125.14371133737737 -267.45676835425911 0 -267.45676835425911 1047.9294948350871 0 0 0 0 -18.252643641816235 -397.16891592770116 0 -397.16891592770116 1128.4296512800793 0 0 0 0 -113.73052916540837 -208.14640417586634 0 -208.14640417586634 1010.039101392158 0 0 0 0 104.46030506626539 -218.38053710204258 0 -218.38053710204258 1080.0899722886152 0 0 0 0 -106.13726769985541 -268.80593171129385 0 -268.80593171129385 1202.4339952938608 0 0 0 0 28.908936446256121 -167.73181747012131 0 -167.73181747012131 1013.1174522058573 0 0 0 0 -183.56786732564058 -153.81324100217898 0 -153.81324100217898 1058.4427212551382 0 0 0 0 -175.8321813397331 -131.35465208283131 0 -131.35465208283131 1086.7359594316367 0 0 0 0 -175.37174671182061 -338.42621557297389 0 -338.42621557297389 1500.8633642113855 0 0 0 0 -198.76124189605662 -261.74491746941931 0 -261.74491746941931 1768.5493328099838 0 0 0 0 -235.47365430934815 -11.903012305687298 0 -11.903012305687298 1085.3233054107986 0 0 0 0 14.673409371084404 -771.68363779764877 0 -771.68363779764877 1252.3034835489234 0 0 0 0 85.234578827132736 -528.28327347832965 0 -528.28327347832965 1188.5503779270221 0 0 0 0 1314.834410317465 -193.5429196896639 0 -193.5429196896639 -307.34531333562336 0 0 0 0 2769.1677675043638 -1392.235467339764 0 -1392.235467339764 -64.632157086365623 0 0 0 0 490.80230527648109 -913.03506123680563 0 -913.03506123680563 1921.4285618287249 0 0 0 0 955.18746964302454 -1194.6826250565737 0 -1194.6826250565737 1016.0514016004745 0 0 0 0 701.62627296462142 -970.44668503984576 0 -970.44668503984576 1209.5894043747103 0 0 0 0 136.07871181457949 -1157.9334041446491 0 -1157.9334041446491 2142.733508846999 0 0 0 0 -369.77434432804421 -58.542832647377509 0 -58.542832647377509 2268.6120425154149 0 0 0 0 -104.55814051506377 -469.37313852097577 0 -469.37313852097577 2261.8218332949618 0 0 0 0 -244.69475640665496 180.89893699280219 0 180.89893699280219 5741.4163643724169 0 0 0 0 3656.3263996373826 -2742.7475743215473 0 -2742.7475743215473 2744.4562675380876 0 0 0 0 1790.4915119076904 903.57491117971222 0 903.57491117971222 5576.626628135622 0 0 0 0 1323.6557234477432 -3208.8158132422541 0 -3208.8158132422541 4711.7593983097504 0 0 0 0 1040.883912543035 -1895.6136929582426 0 -1895.6136929582426 2449.7149496939383 0 0 0 0 -400.3799102179255 -1747.4966290678276 0 -1747.4966290678276 2870.4223592812777 0 0 0 0 111.42308823846543 -2000.0525578867819 0 -2000.0525578867819 2870.0729875999677 0 0 0 0 222.77851664637956 561.270934188502 0 561.270934188502 2209.0187631802401 0 0 0 0 941.68106333833657 -859.79905341942504 0 -859.79905341942504 2166.1826400828431 0 0 0 0 -359.09094646200811 203.72942356605927 0 203.72942356605927 147.6719221896783 0 0 0 0 71.278802650114812 -758.02345966105349 0 -758.02345966105349 2309.3340972501901 0 0 0 0 198.19540321376189 -585.24927875566937 0 -585.24927875566937 1668.7628152149846 0 0 0 0 -379.04690777365886 -1061.8327565087966 0 -1061.8327565087966 2112.7985484428355 0 0 0 0 -2.9034398332584921 3.1826272514477694 0 3.1826272514477694 39.779347312770248 0 0 0 0 -0.41686559847676108 331.7627970748581 0 331.7627970748581 -266.3483194619821 0 0 0 0 -1.9107638883947402 151.93278773819475 0 151.93278773819475 -30.562071397100226 0 0 0 0 -62.057823463581371 172.10553406071267 0 172.10553406071267 -285.05958692822605 0 0 0 0 -37.080858340892334 106.25708094181194 0 106.25708094181194 139.61507777251305 0 0 0 0 138.91607239719997 241.81458363321144 0 241.81458363321144 -284.38902567334299 0 0 0 0 -81.410652244329867 459.79578732606024 0 459.79578732606024 -189.94840540527366 0 0 0 0 -919.79945301346493 452.77257158160501 0 452.77257158160501 2497.672547572176 0 0 0 0 -817.24991165077449 -882.60058931107051 0 -882.60058931107051 2305.3718098000973 0 0 0 0 6.8316079360098989 -11.764984700434638 0 -11.764984700434638 153.85681797776022 0 0 0 0 -441.33040253195759 146.10751517039898 0 146.10751517039898 -106.22348844019871 0 0 0 0 -481.06152022823517 800.95511780116431 0 800.95511780116431 -100.70203612117621 0 0 0 0 185.17399939331972 -92.823335532681085 0 -92.823335532681085 294.45973584183957 0 0 0 0 -41.295854635394242 60.115022653824255 0 60.115022653824255 203.59206273235006 0 0 0 0 -680.0610126084066 437.14041290577006 0 437.14041290577006 99.788137376395753 0 0 0 0 -249.31426879301762 492.08904989430448 0 492.08904989430448 190.22570196252491 0 0 0 0 -102.98547544165194 549.69039734717808 0 549.69039734717808 -10.274822656036122 0 0 0 0 -121.31106064482901 657.45740896732059 0 657.45740896732059 -414.46433825063286 0 0 0 0 416.62746628426021 21.462123564455396 0 21.462123564455396 -52.442346424853895 0 0 0 0 -79.204685257973267 206.62164370925439 0 206.62164370925439 11.109080014779465 0 0 0 0 -154.55492959122603 374.00016643133131 0 374.00016643133131 14.664232387702214 0 0 0 0 -79.227236045046993 279.15871501182846 0 279.15871501182846 254.48022103321273 0 0 0 0 168.37895694656029 -164.73472046809502 0 -164.73472046809502 830.00366358374595 0 0 0 0 349.58765390811732 381.13810512062628 0 381.13810512062628 278.4250429377862 0 0 0 0 229.43922924065555 246.94089605104455 0 246.94089605104455 219.78230098919448 0 0 0 0 6.3758967803660198 58.442099303225405 0 58.442099303225405 65.169555570515513 0 0 0 0 -499.30598992361411 -72.639747726272617 0 -72.639747726272617 396.38710578524478 0 0 0 0 30.227341006158895 274.90103269833617 0 274.90103269833617 -443.68386941585049 0 0 0 0 23.525378566455178 8.7989415588383508 0 8.7989415588383508 26.473956523020945 0 0 0 0 905.59286031296961 147.30900215826114 0 147.30900215826114 -123.55143811804737 0 0 0 0 -123.37026571861657 -203.86549024504347 0 -203.86549024504347 645.55740332242567 0 0 0 0 349.76450270852956 -975.02672472967242 0 -975.02672472967242 927.69310583896004 0 0 0 0 -114.76085472566592 -609.83235888852505 0 -609.83235888852505 938.32658493844247 0 0 0 0 7.3728344195782718 5.8581945078274202 0 5.8581945078274202 2.9776984987935293 0 0 0 0 -44.65087862780468 51.837306921328221 0 51.837306921328221 212.96274138485043 0 0 0 0 122.08503087337948 218.55962398457632 0 218.55962398457632 148.93575629127736 0 0 0 0 -219.92676142945515 -309.21772584664723 0 -309.21772584664723 1009.314064628692 0 0 0 0 -126.42893057005131 -256.30450243016094 0 -256.30450243016094 326.98163352938218 0 0 0 0 -586.72566347947213 572.34790053715915 0 572.34790053715915 412.12458936890471 0 0 0 0 9.7086678062869396 -127.99965170842916 0 -127.99965170842916 378.31048009626102 0 0 0 0 -237.48329515473779 -70.358899579223362 0 -70.358899579223362 371.18514657905325 0 0 0 0 -53.391797124982986 -117.29275439973935 0 -117.29275439973935 171.33053580591513 0 0 0 0 -368.99318852593206 -56.632286484869837 0 -56.632286484869837 258.9482730726013 0 0 0 0 60.599796443538253 -273.97167728036948 0 -273.97167728036948 354.4214296185819 0 0 0 0 -6.9819221537503964 -2.0574255234918581 0 -2.0574255234918581 20.347962967225612 0 0 0 0 442.15387022618552 -385.76715117851563 0 -385.76715117851563 106.81143132307625 0 0 0 0 -7.0802874919662599 -1.6804855559202565 0 -1.6804855559202565 21.684748801489377 0 0 0 0 -175.77410339085327 6.6101324289520562 0 6.6101324289520562 201.30829907518637 0 0 0 0 656.73171591827338 -602.04907398709838 0 -602.04907398709838 192.75764068345597 0 0 0 0 672.73712099409977 -511.71509446607615 0 -511.71509446607615 157.66655864895438 0 0 0 0 825.12178298399579 -491.44782385232975 0 -491.44782385232975 123.98913299982087 0 0 0 0 293.51506929984134 -238.19511023589439 0 -238.19511023589439 -1.4989206638638279 0 0 0 0 663.17912907840764 -603.58088692169986 0 -603.58088692169986 113.48430575421662 0 0 0 0 342.16845605552771 -537.536816665488 0 -537.536816665488 166.52625133909169 0 0 0 0 -57.144554278935175 -459.04791817867226 0 -459.04791817867226 317.64970379628721 0 0 0 0 509.98795301594646 -608.7274578402903 0 -608.7274578402903 302.65531639257097 0 0 0 0 698.57552253236827 -682.0862104288608 0 -682.0862104288608 167.67484375541972 0 0 0 0 1182.5684195257825 -726.6374563837453 0 -726.6374563837453 219.96153278424754 0 0 0 0 623.83798607958147 -403.98900364918154 0 -403.98900364918154 403.75380999938352 0 0 0 0 316.74657665822122 -175.23376150327749 0 -175.23376150327749 1394.2676037822675 0 0 0 0 -461.63831830586241 446.36810038369003 0 446.36810038369003 475.80504030042994 0 0 0 0 -4.6309339160441532 -2.4467119030818765 0 -2.4467119030818765 10.864984714580231 0 0 0 0 -358.15366800861011 318.97057798288733 0 318.97057798288733 1222.4785910916253 0 0 0 0 504.82410561129473 -910.26154577698617 0 -910.26154577698617 1086.7069888952537 0 0 0 0 276.15189998424103 -337.24949439259217 0 -337.24949439259217 1147.6784909564158 0 0 0 0 468.6716464049955 -39.063934947742382 0 -39.063934947742382 866.54078795893656 0 0 0 0 1123.3244800890664 -572.03256259820046 0 -572.03256259820046 980.80729940822494 0 0 0 0 337.39245529848222 -181.74588113691425 0 -181.74588113691425 1175.3717401238609 0 0 0 0 573.93064377041037 -587.41148499065457 0 -587.41148499065457 1018.4206604442588 0 0 0 0 818.77252314116845 -149.76371938069497 0 -149.76371938069497 1233.3017412918271 0 0 0 0 857.14394931290462 -124.98997471416078 0 -124.98997471416078 1013.1784320706938 0 0 0 0 435.40434259275685 -692.88238887763509 0 -692.88238887763509 867.97033691346587 0 0 0 0 549.13694033493994 -892.92411262048699 0 -892.92411262048699 1035.1764033027503 0 0 0 0 550.73302456350018 -976.22709399141058 0 -976.22709399141058 1381.0393893151049 0 0 0 0 32.986935268118316 -239.40313414494722 0 -239.40313414494722 1187.3482964520372 0 0 0 0 98.248526757197851 -495.53237885601084 0 -495.53237885601084 1698.8560545910877 0 0 0 0 -11.017934675502186 -3.7171435874080885 0 -3.7171435874080885 27.663655798164839 0 0 0 0 1072.2719994291392 -1196.1646535731998 0 -1196.1646535731998 701.36896903002344 0 0 0 0 749.76817281267552 -27.434465559214004 0 -27.434465559214004 1248.5104407811159 0 0 0 0 1568.4305841431235 -579.2526803692308 0 -579.2526803692308 1319.1388288794515 0 0 0 0 1190.087797959126 -984.4064655504626 0 -984.4064655504626 925.91932014710255 0 0 0 0 -5.6246892117838012 -2.6069783973167375 0 -2.6069783973167375 10.615809766453538 0 0 0 0 1866.3434530905195 -446.99497327780409 0 -446.99497327780409 96.537483927197172 0 0 0 0 1062.0965449721923 -137.87784450713661 0 -137.87784450713661 98.920459251225111 0 0 0 0 -20.863092870359651 88.254951463430189 0 88.254951463430189 123.53122624432581 0 0 0 0 -98.41921005848053 21.018766832396068 0 21.018766832396068 132.66309478129551 0 0 0 0 -48.028310928316927 -26.152931908613652 0 -26.152931908613652 89.022938173234792 0 0 0 0 -304.44819180129161 -44.24712533517777 0 -44.24712533517777 165.333867116482 0 0 0 0 18.961742634286146 -72.176161221644378 0 -72.176161221644378 107.61390664437999 0 0 0 0 -239.55411498768808 -70.848307063613902 0 -70.848307063613902 159.30776940767828 0 0 0 0 7.1526703278615287 -139.68721880888916 0 -139.68721880888916 65.18209958562511 0 0 0 0 667.07511619988713 -152.41145706862153 0 -152.41145706862153 104.05063077798695 0 0 0 0 8.2570338997348145 -18.233676610838387 0 -18.233676610838387 15.048525128235781 0 0 0 0 -22.874279017637946 348.59721757361331 0 348.59721757361331 -101.10335968724394 0 0 0 0 -432.92866838153259 -866.24729053351621 0 -866.24729053351621 -850.8923896452734 0 0 0 0 -18.742669183330253 -1.5443367113308 0 -1.5443367113308 6.7007469507354074 0 0 0 0 28.685630698240857 219.44370571764375 0 219.44370571764375 222.3676711142748 0 0 0 0 -90.199909767106874 3.4422119538940024 0 3.4422119538940024 189.02177014367044 0 0 0 0 -162.36483428808788 63.529910874356574 0 63.529910874356574 162.26477893804986 0 0 0 0 -151.37178385322659 86.32982065606484 0 86.32982065606484 245.83477418145776 0 0 0 0 -54.706476526524497 17.021618323417599 0 17.021618323417599 17.649596679905798 0 0 0 0 -702.65206351863981 -320.75248863532397 0 -320.75248863532397 -0.92859635163767962 0 0 0 0 -662.99116438017154 -481.42022517070291 0 -481.42022517070291 574.9200697569031 0 0 0 0 -246.78888057573022 -814.75291752526027 0 -814.75291752526027 -859.48916206540889 0 0 0 0 -921.35983463455477 -66.539467878355936 0 -66.539467878355936 360.72977244017238 0 0 0 0 -554.10256490992651 -463.48005475319587 0 -463.48005475319587 365.0163787906713 0 0 0 0 -17.948569406748025 20.603587681523308 0 20.603587681523308 65.295688994068996 0 0 0 0 -708.66655755917805 13.519268518528406 0 13.519268518528406 101.10248189312915 0 0 0 0 -763.99499362770939 40.14759848738322 0 40.14759848738322 268.45896484599507 0 0 0 0 -5.4494761339189282 9.5672782456851806 0 9.5672782456851806 45.210390709337929 0 0 0 0 -1667.4190770382318 753.36678629512608 0 753.36678629512608 -22.854303369729678 0 0 0 0 -1562.753049522182 -18.752347294389892 0 -18.752347294389892 610.6674334970885 0 0 0 0 -2199.0842899838044 1734.9242263417855 0 1734.9242263417855 59.247166237364581 0 0 0 0 827.09717372152477 -2128.4857748422523 0 -2128.4857748422523 4093.8529049993667 0 0 0 0 -1.3987900818948396 3.6454713664176381 0 3.6454713664176381 15.428792801535394 0 0 0 0 638.74608295088535 -276.75723196439139 0 -276.75723196439139 765.64521159993456 0 0 0 0 884.75308319705152 -1514.1942983878871 0 -1514.1942983878871 1759.823097616405 0 0 0 0 228.23083035651575 -562.22727257804218 0 -562.22727257804218 1775.5081679652067 0 0 0 0 186.48546189800399 -778.98698705073184 0 -778.98698705073184 1448.9205746826556 0 0 0 0 108.89316233564625 -237.04856525402283 0 -237.04856525402283 777.69778707346268 0 0 0 0 683.79258613771003 157.20092642242162 0 157.20092642242162 -16.212802320107585 0 0 0 0 -376.60613759829471 -229.10215540315221 0 -229.10215540315221 956.46985688788118 0 0 0 0 0.078862075867663473 -5.6702458460852867 0 -5.6702458460852867 3.9716794020226871 0 0 0 0 -14.747922152511947 67.15123795652471 0 67.15123795652471 -211.46382296099182 0 0 0 0 -92.191448443258267 -158.36791160364737 0 -158.36791160364737 952.49207948843832 0 0 0 0 248.25348944030159 -242.33242839993818 0 -242.33242839993818 683.48730486063869 0 0 0 0 -33.530291821223159 261.48882194339603 0 261.48882194339603 -118.29523413605057 0 0 0 0 -16.013614637318256 22.053829790771019 0 22.053829790771019 -6.0746550805029642 0 0 0 0 -361.67727031678214 234.53421510091721 0 234.53421510091721 133.03031785179337 0 0 0 0 90.453295810033296 186.02413368412817 0 186.02413368412817 -146.69376577603543 0 0 0 0 -25.076757063185362 57.45564944475656 0 57.45564944475656 125.5168718075397 0 0 0 0 58.631426083888073 -229.43739751148314 0 -229.43739751148314 790.09597221796867 0 0 0 0 -184.59348610617667 152.67474434087489 0 152.67474434087489 -32.156566467296216 0 0 0 0 -68.19433134190588 128.36481101164702 0 128.36481101164702 86.716945550166599 0 0 0 0 89.64824396440963 67.522684162540827 0 67.522684162540827 -211.95585840897911 0 0 0 0 -11.484028807671514 16.115039775109523 0 16.115039775109523 -23.896287648363568 0 0 0 0 297.25390300898289 -376.0429134365113 0 -376.0429134365113 1122.6454536872916 0 0 0 0 81.506131728485343 478.44906967286806 0 478.44906967286806 679.33621453907108 0 0 0 0 -33.929953923404128 158.20419465610757 0 158.20419465610757 -283.78596230971016 0 0 0 0 278.84854037195328 453.70878239080776 0 453.70878239080776 523.51014190826209 0 0 0 0 -82.481653973649884 36.351089779990559 0 36.351089779990559 15.266674776356112 0 0 0 0 -332.71112483484103 586.46585971757304 0 586.46585971757304 2127.372493451694 0 0 0 0 -331.46818409918251 523.86832554151761 0 523.86832554151761 1020.3827537251345 0 0 0 0 -40.357529710566268 171.98632381123025 0 171.98632381123025 2991.1047295823955 0 0 0 0 -33.683885904190163 19.968705404256582 0 19.968705404256582 -3.3561539526077926 0 0 0 0 457.16687107982534 688.75028787444899 0 688.75028787444899 1992.4888456009649 0 0 0 0 522.7892729868172 313.84742204009672 0 313.84742204009672 265.29916351266729 0 0 0 0 692.73866079053391 245.59984389380406 0 245.59984389380406 -1530.7448684306564 0 0 0 0 -983.09754171572149 462.67960077823227 0 462.67960077823227 273.89395150501514 0 0 0 0 -286.82060111848836 -354.95842177967188 0 -354.95842177967188 1121.7728999795072 0 0 0 0 180.07573264514122 225.84197079455771 0 225.84197079455771 184.93832731254224 0 0 0 0 179.8884976938607 539.73298779783363 0 539.73298779783363 302.9030437274705 0 0 0 0 13.461237618597639 -17.054150316344504 0 -17.054150316344504 19.221519233092948 0 0 0 0 134.96622639683255 253.40084568870952 0 253.40084568870952 337.95102185232099 0 0 0 0 -13.417924606380438 109.74690154851123 0 109.74690154851123 319.4992525071284 0 0 0 0 577.98140989793274 1425.8069130768149 0 1425.8069130768149 2986.1627128365653 0 0 0 0 399.77768026314106 670.97943439231312 0 670.97943439231312 1626.9651846268389 0 0 0 0 -1077.3516150297692 236.90602503302944 0 236.90602503302944 1508.4530310222908 0 0 0 0 -2150.7517621133593 1452.5928024129462 0 1452.5928024129462 2526.7160214421092 0 0 0 0 5437.659827032021 1759.7947643108855 0 1759.7947643108855 -4.5105056273678201 0 0 0 0 573.33118302936782 1483.772885478058 0 1483.772885478058 1680.3843610437325 0 0 0 0 616.55985485106999 744.38457806963925 0 744.38457806963925 89.071698789397487 0 0 0 0 472.42524909698113 -935.04893813525268 0 -935.04893813525268 991.59205648125499 0 0 0 0 703.3040719381388 -686.89984677141183 0 -686.89984677141183 1209.9429532747308 0 0 0 0 149.67164233728909 -106.38424062723061 0 -106.38424062723061 690.70051244276692 0 0 0 0 1332.8294453630951 -919.48507207611692 0 -919.48507207611692 441.12833778619097 0 0 0 0 1413.6685947042924 -1699.1767550846507 0 -1699.1767550846507 1266.142293846322 0 0 0 0 2522.5696219333768 -2266.5825058293049 0 -2266.5825058293049 1966.1840384521347 0 0 0 0 1266.2306141850072 -830.19373847901261 0 -830.19373847901261 4007.2783168474853 0 0 0 0 7319.3115446327465 -1943.5346626361934 0 -1943.5346626361934 -265.45342402653478 0 0 0 0 4.2167211867781766 4.3168006718292453 0 4.3168006718292453 49.926004681021254 0 0 0 0 299.27410063099524 6101.4059382769192 0 6101.4059382769192 2652.8189041010628 0 0 0 0 2.7081890287381611 522.96662705486233 0 522.96662705486233 1196.3753838191624 0 0 0 0 457.49700089451289 -166.27537601084623 0 -166.27537601084623 2134.6934714231902 0 0 0 0 20.96167367844896 -13.176138272549224 0 -13.176138272549224 10.100724989602838 0 0 0 0 396.99170787192088 -261.62867814209312 0 -261.62867814209312 1477.1865666676895 0 0 0 0 357.35823895979229 -309.68107290298212 0 -309.68107290298212 1453.2102083774807 0 0 0 0 1580.8127232764564 707.31472579174442 0 707.31472579174442 2718.3638080137753 0 0 0 0 1285.7852820702246 -1157.6822684623621 0 -1157.6822684623621 2358.5980292939203 0 0 0 0 3748.8942441144864 -1499.4367829112161 0 -1499.4367829112161 -1327.168686037272 0 0 0 0 2049.3797829531377 -1849.8303413817484 0 -1849.8303413817484 1817.343075618126 0 0 0 0 1027.9795482020563 -368.76082156565826 0 -368.76082156565826 149.72421196958749 0 0 0 0 1422.3205164798146 -146.94324337059516 0 -146.94324337059516 200.90381274100582 0 0 0 0 1819.034241810511 -1247.5709022496776 0 -1247.5709022496776 1074.7371285186091 0 0 0 0 113.36906736863739 -163.71664936639718 0 -163.71664936639718 612.31349622919515 0 0 0 0 195.55332188203101 -16.508203491248423 0 -16.508203491248423 644.43248694904469 0 0 0 0 773.26859624759163 -463.18379632892174 0 -463.18379632892174 931.51269476459129 0 0 0 0 46.666978126058893 19.672502762434306 0 19.672502762434306 1105.6743051613375 0 0 0 0 157.38007513505363 38.410436051250144 0 38.410436051250144 714.15023139318509 0 0 0 0 57.32733883057108 263.40880748365271 0 263.40880748365271 787.35091386802378 0 0 0 0 -113.05890002329943 26.452860214016255 0 26.452860214016255 575.0487849527708 0 0 0 0 59.705830630889977 228.70654472526257 0 228.70654472526257 332.74468122785038 0 0 0 0 -215.85685827301177 -203.02793417100111 0 -203.02793417100111 471.55653859044833 0 0 0 0 -16.076610426864136 144.10180649754329 0 144.10180649754329 716.14696213211573 0 0 0 0 -144.29751023153221 -85.475821854066453 0 -85.475821854066453 616.26873464189703 0 0 0 0 -123.1141347722978 -93.393187151512393 0 -93.393187151512393 470.65807380780461 0 0 0 0 -96.814739822246338 -260.57129424020241 0 -260.57129424020241 566.73353390857665 0 0 0 0 -72.118987227002435 -216.89216805045726 0 -216.89216805045726 330.06214998966607 0 0 0 0 19.117934698737372 -257.24909257825493 0 -257.24909257825493 123.97181568783708 0 0 0 0 -248.09046138535086 -280.50596614419192 0 -280.50596614419192 377.45056720470893 0 0 0 0 -142.57232118303182 -277.82202425139258 0 -277.82202425139258 60.209725377964787 0 0 0 0 393.15980733536162 -217.27277624649287 0 -217.27277624649287 570.84982945392767 0 0 0 0 145.72127010604618 -36.838944634371728 0 -36.838944634371728 520.35692577782902 0 0 0 0 -128.04832645084025 -333.40839929702634 0 -333.40839929702634 484.56414009390755 0 0 0 0 378.28219499118768 120.76702341446799 0 120.76702341446799 366.42167984954722 0 0 0 0 278.24645949220576 -351.16346066558617 0 -351.16346066558617 -1469.0625132612186 0 0 0 0 -247.88070595527552 -155.87749964856994 0 -155.87749964856994 464.83171445023618 0 0 0 0 -1.7748210902741448 -574.56904705302077 0 -574.56904705302077 -378.74522170002456 0 0 0 0 -210.85603769693807 -146.91484461422078 0 -146.91484461422078 -471.07340149041556 0 0 0 0 -296.12897266471737 -849.39927118166088 0 -849.39927118166088 -289.64418440154986 0 0 0 0 -18.37879556237931 -303.74509596352436 0 -303.74509596352436 -364.26546575977409 0 0 0 0 -87.728735478488943 -408.17703973055723 0 -408.17703973055723 -404.82816591591109 0 0 0 0 -35.380240932754184 -60.780089742300717 0 -60.780089742300717 57.834249395761333 0 0 0 0 -231.41446190778879 -346.22156958603591 0 -346.22156958603591 132.06813582947689 0 0 0 0 120.58889210178677 222.14266109719028 0 222.14266109719028 297.91659688843356 0 0 0 0 -68.979068110198668 362.69469172080062 0 362.69469172080062 4990.895559356999 0 0 0 0 66.266584036857154 34.43955888149776 0 34.43955888149776 35.820280348759141 0 0 0 0 75.477853571673037 177.06476284724704 0 177.06476284724704 3905.6172483728878 0 0 0 0 -759.60976172544179 -90.625659473109408 0 -90.625659473109408 189.88931559969205 0 0 0 0 41.590147887106617 -22.688436136536609 0 -22.688436136536609 30.911794421479385 0 0 0 0 -10.436650569164687 -2.9295532850006509 0 -2.9295532850006509 31.711952489399302 0 0 0 0 169.04497836335864 259.43795389505613 0 259.43795389505613 3854.9896262836119 0 0 0 0 250.09013467666307 962.13186471072549 0 962.13186471072549 4644.9750713518442 0 0 0 0 -278.67655236085085 193.40799503136077 0 193.40799503136077 6337.9701866820105 0 0 0 0 -126.28239474720024 126.44583863344315 0 126.44583863344315 5676.2292617352796 0 0 0 0 -130.76269090687418 314.10016073693305 0 314.10016073693305 4973.3489886241878 0 0 0 0 -384.17324952445693 137.82026078100898 0 137.82026078100898 5498.9233459149982 0 0 0 0 2614.7430439378136 305.27200371253434 0 305.27200371253434 4282.9162534849893 0 0 0 0 1306.8499396644868 -163.17960255211801 0 -163.17960255211801 5500.0329939568492 0 0 0 0 2527.9209030339966 -977.18609334553184 0 -977.18609334553184 6035.6271461814176 0 0 0 0 163.89438653035484 1097.2744855643468 0 1097.2744855643468 5700.633607247175 0 0 0 0 14.986372941616478 -9.9561999854542762 0 -9.9561999854542762 9.7273239949433474 0 0 0 0 549.22668067568748 92.064667971972085 0 92.064667971972085 8236.3400145644264 0 0 0 0 1637.9677663049788 -275.94723779505875 0 -275.94723779505875 -555.93300260677643 0 0 0 0 -793.24099027525153 -450.52431719483957 0 -450.52431719483957 -118.71180501760682 0 0 0 0 2846.6638241507585 -709.84956057282398 0 -709.84956057282398 -951.89906106473063 0 0 0 0 1111.8592103900173 -854.05191311270755 0 -854.05191311270755 -362.66915720814723 0 0 0 0 1459.952679024605 -700.36677034580498 0 -700.36677034580498 4578.5657039489306 0 0 0 0 3068.2465156417638 -1403.3980162026091 0 -1403.3980162026091 419.24873755133012 0 0 0 0 2164.572411386036 677.65766703439294 0 677.65766703439294 592.4739091572701 0 0 0 0 2635.9921866645736 387.50975488172844 0 387.50975488172844 373.37934597389403 0 0 0 0 1863.258100002131 -472.76140577868136 0 -472.76140577868136 667.45075642870506 0 0 0 0 430.48248737492395 833.12873235420557 0 833.12873235420557 -361.25920059839433 0 0 0 0 2585.8604538606032 610.01941841393818 0 610.01941841393818 -26.96672446213779 0 0 0 0 1131.9491567053446 927.93375107644533 0 927.93375107644533 619.86834659390843 0 0 0 0 649.15296239056261 -101.76806289247179 0 -101.76806289247179 486.10624017677037 0 0 0 0 753.47764888578149 237.97785717391162 0 237.97785717391162 525.92909555853112 0 0 0 0 5.0977967097622354 6.6694719547839014 0 6.6694719547839014 15.729035540563075 0 0 0 0 2737.4154528247063 281.73305913304466 0 281.73305913304466 -1023.5883510670683 0 0 0 0 841.12650214288487 -224.5178178551796 0 -224.5178178551796 231.38245633943006 0 0 0 0 -860.13369369124098 180.74814829588286 0 180.74814829588286 224.29393527958018 0 0 0 0 -76.942023816265191 -615.41272192522592 0 -615.41272192522592 -308.50359285239028 0 0 0 0 904.37592765171439 -162.89743377146078 0 -162.89743377146078 -168.01471538005717 0 0 0 0 855.84088685125221 132.17570994905691 0 132.17570994905691 1609.5614713566174 0 0 0 0 133.05793487477035 90.519377487747988 0 90.519377487747988 3674.1417523619311 0 0 0 0 1151.4535872885726 271.17978298992239 0 271.17978298992239 1569.4683165658353 0 0 0 0 -90.508128492501442 971.92392870582262 0 971.92392870582262 2149.7364934885554 0 0 0 0 -1164.9871153884926 1583.7094799603547 0 1583.7094799603547 5488.8784624943219 0 0 0 0 483.50336922295884 212.33718435991614 0 212.33718435991614 5501.2054201328574 0 0 0 0 -260.66678793446852 1362.729261739194 0 1362.729261739194 3737.6419146621301 0 0 0 0 -330.4015430360281 2220.5284711486092 0 2220.5284711486092 3464.3229711288659 0 0 0 0 5.1894445470136841 -12.6618208355587 0 -12.6618208355587 49.282019887169497 0 0 0 0 -37.676992104176122 116.03317222252008 0 116.03317222252008 -1042.2312922809797 0 0 0 0 4965.7268461908552 -3422.3114837671346 0 -3422.3114837671346 1133.1036335514655 0 0 0 0 419.7114053848702 -737.18721910120803 0 -737.18721910120803 1468.3197586213937 0 0 0 0 -2385.2144725334256 -588.80590922429838 0 -588.80590922429838 1105.7966626776761 0 0 0 0 299.46688204662189 -1055.5663701524181 0 -1055.5663701524181 914.79461647332937 0 0 0 0 0.79778229136412449 -27.337020216505586 0 -27.337020216505586 111.44547648384571 0 0 0 0 432.62872465554324 -4.8984154024219606 0 -4.8984154024219606 50.359941633636481 0 0 0 0 -514.26220297548321 -48.897915831023965 0 -48.897915831023965 457.27256236232643 0 0 0 0 68.785633232892906 227.13896719737386 0 227.13896719737386 90.479252101256861 0 0 0 0 -169.30254439109922 176.05974510128726 0 176.05974510128726 81.596316158233094 0 0 0 0 1.3357854352529204 -33.857540604298464 0 -33.857540604298464 119.51341574109784 0 0 0 0 -1704.1345182914652 -384.6220689780007 0 -384.6220689780007 458.56798845247249 0 0 0 0 605.88753689533974 96.158930324159883 0 96.158930324159883 -19.69261402678967 0 0 0 0 -1094.7855817447287 1206.7529913198923 0 1206.7529913198923 2758.1368421649022 0 0 0 0 1624.657556799132 546.98091983477752 0 546.98091983477752 797.93012565077515 0 0 0 0 708.82207072112192 -777.79492068295804 0 -777.79492068295804 -71.346209845120939 0 0 0 0 0.66420699176561104 7.9082381691492856 0 7.9082381691492856 32.954160543047124 0 0 0 0 81.611146608501258 219.50127466643607 0 219.50127466643607 -206.48927092944359 0 0 0 0 -973.7552919672886 -517.4799633275652 0 -517.4799633275652 710.25664417383086 0 0 0 0 -637.16222668896353 -686.07150467649626 0 -686.07150467649626 501.30587874949561 0 0 0 0 631.88527248047103 -2005.6094255556236 0 -2005.6094255556236 1545.19599197559 0 0 0 0 1227.715268776428 -1251.4007108517612 0 -1251.4007108517612 621.75811433738272 0 0 0 0 398.54142108540782 -1907.7391391456185 0 -1907.7391391456185 1835.8659729843494 0 0 0 0 514.50644705145169 -1135.5144386765896 0 -1135.5144386765896 1547.2030165062388 0 0 0 0 289.81084843400959 -1343.9662778136917 0 -1343.9662778136917 2208.1581102270575 0 0 0 0 405.16819229597081 -2058.1080111697047 0 -2058.1080111697047 2250.5991125615838 0 0 0 0 536.10654081557368 -669.19547493955179 0 -669.19547493955179 -917.63919754012022 0 0 0 0 -5.6845091023472278 -3.4299790575193754 0 -3.4299790575193754 22.010266290453899 0 0 0 0 284.67254310392764 -1627.1163243059418 0 -1627.1163243059418 2405.349759963894 0 0 0 0 -8.769403184445121 -4.9677972689027854 0 -4.9677972689027854 36.237154820733963 0 0 0 0 2596.1480571608708 -511.79223586281296 0 -511.79223586281296 163.13966684811749 0 0 0 0 264.21839877072307 1237.760547564103 0 1237.760547564103 2515.509313660179 0 0 0 0 1461.9254930335946 -3183.0403503287671 0 -3183.0403503287671 4558.7907259773056 0 0 0 0 -436.22836120710599 -135.51843799005292 0 -135.51843799005292 -777.23633718036581 0 0 0 0 -11.270177039407741 -8.9867160567164603 0 -8.9867160567164603 21.610073794679352 0 0 0 0 700.45356449880865 1524.9372410880751 0 1524.9372410880751 1975.7172455287073 0 0 0 0 -39.542781187158134 11.478714721629615 0 11.478714721629615 13.411592286669219 0 0 0 0 -154.34391360679126 480.67916366120699 0 480.67916366120699 1395.8631320039567 0 0 0 0 300.31177562985704 46.031470649868425 0 46.031470649868425 241.0203509653802 0 0 0 0 -159.60001042623844 46.24123611660616 0 46.24123611660616 42.808390218648128 0 0 0 0 71.914648029366276 114.66109929649247 0 114.66109929649247 23.369509039766854 0 0 0 0 -1075.5510519213422 -375.32105881230382 0 -375.32105881230382 599.18619529998978 0 0 0 0 -291.1552927124568 104.1795503196463 0 104.1795503196463 132.09842578801909 0 0 0 0 -1.1250113480705952 -36.594012152392317 0 -36.594012152392317 100.50410982388024 0 0 0 0 -4.4129483869708235 -0.50441759294696453 0 -0.50441759294696453 1.0315766591913018 0 0 0 0 57.815975889693448 -1.1449828031668403 0 -1.1449828031668403 -38.731788390505244 0 0 0 0 -33.109819921667622 61.293773769211839 0 61.293773769211839 293.28389197306387 0 0 0 0 -16.780906388211722 5.5071973184381022 0 5.5071973184381022 -2.8984023233041398 0 0 0 0 -197.23779208676365 22.870839718747447 0 22.870839718747447 1101.840832629794 0 0 0 0 -104.5811680703996 81.114545229254873 0 81.114545229254873 577.3818141099473 0 0 0 0 231.28471302585274 -444.93652472022586 0 -444.93652472022586 584.75593050917087 0 0 0 0 -142.74646132854775 -7.6966467357869988 0 -7.6966467357869988 870.44866857321176 0 0 0 0 116.96899329595129 -61.821146803051306 0 -61.821146803051306 -264.58501786121633 0 0 0 0 -16.242202922040633 -317.47706882959756 0 -317.47706882959756 242.19215763879765 0 0 0 0 -24.431090781450671 -94.593140762612165 0 -94.593140762612165 870.90722864729469 0 0 0 0 194.17573156438016 -814.47040148419183 0 -814.47040148419183 1656.2057441006182 0 0 0 0 0.23073625398995201 -1.0141592250523672 0 -1.0141592250523672 1.1495710619883255 0 0 0 0 315.15278512023133 -793.67759279080383 0 -793.67759279080383 1591.6453655930818 0 0 0 0 541.657498625588 -223.30816760534071 0 -223.30816760534071 528.8151204077094 0 0 0 0 393.95321267729264 -921.1272816165947 0 -921.1272816165947 1556.3570694347072 0 0 0 0 275.30607985373973 -330.82511282893392 0 -330.82511282893392 45.855989406918525 0 0 0 0 233.18305376474837 34.558105734926357 0 34.558105734926357 -35.67917522652715 0 0 0 0 -18.603251692040317 32.208694697506871 0 32.208694697506871 609.89518361908267 0 0 0 0 -956.3415603712906 -2927.3437997309738 0 -2927.3437997309738 5492.4324942453386 0 0 0 0 209.94277928344735 -584.74505910481639 0 -584.74505910481639 1466.4245907496806 0 0 0 0 322.03652821146534 -1322.2766273565867 0 -1322.2766273565867 3254.2153186212963 0 0 0 0 1133.6336278903796 -1302.2640231595069 0 -1302.2640231595069 1060.3823914805798 0 0 0 0 797.97705273123415 -4061.5536358629179 0 -4061.5536358629179 4880.5309161162004 0 0 0 0 512.23993195081903 -1323.8369161081355 0 -1323.8369161081355 3246.2686572365201 0 0 0 0 -426.49013945239381 -2994.0081377328243 0 -2994.0081377328243 4832.2790769016574 0 0 0 0 206.87266271498831 -31.006903131928993 0 -31.006903131928993 4145.0848236602615 0 0 0 0 -8.0326807657977497 -809.10459689010167 0 -809.10459689010167 4784.9628868636792 0 0 0 0 -195.75556878008635 -682.77019790140912 0 -682.77019790140912 5268.514178538273 0 0 0 0 -10.56851884020686 -10.625619205157648 0 -10.625619205157648 10.604672115507535 0 0 0 0 -919.92509704476606 -1456.4675018632843 0 -1456.4675018632843 8126.5300406442939 0 0 0 0 -6.4429390648829337 -4.6521526765411636 0 -4.6521526765411636 9.678959131231375 0 0 0 0 408.44955728737568 -176.66898780442716 0 -176.66898780442716 5756.7504323901376 0 0 0 0 346.17197546845773 -1690.5664322784141 0 -1690.5664322784141 4774.1806584804726 0 0 0 0 570.04135754091499 -740.54524972112631 0 -740.54524972112631 4248.1204161232745 0 0 0 0 233.17687534856032 -1341.2284806116659 0 -1341.2284806116659 4284.86241820958 0 0 0 0 268.7695889469037 -967.24208353033464 0 -967.24208353033464 3369.6368776799645 0 0 0 0 554.00453464535042 -1441.4566025800705 0 -1441.4566025800705 2860.8541530886141 0 0 0 0 742.28037928480376 -1142.6465863447738 0 -1142.6465863447738 3377.0825186876464 0 0 0 0 259.44911117108495 -1125.4125883359811 0 -1125.4125883359811 3376.8362768562238 0 0 0 0 413.65725161878004 -680.125551014964 0 -680.125551014964 1870.247126242175 0 0 0 0 765.57721439618626 -1357.6270262044054 0 -1357.6270262044054 2151.2670241088199 0 0 0 0 291.08955646393179 -941.69373910553259 0 -941.69373910553259 2563.6951592591504 0 0 0 0 627.30192537716835 -1209.1540429150627 0 -1209.1540429150627 1756.387464385778 0 0 0 0 -0.66441816687349609 -494.70844959645365 0 -494.70844959645365 2982.8799702434044 0 0 0 0 34.059622554246971 -898.08084193063405 0 -898.08084193063405 2962.0079907578966 0 0 0 0 345.56914880238799 -954.48687201076609 0 -954.48687201076609 1856.4338319380186 0 0 0 0 -535.93890127823704 -1383.7778895865777 0 -1383.7778895865777 5497.0763216753694 0 0 0 0 -120.55214415968521 -958.57741257974703 0 -958.57741257974703 2979.2280054499861 0 0 0 0 -98.623624197797824 2.3509281261503929 0 2.3509281261503929 6079.0586014916917 0 0 0 0 28.733246185415396 -1283.8176849259835 0 -1283.8176849259835 3587.9548287012149 0 0 0 0 90.782718006377308 -340.00909789896104 0 -340.00909789896104 3666.073484656059 0 0 0 0 -536.28246766805228 -1038.4558609237356 0 -1038.4558609237356 3164.2441821673419 0 0 0 0 -4.1283232570847783 -5.4450267132651788 0 -5.4450267132651788 7.0590885321932149 0 0 0 0 -82.728472557049926 -779.12538196048263 0 -779.12538196048263 2569.2343401929684 0 0 0 0 -768.71898467314111 -628.56107239719131 0 -628.56107239719131 4897.2641454650802 0 0 0 0 243.43648404604119 -884.91595700835023 0 -884.91595700835023 1602.0191295653131 0 0 0 0 81.547764794441605 -715.21665810367631 0 -715.21665810367631 1832.4625584538444 0 0 0 0 367.75100547104705 -1096.4371567014796 0 -1096.4371567014796 1777.1560385570338 0 0 0 0 284.81310105873297 -591.40730338548019 0 -591.40730338548019 1191.9176159793351 0 0 0 0 159.26746683620297 -543.91190926838317 0 -543.91190926838317 1279.1720577549859 0 0 0 0 190.59426034672157 -353.68727945521823 0 -353.68727945521823 881.18920858895581 0 0 0 0 73.176800113534455 -525.56534352951712 0 -525.56534352951712 1496.8028647976316 0 0 0 0 -51.56571251378773 -516.35936574331208 0 -516.35936574331208 1823.9464350349385 0 0 0 0 -34.001159380742138 -433.15905653326627 0 -433.15905653326627 1467.5099403578424 0 0 0 0 88.179777406030553 -392.12998801915455 0 -392.12998801915455 1231.1408460249731 0 0 0 0 108.62414473016815 -584.05414663438933 0 -584.05414663438933 1309.8084187342829 0 0 0 0 -4.8985254192139109 -365.96270387088225 0 -365.96270387088225 1445.9023063471304 0 0 0 0 43.789236197086211 -361.16214425548242 0 -361.16214425548242 1206.6332046576063 0 0 0 0 -0.96456163928360183 -282.83842925890167 0 -282.83842925890167 1537.9885044502953 0 0 0 0 -29.023779168951705 -303.78947973076356 0 -303.78947973076356 1538.780006925037 0 0 0 0 -76.120076225890443 -290.73117638820258 0 -290.73117638820258 1819.4259667248552 0 0 0 0 -147.32634102615702 -444.80605895887493 0 -444.80605895887493 1944.8200239826183 0 0 0 0 -221.50371496314574 -246.61164207427464 0 -246.61164207427464 2227.5883282918439 0 0 0 0 -206.24257533646914 -224.01776626474566 0 -224.01776626474566 1981.8891485403801 0 0 0 0 -394.76687487775962 -308.7945646189437 0 -308.7945646189437 2293.8125086109867 0 0 0 0 -352.63215853546626 -406.02065790417691 0 -406.02065790417691 2476.7046371332981 0 0 0 0 -144.51726999967104 -426.06752243277151 0 -426.06752243277151 1834.8835227251475 0 0 0 0 -123.18021535545722 -627.87954407148936 0 -627.87954407148936 2204.5476720578408 0 0 0 0 -221.71720538003865 -449.50764088048163 0 -449.50764088048163 2228.31959524587 0 0 0 0 -93.941902647305142 -671.42477758922905 0 -671.42477758922905 2490.5062176596002 0 0 0 0 143.56003222547042 -908.53526781648907 0 -908.53526781648907 2409.0320472021613 0 0 0 0 -34.055616516301598 -523.38304244650863 0 -523.38304244650863 2563.3555856755593 0 0 0 0 36.732332758933808 -564.96954878814722 0 -564.96954878814722 1797.1611619608739 0 0 0 0 303.13837129963667 -760.12833516375031 0 -760.12833516375031 3034.9941904951993 0 0 0 0 555.46954268728769 -373.58442601589195 0 -373.58442601589195 2892.5845651816453 0 0 0 0 586.67985703978047 -740.45261716597815 0 -740.45261716597815 1817.9474644890288 0 0 0 0 829.79564011562979 -1540.7691432333777 0 -1540.7691432333777 1541.5090285130027 0 0 0 0 17.778716945033935 35.708566487915498 0 35.708566487915498 46.663798778613675 0 0 0 0 967.20042554905922 -638.31588712857229 0 -638.31588712857229 928.83265549266798 0 0 0 0 481.71823390665031 -377.83634177779959 0 -377.83634177779959 1067.4760583250791 0 0 0 0 -398.13716821821799 764.13436331467165 0 764.13436331467165 125.16755743316025 0 0 0 0 305.22062054938488 -818.86677449893796 0 -818.86677449893796 1801.7846018394848 0 0 0 0 62.706845492913999 -689.09743977270409 0 -689.09743977270409 1774.6554917207468 0 0 0 0 346.41618459837991 -559.58537943434567 0 -559.58537943434567 1308.9744236177721 0 0 0 0 297.1264578362352 -831.70034460801617 0 -831.70034460801617 1088.7253591647132 0 0 0 0 218.73745289655199 -277.504496569396 0 -277.504496569396 573.04027910609148 0 0 0 0 13.918458147759793 122.22958680656666 0 122.22958680656666 274.51480633688334 0 0 0 0 391.70225883091371 -429.39285131445286 0 -429.39285131445286 575.28790658893558 0 0 0 0 7.038646280134909 30.324385846060551 0 30.324385846060551 50.529698809699084 0 0 0 0 244.52540748325373 -232.78397929864877 0 -232.78397929864877 620.7756626010887 0 0 0 0 797.03415965216482 -254.17095572081598 0 -254.17095572081598 -212.46403423670745 0 0 0 0 -367.18603696884566 -264.5787854569171 0 -264.5787854569171 896.43897671847662 0 0 0 0 -28.299626763438173 -21.109216093787978 0 -21.109216093787978 -0.087041677757063951 0 0 0 0 -3.9293456965860969 -26.19918245246663 0 -26.19918245246663 24.103042576545704 0 0 0 0 -26.920600875219165 -7.4136962534401789 0 -7.4136962534401789 11.5112220692139 0 0 0 0 185.41802845273924 -583.60981877403174 0 -583.60981877403174 737.27088797438046 0 0 0 0 356.53981912922791 -301.22472888632183 0 -301.22472888632183 160.19972608298121 0 0 0 0 233.71063901097455 -173.39886553375436 0 -173.39886553375436 445.10382614817354 0 0 0 0 157.10746840920365 -449.62359936566645 0 -449.62359936566645 956.137644805116 0 0 0 0 -42.324669183455626 -330.96494265568799 0 -330.96494265568799 488.19466119199933 0 0 0 0 37.784225049019369 -15.424809252308478 0 -15.424809252308478 67.636751280711906 0 0 0 0 68.732354204406874 -468.68342122380272 0 -468.68342122380272 397.88185123204312 0 0 0 0 274.2088568019135 -433.82617314810341 0 -433.82617314810341 385.28370465278567 0 0 0 0 92.16299411902537 -353.41628409940222 0 -353.41628409940222 262.22615907057479 0 0 0 0 -22.627181240321988 -113.34239996711403 0 -113.34239996711403 276.50094385379634 0 0 0 0 -7.9325243363535236 -1.2863378920733481 0 -1.2863378920733481 14.407580853378732 0 0 0 0 200.71394395099014 -282.44336520188517 0 -282.44336520188517 367.4560889538152 0 0 0 0 44.37062690413768 -290.706923387399 0 -290.706923387399 624.161660209822 0 0 0 0 4.5763195307375373 4.5357554929612647 0 4.5357554929612647 -11.446907626987809 0 0 0 0 189.18596023561986 -262.55376669698308 0 -262.55376669698308 579.09669935812417 0 0 0 0 238.98682679438571 -370.54706883561812 0 -370.54706883561812 588.61712119276172 0 0 0 0 135.15158880925651 -298.54949058411557 0 -298.54949058411557 867.63511367775936 0 0 0 0 150.22203497961345 -383.48947143605983 0 -383.48947143605983 829.37546524265781 0 0 0 0 128.22506453178175 -256.57166901602977 0 -256.57166901602977 632.25848580204911 0 0 0 0 72.954510793178997 -301.40021412369242 0 -301.40021412369242 1011.8265203176852 0 0 0 0 110.42264941482813 -456.14817727835361 0 -456.14817727835361 1122.8472813217741 0 0 0 0 229.61606287286122 -565.67658745116933 0 -565.67658745116933 961.43367951553955 0 0 0 0 153.6176765698483 -185.68587905584172 0 -185.68587905584172 1219.124411322704 0 0 0 0 167.44461553286646 -323.43173838215989 0 -323.43173838215989 917.98600106441882 0 0 0 0 56.569906997761791 -302.20884226622002 0 -302.20884226622002 1186.8689207817351 0 0 0 0 122.91830718818073 -349.58088001375654 0 -349.58088001375654 886.65300360051333 0 0 0 0 173.2927781448343 -294.81457693474658 0 -294.81457693474658 611.2569786633685 0 0 0 0 78.319295185709052 -335.56718947625632 0 -335.56718947625632 883.93201967985533 0 0 0 0 82.944167805778307 -297.6427488601712 0 -297.6427488601712 913.58805439371645 0 0 0 0 110.18551980340158 -266.53870672703488 0 -266.53870672703488 653.94183920964861 0 0 0 0 171.2212786240234 -207.1117871130009 0 -207.1117871130009 377.32698430229357 0 0 0 0 84.110401623243888 -271.17278272451222 0 -271.17278272451222 616.92875550036115 0 0 0 0 172.31603963572525 -256.85550181985309 0 -256.85550181985309 328.10334331833292 0 0 0 0 198.60885065249568 -108.87263259993779 0 -108.87263259993779 128.34719101318115 0 0 0 0 173.3393940277947 -182.09024771248369 0 -182.09024771248369 360.02313048296128 0 0 0 0 34.19284167873775 -132.45769995826049 0 -132.45769995826049 434.71336805361716 0 0 0 0 219.66945166918595 -206.09984597420225 0 -206.09984597420225 650.24070868206763 0 0 0 0 144.42533337627719 -148.1863078043134 0 -148.1863078043134 442.20190725242719 0 0 0 0 137.16208676044789 -297.67690770373156 0 -297.67690770373156 564.20026838990088 0 0 0 0 210.58047053045766 -416.72985887020877 0 -416.72985887020877 709.75625319361461 0 0 0 0 243.35461242888141 -339.48058320027121 0 -339.48058320027121 840.78584526668055 0 0 0 0 177.17973633086604 -312.14368381910936 0 -312.14368381910936 963.64114433395389 0 0 0 0 113.01017921496168 -301.23050860031253 0 -301.23050860031253 964.31432738165313 0 0 0 0 171.17191948249092 -263.00179442730951 0 -263.00179442730951 651.65222507478575 0 0 0 0 133.48376980453037 -392.26214460117535 0 -392.26214460117535 770.39950916018279 0 0 0 0 123.3158503041027 -453.74261381325687 0 -453.74261381325687 718.18667897883734 0 0 0 0 283.89777970472596 -444.72169762769045 0 -444.72169762769045 685.53651694339351 0 0 0 0 74.349598138207966 -587.72139219380188 0 -587.72139219380188 651.87867674008157 0 0 0 0 -92.137659710515209 -426.24770070324257 0 -426.24770070324257 769.79629777626178 0 0 0 0 -574.12948573116557 945.67798148416159 0 945.67798148416159 -497.01419779182834 0 0 0 0 397.44170073538726 -76.548324526704164 0 -76.548324526704164 436.52320941140624 0 0 0 0 200.14831506649602 -924.35414746315018 0 -924.35414746315018 3405.7155885121429 0 0 0 0 -638.97678090776117 289.90703834232954 0 289.90703834232954 1996.0206766321899 0 0 0 0 99.315413096759585 -218.13254986488391 0 -218.13254986488391 1464.6623766726871 0 0 0 0 244.11502934924511 -67.699589531672245 0 -67.699589531672245 1404.0199622580221 0 0 0 0 -13.544979494133713 -123.27437252651725 0 -123.27437252651725 1919.1897652139269 0 0 0 0 356.44723050781022 -316.88451243820782 0 -316.88451243820782 812.76794112768403 0 0 0 0 310.39496697559724 71.256366428805904 0 71.256366428805904 1482.9208505875395 0 0 0 0 325.87353274088218 -269.01125307170514 0 -269.01125307170514 1788.4421781959518 0 0 0 0 935.97460184173701 10.780424751183091 0 10.780424751183091 1912.9961331827835 0 0 0 0 -26.053114271650884 -98.373914810086717 0 -98.373914810086717 2104.1058706833846 0 0 0 0 275.98644417716753 135.94773681839854 0 135.94773681839854 1909.8661347970337 0 0 0 0 -94.597717025413203 0.73643555189664767 0 0.73643555189664767 2304.9182828427802 0 0 0 0 -255.12019605255318 -294.06195791786195 0 -294.06195791786195 2392.6732422612477 0 0 0 0 -377.3753767512236 -192.84737666816636 0 -192.84737666816636 2545.3520527701476 0 0 0 0 377.80444005906338 372.24703121409675 0 372.24703121409675 2642.4111799398033 0 0 0 0 -238.87247132735138 -151.09747240163233 0 -151.09747240163233 3224.4391728847204 0 0 0 0 727.75543985787601 -1214.3956534167446 0 -1214.3956534167446 2294.4362750137334 0 0 0 0 248.41042309958357 -320.81714274200431 0 -320.81714274200431 1102.1168632306435 0 0 0 0 291.11506115371276 -488.11224138311445 0 -488.11224138311445 1263.0499888166814 0 0 0 0 -178.90533882253385 -429.31849146284003 0 -429.31849146284003 2225.6510704417597 0 0 0 0 -320.56439922940353 -190.69747283140896 0 -190.69747283140896 2247.0233273841877 0 0 0 0 -117.79699331745883 276.34751860227766 0 276.34751860227766 3568.3914905632628 0 0 0 0 242.45269868976357 -824.34734573645801 0 -824.34734573645801 3496.0414469457974 0 0 0 0 10.133977375912423 -11.178877181263132 0 -11.178877181263132 13.515164717137978 0 0 0 0 -439.31734316846678 359.17275033321948 0 359.17275033321948 3033.1512719715374 0 0 0 0 1032.1762334996972 -775.8612883159185 0 -775.8612883159185 -283.78607412402926 0 0 0 0 714.60170837234682 272.45841960317648 0 272.45841960317648 -330.60934282371454 0 0 0 0 -53.513504215895864 -804.06833229829499 0 -804.06833229829499 -87.899577794520155 0 0 0 0 -197.66436355631095 -354.18872286397254 0 -354.18872286397254 330.1109667182609 0 0 0 0 -1017.3360167577355 752.53434172618472 0 752.53434172618472 2637.4894673124945 0 0 0 0 14.044134732100794 -19.165797122833105 0 -19.165797122833105 22.741856042779851 0 0 0 0 5.373417375055392 -5.8202326893534178 0 -5.8202326893534178 8.3354278791154712 0 0 0 0 300.53958963418745 11.617080763156991 0 11.617080763156991 978.61501011020118 0 0 0 0 1290.7329091858558 1400.4883601579731 0 1400.4883601579731 279.71286580982996 0 0 0 0 246.17596319888418 -256.10314234628186 0 -256.10314234628186 673.28295440078364 0 0 0 0 400.33522129868174 -44.223552214039955 0 -44.223552214039955 128.04563788043015 0 0 0 0 269.01061144931657 -104.1171290416724 0 -104.1171290416724 113.0981157503702 0 0 0 0 134.05727739963822 125.7286449171479 0 125.7286449171479 57.834387158873142 0 0 0 0 272.74476723248608 72.733203204421443 0 72.733203204421443 -1.8074612905038521 0 0 0 0 309.14059107015623 -197.71890214476025 0 -197.71890214476025 75.129822007278563 0 0 0 0 14.925994176825952 89.234455193185568 0 89.234455193185568 87.335577713689418 0 0 0 0 10.084177032210709 -20.108318171803823 0 -20.108318171803823 23.722108630670817 0 0 0 0 -24.513419068105577 -107.69557497292408 0 -107.69557497292408 752.31208658483956 0 0 0 0 104.3427598005137 -122.94880456389728 0 -122.94880456389728 750.74121111136628 0 0 0 0 97.642196560554112 -315.41239469487482 0 -315.41239469487482 1251.2989289355246 0 0 0 0 143.97672366921643 -170.23804064338265 0 -170.23804064338265 1072.5711078934328 0 0 0 0 379.18059457176287 -377.84340392928789 0 -377.84340392928789 722.75063972948556 0 0 0 0 561.69938062035635 -104.63636628119639 0 -104.63636628119639 474.87783456830221 0 0 0 0 347.65636232171869 -238.52243252869812 0 -238.52243252869812 395.01682292671831 0 0 0 0 366.71850369970218 -126.27337807540243 0 -126.27337807540243 111.23931417570566 0 0 0 0 290.06767162259075 -333.2813127610234 0 -333.2813127610234 106.6831527020986 0 0 0 0 274.49494992079099 -113.82578691018716 0 -113.82578691018716 422.63353488675057 0 0 0 0 273.38809366795698 -238.44633494778282 0 -238.44633494778282 194.78996998703951 0 0 0 0 168.19727228956071 -78.984746040659957 0 -78.984746040659957 102.74634722640621 0 0 0 0 -199.488314165048 -217.84869705140227 0 -217.84869705140227 147.43544779824151 0 0 0 0 168.84046401218802 -94.631994020208367 0 -94.631994020208367 -193.66135050153389 0 0 0 0 -436.41854620684171 -14.965703806828969 0 -14.965703806828969 -20.257254770942382 0 0 0 0 -188.22302132293134 -126.1799795746083 0 -126.1799795746083 732.89403168072022 0 0 0 0 32.021530358775635 -86.748002276115585 0 -86.748002276115585 189.76498179196278 0 0 0 0 -241.019693470844 -442.95099120465602 0 -442.95099120465602 -199.92422840990912 0 0 0 0 -43.942775358367726 -40.661981235971325 0 -40.661981235971325 -191.67771543633762 0 0 0 0 -133.58675563700126 -232.28564698507762 0 -232.28564698507762 313.77379043683322 0 0 0 0 -323.36830436949947 30.589201651308258 0 30.589201651308258 409.66338536451804 0 0 0 0 -344.40760589644321 -196.15264802399679 0 -196.15264802399679 548.45104380440898 0 0 0 0 -185.942639991139 -155.12138358457742 0 -155.12138358457742 608.36041189267416 0 0 0 0 -206.12871181732623 87.946846392242833 0 87.946846392242833 768.07420809083851 0 0 0 0 -294.00413303730966 157.57834517949232 0 157.57834517949232 1479.6448466061411 0 0 0 0 -181.14697092266761 -144.52520956964509 0 -144.52520956964509 1125.0891317623173 0 0 0 0 -122.57249449624396 200.84313508843479 0 200.84313508843479 1047.8467938949179 0 0 0 0 -258.16050539773642 19.688178797769069 0 19.688178797769069 1272.3856464942801 0 0 0 0 -71.17444426139582 -24.555407000662854 0 -24.555407000662854 345.49761939674499 0 0 0 0 -100.13720755331269 -14.91937558261634 0 -14.91937558261634 717.30189444880807 0 0 0 0 -133.07899433635157 -226.67143234501054 0 -226.67143234501054 1400.6479380712335 0 0 0 0 -224.08328127886216 -185.64279182724931 0 -185.64279182724931 1412.3153061096991 0 0 0 0 -411.55271797857404 -122.6695466887395 0 -122.6695466887395 2172.2034522790709 0 0 0 0 -359.25284205471326 -43.083622797483258 0 -43.083622797483258 1630.099916204992 0 0 0 0 -444.12103679817301 -64.10726594294465 0 -64.10726594294465 2209.6907062719147 0 0 0 0 -288.15399239474209 298.79193688041414 0 298.79193688041414 1675.9046500962213 0 0 0 0 -254.34771530275589 98.897052721850741 0 98.897052721850741 1746.6530209185148 0 0 0 0 -463.80353858578258 50.90382564053823 0 50.90382564053823 2326.2390508915487 0 0 0 0 -510.70921201201463 -185.01501482091771 0 -185.01501482091771 2541.5709072860991 0 0 0 0 -443.68858081580765 -288.65041956618006 0 -288.65041956618006 2579.8258914550352 0 0 0 0 -399.90403168559806 -204.63151516644939 0 -204.63151516644939 2714.8542044808273 0 0 0 0 -390.70885146250271 -478.98499054849435 0 -478.98499054849435 2824.2746390620159 0 0 0 0 -407.27329451099274 -378.09923257486798 0 -378.09923257486798 2463.3030992352942 0 0 0 0 -357.84624484759661 -228.25085400919761 0 -228.25085400919761 2409.4541229028691 0 0 0 0 -425.35063163918585 -259.13280456029315 0 -259.13280456029315 2425.9963254475224 0 0 0 0 -426.2552431696131 -187.28296952705568 0 -187.28296952705568 2174.4587870931359 0 0 0 0 687.63455661749708 -54.603511068626858 0 -54.603511068626858 3233.9490239900333 0 0 0 0 2786.9314317631752 110.56549484036623 0 110.56549484036623 2992.6680607340822 0 0 0 0 602.81716093933073 -961.63250898971216 0 -961.63250898971216 2864.6846433579994 0 0 0 0 -219.85318560619908 -358.55737247350771 0 -358.55737247350771 2718.0355427606701 0 0 0 0 -188.42015474897926 -201.27672227770745 0 -201.27672227770745 3353.8885949711439 0 0 0 0 -106.60754914398785 301.12912292913643 0 301.12912292913643 3841.1452001522703 0 0 0 0 -470.96551558862217 -124.96074875549732 0 -124.96074875549732 2945.2002093860137 0 0 0 0 -234.88501574629845 470.07297949376516 0 470.07297949376516 2374.4445957711105 0 0 0 0 2.9046483041811371 167.45927199860307 0 167.45927199860307 2425.8006052535784 0 0 0 0 -77.638150126986147 917.44297798197658 0 917.44297798197658 2138.260599595138 0 0 0 0 863.90493479680936 -905.14467364261873 0 -905.14467364261873 3678.7553800779569 0 0 0 0 409.00410986650604 1095.9387191349233 0 1095.9387191349233 2877.6297159553142 0 0 0 0 20.298661300464808 -16.169098462444218 0 -16.169098462444218 17.414932941642633 0 0 0 0 856.72322745148074 -533.86447527437122 0 -533.86447527437122 415.65308287433072 0 0 0 0 24.39932497974155 2.6804689323635529 0 2.6804689323635529 -1.3239443100526813 0 0 0 0 976.13131133067873 1664.0431277817424 0 1664.0431277817424 -936.0264044985197 0 0 0 0 3505.1971471049574 922.86408775110613 0 922.86408775110613 -918.71983499361886 0 0 0 0 1864.7942401641194 -1351.067913252482 0 -1351.067913252482 2738.9557633921504 0 0 0 0 -34.548924284600616 -520.2289664767668 0 -520.2289664767668 -171.74341980356257 0 0 0 0 -6.0537526016069023 531.67102548282128 0 531.67102548282128 1277.3707649500284 0 0 0 0 41.324276512426877 417.26937107896993 0 417.26937107896993 843.28584235344897 0 0 0 0 598.79526243661712 681.87213961419911 0 681.87213961419911 -219.87432170576358 0 0 0 0 409.89549234364858 1079.3685828434645 0 1079.3685828434645 916.1806266871281 0 0 0 0 42.684537046337681 -41.924699931750702 0 -41.924699931750702 42.679660075879283 0 0 0 0 2021.5033288837085 135.11431828176865 0 135.11431828176865 -337.45552923105424 0 0 0 0 1894.8624051381698 -662.27537761171197 0 -662.27537761171197 -41.426264193942188 0 0 0 0 176.93084778947474 326.30782485320367 0 326.30782485320367 -252.53798042878771 0 0 0 0 1241.6897152107294 -224.27299968398438 0 -224.27299968398438 -314.94352932522452 0 0 0 0 1181.1412272496314 -267.89205673196557 0 -267.89205673196557 -308.12881125210697 0 0 0 0 555.88109669082201 -433.02504942430096 0 -433.02504942430096 404.60544027917058 0 0 0 0 694.74896074793901 -434.73260486946128 0 -434.73260486946128 -87.345711556728929 0 0 0 0 101.84700342167034 52.51141398791151 0 52.51141398791151 23.271155442871532 0 0 0 0 -193.54535906527781 294.52656716620368 0 294.52656716620368 159.46819818897711 0 0 0 0 37.551166622198998 -5.1811980217146356 0 -5.1811980217146356 0.57998227353105491 0 0 0 0 91.208140648021981 -318.70997391277888 0 -318.70997391277888 -331.61691900406004 0 0 0 0 145.73456425036579 152.52435333745507 0 152.52435333745507 -394.9225051844769 0 0 0 0 71.850009657039664 171.64461886430581 0 171.64461886430581 -926.36621971736201 0 0 0 0 -1155.6549540991064 -943.28054830972178 0 -943.28054830972178 -885.63182434065675 0 0 0 0 -622.79415169840104 -846.17566376013565 0 -846.17566376013565 -492.97584226543404 0 0 0 0 1267.4388225168659 -493.40548726847555 0 -493.40548726847555 -1046.7687515263169 0 0 0 0 501.83545813190904 -70.98506615381848 0 -70.98506615381848 39.748984422702051 0 0 0 0 14.143068135059963 -4.0432678108539335 0 -4.0432678108539335 1.9852418594061731 0 0 0 0 -189.89994129493971 -895.15161571123099 0 -895.15161571123099 2618.3234189590366 0 0 0 0 -182.80375878759361 411.78297870237867 0 411.78297870237867 2419.0289121512469 0 0 0 0 333.09229091288853 -854.38023912398967 0 -854.38023912398967 1856.9626690413788 0 0 0 0 80.178539022936093 141.01817362757538 0 141.01817362757538 2496.4950778467246 0 0 0 0 -83.623203190989443 47.517370447552821 0 47.517370447552821 2847.5814886576591 0 0 0 0 -181.42810818793441 -39.536708540414111 0 -39.536708540414111 5025.0366504055419 0 0 0 0 1947.6520112990875 -365.74695911553499 0 -365.74695911553499 2698.4163133272632 0 0 0 0 1474.3172871115357 1406.6543837130239 0 1406.6543837130239 3656.3212856899554 0 0 0 0 181.11450189050629 1541.0266122417561 0 1541.0266122417561 4667.1099208249943 0 0 0 0 -1159.4538620295025 165.45884367407234 0 165.45884367407234 3982.6918388468512 0 0 0 0 744.63006201038479 -1037.696933447176 0 -1037.696933447176 -342.47301212596176 0 0 0 0 -369.23615737063255 -613.39266041226801 0 -613.39266041226801 -728.36754895203194 0 0 0 0 1.8955291742453113 -5.0750318234170493 0 -5.0750318234170493 4.1286095136017593 0 0 0 0 -839.35844747668034 -774.39563602147973 0 -774.39563602147973 552.79444891675666 0 0 0 0 -669.05613575428242 -665.21387799781951 0 -665.21387799781951 -702.68937138918409 0 0 0 0 8.4430561177506895 -9.9732186841964676 0 -9.9732186841964676 5.0062108576299948 0 0 0 0 -509.21521748925079 -821.82695895000143 0 -821.82695895000143 -1191.8863041230798 0 0 0 0 -901.40470684528736 -297.06036528075128 0 -297.06036528075128 273.53530016013974 0 0 0 0 -351.40870900811115 -172.71574682281789 0 -172.71574682281789 -363.24411225652875 0 0 0 0 -367.47490173723327 -449.03032553080266 0 -449.03032553080266 1532.0328615665821 0 0 0 0 -180.48569630834027 -508.87331921513396 0 -508.87331921513396 -18.482710653948743 0 0 0 0 -582.81644972134563 -1382.7083113302833 0 -1382.7083113302833 -754.87485392011149 0 0 0 0 -407.97967805402743 73.600532741256757 0 73.600532741256757 -780.23977589858987 0 0 0 0 272.38044137623092 -436.93363120675349 0 -436.93363120675349 -705.15228810415283 0 0 0 0 1205.5205844086577 -209.78344997291424 0 -209.78344997291424 -1068.578193741665 0 0 0 0 1009.4161487667807 -991.42786968178189 0 -991.42786968178189 -443.39115146520089 0 0 0 0 538.66955081692913 -57.703989264554366 0 -57.703989264554366 1018.2367347213585 0 0 0 0 733.72099943154808 -487.28220825412791 0 -487.28220825412791 1871.7194328828045 0 0 0 0 258.48128732367877 265.80305334875447 0 265.80305334875447 1583.3248856108912 0 0 0 0 219.57413816241751 247.99977975916045 0 247.99977975916045 1832.3929274513225 0 0 0 0 -179.88483334721877 -163.85090362589835 0 -163.85090362589835 1211.1894629854796 0 0 0 0 60.485454765697796 362.57746367665823 0 362.57746367665823 1576.651775750659 0 0 0 0 -654.85840234967873 -364.34647716338077 0 -364.34647716338077 1145.3197800941016 0 0 0 0 -576.71498436670709 -774.92372990873446 0 -774.92372990873446 868.64614750034525 0 0 0 0 -80.072701160193901 -181.31294167004671 0 -181.31294167004671 850.39600218665873 0 0 0 0 -643.6315370514576 -270.0241727464163 0 -270.0241727464163 1180.0005154355167 0 0 0 0 -708.14141569281946 -78.549597724682826 0 -78.549597724682826 613.39407478544672 0 0 0 0 -654.58621669634681 -676.23457836555122 0 -676.23457836555122 803.86224574100925 0 0 0 0 -682.01434974793028 -583.5293951721942 0 -583.5293951721942 619.03157295446181 0 0 0 0 -711.77173017886344 45.574479644310486 0 45.574479644310486 2557.0519028804119 0 0 0 0 -1214.7439948365327 125.03539646787976 0 125.03539646787976 2577.9543276896584 0 0 0 0 -949.18938617492768 -355.22963250418616 0 -355.22963250418616 597.36257080165524 0 0 0 0 -492.46077945642355 666.62236783199478 0 666.62236783199478 1371.1141429758936 0 0 0 0 27.717223295263466 -180.54427819299599 0 -180.54427819299599 865.23137464960746 0 0 0 0 150.1902686367448 444.53282715218666 0 444.53282715218666 1463.7249700137982 0 0 0 0 408.09065186659245 -233.51897661556359 0 -233.51897661556359 2266.4273538448979 0 0 0 0 -660.51597382531509 342.51874087796023 0 342.51874087796023 2904.6605618893518 0 0 0 0 2653.6424946300103 1319.1258614559774 0 1319.1258614559774 2235.5046558162276 0 0 0 0 281.85302564734957 1573.1816274101984 0 1573.1816274101984 4189.9301438784314 0 0 0 0 603.80633247249716 660.94931621714932 0 660.94931621714932 2176.4650227469083 0 0 0 0 763.76581700340512 810.15525436304506 0 810.15525436304506 1777.4678371719929 0 0 0 0 485.42959737050387 819.97585603861899 0 819.97585603861899 1914.9562162357179 0 0 0 0 289.50342306883249 330.19891086816642 0 330.19891086816642 1556.4395800326238 0 0 0 0 30.301596926142565 759.8873223544565 0 759.8873223544565 2295.360727327934 0 0 0 0 36.198733812949285 825.88508319993707 0 825.88508319993707 2087.3644997265292 0 0 0 0 654.65912161392419 1292.4887502568611 0 1292.4887502568611 2412.4200988351222 0 0 0 0 -432.9833964070458 588.44134149344609 0 588.44134149344609 2833.5368777983349 0 0 0 0 -107.63773385786317 550.85804274225848 0 550.85804274225848 1957.2903561460116 0 0 0 0 -170.26985014757156 121.58188954956131 0 121.58188954956131 2044.8470319905537 0 0 0 0 -237.7615323311984 -534.26723727928766 0 -534.26723727928766 508.30734408197168 0 0 0 0 129.78400874707768 75.110788815913111 0 75.110788815913111 84.990893739755847 0 0 0 0 57.699201385421475 200.52727581086947 0 200.52727581086947 257.01317986434879 0 0 0 0 -264.06574871759221 70.496376875373244 0 70.496376875373244 631.9657478545123 0 0 0 0 -8.3413473447453104 -10.974109407819171 0 -10.974109407819171 118.54231254330409 0 0 0 0 -260.21345175710667 13.731060142439674 0 13.731060142439674 1.2155363071942702 0 0 0 0 -175.34453140034293 147.22805322127169 0 147.22805322127169 211.90423043948249 0 0 0 0 -378.63333680091182 55.345857750617142 0 55.345857750617142 254.81685708738223 0 0 0 0 -198.78891112034034 -502.63286661153688 0 -502.63286661153688 -116.99007655594323 0 0 0 0 -9.3039527808926863 0.95678153400122312 0 0.95678153400122312 24.614148362726482 0 0 0 0 11.688290209662227 -370.32316798393731 0 -370.32316798393731 3753.8283561475037 0 0 0 0 3616.0472868933666 1769.2583778215976 0 1769.2583778215976 2620.6406022228475 0 0 0 0 -8.6980389345278386 16.247706541441577 0 16.247706541441577 11.062932446425947 0 0 0 0 326.06197755009748 1980.1261112483553 0 1980.1261112483553 -375.4001799702819 0 0 0 0 839.96412345911085 792.00448270798006 0 792.00448270798006 5726.4448602095799 0 0 0 0 1039.1913721676551 683.65419977487909 0 683.65419977487909 1388.1295229870448 0 0 0 0 46.087959465226959 2499.6295182057729 0 2499.6295182057729 4029.5905368486274 0 0 0 0 634.08645996840278 1504.9887442865584 0 1504.9887442865584 3314.0744981404787 0 0 0 0 -44.923857732093701 39.698326850898994 0 39.698326850898994 -10.83455508334373 0 0 0 0 2412.8801117845396 3484.6777161883074 0 3484.6777161883074 1086.6930484468758 0 0 0 0 -161.01232197726404 122.91952985702301 0 122.91952985702301 252.76771829677455 0 0 0 0 -79.311601826524566 43.533672716584988 0 43.533672716584988 237.69887812944398 0 0 0 0 648.82751339692095 1882.4515561781882 0 1882.4515561781882 4959.7937782204044 0 0 0 0 -7.1186180755143038 4.2689961772907452 0 4.2689961772907452 1.3503754200292715 0 0 0 0 838.38376255023513 -139.48226443879685 0 -139.48226443879685 -2919.3097960975365 0 0 0 0 -974.24492312336133 -642.3126791081595 0 -642.3126791081595 2082.9560989061429 0 0 0 0 241.68816924071325 528.15698683630399 0 528.15698683630399 -165.0670691702835 0 0 0 0 199.72023739988072 -470.26818497573549 0 -470.26818497573549 1138.3977180625443 0 0 0 0 3.5914285040923701 0.51336137348981481 0 0.51336137348981481 0.013191685622686578 0 0 0 0 353.76627879997432 843.86785325503661 0 843.86785325503661 656.96209888526937 0 0 0 0 1234.8664433652375 -2136.477423615579 0 -2136.477423615579 1824.9711264606594 0 0 0 0 2.2545252739397093 4.5590024163725502 0 4.5590024163725502 1.1446751851993611 0 0 0 0 -1274.8104920123587 -151.82441960962569 0 -151.82441960962569 1536.508871144928 0 0 0 0 661.48208039554311 -1435.3010600155576 0 -1435.3010600155576 4726.0570007118549 0 0 0 0 1530.401172537855 1014.6037246772848 0 1014.6037246772848 -1261.4939809375883 0 0 0 0 11.271169323022981 16.377023215786792 0 16.377023215786792 23.097613122901549 0 0 0 0 564.08464974637673 269.92128088889166 0 269.92128088889166 5439.819773000283 0 0 0 0 821.71757836362121 964.02571848105435 0 964.02571848105435 2227.3811796710579 0 0 0 0 580.4589948259536 1494.8536142036573 0 1494.8536142036573 3476.3742665917234 0 0 0 0 -160.1759415429492 27.540417488894946 0 27.540417488894946 2998.1809910828888 0 0 0 0 -93.462848450268211 973.14366602135487 0 973.14366602135487 3434.1419100781222 0 0 0 0 330.73823894026464 784.53686551866849 0 784.53686551866849 1962.4837388279848 0 0 0 0 -30.290990433873958 776.34431463501824 0 776.34431463501824 2279.0801893368116 0 0 0 0 -93.896389057979832 787.98229905748303 0 787.98229905748303 2446.5306233743299 0 0 0 0 -75.14811339152584 829.64164904029894 0 829.64164904029894 2251.1795064831604 0 0 0 0 -164.31230551372118 660.97282832004566 0 660.97282832004566 2216.4540073727258 0 0 0 0 122.92816128628692 874.83515998894291 0 874.83515998894291 1801.4947852183686 0 0 0 0 -168.53895729382293 475.84862823812364 0 475.84862823812364 1983.0397012836329 0 0 0 0 48.518303083499632 818.64924513827282 0 818.64924513827282 1958.5442953752681 0 0 0 0 220.81887943962465 628.83665657239908 0 628.83665657239908 1011.0994617680408 0 0 0 0 273.04405046672582 200.85522981245595 0 200.85522981245595 413.90173877275083 0 0 0 0 -29.921141107632138 317.57173820729076 0 317.57173820729076 1168.1182671877032 0 0 0 0 68.637404837427312 215.87424170343002 0 215.87424170343002 662.29250390722882 0 0 0 0 -96.574192289714119 162.89766503151623 0 162.89766503151623 400.67289690760663 0 0 0 0 -220.23063661888591 173.4689432020823 0 173.4689432020823 818.91477980601485 0 0 0 0 -76.067191774154253 -185.21059750006179 0 -185.21059750006179 397.17230061154987 0 0 0 0 61.852609804700478 99.026116890789126 0 99.026116890789126 846.30032268769719 0 0 0 0 184.02962879728148 229.95942221809673 0 229.95942221809673 828.06560568719578 0 0 0 0 -99.192447233527673 35.461425064551804 0 35.461425064551804 1281.5306624205841 0 0 0 0 24.874882331754634 611.40095556619053 0 611.40095556619053 1753.5119555961937 0 0 0 0 67.896756089230621 437.30681988171273 0 437.30681988171273 1169.5489495505026 0 0 0 0 34.146961112052395 384.44525316473209 0 384.44525316473209 1211.9685124506068 0 0 0 0 61.974058474617777 -0.61544724205305101 0 -0.61544724205305101 60.76847794681089 0 0 0 0 -0.15965767584613388 1.8624732512732152 0 1.8624732512732152 10.066695134182623 0 0 0 0 -38.802023619890548 -21.531330849622137 0 -21.531330849622137 56.697964512570906 0 0 0 0 -142.55917078484177 -386.46265397411958 0 -386.46265397411958 -376.37598245681147 0 0 0 0 -45.740990812520067 -46.486146811786256 0 -46.486146811786256 -4.3914394764081095 0 0 0 0 28.05597940618236 -72.084241635167928 0 -72.084241635167928 -466.9179399330751 0 0 0 0 -13.966350580059952 -82.32752112104572 0 -82.32752112104572 123.11680150660686 0 0 0 0 -113.34043013011978 -360.11480513829156 0 -360.11480513829156 -161.47770920785842 0 0 0 0 -1.6703386664790543 -3.1256910383629943 0 -3.1256910383629943 -5.4121927831196786 0 0 0 0 -96.21505135098414 -185.46741254330846 0 -185.46741254330846 334.81321733191726 0 0 0 0 -180.35223692130012 -143.07122912812338 0 -143.07122912812338 -340.7566188932833 0 0 0 0 32.355341914979363 -135.97763134039269 0 -135.97763134039269 -399.04020726685121 0 0 0 0 69.248385274637258 -40.648965398781002 0 -40.648965398781002 142.3795262229105 0 0 0 0 47.477416957481182 52.086637786225765 0 52.086637786225765 255.13505268930385 0 0 0 0 -49.870698717408231 -152.54699408591114 0 -152.54699408591114 168.48671399672457 0 0 0 0 -141.67265792798389 -185.31577880369878 0 -185.31577880369878 20.373720856965519 0 0 0 0 78.055051477982488 -0.22473674676803057 0 -0.22473674676803057 343.02452992369945 0 0 0 0 113.17131863579652 -1235.0368398501614 0 -1235.0368398501614 1291.4221060730561 0 0 0 0 -15.215379439597491 -4.9999081700690624 0 -4.9999081700690624 10.845917256588109 0 0 0 0 -355.7834531691642 -31.389104850391959 0 -31.389104850391959 219.85306559145101 0 0 0 0 -9.4162479655903564 6.5460390366451975 0 6.5460390366451975 42.760939014877891 0 0 0 0 -28.499694519912737 -17.916711294612469 0 -17.916711294612469 34.041450437318417 0 0 0 0 -163.73716678176606 -3.7812325726827112 0 -3.7812325726827112 99.974754026217852 0 0 0 0 -52.636614167916335 -45.847852877550622 0 -45.847852877550622 -5.1103054702190533 0 0 0 0 167.13474170686095 197.75974467053675 0 197.75974467053675 -423.30760161547551 0 0 0 0 -375.55109576161203 294.45988732784645 0 294.45988732784645 -85.028975316246942 0 0 0 0 -6.4321641826503342 4.4994582558443952 0 4.4994582558443952 29.407670742437617 0 0 0 0 477.51880227965034 409.61151001419694 0 409.61151001419694 -147.49213050219623 0 0 0 0 63.844565541508018 -535.34952168954987 0 -535.34952168954987 804.71645241358783 0 0 0 0 621.42506033000063 199.46400948693918 0 199.46400948693918 677.70252474768131 0 0 0 0 193.89325443694599 -216.16542767435021 0 -216.16542767435021 469.12883749791945 0 0 0 0 -4.6710780579528546 -119.97896801279421 0 -119.97896801279421 -272.85711325093871 0 0 0 0 345.02624961060383 16.74092860419114 0 16.74092860419114 -165.05977180262835 0 0 0 0 -23.260044131474388 -84.394698441756191 0 -84.394698441756191 -189.74022541043087 0 0 0 0 63.639610084543165 -26.481629598602012 0 -26.481629598602012 -289.77626617363421 0 0 0 0 129.04146820632877 -205.18370436073747 0 -205.18370436073747 -333.60275649832329 0 0 0 0 182.15553272595162 -318.20599551442865 0 -318.20599551442865 -93.038250279163549 0 0 0 0 -31.116964756206471 -166.23513983004523 0 -166.23513983004523 -175.34711883203272 0 0 0 0 -329.51387055583825 -515.47784201535978 0 -515.47784201535978 -85.832606971209316 0 0 0 0 -52.393028058029131 -144.83172695852045 0 -144.83172695852045 -185.63496464795753 0 0 0 0 45.031955203950602 -279.57461540874192 0 -279.57461540874192 -410.82966344898887 0 0 0 0 -76.327848909019281 -91.151823191095446 0 -91.151823191095446 92.892629628946452 0 0 0 0 275.36048350072224 -32.186599923585163 0 -32.186599923585163 348.5791380720193 0 0 0 0 -67.004510467765385 -214.43640732726908 0 -214.43640732726908 325.39320982242498 0 0 0 0 289.05590106690363 936.45930797265964 0 936.45930797265964 2003.9850807966577 0 0 0 0 223.40646076483108 -202.53061387761591 0 -202.53061387761591 1372.0701623146524 0 0 0 0 299.17211600099017 558.16734854031893 0 558.16734854031893 934.79560910878831 0 0 0 0 -122.51084531075998 -132.96846563138934 0 -132.96846563138934 994.91931533483876 0 0 0 0 69.71001029770099 599.99631988972578 0 599.99631988972578 1443.3316154283821 0 0 0 0 113.95037517282134 436.38261623985636 0 436.38261623985636 356.25607546330866 0 0 0 0 889.79764844695092 827.37439450909005 0 827.37439450909005 1444.2344906118633 0 0 0 0 1802.3060428004173 2708.2083050329675 0 2708.2083050329675 3589.3890474652753 0 0 0 0 -5.8226334341224781 -0.70475696589723569 0 -0.70475696589723569 18.318420475486832 0 0 0 0 -2839.7747113350661 -1304.9991086921509 0 -1304.9991086921509 1603.9541475687147 0 0 0 0 -127.79147537615336 36.505850545459907 0 36.505850545459907 2955.2607503571562 0 0 0 0 -272.37003157405047 65.849419990277966 0 65.849419990277966 347.40045071429631 0 0 0 0 11.026677872509936 108.10158874186163 0 108.10158874186163 208.71899217641476 0 0 0 0 121.27595301676524 126.7894652466257 0 126.7894652466257 166.93876368025667 0 0 0 0 -17.409195843996265 10.253142714472716 0 10.253142714472716 -2.3377411143360405 0 0 0 0 52.041542620439031 270.87377641749481 0 270.87377641749481 349.56945535886916 0 0 0 0 -167.42012584002714 110.53422048064385 0 110.53422048064385 274.66283449463663 0 0 0 0 -156.13823559401482 -48.715007659757248 0 -48.715007659757248 122.31056195618294 0 0 0 0 -119.31598412428161 112.88846230790296 0 112.88846230790296 117.90483945744927 0 0 0 0 -191.02020281275054 -88.142233585916983 0 -88.142233585916983 50.110006717935903 0 0 0 0 -317.9958184914467 -13.965195827964635 0 -13.965195827964635 184.92973164554132 0 0 0 0 -175.34524005243634 68.125904077955965 0 68.125904077955965 150.56479630211834 0 0 0 0 -8.0715777785830412 -21.644619468600467 0 -21.644619468600467 121.71359887092945 0 0 0 0 -46.602211516533728 2.2378059352738049 0 2.2378059352738049 97.328363444370353 0 0 0 0 -193.89866226033701 -25.123056240689039 0 -25.123056240689039 79.772121130750747 0 0 0 0 23.202246640237718 49.657728794591094 0 49.657728794591094 38.770153559757091 0 0 0 0 20.535147214644894 78.499240433484374 0 78.499240433484374 84.901215616826903 0 0 0 0 -35.269449291177054 -15.054314999249719 0 -15.054314999249719 62.266570642109826 0 0 0 0 -402.45654830401736 -192.63377636602672 0 -192.63377636602672 123.50676603132888 0 0 0 0 -403.84875970806274 -96.899063328684861 0 -96.899063328684861 690.29865598259494 0 0 0 0 -93.742670903991794 171.78307898109642 0 171.78307898109642 52.123741161325597 0 0 0 0 -97.255416184704472 179.19768755504992 0 179.19768755504992 126.77885241314652 0 0 0 0 -8.162749916909231 9.4699524546384666 0 9.4699524546384666 199.59764717273993 0 0 0 0 -83.054902085494234 207.51920598192146 0 207.51920598192146 378.2583095702139 0 0 0 0 -425.94518458489165 31.334621608286398 0 31.334621608286398 538.94576736061208 0 0 0 0 -441.55820829444838 -290.51048389278003 0 -290.51048389278003 146.09257878617791 0 0 0 0 -8.8331331293226878 10.944013141099447 0 10.944013141099447 29.554531267011413 0 0 0 0 -178.33628308641983 -89.414257810334675 0 -89.414257810334675 317.19637573547516 0 0 0 0 -216.53559969499656 -146.76975075139126 0 -146.76975075139126 232.7488509920222 0 0 0 0 -224.05458679326784 -156.91689589468297 0 -156.91689589468297 318.25668920960743 0 0 0 0 -225.40122938933837 -153.1494108692641 0 -153.1494108692641 345.32255553990217 0 0 0 0 -211.89602936919346 -86.920427302469761 0 -86.920427302469761 279.92042243103788 0 0 0 0 -399.21947510152813 17.618687727318502 0 17.618687727318502 363.918684232136 0 0 0 0 -120.97267541340989 65.619093911162054 0 65.619093911162054 420.5706151152699 0 0 0 0 -146.24116633256403 -289.13858404081293 0 -289.13858404081293 -8.9382582372927573 0 0 0 0 -227.41035101811576 299.38198203696084 0 299.38198203696084 650.67967881380173 0 0 0 0 -28.120311960895467 -73.392303804791595 0 -73.392303804791595 54.728004454545726 0 0 0 0 -22.010438626180985 -203.46235343800072 0 -203.46235343800072 392.6900629514239 0 0 0 0 -197.44498324410779 -198.24265788428602 0 -198.24265788428602 50.843083179934183 0 0 0 0 -143.87805992716767 -201.81430442893179 0 -201.81430442893179 48.663891794596566 0 0 0 0 -206.36023087401554 -240.9154432873911 0 -240.9154432873911 318.64735709890374 0 0 0 0 -121.48542672394319 -90.080891075253021 0 -90.080891075253021 192.5640647730761 0 0 0 0 -107.88517582481563 -118.67303565728071 0 -118.67303565728071 231.33312500563716 0 0 0 0 -210.30207583907759 61.420850174421503 0 61.420850174421503 603.83306606276528 0 0 0 0 -100.68988600123612 365.67817764761639 0 365.67817764761639 252.66263798926229 0 0 0 0 209.98527229324827 -47.429276700611808 0 -47.429276700611808 551.10877356434321 0 0 0 0 -12.190808760900556 -73.247804642463564 0 -73.247804642463564 75.580463128257151 0 0 0 0 81.505696086817807 -263.59986597252282 0 -263.59986597252282 444.41891685692826 0 0 0 0 604.59294751073139 395.39642100472156 0 395.39642100472156 581.87678818970744 0 0 0 0 444.14184243097719 329.15067633745775 0 329.15067633745775 1085.5182516260684 0 0 0 0 1.2140158279421791 -27.409078647486279 0 -27.409078647486279 3.0776648719011348 0 0 0 0 -159.91913721802848 45.74293733475497 0 45.74293733475497 706.38548833738605 0 0 0 0 734.17137351587371 133.12814793035977 0 133.12814793035977 476.2225773781538 0 0 0 0 -91.183606457364476 131.76980750155053 0 131.76980750155053 58.394289556053991 0 0 0 0 -141.6787458068834 -65.662517128352192 0 -65.662517128352192 235.04446498272591 0 0 0 0 -2.7120091757427791 6.8192579988549848 0 6.8192579988549848 187.42929898642225 0 0 0 0 -77.297845965398153 131.84693571528987 0 131.84693571528987 19.449575987768185 0 0 0 0 800.65517712857297 1175.167142184051 0 1175.167142184051 1522.2470400261918 0 0 0 0 -1.9014374170250594 1.8002184662344263 0 1.8002184662344263 26.897990993410673 0 0 0 0 1487.201373651852 1098.1811605586408 0 1098.1811605586408 924.15206500409113 0 0 0 0 1095.6738094946068 1612.1015096140054 0 1612.1015096140054 1408.6062780524226 0 0 0 0 606.56760383952428 1119.7685870824826 0 1119.7685870824826 1429.8280101222044 0 0 0 0 1436.9612860808763 2550.8219784710673 0 2550.8219784710673 3617.5776661211421 0 0 0 0 1552.4988773132629 223.68419745536448 0 223.68419745536448 5486.6207551842235 0 0 0 0 129.68170579075272 -1485.2391753732372 0 -1485.2391753732372 3439.8208002442707 0 0 0 0 815.62255724718648 578.4651680522602 0 578.4651680522602 6596.8844207800794 0 0 0 0 18.435942109123278 6.6576070626954191 0 6.6576070626954191 5.6736799660784456 0 0 0 0 1325.1762845431203 44.918697929449991 0 44.918697929449991 -547.17059234147746 0 0 0 0 2533.9582568013002 1338.8533031434563 0 1338.8533031434563 418.79587981359236 0 0 0 0 37.09554152192392 -164.24300237726857 0 -164.24300237726857 5504.0522879023338 0 0 0 0 379.11693286554629 -235.31329342973913 0 -235.31329342973913 5268.5182256178377 0 0 0 0 -96.21969846358131 64.728996082823869 0 64.728996082823869 5119.4505372873173 0 0 0 0 76.964379115670454 204.24841796900728 0 204.24841796900728 -164.99468164626887 0 0 0 0 47.287315537344405 23.184503720671728 0 23.184503720671728 8.7807023276585596 0 0 0 0 42.287731348281199 -96.015413628847455 0 -96.015413628847455 5268.3225026259388 0 0 0 0 -129.94936775447368 -258.24723055999493 0 -258.24723055999493 5146.685303864323 0 0 0 0 270.32228577648999 928.59921722093168 0 928.59921722093168 1204.5474083234017 0 0 0 0 -467.63983182648531 1121.1355990955581 0 1121.1355990955581 1732.4362052255383 0 0 0 0 -622.54207695786863 -365.45300189688714 0 -365.45300189688714 407.71926176374473 0 0 0 0 -278.54496404057795 927.00400695314693 0 927.00400695314693 872.5283031254512 0 0 0 0 -14.671734766982228 -2.7513640582480861 0 -2.7513640582480861 42.646941949439935 0 0 0 0 -1218.1125655281216 211.75166008287033 0 211.75166008287033 1396.3678522003283 0 0 0 0 948.77285774204029 1503.2390858581421 0 1503.2390858581421 1786.4303729106869 0 0 0 0 692.98891398971227 936.70823328242659 0 936.70823328242659 1174.6117645184058 0 0 0 0 567.37472514249805 1398.4636685900914 0 1398.4636685900914 1308.8706944780351 0 0 0 0 491.27099489257398 1212.4059538926194 0 1212.4059538926194 897.8648462887104 0 0 0 0 -143.32762111646025 1392.4430691071721 0 1392.4430691071721 1440.3800967977659 0 0 0 0 518.5148584173395 1184.6367193805854 0 1184.6367193805854 1281.2879253170549 0 0 0 0 -270.58613280963687 684.03197655292752 0 684.03197655292752 1108.3586808349228 0 0 0 0 -13.989061260186972 -4.2098985383798251 0 -4.2098985383798251 48.163816690379406 0 0 0 0 384.53056505077427 1541.5384580994905 0 1541.5384580994905 2814.3240546811285 0 0 0 0 546.94822146519027 1411.5201413753489 0 1411.5201413753489 798.5882694311731 0 0 0 0 110.93081706870046 -1759.9907257731393 0 -1759.9907257731393 610.98540900928811 0 0 0 0 -4.5639400043220482 -0.59901930828851135 0 -0.59901930828851135 25.863111874452898 0 0 0 0 2292.6097720569983 3841.2497087088122 0 3841.2497087088122 5493.2169103894776 0 0 0 0 1176.7234862199957 2046.900913706213 0 2046.900913706213 2787.8658860532705 0 0 0 0 -700.8748326929782 2038.3485667218229 0 2038.3485667218229 5500.0262595606982 0 0 0 0 -603.94531009286425 1294.8582546145753 0 1294.8582546145753 3076.4761769768666 0 0 0 0 -862.81032629999549 855.37969386710029 0 855.37969386710029 3451.6059332303412 0 0 0 0 -924.22051165878213 1453.4423952756151 0 1453.4423952756151 3978.5894658538891 0 0 0 0 -1550.4558593386889 1019.9886461665519 0 1019.9886461665519 5498.6896246174729 0 0 0 0 -1507.1282688813494 344.92578296421743 0 344.92578296421743 4119.5751815700714 0 0 0 0 -1494.601091875435 128.93783320214015 0 128.93783320214015 5501.4047936771203 0 0 0 0 -535.70704876417653 476.50891841881457 0 476.50891841881457 2895.369705029927 0 0 0 0 -841.54783260115664 1031.5804016173743 0 1031.5804016173743 3382.8203829820377 0 0 0 0 -667.83389916755823 670.33467541000209 0 670.33467541000209 3072.1868968720592 0 0 0 0 -123.95364065147093 -2657.333275104229 0 -2657.333275104229 1104.4094480600797 0 0 0 0 -1285.0708731590616 -910.36059421201026 0 -910.36059421201026 3023.6377799716684 0 0 0 0 -1228.1146453824206 -1341.3946582719018 0 -1341.3946582719018 5486.3246679075637 0 0 0 0 -513.09282416908388 635.67231332480833 0 635.67231332480833 1064.3387869690087 0 0 0 0 -2081.079393677117 -454.16962587353737 0 -454.16962587353737 787.87261251783934 0 0 0 0 -226.55220586244741 757.04938873887295 0 757.04938873887295 1663.0249910674038 0 0 0 0 -307.52038173491718 135.80323157992598 0 135.80323157992598 1823.1131939631632 0 0 0 0 -610.66185137362879 921.05245487229968 0 921.05245487229968 2095.2329537666956 0 0 0 0 -42.707340983135055 1443.5941318394944 0 1443.5941318394944 734.09764963710404 0 0 0 0 -632.12051970701907 966.76254962525536 0 966.76254962525536 3068.1830928334821 0 0 0 0 -431.11048395178386 475.81881761604745 0 475.81881761604745 1508.5309206590055 0 0 0 0 -484.4407826803581 727.30169427550936 0 727.30169427550936 2105.0164159618548 0 0 0 0 -518.58258237750385 618.08483505015738 0 618.08483505015738 2107.7874015637681 0 0 0 0 -215.76062972320801 713.17878845436917 0 713.17878845436917 1836.8114968756636 0 0 0 0 -303.42353429070363 365.52977437118534 0 365.52977437118534 1854.2402654758216 0 0 0 0 -297.41274609958555 361.94161872042332 0 361.94161872042332 1854.1609956802276 0 0 0 0 368.90578054273215 -382.53985631781688 0 -382.53985631781688 2039.5455816726171 0 0 0 0 -965.28246953007283 456.2608806888893 0 456.2608806888893 3131.5131228972023 0 0 0 0 -622.67924265800457 372.704645570293 0 372.704645570293 3146.5565865309572 0 0 0 0 195.77159273547454 887.78890142909313 0 887.78890142909313 1104.2722372734461 0 0 0 0 -592.16336561321441 269.29969095556407 0 269.29969095556407 3539.0987315048151 0 0 0 0 -569.12098826213708 217.04611648151376 0 217.04611648151376 2142.6501978025335 0 0 0 0 -333.98801654644285 91.652697946206899 0 91.652697946206899 2040.6254763581164 0 0 0 0 -771.72876394500918 244.18028170878097 0 244.18028170878097 2683.4608136107818 0 0 0 0 -411.64495380956851 321.14263650497924 0 321.14263650497924 2661.6013206512071 0 0 0 0 -775.69342085942935 339.61071164655277 0 339.61071164655277 3294.9099539633862 0 0 0 0 -872.7613839079454 608.69531245007784 0 608.69531245007784 2819.9775471499288 0 0 0 0 -1104.2131626964992 387.39158046625244 0 387.39158046625244 5458.4939309135807 0 0 0 0 -437.6813207168168 -187.18243852087107 0 -187.18243852087107 2861.8440670062446 0 0 0 0 -219.7185034845952 -929.75125025250964 0 -929.75125025250964 2614.6449329345451 0 0 0 0 -629.59802162759479 -378.76460811268043 0 -378.76460811268043 3062.0591352809251 0 0 0 0 -128.45078023235556 -456.72071173437325 0 -456.72071173437325 1077.9351066797462 0 0 0 0 -641.70551797387088 50.326188550574443 0 50.326188550574443 2773.1057433375754 0 0 0 0 -629.00136294279173 1.7432096881912003 0 1.7432096881912003 2290.172681162654 0 0 0 0 -286.72551998789368 -345.25393418969907 0 -345.25393418969907 2180.1047319902691 0 0 0 0 -290.63475558308664 22.134851335797066 0 22.134851335797066 1235.2434151168563 0 0 0 0 -73.486885044480914 -116.61240081447249 0 -116.61240081447249 1102.5655081064551 0 0 0 0 -134.17686107447025 -257.75130959879698 0 -257.75130959879698 1082.3979981513476 0 0 0 0 234.69904139362188 -19.628995458824647 0 -19.628995458824647 1.1367181026680555 0 0 0 0 215.98476564297349 -714.66913062873823 0 -714.66913062873823 854.2889656049083 0 0 0 0 1279.1321062777752 130.35272411695769 0 130.35272411695769 60.02608009261894 0 0 0 0 -5.4624019704196893 -2.6595974864631202 0 -2.6595974864631202 0.069769012932965779 0 0 0 0 148.19057769148748 -243.11195341577331 0 -243.11195341577331 893.52291844590945 0 0 0 0 1.271256244178403 41.271384998482972 0 41.271384998482972 271.52429607652812 0 0 0 0 -8.1908831080684035 13.057439983617662 0 13.057439983617662 40.855192149259302 0 0 0 0 368.33892465296594 -163.22366882757342 0 -163.22366882757342 4.7003762962121982 0 0 0 0 6.6373940034038146 2.3938861680710346 0 2.3938861680710346 13.118016143126317 0 0 0 0 1157.29865331992 -80.348250560426095 0 -80.348250560426095 -62.907440763953645 0 0 0 0 -50.860563499591422 -143.52248490608281 0 -143.52248490608281 386.94718115079741 0 0 0 0 -20.404874835451707 -16.259793484613034 0 -16.259793484613034 -5.2876855539635628 0 0 0 0 16.487767028749658 -90.398584335198393 0 -90.398584335198393 23.072664009639993 0 0 0 0 119.16266575276859 -97.784625312968274 0 -97.784625312968274 228.4837561781751 0 0 0 0 -850.79653638305626 -692.58205868081677 0 -692.58205868081677 748.71982201652281 0 0 0 0 -171.50203798010625 -1546.6164646094549 0 -1546.6164646094549 796.53572922056628 0 0 0 0 651.89793933158217 -1327.8327631040447 0 -1327.8327631040447 399.88940999987244 0 0 0 0 -299.82636501725756 -614.18856275839607 0 -614.18856275839607 364.46561660707812 0 0 0 0 166.72396031250628 -390.27424263755529 0 -390.27424263755529 470.94451166078215 0 0 0 0 107.15943299486753 -289.01354390107736 0 -289.01354390107736 462.09380254904681 0 0 0 0 104.47785211894825 118.61770663292191 0 118.61770663292191 14.881726557694492 0 0 0 0 3.7498578717514519 -6.1095305337018431 0 -6.1095305337018431 -4.6027192443268738 0 0 0 0 -1.6020746469700953 -127.91482383218045 0 -127.91482383218045 -13.447813408667571 0 0 0 0 254.38848773862537 6.9401531686053204 0 6.9401531686053204 37.440907436259295 0 0 0 0 -87.949783986211969 -85.540110495603585 0 -85.540110495603585 3.3189461581732758 0 0 0 0 -316.67694135598481 -135.17374407842908 0 -135.17374407842908 77.482043758380314 0 0 0 0 210.05414482843844 203.85365540517523 0 203.85365540517523 23.532982354267006 0 0 0 0 -4.9898622665573384 -210.28675748405294 0 -210.28675748405294 -6.6302995634141553 0 0 0 0 3.0273748289687803 6.3808535551937346 0 6.3808535551937346 11.499974977498312 0 0 0 0 250.66505940015486 537.50681550560694 0 537.50681550560694 894.06379336633472 0 0 0 0 112.91691608125075 -78.104981646643864 0 -78.104981646643864 376.7723861301929 0 0 0 0 -253.41800487757064 -479.98517463608732 0 -479.98517463608732 598.06729274571808 0 0 0 0 261.01111084714194 -20.968663846608251 0 -20.968663846608251 -355.40341167545887 0 0 0 0 -422.10133580703524 -234.3694720582946 0 -234.3694720582946 1629.6689331984198 0 0 0 0 -107.35992426021699 -573.89489254600994 0 -573.89489254600994 1915.3739800832936 0 0 0 0 0.47326576934825404 -2.5932658891820566 0 -2.5932658891820566 1.0788321116274737 0 0 0 0 95.1810131888451 -390.31205158718876 0 -390.31205158718876 906.74622905779688 0 0 0 0 -2.7096481834691408 -8.9822409388186273 0 -8.9822409388186273 -0.57692226035700134 0 0 0 0 5.9514328260365801 -218.40264426967042 0 -218.40264426967042 612.16424986180391 0 0 0 0 101.87228673142636 -92.338456617921111 0 -92.338456617921111 361.55617159325993 0 0 0 0 -13.451069585777379 -10.304999656143288 0 -10.304999656143288 9.9814782711987089 0 0 0 0 148.0721673440712 -180.57797195080275 0 -180.57797195080275 210.94253658970842 0 0 0 0 -174.91708245453947 -72.387225674898218 0 -72.387225674898218 50.761042860620066 0 0 0 0 5.7346755050302765 17.213201372010268 0 17.213201372010268 37.219925808979283 0 0 0 0 -127.73398448584067 -218.78260730749116 0 -218.78260730749116 348.36365309861685 0 0 0 0 210.62133475549172 574.87463478786412 0 574.87463478786412 182.54521237806921 0 0 0 0 3.2726783891949567 5.8940201493316735 0 5.8940201493316735 14.217741656718133 0 0 0 0 984.48635548577522 -1585.6119680175161 0 -1585.6119680175161 3475.5541288557033 0 0 0 0 731.11971536024794 -633.97999622476891 0 -633.97999622476891 865.05765273303905 0 0 0 0 1027.1651663109533 19.34977166547651 0 19.34977166547651 4086.2324283387643 0 0 0 0 334.72188660931579 -999.84791564431816 0 -999.84791564431816 3697.8487191797194 0 0 0 0 -59.769042857926365 255.84255451411082 0 255.84255451411082 4794.6047874548731 0 0 0 0 -440.46645465012034 -1344.2017340729735 0 -1344.2017340729735 2940.0281125759084 0 0 0 0 -788.84498782705464 -519.68803419317555 0 -519.68803419317555 3656.0658864222596 0 0 0 0 -191.3665490818255 858.88636677977411 0 858.88636677977411 2092.1943869549523 0 0 0 0 -728.8560422925525 -500.12933885928146 0 -500.12933885928146 1599.3199223324518 0 0 0 0 -471.80605210634076 -1089.9731230665438 0 -1089.9731230665438 2536.7681668594187 0 0 0 0 -658.37318081691808 -558.53718472733351 0 -558.53718472733351 1870.4967615140104 0 0 0 0 -684.73415735614719 -641.2111583643009 0 -641.2111583643009 2832.1651145732685 0 0 0 0 113.57322374800913 -1723.2993373090403 0 -1723.2993373090403 -100.43016971584257 0 0 0 0 1.1221096394675247 -7.3813324217881018 0 -7.3813324217881018 7.012084305293417 0 0 0 0 -547.63892097330063 -2417.5176581094065 0 -2417.5176581094065 1795.5839647236135 0 0 0 0 -0.99255444485160194 -3.4475277513701625 0 -3.4475277513701625 27.638546287987069 0 0 0 0 -554.46818113976769 2087.2814119378418 0 2087.2814119378418 3266.8023696208511 0 0 0 0 -96.366720674512294 -863.01172507003116 0 -863.01172507003116 -61.157491744983417 0 0 0 0 -3.2210660664681603 -6.4783304461500233 0 -6.4783304461500233 57.280431513829342 0 0 0 0 -2654.4910267638265 -361.99956241339441 0 -361.99956241339441 1626.1547604271855 0 0 0 0 93.054926579912262 150.66864458222426 0 150.66864458222426 522.92372723470362 0 0 0 0 -273.79166261581946 106.66184310833239 0 106.66184310833239 3978.8871435930314 0 0 0 0 -906.00655910569139 1629.9969829208492 0 1629.9969829208492 3655.7197990245795 0 0 0 0 -1069.8848214869281 1844.1130162176605 0 1844.1130162176605 5490.3691233547752 0 0 0 0 -0.61466471577384096 -2.2010822433559571 0 -2.2010822433559571 29.924819689637907 0 0 0 0 -38.580511082107108 3126.1212806963927 0 3126.1212806963927 2774.0534317834263 0 0 0 0 -132.36792734343084 421.22684796628306 0 421.22684796628306 4269.1129883707672 0 0 0 0 -418.42866115822471 529.81617663431825 0 529.81617663431825 4866.676655596214 0 0 0 0 -620.47887176991424 727.53858158793832 0 727.53858158793832 5500.8938606968695 0 0 0 0 -814.43118473377513 186.27748439286373 0 186.27748439286373 4343.0861625209063 0 0 0 0 -996.83796072736868 -422.14218017892722 0 -422.14218017892722 4212.4059099086526 0 0 0 0 -998.46661462006648 -59.90363965316476 0 -59.90363965316476 5498.6780344252638 0 0 0 0 -720.41602379098651 -326.35379484568364 0 -326.35379484568364 4193.294470300495 0 0 0 0 -996.2182816268114 -796.2521624847509 0 -796.2521624847509 5500.1543054702652 0 0 0 0 -281.91172391806185 -458.18118680127873 0 -458.18118680127873 4246.3514511148069 0 0 0 0 521.61779173908565 -1503.7431719929523 0 -1503.7431719929523 5497.9532457642526 0 0 0 0 -71.980478137661407 -1661.4043860845979 0 -1661.4043860845979 4176.2975504497217 0 0 0 0 753.30608002387737 -740.59208653476026 0 -740.59208653476026 4693.0529653632784 0 0 0 0 2187.8286770052446 -2926.6100967060593 0 -2926.6100967060593 3500.6759198852051 0 0 0 0 -514.67426204128697 -466.30820362951999 0 -466.30820362951999 7047.9297195249183 0 0 0 0 1.0044972403377108 -7.4061923018848486 0 -7.4061923018848486 8.87920568479786 0 0 0 0 -324.61754150965135 -727.79409082326629 0 -727.79409082326629 2340.2750696368516 0 0 0 0 57.948238723218992 -24.903077694285457 0 -24.903077694285457 3595.7518083649775 0 0 0 0 1.3955535711580609 -16.540466052004916 0 -16.540466052004916 13.394938317336129 0 0 0 0 -423.45212354574369 -366.98589108073566 0 -366.98589108073566 2895.0926109786647 0 0 0 0 43.1458452943059 -1086.1641791013676 0 -1086.1641791013676 514.87812138409049 0 0 0 0 2000.4243057313583 -857.93471916365797 0 -857.93471916365797 -2859.5271466611266 0 0 0 0 3231.6406567155746 -3868.1996155429242 0 -3868.1996155429242 2451.815164036987 0 0 0 0 3.7682575668016649 -6.8093361661218008 0 -6.8093361661218008 48.419613868150279 0 0 0 0 968.14868450543077 -2895.5134770534996 0 -2895.5134770534996 3071.4675184583721 0 0 0 0 1139.1499500620303 -4327.6486814923883 0 -4327.6486814923883 5489.3489528336941 0 0 0 0 1569.0544083416953 -2419.2341421307501 0 -2419.2341421307501 3448.4781375196708 0 0 0 0 1977.5230084503958 -2211.989595290021 0 -2211.989595290021 3271.5075735956616 0 0 0 0 976.95176902986327 -3013.19026014885 0 -3013.19026014885 4056.1191739435453 0 0 0 0 995.58822785361224 -2321.1981078384979 0 -2321.1981078384979 5500.9883414154983 0 0 0 0 775.95419208570422 -1711.9200259102699 0 -1711.9200259102699 3900.7255859481429 0 0 0 0 2269.6524144551231 -1542.6451752071171 0 -1542.6451752071171 3908.5967505317158 0 0 0 0 180.69049454332503 844.35633130794622 0 844.35633130794622 1355.60128793283 0 0 0 0 0.72476978776873402 0.47318942705088851 0 0.47318942705088851 39.381894682419215 0 0 0 0 -235.01468343561248 877.55802144076779 0 877.55802144076779 3058.7472898263786 0 0 0 0 223.38586792721844 -235.22344505850015 0 -235.22344505850015 1376.9879822373277 0 0 0 0 432.8334105248407 -1867.5575275651208 0 -1867.5575275651208 4581.4065513871692 0 0 0 0 607.60640904122238 -487.58148545456231 0 -487.58148545456231 859.67253901951335 0 0 0 0 -350.6492643689644 -95.579939818009734 0 -95.579939818009734 2658.250642578736 0 0 0 0 301.78237213519719 164.6673102212344 0 164.6673102212344 966.41740172504069 0 0 0 0 -62.961753825919914 -18.688778005527638 0 -18.688778005527638 2622.6136396286483 0 0 0 0 41.095737825391552 -287.99238877746484 0 -287.99238877746484 673.97891052890191 0 0 0 0 -1038.8044472767019 1211.4234362759216 0 1211.4234362759216 -5650.8968648661685 0 0 0 0 -274.98487849494927 -980.67343196282854 0 -980.67343196282854 1554.2836962411384 0 0 0 0 -1.4630584181173589 -0.22674581682226003 0 -0.22674581682226003 27.806100746263255 0 0 0 0 -143.57361955872329 -603.59817357814245 0 -603.59817357814245 2523.9951330191871 0 0 0 0 -2739.4226202057066 -1273.2832552463897 0 -1273.2832552463897 8065.5684765005935 0 0 0 0 -2286.0934765905672 165.47985268524326 0 165.47985268524326 843.44149274594383 0 0 0 0 -330.46913147361101 148.54481168825782 0 148.54481168825782 3343.6001337782727 0 0 0 0 -1602.0179045233645 1614.6548063694445 0 1614.6548063694445 1684.4996773428466 0 0 0 0 -3.5003699848657388 -7.3451659292006282 0 -7.3451659292006282 91.956289310655819 0 0 0 0 -1.8014733532337286 -5.2795592825137767 0 -5.2795592825137767 69.290546389784183 0 0 0 0 -1972.2898222975796 -845.8941357293661 0 -845.8941357293661 8449.3114784141944 0 0 0 0 -400.90210728027751 217.48070415008078 0 217.48070415008078 237.39473807071045 0 0 0 0 27.329893724606109 126.33783006295016 0 126.33783006295016 130.54683912401379 0 0 0 0 -12.369875741273859 21.902103274488127 0 21.902103274488127 19.470754661109822 0 0 0 0 973.86405364030759 -255.03725688306281 0 -255.03725688306281 -274.92098919978525 0 0 0 0 768.38845063308463 894.55774712649873 0 894.55774712649873 -1319.4939655645467 0 0 0 0 -1537.0235118539397 -231.34001179430834 0 -231.34001179430834 -1216.2243116960453 0 0 0 0 -2.0633524456783969 -1.3672515014816362 0 -1.3672515014816362 43.48805241294464 0 0 0 0 3.1693239513334888 3.6704050723254085 0 3.6704050723254085 2.9730281395142555 0 0 0 0 -257.408550524269 474.19827115481621 0 474.19827115481621 589.53952284392824 0 0 0 0 -134.78554228202336 -86.858812976057607 0 -86.858812976057607 825.76876412924321 0 0 0 0 34.629151028737851 79.165728200792728 0 79.165728200792728 -171.68054684461458 0 0 0 0 379.19269687343922 -3.6695464481235831 0 -3.6695464481235831 -193.56718857486862 0 0 0 0 339.64119219467773 263.45115276770298 0 263.45115276770298 690.09312329911336 0 0 0 0 386.86072310440409 -181.43988208644799 0 -181.43988208644799 -383.32987923375185 0 0 0 0 -234.67808685104501 -132.98405852832002 0 -132.98405852832002 84.172279446000175 0 0 0 0 33.308027101411426 -85.195773872608243 0 -85.195773872608243 49.868602563492459 0 0 0 0 16.928612796600795 2.9613844334290533 0 2.9613844334290533 25.727509683473372 0 0 0 0 286.09892082552506 251.88454899272801 0 251.88454899272801 157.35825349780498 0 0 0 0 141.1362648717286 -89.727740055403501 0 -89.727740055403501 147.34535368704383 0 0 0 0 15.379890114954373 6.1967073699825086 0 6.1967073699825086 18.553239810481188 0 0 0 0 50.43818115908789 -1.6197596293659444 0 -1.6197596293659444 -11.793038552062171 0 0 0 0 32.395106830343543 -16.056899508233546 0 -16.056899508233546 9.8531797465964104 0 0 0 0 86.884169272444751 -16.001469844551139 0 -16.001469844551139 -25.485547413081804 0 0 0 0 140.23356102053822 157.55856353124909 0 157.55856353124909 -13.241984050679093 0 0 0 0 6.3746871482529439 9.9484788529759882 0 9.9484788529759882 8.3902295190728609 0 0 0 0 145.81451169896172 116.20380262016261 0 116.20380262016261 -75.98188576778557 0 0 0 0 -15.631401276836868 60.534304375700231 0 60.534304375700231 -66.63830019087618 0 0 0 0 -163.07140279566056 166.00314365304621 0 166.00314365304621 197.97251115208564 0 0 0 0 353.77589215190574 400.50484056429013 0 400.50484056429013 157.63275595248706 0 0 0 0 488.55005209016599 -15.537295137615274 0 -15.537295137615274 -163.66487649182091 0 0 0 0 147.62162170633746 38.326061612924605 0 38.326061612924605 -58.236618717233796 0 0 0 0 2.0653633328986545 -13.503895923256394 0 -13.503895923256394 61.678583594565467 0 0 0 0 143.95369275262277 66.297481352754914 0 66.297481352754914 11.514109051931882 0 0 0 0 647.93663031838037 -1084.965086405361 0 -1084.965086405361 1158.2144886935812 0 0 0 0 380.9599713785388 -950.5087618659818 0 -950.5087618659818 1818.1424455333981 0 0 0 0 -375.47874660951118 -663.20815558260927 0 -663.20815558260927 2157.9581657421004 0 0 0 0 282.76700538107207 -1609.3798582453715 0 -1609.3798582453715 3375.8085731956335 0 0 0 0 818.764751013764 -825.28692632901141 0 -825.28692632901141 1851.3025234589468 0 0 0 0 1142.8336495440901 -1279.8040330898655 0 -1279.8040330898655 1369.0782721735227 0 0 0 0 900.75198198458793 -2318.4209521003013 0 -2318.4209521003013 4118.7471118273397 0 0 0 0 255.40977126980579 -311.25396570154408 0 -311.25396570154408 1410.7364230773712 0 0 0 0 507.03232316297863 -354.40626168727522 0 -354.40626168727522 140.191201280315 0 0 0 0 -0.25093048031998322 8.8350732905634271 0 8.8350732905634271 95.674021237350559 0 0 0 0 504.77790346125857 -478.00746048330802 0 -478.00746048330802 997.1395509593367 0 0 0 0 913.43702710041816 -730.15202079320306 0 -730.15202079320306 608.0685356262311 0 0 0 0 391.02972137114557 -263.35816095107475 0 -263.35816095107475 1275.7815038188874 0 0 0 0 191.95756133171952 -320.97087859115618 0 -320.97087859115618 642.31407822960136 0 0 0 0 485.39250349604629 -307.94457164277355 0 -307.94457164277355 356.37412003529539 0 0 0 0 366.66393390178678 -194.87830613716869 0 -194.87830613716869 68.418298223117745 0 0 0 0 -2.8263018805931992 12.401500721014131 0 12.401500721014131 31.098681160126944 0 0 0 0 2.1694972769629874 14.505227419097908 0 14.505227419097908 115.24723450489137 0 0 0 0 -100.4459760113723 -21.912633597323293 0 -21.912633597323293 265.55872014909073 0 0 0 0 -9.2309564215320279 129.84382468571675 0 129.84382468571675 33.407732658590248 0 0 0 0 86.251835108145315 82.002135306278433 0 82.002135306278433 15.805734024068443 0 0 0 0 -185.64694539487209 62.56107460905514 0 62.56107460905514 163.72704193966638 0 0 0 0 -0.86711580813892564 20.376738515033427 0 20.376738515033427 107.07911028976326 0 0 0 0 -394.23288304599555 226.2266652694143 0 226.2266652694143 353.14926589190873 0 0 0 0 91.795370765735981 -150.6825946982226 0 -150.6825946982226 382.82644769007311 0 0 0 0 129.79740857412634 -185.95978004803715 0 -185.95978004803715 228.02724181371377 0 0 0 0 67.247654414026783 35.269369750494661 0 35.269369750494661 80.369200132376136 0 0 0 0 -74.186781864772456 -3.375929494472075 0 -3.375929494472075 205.17182419338678 0 0 0 0 0.70722504671300612 -243.06603464135151 0 -243.06603464135151 351.70739395258533 0 0 0 0 251.50942825033837 -479.28869180385664 0 -479.28869180385664 519.39262530895576 0 0 0 0 523.29563323627826 -608.09285838621975 0 -608.09285838621975 451.8356828486576 0 0 0 0 249.3913158317356 -535.6461858660623 0 -535.6461858660623 -659.71964349806331 0 0 0 0 45.121446087015102 -675.94926024834876 0 -675.94926024834876 996.21348351292045 0 0 0 0 221.61696763337932 -606.12513049044856 0 -606.12513049044856 578.0031303269534 0 0 0 0 -348.22439279358105 -88.792757021099533 0 -88.792757021099533 613.15777977677396 0 0 0 0 -343.55804834697881 26.736859383394403 0 26.736859383394403 294.87423810388646 0 0 0 0 51.351114606214651 -220.11134829295224 0 -220.11134829295224 329.03314465019503 0 0 0 0 -127.28289218425425 -62.231463022037133 0 -62.231463022037133 -12.506358148049912 0 0 0 0 67.32368956526966 -284.36682530475264 0 -284.36682530475264 304.33781521668061 0 0 0 0 -700.49735829604037 -77.891886332467038 0 -77.891886332467038 653.95460053970783 0 0 0 0 -628.10926677549037 581.69254479552365 0 581.69254479552365 -13.958803542066576 0 0 0 0 -5.0579134614436514 22.217501483411425 0 22.217501483411425 50.689607250328201 0 0 0 0 759.60177618550335 -1563.5306780356846 0 -1563.5306780356846 2517.6482785261596 0 0 0 0 603.34048698387187 -723.88720009872031 0 -723.88720009872031 2272.4784403320878 0 0 0 0 473.90685795524587 -956.82923783780825 0 -956.82923783780825 1880.5790829318885 0 0 0 0 704.60262639118127 -2542.8513866602616 0 -2542.8513866602616 5817.4080582066363 0 0 0 0 -2.6524178640672122 6.4040139222474508 0 6.4040139222474508 21.272643866593111 0 0 0 0 1213.0216506371471 -1480.1199615424482 0 -1480.1199615424482 2703.9021602070025 0 0 0 0 -66.023777138836522 -1005.4748240536558 0 -1005.4748240536558 679.57297737108911 0 0 0 0 -102.31090970556579 -742.71990183446951 0 -742.71990183446951 1832.4643990245202 0 0 0 0 3.5991829998602043 -926.77514311831783 0 -926.77514311831783 1694.5110058935643 0 0 0 0 210.52788205370734 -643.48112975213314 0 -643.48112975213314 2064.8696041615417 0 0 0 0 700.01485038409101 -972.47517058913047 0 -972.47517058913047 1565.9649690722226 0 0 0 0 179.61639108239524 -1160.7214776268106 0 -1160.7214776268106 2013.8491824101106 0 0 0 0 -275.6249473689295 -1102.2374175386035 0 -1102.2374175386035 1795.8892494489667 0 0 0 0 -16.761504870305544 -858.4563148939335 0 -858.4563148939335 1814.6115236515848 0 0 0 0 -457.14288018526713 -993.27280950487739 0 -993.27280950487739 2385.9586215958207 0 0 0 0 108.66849744739466 -750.42695700756849 0 -750.42695700756849 1859.8099038490345 0 0 0 0 -317.00714047927977 -412.54295480159999 0 -412.54295480159999 1649.8116777964842 0 0 0 0 -426.63273142792241 -554.85712207644451 0 -554.85712207644451 2236.080329319504 0 0 0 0 -1.1683015363708926 32.393821914450328 0 32.393821914450328 76.199487244197101 0 0 0 0 249.51034625280408 -500.55416902129946 0 -500.55416902129946 1439.068105327402 0 0 0 0 250.74365998403937 -634.14276644592792 0 -634.14276644592792 1321.1725864502241 0 0 0 0 -211.14318025645889 233.85915521618017 0 233.85915521618017 106.99716395567884 0 0 0 0 -14.832320270715627 37.252684660628802 0 37.252684660628802 3.0687589145200036 0 0 0 0 -40.841616252213043 -22.706375751303312 0 -22.706375751303312 60.901438000299095 0 0 0 0 -52.920143868059881 45.323200545985856 0 45.323200545985856 115.65482832078851 0 0 0 0 -60.949935506674592 -234.28723113752312 0 -234.28723113752312 628.91357595705995 0 0 0 0 209.70349110256757 -611.24138641729405 0 -611.24138641729405 752.979585561774 0 0 0 0 5.0525798829477591 12.290618297047464 0 12.290618297047464 -5.2779015037623438 0 0 0 0 -306.10899548593443 -441.72865064675898 0 -441.72865064675898 1636.4766710089552 0 0 0 0 -632.96940743305095 341.83984436660467 0 341.83984436660467 112.59415764500591 0 0 0 0 -419.44466622816617 69.978955079397565 0 69.978955079397565 113.59491690376308 0 0 0 0 -14.232232996803624 -2.9424555067613021 0 -2.9424555067613021 20.78813361835552 0 0 0 0 -115.89146680653175 1.2478840965568452 0 1.2478840965568452 756.95428919859842 0 0 0 0 36.234854086476844 -44.451655318027406 0 -44.451655318027406 -68.582537049253006 0 0 0 0 523.37156288028928 559.78220801394491 0 559.78220801394491 473.19214532454089 0 0 0 0 -254.71335276592799 -17.635983510090227 0 -17.635983510090227 1394.759147051298 0 0 0 0 -258.42316088466214 -9.100880495232559 0 -9.100880495232559 2221.1111428052882 0 0 0 0 32.423914813673171 -30.149292767953959 0 -30.149292767953959 33.497641616194116 0 0 0 0 710.99972644174068 -549.56357893900122 0 -549.56357893900122 -1675.048087479674 0 0 0 0 8.2413559175516511 -8.2528155399942307 0 -8.2528155399942307 8.5079268097473175 0 0 0 0 -436.69159803905131 913.40348332411668 0 913.40348332411668 2512.384807015158 0 0 0 0 -806.88665468342515 585.22936778935673 0 585.22936778935673 2514.9271124605893 0 0 0 0 -922.03969177373119 25.823397849714866 0 25.823397849714866 9825.1364863937706 0 0 0 0 -497.15431293026995 -124.61526008105739 0 -124.61526008105739 3736.7194657191412 0 0 0 0 -562.13494390963751 -675.84115945030953 0 -675.84115945030953 3128.7006165701105 0 0 0 0 -563.17793204339614 -635.47112023544241 0 -635.47112023544241 2188.6823988194492 0 0 0 0 -478.20583703584407 -49.823428887538284 0 -49.823428887538284 2230.5341373458214 0 0 0 0 1166.5847039580076 -654.19253248134009 0 -654.19253248134009 -429.85026813677541 0 0 0 0 102.95581623375506 78.307008294495972 0 78.307008294495972 703.02316506336501 0 0 0 0 1335.424392698922 -2556.3485240067857 0 -2556.3485240067857 4072.5471981166193 0 0 0 0 -339.34022185032336 121.35795970151776 0 121.35795970151776 820.89358505575001 0 0 0 0 -370.42358493871052 -247.20480984521237 0 -247.20480984521237 -6.0476321128498967 0 0 0 0 2290.4739579420639 5527.9178986799179 0 5527.9178986799179 1644.544919401771 0 0 0 0 1186.186748770233 -3265.5104425191184 0 -3265.5104425191184 5372.6552809081822 0 0 0 0 11.733688890791072 -19.449934648319477 0 -19.449934648319477 25.736626066334367 0 0 0 0 -215.08881447891281 -2632.1155633673625 0 -2632.1155633673625 9802.9335589509938 0 0 0 0 -872.49556254975778 -1702.2412630728704 0 -1702.2412630728704 8973.1814348130792 0 0 0 0 404.93561727577617 -2078.7403140282913 0 -2078.7403140282913 8629.3685893020556 0 0 0 0 -1562.6478441401887 1022.0699281690104 0 1022.0699281690104 4216.2181514160111 0 0 0 0 2416.9846519588809 40.725995415868965 0 40.725995415868965 2716.8109014790243 0 0 0 0 658.38980635688927 1689.470971787101 0 1689.470971787101 4186.9909777593348 0 0 0 0 9.477933654527078 -859.03873295668018 0 -859.03873295668018 -1861.6172674643858 0 0 0 0 1037.4566161148014 2414.273487998169 0 2414.273487998169 562.6463746078698 0 0 0 0 2609.906724466442 -2238.2276306506865 0 -2238.2276306506865 1486.0109634639375 0 0 0 0 -1572.4977086545114 -484.14992482354864 0 -484.14992482354864 7386.2128567781619 0 0 0 0 9.2702057160692704 -23.855935610136427 0 -23.855935610136427 63.125413387711006 0 0 0 0 1357.2551756867288 -283.54060521140934 0 -283.54060521140934 -351.6175523975819 0 0 0 0 -731.18407780512825 62.183717674607806 0 62.183717674607806 433.5021175816546 0 0 0 0 255.4990600608071 311.70060595191808 0 311.70060595191808 157.82162084221818 0 0 0 0 -461.61175869835279 389.1314029260808 0 389.1314029260808 353.96503643861774 0 0 0 0 1258.537899961957 926.88763120228032 0 926.88763120228032 -306.02103070082376 0 0 0 0 -899.83339581238579 -1123.6528325773979 0 -1123.6528325773979 -663.42454141972848 0 0 0 0 -319.57844354017107 -703.58677120065659 0 -703.58677120065659 -753.06862041600834 0 0 0 0 13.59471799527701 -55.790128689733137 0 -55.790128689733137 154.27860656101402 0 0 0 0 12.574148653701076 -27.404423476028587 0 -27.404423476028587 1.3639404236796508 0 0 0 0 -1231.5533821364461 -430.71183010136156 0 -430.71183010136156 102.00530772254569 0 0 0 0 -400.1786564855629 -983.82821039776354 0 -983.82821039776354 2206.6697393746986 0 0 0 0 -396.97823611745844 -1196.728944063382 0 -1196.728944063382 2488.441996186938 0 0 0 0 -309.74253011420296 -1560.129209789618 0 -1560.129209789618 3958.9710059443673 0 0 0 0 568.93939599065197 -1778.1627403907528 0 -1778.1627403907528 1928.16024283978 0 0 0 0 993.50060159701752 -1666.9919208829408 0 -1666.9919208829408 1954.9554018758076 0 0 0 0 -0.34016283937187097 5.0795913200234395 0 5.0795913200234395 -7.7417623587444968 0 0 0 0 334.83529649091724 -368.96269130905694 0 -368.96269130905694 1247.6992553249725 0 0 0 0 302.08443164107757 -807.0538852451823 0 -807.0538852451823 960.54550861336111 0 0 0 0 -405.40672495449871 -1245.5816618472736 0 -1245.5816618472736 2055.4234031965461 0 0 0 0 -378.06641726746375 -663.36592987694121 0 -663.36592987694121 327.61103041336901 0 0 0 0 -216.31500699147546 -686.34082516708077 0 -686.34082516708077 -665.8094586388861 0 0 0 0 -340.983690338835 -164.40847675314399 0 -164.40847675314399 149.80386607157561 0 0 0 0 -322.86785864458943 -184.09112235652174 0 -184.09112235652174 160.11744954082496 0 0 0 0 -409.54150359796949 -174.16363973370335 0 -174.16363973370335 383.78109870296612 0 0 0 0 -223.34045030918423 76.787519276212151 0 76.787519276212151 603.32741030689613 0 0 0 0 -506.74047895537524 -254.88557613547528 0 -254.88557613547528 -72.637385424270178 0 0 0 0 -27.821191116097101 -15.00122307889521 0 -15.00122307889521 85.671274485342593 0 0 0 0 -433.02594940905146 -137.50300644127856 0 -137.50300644127856 -43.728494979062816 0 0 0 0 -671.56446644493849 -347.85931483237619 0 -347.85931483237619 -71.252213795203716 0 0 0 0 -624.08701820046144 -216.93960753900865 0 -216.93960753900865 -16.907029824666097 0 0 0 0 -105.45048013535052 -54.021848255593795 0 -54.021848255593795 65.956246210247627 0 0 0 0 14.620183308684256 -56.582748878785821 0 -56.582748878785821 116.33935824137569 0 0 0 0 -94.361321991659494 16.961065242132399 0 16.961065242132399 161.43973012087599 0 0 0 0 -88.77505568061315 132.14682658385573 0 132.14682658385573 169.07084163377294 0 0 0 0 -21.297420948039665 7.3637376738423015 0 7.3637376738423015 30.702749759731795 0 0 0 0 -276.7215815783602 -217.9440541765789 0 -217.9440541765789 12.871190800564364 0 0 0 0 -330.31379007566647 43.179339721808446 0 43.179339721808446 181.79348188085532 0 0 0 0 -349.12171221606786 -184.92646971510658 0 -184.92646971510658 174.43215747746217 0 0 0 0 -333.48412270747485 -204.33485203570717 0 -204.33485203570717 188.7201697701712 0 0 0 0 -338.42252057870792 -111.14231739070419 0 -111.14231739070419 273.58009458166271 0 0 0 0 -6.1720737909463139 396.57006498490955 0 396.57006498490955 159.29747974904603 0 0 0 0 -107.93107131750247 -1826.283960733308 0 -1826.283960733308 2831.444315796216 0 0 0 0 -4.6334205349147464 2.2006342776792565 0 2.2006342776792565 7.7981974087999788 0 0 0 0 -229.63033307186845 -22.459295338141601 0 -22.459295338141601 209.26725850935509 0 0 0 0 -19.462214997526328 -30.808146078782567 0 -30.808146078782567 179.66555926391209 0 0 0 0 -206.98391490317226 -117.68490448700959 0 -117.68490448700959 132.16660785896784 0 0 0 0 -113.37412895289344 -480.92862130420326 0 -480.92862130420326 672.99527017255605 0 0 0 0 -365.09821942882627 -31.925393657793393 0 -31.925393657793393 210.48762073484363 0 0 0 0 -330.97241030649457 -83.479534101939862 0 -83.479534101939862 214.09096239641804 0 0 0 0 -368.22958184963045 -75.814336306429595 0 -75.814336306429595 285.57277390031231 0 0 0 0 -461.50935470382319 -52.959244237756138 0 -52.959244237756138 250.71029903313865 0 0 0 0 -314.76882522377309 9.4883133898326832 0 9.4883133898326832 259.15668735169311 0 0 0 0 -324.40405239329448 -48.156354445391344 0 -48.156354445391344 91.120561711486516 0 0 0 0 -361.59832113457378 170.83527800666343 0 170.83527800666343 156.41184108163361 0 0 0 0 -6.1910184232586163 -33.515420564189249 0 -33.515420564189249 187.25561200487289 0 0 0 0 -543.10921552531704 -53.558919254078319 0 -53.558919254078319 325.27329142584495 0 0 0 0 -6.2022425689452518 -67.117485137769108 0 -67.117485137769108 70.677577078780814 0 0 0 0 -126.39599093892957 23.065269219438051 0 23.065269219438051 330.46725756721389 0 0 0 0 -78.230480118224023 129.36174303640428 0 129.36174303640428 524.09199428941429 0 0 0 0 -271.12072008522955 35.175955275630258 0 35.175955275630258 441.9306429020744 0 0 0 0 -338.28425479999714 -81.234191716146597 0 -81.234191716146597 252.10622209213943 0 0 0 0 -354.97525566887089 -54.3683116748457 0 -54.3683116748457 375.81566123545053 0 0 0 0 -188.46960252051304 37.746664206862079 0 37.746664206862079 264.3140754255146 0 0 0 0 -282.78200954177373 11.063773004052564 0 11.063773004052564 245.28310060572585 0 0 0 0 -258.29296651556797 74.464056921362499 0 74.464056921362499 328.96412310384858 0 0 0 0 -233.95773966067645 60.32258248195285 0 60.32258248195285 214.68119170177852 0 0 0 0 -234.8465229098183 70.156112475651753 0 70.156112475651753 305.10829657526483 0 0 0 0 -148.66784981662022 122.57610216373178 0 122.57610216373178 413.06821620734991 0 0 0 0 -39.462498192566272 83.381034841329893 0 83.381034841329893 272.94926433014189 0 0 0 0 -29.429053008183473 121.00954627973078 0 121.00954627973078 413.50063573975058 0 0 0 0 137.78178701693832 97.784700811860603 0 97.784700811860603 362.34650349912954 0 0 0 0 128.25346713402473 55.766626746821657 0 55.766626746821657 378.90374290440013 0 0 0 0 173.59648038130126 1.6086098080013471 0 1.6086098080013471 538.71533302597391 0 0 0 0 291.59978591942308 181.33685974649416 0 181.33685974649416 475.38743817469185 0 0 0 0 443.24392807978188 63.223621680765973 0 63.223621680765973 253.13742091820313 0 0 0 0 266.69183065920606 -64.99075854316834 0 -64.99075854316834 212.32024780449137 0 0 0 0 292.47570177807484 9.8988296662319044 0 9.8988296662319044 356.55961200058664 0 0 0 0 398.45577211905879 -292.95525725688276 0 -292.95525725688276 52.877514973597954 0 0 0 0 354.38973456390727 -267.43770384935851 0 -267.43770384935851 601.12262185739382 0 0 0 0 6.7670394269317722 -7.0247930454232375 0 -7.0247930454232375 8.1654270778096745 0 0 0 0 -220.39268298139996 1001.4322410832247 0 1001.4322410832247 673.96018126261333 0 0 0 0 438.71332723797275 -307.12276496816412 0 -307.12276496816412 -392.0533623830961 0 0 0 0 158.13996715802205 197.94098845249755 0 197.94098845249755 380.97272471251199 0 0 0 0 112.414455545191 58.459892863978894 0 58.459892863978894 593.7835533686939 0 0 0 0 -408.13295981205601 70.498421194979528 0 70.498421194979528 382.09295927487619 0 0 0 0 312.19947536985251 346.3334712666765 0 346.3334712666765 -374.84651410583643 0 0 0 0 447.57710413143002 71.382532979012467 0 71.382532979012467 266.58249394826635 0 0 0 0 476.89349756530589 173.55425711743737 0 173.55425711743737 -96.184731910617302 0 0 0 0 361.57383675857363 140.66669908034964 0 140.66669908034964 285.64145078615547 0 0 0 0 441.98490125186606 140.53473105899684 0 140.53473105899684 272.08976027927201 0 0 0 0 468.82607866554673 314.07613032668451 0 314.07613032668451 474.07733144143822 0 0 0 0 328.24858112762365 217.54057572899535 0 217.54057572899535 1335.6447444010373 0 0 0 0 341.55187965126515 2.319628949183425 0 2.319628949183425 999.43204794642952 0 0 0 0 378.93279594686612 -70.496706279993305 0 -70.496706279993305 1411.5298167450069 0 0 0 0 124.20016825438574 303.19285593646146 0 303.19285593646146 1528.6504141701371 0 0 0 0 547.70103537921477 11.010497912831852 0 11.010497912831852 293.59181412202634 0 0 0 0 303.45226544871025 498.55755926187157 0 498.55755926187157 1095.1443968686435 0 0 0 0 675.09897152397343 -293.97671447200446 0 -293.97671447200446 1821.9765572621882 0 0 0 0 244.87070231091428 352.43941662307361 0 352.43941662307361 2871.5228091389199 0 0 0 0 106.69841610456797 -358.12732299512754 0 -358.12732299512754 2362.3770494196269 0 0 0 0 55.569826612827569 -234.04148918075521 0 -234.04148918075521 1284.8598446028445 0 0 0 0 140.69087232321363 -169.69475017290279 0 -169.69475017290279 1333.4057212619218 0 0 0 0 -255.21857675570391 -320.80175446217891 0 -320.80175446217891 1270.9623729405967 0 0 0 0 63.125892157463113 -269.03419560172392 0 -269.03419560172392 498.80673727726025 0 0 0 0 -33.819578837894369 -57.781343008082331 0 -57.781343008082331 435.19223768196389 0 0 0 0 49.450795731801009 124.2623514769266 0 124.2623514769266 833.14524948996404 0 0 0 0 356.29034718205185 185.39880846588403 0 185.39880846588403 710.52721278696299 0 0 0 0 22.245815843582022 6.1924267776739725 0 6.1924267776739725 383.68038770334533 0 0 0 0 11.50641453666185 26.729697631708405 0 26.729697631708405 532.65654112096672 0 0 0 0 -44.243263305054825 -61.145667048207542 0 -61.145667048207542 588.77591557264532 0 0 0 0 15.76440656677164 10.078582337375337 0 10.078582337375337 438.72933613063651 0 0 0 0 -10.239058906836703 -52.705848190936194 0 -52.705848190936194 491.60156182036735 0 0 0 0 81.809725493576934 -24.696209995290701 0 -24.696209995290701 405.20593295412982 0 0 0 0 89.786260185780975 43.622744566533584 0 43.622744566533584 381.56464890951611 0 0 0 0 7.2581986034497277 77.557652987834445 0 77.557652987834445 730.49364367857925 0 0 0 0 92.156200760402044 143.94314646100611 0 143.94314646100611 684.84658944496186 0 0 0 0 -21.953654717801328 172.13664420753412 0 172.13664420753412 1055.9204951855063 0 0 0 0 52.798894464225668 174.27792657197278 0 174.27792657197278 681.88782934321671 0 0 0 0 -1.9517026715411703 101.00403952627312 0 101.00403952627312 729.01862826474235 0 0 0 0 -58.733919034469409 100.40374842741585 0 100.40374842741585 952.39936322474387 0 0 0 0 -59.540077025680603 49.561921660164444 0 49.561921660164444 803.23726725756569 0 0 0 0 -27.626245803193797 82.506795477413107 0 82.506795477413107 794.0469735532879 0 0 0 0 -90.135936925759552 78.526435080206284 0 78.526435080206284 933.91711118112289 0 0 0 0 -55.425727181346701 163.71845243085409 0 163.71845243085409 1020.7722932479373 0 0 0 0 -127.01790886986055 -64.627054381980997 0 -64.627054381980997 857.19399541480379 0 0 0 0 22.559722205021558 344.77113588956308 0 344.77113588956308 1208.9237534935892 0 0 0 0 -116.27740081113498 11.614740855160107 0 11.614740855160107 1384.4146147038773 0 0 0 0 2.9652884181071189 4.3556436401698093 0 4.3556436401698093 8.5396067022719819 0 0 0 0 131.26741769340424 -394.02953802053707 0 -394.02953802053707 952.47524724881805 0 0 0 0 123.58605722717357 -153.17418507538241 0 -153.17418507538241 -44.828283460970852 0 0 0 0 22.57846914959373 -161.06100814840465 0 -161.06100814840465 540.84979883176493 0 0 0 0 -40.443800371012458 7.6104899088313687 0 7.6104899088313687 713.72344288704335 0 0 0 0 5.2424887174156893 12.155067004892267 0 12.155067004892267 21.04822063266306 0 0 0 0 -42.610588019817897 155.46599819260155 0 155.46599819260155 64.749924682934761 0 0 0 0 -65.128329336848708 10.75463924251153 0 10.75463924251153 123.39437380393792 0 0 0 0 31.444536809884994 -2.2691263344495383 0 -2.2691263344495383 72.456661639313097 0 0 0 0 16.825649483532743 -110.78098693720676 0 -110.78098693720676 -46.816786836883693 0 0 0 0 -98.244036903940128 12.200000078199992 0 12.200000078199992 65.072764271186315 0 0 0 0 -53.860740231357966 124.62311927706287 0 124.62311927706287 -119.29135437375226 0 0 0 0 102.75818640370835 186.77193994903064 0 186.77193994903064 -380.9238600042263 0 0 0 0 -7.3175283150873716 -1.5243397703111725 0 -1.5243397703111725 6.2018184713502933 0 0 0 0 14.27705229807907 11.454043263809581 0 11.454043263809581 -87.894036553952901 0 0 0 0 -15.319207092673423 116.49649032313027 0 116.49649032313027 -157.67306365852346 0 0 0 0 -2.6508136053199092 0.50273889119645787 0 0.50273889119645787 8.8406794205769117 0 0 0 0 -62.537208282380561 65.629967530207068 0 65.629967530207068 16.249999266205123 0 0 0 0 -31.283172433125628 -42.233196669092649 0 -42.233196669092649 50.402777311377577 0 0 0 0 47.195066541401047 -78.066024394971464 0 -78.066024394971464 193.23654359151988 0 0 0 0 -19.569459283880406 -69.055647968154517 0 -69.055647968154517 389.3793703543306 0 0 0 0 -4.3656506939255451 35.019208954374335 0 35.019208954374335 135.22968088550988 0 0 0 0 5.338592774773133 -12.292532148469036 0 -12.292532148469036 241.14229861272179 0 0 0 0 39.132628340182237 -102.88279959407009 0 -102.88279959407009 292.40789085155848 0 0 0 0 40.213337990246828 -4.492045470075027 0 -4.492045470075027 11.17663175756752 0 0 0 0 -33.695436569233607 79.561610890457814 0 79.561610890457814 80.452106003962172 0 0 0 0 15.691248456975927 79.340112038269581 0 79.340112038269581 -189.9639839143274 0 0 0 0 16.612926229438017 -84.596771797492693 0 -84.596771797492693 93.332587720149604 0 0 0 0 40.421320909946644 45.283471379363618 0 45.283471379363618 160.89337856927159 0 0 0 0 211.76948422171722 -27.89929161496184 0 -27.89929161496184 -74.039150486860308 0 0 0 0 127.38843807615558 29.934928031852905 0 29.934928031852905 159.95382760584471 0 0 0 0 -143.88300583395937 90.153136466753494 0 90.153136466753494 326.41266730658754 0 0 0 0 3.2014131924719011 -3.6057026455241044 0 -3.6057026455241044 -2.3778312715754168 0 0 0 0 -0.3174955464465703 -4.2036875586341296 0 -4.2036875586341296 1.2560269433077949 0 0 0 0 158.7172760673534 -374.8371234390579 0 -374.8371234390579 835.89324763414334 0 0 0 0 -227.09403328479755 115.82184899539789 0 115.82184899539789 1106.724943706904 0 0 0 0 5.9774757187812249 -45.88461292912848 0 -45.88461292912848 407.45724095161859 0 0 0 0 -43.02162648194917 -195.85581240621832 0 -195.85581240621832 337.26164141500703 0 0 0 0 77.035893507014862 64.553711445041699 0 64.553711445041699 -80.159508652337536 0 0 0 0 4.6104033224569037 13.216936749612614 0 13.216936749612614 120.56064991604217 0 0 0 0 50.91015524209979 -32.713691442872459 0 -32.713691442872459 -53.497255404567113 0 0 0 0 -117.85336540576191 -551.67226039429806 0 -551.67226039429806 -243.37521869928787 0 0 0 0 10.610457043410189 -19.542819902485761 0 -19.542819902485761 29.549728745032752 0 0 0 0 27.065178023430747 -1.6979757325761966 0 -1.6979757325761966 736.85788737876283 0 0 0 0 -186.17619065002509 67.138423628573946 0 67.138423628573946 -69.794750053843018 0 0 0 0 551.94108602585038 -348.42841819387468 0 -348.42841819387468 -371.89867802972913 0 0 0 0 272.50389904672102 252.60931837253156 0 252.60931837253156 138.17432784794255 0 0 0 0 30.780183283955466 159.95246045528984 0 159.95246045528984 707.75402684540586 0 0 0 0 -603.39459924107268 -274.3250532671118 0 -274.3250532671118 -262.08485655672848 0 0 0 0 100.64254377973793 76.682755088142585 0 76.682755088142585 -283.34364468299464 0 0 0 0 272.29897639031992 -88.243270310751541 0 -88.243270310751541 -134.54810499359155 0 0 0 0 403.11474090602519 1018.3753276779462 0 1018.3753276779462 391.99142715720518 0 0 0 0 918.82619457300473 -2066.8000312073127 0 -2066.8000312073127 2100.8545621645972 0 0 0 0 -9.3885196160078959 -2.72733021068656 0 -2.72733021068656 17.620808343586695 0 0 0 0 -89.947248430861691 -458.94819709964213 0 -458.94819709964213 -385.30951473851746 0 0 0 0 5.7193970657620614 -6.3755071045438569 0 -6.3755071045438569 7.6993779832862401 0 0 0 0 110.88678618645486 94.725238265345979 0 94.725238265345979 -618.07261087033112 0 0 0 0 -338.35003897191228 -391.79491070092604 0 -391.79491070092604 -117.95488698227564 0 0 0 0 -298.62733702305195 86.533865566198074 0 86.533865566198074 -189.58858235488151 0 0 0 0 -1.1109314356065738 -147.71594497561637 0 -147.71594497561637 -5.1555008210707456 0 0 0 0 178.6897641022997 87.523385144580971 0 87.523385144580971 114.34264031682687 0 0 0 0 20.768201820747322 117.80963251968205 0 117.80963251968205 521.91665545459546 0 0 0 0 -11.543438276606594 -176.3182083837055 0 -176.3182083837055 216.63866957846039 0 0 0 0 157.11406531485136 -139.65485398802412 0 -139.65485398802412 -103.38737262568748 0 0 0 0 -153.50983818757049 -256.12332030649122 0 -256.12332030649122 -321.50289890475688 0 0 0 0 -48.981225707748763 -381.03271970630158 0 -381.03271970630158 -186.59144725088845 0 0 0 0 306.25900733758317 1.5976434641052037 0 1.5976434641052037 -6.7054258487296465 0 0 0 0 -126.0933495106151 -589.39780438465459 0 -589.39780438465459 -383.23541169730015 0 0 0 0 179.35017325467192 -172.60480328285303 0 -172.60480328285303 -171.05314192024525 0 0 0 0 170.72518360625736 78.384770907468919 0 78.384770907468919 254.24700159054737 0 0 0 0 59.181465660835329 -29.785378795284487 0 -29.785378795284487 301.25903771099547 0 0 0 0 95.509353696385091 -122.14834020949638 0 -122.14834020949638 154.50775097288715 0 0 0 0 208.33616821010264 -478.9529579943337 0 -478.9529579943337 -790.21167390047049 0 0 0 0 -192.36329512922299 -484.98133710983711 0 -484.98133710983711 -14.566918633150635 0 0 0 0 127.32494562201009 -171.42353870987426 0 -171.42353870987426 -276.53332784954546 0 0 0 0 122.40351192242906 58.719812913659553 0 58.719812913659553 90.774854233022779 0 0 0 0 218.88526725901465 8.9539918401496834 0 8.9539918401496834 115.11711612393992 0 0 0 0 128.21462900154137 231.47308167006304 0 231.47308167006304 546.48265324423846 0 0 0 0 19.772111125342661 152.48328507609813 0 152.48328507609813 77.060584363993257 0 0 0 0 206.10625729767708 21.067484523482563 0 21.067484523482563 155.05833902068844 0 0 0 0 341.78776951705504 125.81929522608334 0 125.81929522608334 590.13571707369556 0 0 0 0 199.66464190717943 215.13332931163313 0 215.13332931163313 522.91226095182719 0 0 0 0 133.81369431085648 178.35986218854759 0 178.35986218854759 539.60326901861117 0 0 0 0 62.397494889118207 274.36197575444749 0 274.36197575444749 1070.1090312891465 0 0 0 0 -117.67493902024387 265.8120539527481 0 265.8120539527481 1086.1029682833614 0 0 0 0 575.19828259905307 883.18589985284052 0 883.18589985284052 1669.8043785367881 0 0 0 0 358.46900872254355 478.09053883581146 0 478.09053883581146 875.86386765033967 0 0 0 0 -55.211997386351413 435.75019949326634 0 435.75019949326634 1359.2755192614422 0 0 0 0 117.79371869271995 256.31744898743273 0 256.31744898743273 1039.4017538808912 0 0 0 0 307.0325746245237 167.41622111640754 0 167.41622111640754 509.54012524599966 0 0 0 0 -84.494862730286854 332.43894475875641 0 332.43894475875641 1783.7941054271214 0 0 0 0 840.70265709418163 304.18653064998944 0 304.18653064998944 1041.7734257532411 0 0 0 0 1024.3147569945691 12.974948660743394 0 12.974948660743394 1377.2194650276724 0 0 0 0 539.00273455681611 -288.50828175248353 0 -288.50828175248353 2305.4407701958044 0 0 0 0 -766.49633488699328 281.55689054027243 0 281.55689054027243 2797.2847988027315 0 0 0 0 -566.68336027154737 -129.77302877789361 0 -129.77302877789361 1523.7444313655578 0 0 0 0 -711.60587663234401 588.48366418886872 0 588.48366418886872 2661.6838728919465 0 0 0 0 147.97988332885711 717.70235263683571 0 717.70235263683571 672.88243241835517 0 0 0 0 454.11803346775469 -56.126710333126539 0 -56.126710333126539 -265.21129867169657 0 0 0 0 460.63188158161211 589.76397772140615 0 589.76397772140615 719.08752072313655 0 0 0 0 115.7809207452807 -29.871476245687518 0 -29.871476245687518 165.21725448255893 0 0 0 0 286.20351539069725 228.23315600195201 0 228.23315600195201 347.67962572234137 0 0 0 0 37.477684062128333 224.96176302198 0 224.96176302198 1090.1521275953564 0 0 0 0 -86.722171663520228 374.06614140224815 0 374.06614140224815 1058.347750506844 0 0 0 0 51.361562629874925 999.32820498095316 0 999.32820498095316 2008.9780538524792 0 0 0 0 -759.70714564022512 912.54394340816725 0 912.54394340816725 2213.8316954925976 0 0 0 0 322.89066692715323 1226.2271946269939 0 1226.2271946269939 1696.2105336175737 0 0 0 0 952.3276037579426 1326.6479597330799 0 1326.6479597330799 1710.5077697649576 0 0 0 0 996.15199871234745 732.7915939134582 0 732.7915939134582 1613.9964806853011 0 0 0 0 336.09658640632324 666.74114891872523 0 666.74114891872523 1614.7897663059848 0 0 0 0 -223.36744305857246 1006.1628700887723 0 1006.1628700887723 3277.4081877790231 0 0 0 0 836.52899138745715 686.49640005447873 0 686.49640005447873 2482.2671653137259 0 0 0 0 1759.0797228990414 -1487.3271588103089 0 -1487.3271588103089 5565.3417478533993 0 0 0 0 -229.07852844419489 831.16323772256692 0 831.16323772256692 1983.8550487294197 0 0 0 0 203.52086306567884 -870.67493849826678 0 -870.67493849826678 -179.91887055283769 0 0 0 0 208.82609045372942 -1164.9636188703571 0 -1164.9636188703571 3365.2403700294808 0 0 0 0 3262.2276848153811 -1415.1831181683867 0 -1415.1831181683867 171.27326315621394 0 0 0 0 3.0233766934938293 -6.0927514589714615 0 -6.0927514589714615 20.717431039700543 0 0 0 0 -102.11592585783364 -673.44997970154691 0 -673.44997970154691 347.51695059372287 0 0 0 0 77.327133003190511 -1276.3090108861688 0 -1276.3090108861688 1975.000719677193 0 0 0 0 -1.3988609262454732 -3.5654544824773824 0 -3.5654544824773824 21.733841577297937 0 0 0 0 -1986.1570849853531 933.22835215865598 0 933.22835215865598 2498.2510802184843 0 0 0 0 -1023.0317102717886 1458.4610927666763 0 1458.4610927666763 1612.7751258523276 0 0 0 0 -361.96617544258652 50.332355705129885 0 50.332355705129885 189.55124186384637 0 0 0 0 65.427232376577649 -361.32790980306345 0 -361.32790980306345 130.56502446177183 0 0 0 0 107.95089357211961 -203.11442496750533 0 -203.11442496750533 560.21665232235318 0 0 0 0 286.95139667405937 -327.36331416869325 0 -327.36331416869325 478.16553322712571 0 0 0 0 224.6619705573394 -542.24306777655556 0 -542.24306777655556 963.30377091487026 0 0 0 0 335.93229090642706 -332.69764629717247 0 -332.69764629717247 518.65753209994273 0 0 0 0 -208.54687008700498 -611.98888273012017 0 -611.98888273012017 1341.3843087579298 0 0 0 0 -5.2934177686678687 -1.5614868834948084 0 -1.5614868834948084 2.3594962296059094 0 0 0 0 -192.55568013810216 -343.52110534354506 0 -343.52110534354506 1643.6453754908762 0 0 0 0 80.561616190779489 -73.281183735656668 0 -73.281183735656668 886.74052614705579 0 0 0 0 136.56656141398895 -251.76034544509912 0 -251.76034544509912 1208.6794210730222 0 0 0 0 -28.478088048520021 107.66721185199458 0 107.66721185199458 947.34383959933621 0 0 0 0 -4.1596928873588013 14.524821975684063 0 14.524821975684063 987.95104155231093 0 0 0 0 -94.447014415579361 46.730985983602295 0 46.730985983602295 1157.4472601551242 0 0 0 0 -76.091775675573899 49.171690588947968 0 49.171690588947968 1064.954102194301 0 0 0 0 -158.58882106496071 125.38057266209216 0 125.38057266209216 1601.6513925726176 0 0 0 0 -14.795234179106728 217.82208376688322 0 217.82208376688322 876.68178350077505 0 0 0 0 32.786404805538496 79.121410324216413 0 79.121410324216413 820.62447997982963 0 0 0 0 30.632282909547939 14.453559531219071 0 14.453559531219071 1041.6641850860797 0 0 0 0 -65.633324087128358 158.94939998202972 0 158.94939998202972 755.88440061801884 0 0 0 0 -9.3206563492426628 -2.8246916823119932 0 -2.8246916823119932 1.4254816634156668 0 0 0 0 244.11349182347612 -265.28714876152299 0 -265.28714876152299 462.21220259787515 0 0 0 0 -137.59654615032679 -279.25346672840715 0 -279.25346672840715 997.86576532454274 0 0 0 0 109.4409082455943 -264.39970085434106 0 -264.39970085434106 1075.3082319169662 0 0 0 0 -10.689400996147006 -3.604556605237704 0 -3.604556605237704 1.562375536285181 0 0 0 0 196.22769047575946 -281.60456189019351 0 -281.60456189019351 652.18912231868308 0 0 0 0 131.22497506034767 -253.64140074066017 0 -253.64140074066017 768.68516007425933 0 0 0 0 106.20311399104122 -349.21416449005392 0 -349.21416449005392 851.01636556470476 0 0 0 0 151.68169672877389 -265.02731501879134 0 -265.02731501879134 618.36477568131522 0 0 0 0 38.494265109920434 -199.20593939088576 0 -199.20593939088576 597.20870781531266 0 0 0 0 119.72045208910799 -203.53984368867532 0 -203.53984368867532 542.50935375090194 0 0 0 0 54.560675826822489 -120.94998569640302 0 -120.94998569640302 467.15875008731746 0 0 0 0 65.066334239527009 -79.483777882960567 0 -79.483777882960567 454.98508590613346 0 0 0 0 100.31687259323928 -91.897843293259939 0 -91.897843293259939 424.96218921230684 0 0 0 0 91.948583376579563 -193.72528697725647 0 -193.72528697725647 636.86042990884289 0 0 0 0 207.41352652725197 -198.82464340194747 0 -198.82464340194747 522.73099469082808 0 0 0 0 128.88292665520032 -73.234175235917064 0 -73.234175235917064 370.48579187066389 0 0 0 0 -22.844042779077768 101.52415692885552 0 101.52415692885552 247.18898663356231 0 0 0 0 94.774845062613821 -58.355005596584306 0 -58.355005596584306 441.89324681867583 0 0 0 0 80.799976876186449 -52.994648255375068 0 -52.994648255375068 439.87752549031757 0 0 0 0 -0.088238569915802145 -51.253371467671968 0 -51.253371467671968 475.88056451273224 0 0 0 0 109.07898192391295 -643.41936239636561 0 -643.41936239636561 1247.3803461463031 0 0 0 0 277.5598915766289 -61.645647584540711 0 -61.645647584540711 495.25992809936724 0 0 0 0 364.70268057317844 -169.03401772361758 0 -169.03401772361758 202.98478379134031 0 0 0 0 -120.11572942819703 11.202324192068772 0 11.202324192068772 449.09753681067195 0 0 0 0 -122.36917967940167 -53.603768428910371 0 -53.603768428910371 90.085288300157117 0 0 0 0 -10.609731382084512 -5.5697811387508551 0 -5.5697811387508551 11.785421934464935 0 0 0 0 54.135040469736168 -61.589779124322376 0 -61.589779124322376 298.06477485803043 0 0 0 0 -11.072649837342141 -138.2298491752772 0 -138.2298491752772 462.61094921328913 0 0 0 0 44.462818553599504 -19.601644933201896 0 -19.601644933201896 362.59903845588269 0 0 0 0 -3.8286176358127153 1.2426110912357586 0 1.2426110912357586 -0.50288675099800173 0 0 0 0 -210.75685902822624 -1650.4354636949774 0 -1650.4354636949774 -784.29676853888668 0 0 0 0 832.74761851578842 -504.9509924130507 0 -504.9509924130507 -3350.9501691370388 0 0 0 0 726.01423235032235 -581.67913367513393 0 -581.67913367513393 630.39497739419312 0 0 0 0 392.12601826653736 -912.65724767222309 0 -912.65724767222309 116.3801967883046 0 0 0 0 747.2046813030322 -1101.7504748108558 0 -1101.7504748108558 -287.16618801472578 0 0 0 0 1010.6092236359095 -769.43548740082406 0 -769.43548740082406 -411.42110934665106 0 0 0 0 0.5120359324672239 -5.8384418404090157 0 -5.8384418404090157 16.74050356231524 0 0 0 0 -1.469803674636371 -9.5573954800962984 0 -9.5573954800962984 38.461648481011537 0 0 0 0 -1373.8773135739316 -1042.3844042571436 0 -1042.3844042571436 787.07324884607806 0 0 0 0 -1084.2048158473815 -213.44105011032002 0 -213.44105011032002 407.73651623949991 0 0 0 0 -184.1659098639683 -271.24741127114612 0 -271.24741127114612 -151.33215777048463 0 0 0 0 -932.33994209229513 307.92429428947253 0 307.92429428947253 765.73040635338839 0 0 0 0 -130.45021602934091 -663.28520719787844 0 -663.28520719787844 1692.3055495662484 0 0 0 0 573.49428922003426 -968.1070014182078 0 -968.1070014182078 1276.1221708387711 0 0 0 0 747.6758533391129 -729.3766151356067 0 -729.3766151356067 1183.069087136646 0 0 0 0 1469.3050612741788 -1631.7561539130375 0 -1631.7561539130375 890.54672075399867 0 0 0 0 -278.08781216069337 -577.94593828994766 0 -577.94593828994766 2011.7824592585748 0 0 0 0 -314.68594312785808 -478.65971823970449 0 -478.65971823970449 2402.969414043022 0 0 0 0 330.89387487984226 -396.03219972960505 0 -396.03219972960505 1604.324381293136 0 0 0 0 -275.03754678139092 -1583.5179512534041 0 -1583.5179512534041 1700.7303211170511 0 0 0 0 -783.51335871265519 -1056.5537615490102 0 -1056.5537615490102 1693.3776601595869 0 0 0 0 -210.18430849970491 -990.00102887770481 0 -990.00102887770481 1685.9890914960042 0 0 0 0 -811.8028605310401 -1346.5174904567284 0 -1346.5174904567284 3908.2542061096319 0 0 0 0 -1115.8585290321844 783.91955622591922 0 783.91955622591922 5055.1652295708554 0 0 0 0 -818.71954900442597 678.0840340757386 0 678.0840340757386 828.57440174614749 0 0 0 0 -970.19689839258638 3968.686327502176 0 3968.686327502176 197.4794577951252 0 0 0 0 -90.381321057533114 -345.80535793917807 0 -345.80535793917807 56.638381937671511 0 0 0 0 -1832.2537494346093 -260.88016202697327 0 -260.88016202697327 804.69911183554359 0 0 0 0 -1082.6010891692486 634.91024295066018 0 634.91024295066018 -485.69829882641352 0 0 0 0 -13.528453448534719 -983.31668471940066 0 -983.31668471940066 -386.05523871097103 0 0 0 0 59.719230235369935 -936.77072517613124 0 -936.77072517613124 526.1582241573924 0 0 0 0 -35.664300432891309 -85.98099182814758 0 -85.98099182814758 747.37372897473688 0 0 0 0 259.32218803191995 -348.80735364518114 0 -348.80735364518114 960.58732689385943 0 0 0 0 52.812386981458872 589.08952756377039 0 589.08952756377039 939.16677599116906 0 0 0 0 -288.04953551917879 62.018013365097431 0 62.018013365097431 1752.8552706176797 0 0 0 0 224.52481614666215 -468.99042597928201 0 -468.99042597928201 1641.5105504173771 0 0 0 0 291.1231927304425 -274.78365566758839 0 -274.78365566758839 1126.7976963474503 0 0 0 0 278.5187831091863 -1011.0505192534656 0 -1011.0505192534656 1579.2179356166489 0 0 0 0 75.168829589616053 -577.353500272151 0 -577.353500272151 1921.9238083793862 0 0 0 0 181.92182150182447 -652.91775604912709 0 -652.91775604912709 1962.7150796108763 0 0 0 0 -11.793650048443396 289.75345799048591 0 289.75345799048591 2200.9946841633537 0 0 0 0 -166.000303068878 -313.67249857209208 0 -313.67249857209208 2667.3904020310147 0 0 0 0 -325.90483202540241 -484.68396943085827 0 -484.68396943085827 1486.4656210331377 0 0 0 0 -1.4874140262453683 -5.4623282406657978 0 -5.4623282406657978 11.963389695355865 0 0 0 0 -879.37310832585706 1161.4115585670879 0 1161.4115585670879 5499.1267605759931 0 0 0 0 -717.85200442782582 -126.94151631644854 0 -126.94151631644854 2637.0878875489871 0 0 0 0 -89.205767537075872 465.15568638186596 0 465.15568638186596 2496.0919061406676 0 0 0 0 -208.28087474530349 903.93261203906332 0 903.93261203906332 2589.9385619744644 0 0 0 0 -909.87804623696411 1221.0132065233265 0 1221.0132065233265 2531.1491899878456 0 0 0 0 -1054.7373947485607 633.81416092609834 0 633.81416092609834 5491.2354707537233 0 0 0 0 844.24289901995826 2419.763126888849 0 2419.763126888849 2464.4331554998498 0 0 0 0 -785.99906357822761 2013.4994957138588 0 2013.4994957138588 5490.9879047388313 0 0 0 0 178.98645691683248 201.49476747427252 0 201.49476747427252 -592.55444569095562 0 0 0 0 805.22211474186179 -1307.66407509895 0 -1307.66407509895 1887.0495857773021 0 0 0 0 356.93586973253781 -901.36307805220531 0 -901.36307805220531 2011.7954890980036 0 0 0 0 898.31401750697205 -1145.5295524965914 0 -1145.5295524965914 1519.4942996870595 0 0 0 0 619.7624223659036 -292.72988392323168 0 -292.72988392323168 527.23266338193207 0 0 0 0 572.58621778991414 -480.56130081071024 0 -480.56130081071024 819.55271200428979 0 0 0 0 156.90311850093508 122.17025789809486 0 122.17025789809486 508.39862634008023 0 0 0 0 -64.455324657345443 -394.96779843976856 0 -394.96779843976856 990.09393991096294 0 0 0 0 646.01472722649135 -527.65515301756022 0 -527.65515301756022 1101.5688434902513 0 0 0 0 404.01324684686642 -258.77835915354808 0 -258.77835915354808 313.75409635903088 0 0 0 0 309.47820976252672 -602.50707613178065 0 -602.50707613178065 1097.2912294600901 0 0 0 0 476.67841881823978 -1098.3753966992808 0 -1098.3753966992808 1956.1672007463203 0 0 0 0 433.27270799025058 -618.70988753590427 0 -618.70988753590427 1188.9083867979207 0 0 0 0 159.15094039152297 -1004.0225238434377 0 -1004.0225238434377 3378.4326061036481 0 0 0 0 524.44951815093009 -724.45310611266177 0 -724.45310611266177 2091.7328682744355 0 0 0 0 441.71373154532881 -1781.7044643278932 0 -1781.7044643278932 4138.2758602271642 0 0 0 0 -0.84692564650806945 -5.1469350694811311 0 -5.1469350694811311 9.4955502791307254 0 0 0 0 -385.97316813531177 223.31550271568267 0 223.31550271568267 5623.1151883415223 0 0 0 0 28.951636085640303 492.36565247285398 0 492.36565247285398 3057.8861917996046 0 0 0 0 -879.70446044342714 1162.5788130420087 0 1162.5788130420087 5495.9839336267542 0 0 0 0 -616.89055732402426 -2161.7965824383027 0 -2161.7965824383027 2314.1368836930196 0 0 0 0 -742.45941959069489 -2058.1326008915494 0 -2058.1326008915494 4667.6242023144878 0 0 0 0 240.41516500845125 -2973.2895202455293 0 -2973.2895202455293 5500.1881626083996 0 0 0 0 1188.0135748989931 -2372.1262680491636 0 -2372.1262680491636 2728.8707797417519 0 0 0 0 543.728021200086 -1140.7585205375071 0 -1140.7585205375071 1999.2381194216141 0 0 0 0 1187.4201704776879 -2632.2279215448216 0 -2632.2279215448216 3686.5829833095049 0 0 0 0 1912.2723954445692 -1556.1625840844408 0 -1556.1625840844408 -179.32022444039467 0 0 0 0 2349.346915644046 -4302.3827097731155 0 -4302.3827097731155 6560.3959324604511 0 0 0 0 1998.2963371696483 -2644.9633841280447 0 -2644.9633841280447 3618.9116458687349 0 0 0 0 1219.3731925517852 -3145.845421202881 0 -3145.845421202881 5494.5033736014739 0 0 0 0 24.247966489048927 -12.651597883541768 0 -12.651597883541768 15.459100094282917 0 0 0 0 9.8104457075653393 -3.4120793907718507 0 -3.4120793907718507 1.9395351006576789 0 0 0 0 -9.6632006611271208 -261.33152530603547 0 -261.33152530603547 -565.03102249041331 0 0 0 0 28.20494682143827 -4.3293446133320685 0 -4.3293446133320685 5496.1006707510969 0 0 0 0 3694.0615219505171 -2804.0210069102759 0 -2804.0210069102759 2166.9291318483665 0 0 0 0 19.245811004834348 2.4554481382988342 0 2.4554481382988342 7.2547773604810288 0 0 0 0 21.490122856575212 -43.580567094161836 0 -43.580567094161836 83.245981884135404 0 0 0 0 -97.729861360496216 -411.656905367533 0 -411.656905367533 -67.126718667896057 0 0 0 0 48.367794411149589 -334.13726079839762 0 -334.13726079839762 777.09214179200353 0 0 0 0 569.42498983695623 122.17717265501415 0 122.17717265501415 -1977.7342614497247 0 0 0 0 -13.78693846222086 -476.56892768164107 0 -476.56892768164107 -29.666487613794743 0 0 0 0 107.12718525219316 -307.82578319947061 0 -307.82578319947061 -48.40878958216399 0 0 0 0 -159.17309020585435 -187.81910679818066 0 -187.81910679818066 -62.666793712356593 0 0 0 0 -171.19883440969352 -308.54622524577644 0 -308.54622524577644 476.1438867379693 0 0 0 0 -56.42855846078055 -104.19084963422574 0 -104.19084963422574 328.24594870430883 0 0 0 0 -129.05265140808797 30.885677891859814 0 30.885677891859814 461.16609095814056 0 0 0 0 -224.78196322276199 -116.3131376478359 0 -116.3131376478359 280.498436843729 0 0 0 0 -21.655816784350463 80.718886161786941 0 80.718886161786941 398.54633834099513 0 0 0 0 -52.373071417543542 -152.48347326079966 0 -152.48347326079966 843.2648883595939 0 0 0 0 -261.4793737919008 -113.55025709458278 0 -113.55025709458278 290.42243542239885 0 0 0 0 25.923889411201966 -80.775470052539745 0 -80.775470052539745 122.22752751316199 0 0 0 0 -427.51319674253523 -1137.9453743580088 0 -1137.9453743580088 -318.52940443739863 0 0 0 0 -175.80667092084695 -161.40085999564326 0 -161.40085999564326 312.11585002946958 0 0 0 0 -91.248090176668484 -62.019546043404262 0 -62.019546043404262 184.76298663437046 0 0 0 0 -80.397922619722522 25.260402185987914 0 25.260402185987914 376.24963049708458 0 0 0 0 34.097496221033033 -63.866376867557129 0 -63.866376867557129 104.8617152147383 0 0 0 0 -282.02957933933249 -345.23138691871281 0 -345.23138691871281 86.938450750656557 0 0 0 0 -66.041366148890347 -168.4710592307456 0 -168.4710592307456 -135.71431781102729 0 0 0 0 -870.23298553794007 -965.82140382989382 0 -965.82140382989382 403.35588754335186 0 0 0 0 28.101030232817582 -4.3604922632366652 0 -4.3604922632366652 5496.1128109587735 0 0 0 0 -281.12622260208923 117.94375779960683 0 117.94375779960683 45.942635813218658 0 0 0 0 13.967615665115675 4.8678801450508615 0 4.8678801450508615 17.054801984010808 0 0 0 0 606.77345480668316 1345.7685332657929 0 1345.7685332657929 1198.8366839531263 0 0 0 0 -1166.8805972882535 1633.5292272345941 0 1633.5292272345941 5489.3807285465373 0 0 0 0 -667.65286629693935 895.2325573473463 0 895.2325573473463 3265.9430428846608 0 0 0 0 -1256.962838850041 -136.96000520332018 0 -136.96000520332018 3513.0702656822941 0 0 0 0 -345.04143481919277 -46.404351027878874 0 -46.404351027878874 5501.5567823965976 0 0 0 0 2339.1363742078156 1502.4664668798287 0 1502.4664668798287 6078.9839829167759 0 0 0 0 3918.5925471612682 -2487.470915358077 0 -2487.470915358077 3272.5728872609325 0 0 0 0 -1103.7266297233173 2802.3422525123442 0 2802.3422525123442 3346.1832881642331 0 0 0 0 0.25994728331733241 -3.1125383519752319 0 -3.1125383519752319 38.95045037635623 0 0 0 0 192.05105889050515 486.65458816425235 0 486.65458816425235 924.94674058616511 0 0 0 0 3517.6310584588191 -939.96385445098713 0 -939.96385445098713 -1221.3789000791076 0 0 0 0 -2536.9310680025451 -557.32773901742985 0 -557.32773901742985 779.47385786852101 0 0 0 0 -4.8986285225252297 -14.158498311199999 0 -14.158498311199999 98.397561176664169 0 0 0 0 -743.49063785160092 -1870.1802522295329 0 -1870.1802522295329 786.56291108990263 0 0 0 0 176.75840140257105 -598.23219941925345 0 -598.23219941925345 -2124.325891767483 0 0 0 0 -30.51480715336535 -12.465824482253538 0 -12.465824482253538 25.579862620711907 0 0 0 0 227.49882748167019 708.22863058759413 0 708.22863058759413 732.43610042736691 0 0 0 0 -262.60488446851105 -33.379261488589691 0 -33.379261488589691 89.728915078270802 0 0 0 0 -1.1146590521990944 -15.351508075973328 0 -15.351508075973328 17.800416521798013 0 0 0 0 -1107.8985183139346 -1262.0013079956661 0 -1262.0013079956661 1321.2720268936391 0 0 0 0 3.7811339231434431 -686.77706755707914 0 -686.77706755707914 1563.9583698712595 0 0 0 0 304.44437631450819 950.15350686902821 0 950.15350686902821 -805.16584173125739 0 0 0 0 46.469853464525528 -36.192110340765154 0 -36.192110340765154 20.00889734793968 0 0 0 0 -314.30806267199296 423.03299982594035 0 423.03299982594035 940.9830872102284 0 0 0 0 207.0143875359623 -2083.5244023455366 0 -2083.5244023455366 -916.01246305826498 0 0 0 0 -9.9986060624991016 -24.047884035687485 0 -24.047884035687485 141.8142554311525 0 0 0 0 -397.00164056459562 -1149.590083385563 0 -1149.590083385563 210.5837314172386 0 0 0 0 -246.2450656136898 -1999.2130268085311 0 -1999.2130268085311 473.56265056395205 0 0 0 0 1988.8081260966719 -1717.8394227343815 0 -1717.8394227343815 62.647217437679501 0 0 0 0 310.11207336741472 -282.11350983415832 0 -282.11350983415832 -765.35849919874454 0 0 0 0 -1802.1253876538062 119.40867070966488 0 119.40867070966488 792.25607527740067 0 0 0 0 -73.435767242918544 651.67964692257374 0 651.67964692257374 -14.057955448806752 0 0 0 0 -15.581394280685879 -11.689314497570209 0 -11.689314497570209 5.8097169131652322 0 0 0 0 81.683833390871698 -903.92592606643302 0 -903.92592606643302 400.51406623856747 0 0 0 0 -634.53765487941109 340.51364640630345 0 340.51364640630345 72.385140253376449 0 0 0 0 -410.41222928063826 368.00957184139043 0 368.00957184139043 233.1488372052554 0 0 0 0 -432.06429543643753 -238.3367148734942 0 -238.3367148734942 4195.5620580454706 0 0 0 0 -11.543779996613281 -26.766215093895049 0 -26.766215093895049 175.33354010210269 0 0 0 0 257.41739363635679 -675.78048059598223 0 -675.78048059598223 -670.15134440711881 0 0 0 0 -116.45739989914637 -472.18614327998148 0 -472.18614327998148 427.22511391865555 0 0 0 0 962.82376033337118 -3101.1318665475592 0 -3101.1318665475592 756.73557672752941 0 0 0 0 372.0161425913393 509.93731755874614 0 509.93731755874614 -903.22906962057459 0 0 0 0 -381.2231947049986 -107.08951256988075 0 -107.08951256988075 308.36958554299781 0 0 0 0 -80.733031120419582 -23.123224050817953 0 -23.123224050817953 355.59200466106995 0 0 0 0 -82.293441741630886 -183.93092113478633 0 -183.93092113478633 -244.33065344653733 0 0 0 0 22.205202022768844 174.57500228792196 0 174.57500228792196 2017.7496577462407 0 0 0 0 299.04517329212922 -273.32096965874371 0 -273.32096965874371 1580.4481610585754 0 0 0 0 -619.98697471326341 -197.46531618301378 0 -197.46531618301378 5568.0163485761914 0 0 0 0 529.92625055710869 168.43405877839177 0 168.43405877839177 1720.2074969178502 0 0 0 0 22.090350624063358 -9.782576230715577 0 -9.782576230715577 5.6222680704017449 0 0 0 0 972.48573246625347 -700.47636110403982 0 -700.47636110403982 -2647.8742455886531 0 0 0 0 295.7059749381981 -649.38321278643707 0 -649.38321278643707 1883.6182810819882 0 0 0 0 1048.9243797364538 -482.05546538678027 0 -482.05546538678027 -16.358527145217522 0 0 0 0 174.18776487260129 -59.138000378905417 0 -59.138000378905417 1366.1293744835129 0 0 0 0 389.34409743155175 -332.16324036659353 0 -332.16324036659353 482.7682248649071 0 0 0 0 164.80795996141114 -544.19841826261836 0 -544.19841826261836 1064.9274701858594 0 0 0 0 -18.361227193358104 -356.69337988049483 0 -356.69337988049483 1147.5587200915397 0 0 0 0 139.8007170642677 173.28922867368601 0 173.28922867368601 1235.0102606030014 0 0 0 0 -30.40568854935259 -61.911512825754471 0 -61.911512825754471 910.61586303985678 0 0 0 0 -50.764643132513129 -116.77617421597461 0 -116.77617421597461 1015.2521488309358 0 0 0 0 -110.94255071685473 -160.40304671747253 0 -160.40304671747253 879.87045821639913 0 0 0 0 -219.26152325802104 -334.87240488789757 0 -334.87240488789757 863.42854565806192 0 0 0 0 -1.6070815571176809 -316.0486867666441 0 -316.0486867666441 769.86308649402054 0 0 0 0 -110.31838120806049 -411.35747412508499 0 -411.35747412508499 686.57306791998417 0 0 0 0 -9.4037109432688339 -286.34898227655503 0 -286.34898227655503 660.52305794750282 0 0 0 0 132.0304257700277 -287.73776891976377 0 -287.73776891976377 655.9462981116485 0 0 0 0 85.529295780863663 -248.66093539815847 0 -248.66093539815847 608.49315910309087 0 0 0 0 1.7808972817786071 -200.9961889918377 0 -200.9961889918377 613.77053000191427 0 0 0 0 -82.023841505631879 -229.28322927863064 0 -229.28322927863064 707.83709719120088 0 0 0 0 -24.59461580528432 -162.12654990663577 0 -162.12654990663577 761.66735248551413 0 0 0 0 14.926203557252848 0.77549085895225289 0 0.77549085895225289 581.13800065806572 0 0 0 0 26.627169775856942 -87.394731171152671 0 -87.394731171152671 491.15516023174132 0 0 0 0 -4.5181525570883423 -154.07679198593269 0 -154.07679198593269 519.59623175257002 0 0 0 0 -13.188851989124714 -54.582020627225575 0 -54.582020627225575 551.13788431517787 0 0 0 0 -7.3050433427419748 -2.6553689513052632 0 -2.6553689513052632 12.204031746239963 0 0 0 0 -1.257772103557727 -5.2025031366283656 0 -5.2025031366283656 422.27986552739458 0 0 0 0 58.180507318668802 -59.222238919846518 0 -59.222238919846518 39.403490070990586 0 0 0 0 -98.491073782433489 32.378793729746192 0 32.378793729746192 28.032502141668928 0 0 0 0 -115.82886236599734 25.275579926255887 0 25.275579926255887 380.37961616367102 0 0 0 0 -139.61165674817676 -354.67607880826108 0 -354.67607880826108 339.19838776661709 0 0 0 0 157.3061220282907 191.51879726698098 0 191.51879726698098 135.04772044835408 0 0 0 0 -107.92173165464055 26.753225098645714 0 26.753225098645714 40.04627504413267 0 0 0 0 -497.80081689336657 -179.4726415254263 0 -179.4726415254263 769.79673193119015 0 0 0 0 228.98567849906291 141.01286469560051 0 141.01286469560051 586.86010123706365 0 0 0 0 -412.47321013970304 -769.92709032642961 0 -769.92709032642961 -470.64205619347922 0 0 0 0 -972.7894939777143 -222.35808301783982 0 -222.35808301783982 690.55306487216694 0 0 0 0 58.818828384866151 -47.879657745060001 0 -47.879657745060001 26.15813971256658 0 0 0 0 36.282521657905363 109.10941815230035 0 109.10941815230035 1001.7865090173509 0 0 0 0 -0.45602124673375305 64.991754050693999 0 64.991754050693999 3250.8456279495003 0 0 0 0 146.98488364720441 442.99026631461311 0 442.99026631461311 5495.5370848368693 0 0 0 0 640.68612331268253 420.16845087041293 0 420.16845087041293 5390.2864250577331 0 0 0 0 -401.44675974482266 87.796346868992259 0 87.796346868992259 5801.7702490433003 0 0 0 0 -78.650674295226395 783.74570403711186 0 783.74570403711186 5429.9146730295179 0 0 0 0 411.64438147995656 -1473.9039364431665 0 -1473.9039364431665 4141.9440244233847 0 0 0 0 668.22912049608783 1842.1784082696759 0 1842.1784082696759 1389.2060688525526 0 0 0 0 1.5429917666280364 4.6991641250837404 0 4.6991641250837404 23.303862137305146 0 0 0 0 748.38094404511378 96.781278700349503 0 96.781278700349503 228.14391150887241 0 0 0 0 580.06284511203125 -465.58614172716625 0 -465.58614172716625 324.66275680768013 0 0 0 0 2514.5398956571466 -1238.1576082165448 0 -1238.1576082165448 980.49886312473973 0 0 0 0 0.55644468092565746 -2.5445199819339805 0 -2.5445199819339805 22.502414630476721 0 0 0 0 -749.57876675764669 -299.09096274633157 0 -299.09096274633157 4889.6363485904731 0 0 0 0 -470.690443374236 1562.2465895616915 0 1562.2465895616915 3518.1777361897839 0 0 0 0 565.08068293905387 391.97790441099642 0 391.97790441099642 5250.6944286792132 0 0 0 0 727.48982904606953 899.17913729133215 0 899.17913729133215 4845.7911479805771 0 0 0 0 173.73408068137826 870.57518201901257 0 870.57518201901257 5476.1353225473285 0 0 0 0 531.96557742029268 1280.9278946081104 0 1280.9278946081104 4195.0911483520467 0 0 0 0 -20.043938566148256 858.28981355164433 0 858.28981355164433 5501.5146876158597 0 0 0 0 -220.72416672678281 1407.1979350762413 0 1407.1979350762413 5205.9477289631759 0 0 0 0 2327.1775588065357 -594.85805745378013 0 -594.85805745378013 6371.656508040629 0 0 0 0 -162.57172851938026 1615.4069606520643 0 1615.4069606520643 3403.4958891734132 0 0 0 0 -1360.0807401281306 1705.2447488526523 0 1705.2447488526523 6507.6306353087675 0 0 0 0 -108.75098044829974 971.82212366667954 0 971.82212366667954 3574.9241026455984 0 0 0 0 -28.67711378278517 416.01524739257002 0 416.01524739257002 -742.84361665467441 0 0 0 0 530.85474660662589 168.29400025865289 0 168.29400025865289 719.58774590713438 0 0 0 0 496.44234653452168 -127.29092142730224 0 -127.29092142730224 4641.0282831492732 0 0 0 0 -299.04774043250615 -618.76836949947756 0 -618.76836949947756 1231.1125057791724 0 0 0 0 -453.7122982939714 -136.28532848742907 0 -136.28532848742907 -71.998002496227855 0 0 0 0 989.73554511936857 -594.00947590239957 0 -594.00947590239957 -480.41675306274556 0 0 0 0 1033.9381042972868 -152.43777448723995 0 -152.43777448723995 355.2347378963168 0 0 0 0 73.106771660368167 -511.1324285219489 0 -511.1324285219489 287.16711442751694 0 0 0 0 -7.3551001090826462 -7.7729776047067531 0 -7.7729776047067531 3.6932837216323833 0 0 0 0 -1520.0925260584361 -21.502850998818758 0 -21.502850998818758 392.63365043375961 0 0 0 0 1538.4122079789768 -1044.5488951863445 0 -1044.5488951863445 -318.93970048616757 0 0 0 0 251.92632648156905 -22.47044820109295 0 -22.47044820109295 -190.64820599487575 0 0 0 0 -172.94313321194807 -456.55926830533281 0 -456.55926830533281 -7.3524427881930023 0 0 0 0 -624.02489757788408 -179.89527192169044 0 -179.89527192169044 268.01936633704463 0 0 0 0 381.27123401055474 -257.52167913003359 0 -257.52167913003359 -3.6118302769536967 0 0 0 0 -17.793584412244627 -42.769763643598708 0 -42.769763643598708 -53.694519737211522 0 0 0 0 500.87974581527948 -254.40247838002688 0 -254.40247838002688 123.86999649275822 0 0 0 0 -65.806923821147024 -412.81511799822965 0 -412.81511799822965 187.98071794825955 0 0 0 0 740.45547420022376 -155.57713852886809 0 -155.57713852886809 251.68426937931508 0 0 0 0 41.559347147574954 -391.21659401069337 0 -391.21659401069337 196.04940749120578 0 0 0 0 136.14451801627001 -308.0069090454781 0 -308.0069090454781 125.36137298135145 0 0 0 0 41.086565396476558 -7.602612168077485 0 -7.602612168077485 -12.208974894122832 0 0 0 0 102.31504418560507 -289.63963425133988 0 -289.63963425133988 301.21455258343485 0 0 0 0 364.50156911916861 -601.41875095220166 0 -601.41875095220166 401.42249433491088 0 0 0 0 613.84468590550227 -700.43065077440406 0 -700.43065077440406 267.35316487791715 0 0 0 0 334.1127298140832 -279.67812401262563 0 -279.67812401262563 405.09332996942976 0 0 0 0 -136.43951605258744 -154.28058542602957 0 -154.28058542602957 139.89907174925611 0 0 0 0 1109.9621528007724 -367.56921889178193 0 -367.56921889178193 -4.3442496934585506 0 0 0 0 6.221801412195191 -13.70375977762518 0 -13.70375977762518 77.34586412926933 0 0 0 0 -96.267419727551442 -39.184213801127044 0 -39.184213801127044 143.54850254350822 0 0 0 0 10.109260506805299 -19.387669737224144 0 -19.387669737224144 27.72936202365122 0 0 0 0 -12.601734093108867 -42.307854889499623 0 -42.307854889499623 151.4874829264611 0 0 0 0 9.9560005600880572 -64.163423843674536 0 -64.163423843674536 149.69481779253692 0 0 0 0 23.667088276663208 -69.44724180776393 0 -69.44724180776393 145.85446559209959 0 0 0 0 212.3555158399995 -168.81110067773625 0 -168.81110067773625 239.20752877503401 0 0 0 0 36.419360777941165 -61.84394270095072 0 -61.84394270095072 141.83842791026109 0 0 0 0 89.746852244111096 -114.91544903688919 0 -114.91544903688919 107.97042388567206 0 0 0 0 162.18096171346463 -45.098199808016943 0 -45.098199808016943 129.29315547543229 0 0 0 0 34.811811117463208 -176.83363051067136 0 -176.83363051067136 51.361059975490207 0 0 0 0 -23.475369360381393 -219.10551203253272 0 -219.10551203253272 92.204937287751818 0 0 0 0 138.28564025307207 -88.611937273715739 0 -88.611937273715739 78.371890290658484 0 0 0 0 -450.0800459219177 -8.2642961721139727 0 -8.2642961721139727 185.22261404184974 0 0 0 0 -2.1411034926704229 -5.9310663639993422 0 -5.9310663639993422 54.094230374943947 0 0 0 0 1690.3419695841312 -75.418942009811872 0 -75.418942009811872 -229.41103663235845 0 0 0 0 24.483105147287915 -386.30083792532241 0 -386.30083792532241 314.47765372270078 0 0 0 0 296.51590407837136 -28.675034828338539 0 -28.675034828338539 196.17571763156229 0 0 0 0 358.36501816746619 -25.871867779056629 0 -25.871867779056629 11.584132329429849 0 0 0 0 0.96689905074376314 9.6153075827578789 0 9.6153075827578789 51.985238026001298 0 0 0 0 -768.54091874276594 263.80175207510547 0 263.80175207510547 422.68186131723633 0 0 0 0 33.358126616658126 -301.10282854986872 0 -301.10282854986872 117.20840977136686 0 0 0 0 186.90122180994098 -157.6154068001706 0 -157.6154068001706 52.957658938685199 0 0 0 0 1.0694816801588525 10.957232825766823 0 10.957232825766823 59.52238141035275 0 0 0 0 307.06534017405204 -137.3952415746171 0 -137.3952415746171 10.80625723086996 0 0 0 0 -77.694915443975106 -68.722767054481665 0 -68.722767054481665 109.8252458130155 0 0 0 0 -1.2246874932197096 3.7508053854105015 0 3.7508053854105015 70.580711093425293 0 0 0 0 13.753712866662568 -108.83188617515407 0 -108.83188617515407 85.488737464354926 0 0 0 0 -357.90109208341892 -80.130036741295044 0 -80.130036741295044 93.421435540352832 0 0 0 0 109.42684700639546 -86.123856287595117 0 -86.123856287595117 38.690412910629675 0 0 0 0 12.738283734244192 -120.36683721443842 0 -120.36683721443842 -13.350708655270864 0 0 0 0 -3.2823228023786428 -141.14156667933275 0 -141.14156667933275 67.180857758561615 0 0 0 0 -0.67488915041505482 -191.81080852319428 0 -191.81080852319428 -244.76857442944311 0 0 0 0 -38.574067589043665 -254.81233535075444 0 -254.81233535075444 -51.101262979966123 0 0 0 0 0.81866696084269464 -205.88931360164497 0 -205.88931360164497 525.56972218886949 0 0 0 0 132.78818540038026 -6.3779550270628533 0 -6.3779550270628533 32.104722786840284 0 0 0 0 485.76377948045513 1150.8721605573119 0 1150.8721605573119 1939.7555177444156 0 0 0 0 0.31048561724786039 -0.59722098754212993 0 -0.59722098754212993 2.2671812528689372 0 0 0 0 5.8097310643699771 -17.388533226112486 0 -17.388533226112486 121.27859041720512 0 0 0 0 3.2993192810930925 -10.901124321487657 0 -10.901124321487657 41.148270119643627 0 0 0 0 -10.88695560260885 -2.0231899791942851 0 -2.0231899791942851 141.5978534683527 0 0 0 0 -23.284261238134057 -8.6181276522183907 0 -8.6181276522183907 181.24164211542666 0 0 0 0 13.844073081591871 -6.0372585986042395 0 -6.0372585986042395 154.32283511607238 0 0 0 0 -16.563769158257852 7.9315044104174319 0 7.9315044104174319 119.03404444898575 0 0 0 0 -12.916393101258254 -48.103167188201041 0 -48.103167188201041 240.27875160727854 0 0 0 0 -17.60145227133523 -1.2395513563819804 0 -1.2395513563819804 108.15023929442958 0 0 0 0 -17.26077886597848 -5.4691801127919462 0 -5.4691801127919462 101.33505678887013 0 0 0 0 0.031108148802171245 11.179074981915619 0 11.179074981915619 113.20963889767881 0 0 0 0 83.659259829583505 -38.46367985510733 0 -38.46367985510733 -159.22714507541968 0 0 0 0 -118.03775674196031 -97.74611927002843 0 -97.74611927002843 61.93586293439148 0 0 0 0 3.5050017624935892 -19.36238265631107 0 -19.36238265631107 15.54204581032036 0 0 0 0 -0.74220091472872995 -12.25183465871811 0 -12.25183465871811 20.987061312744743 0 0 0 0 37.29442836187895 -54.654445998566786 0 -54.654445998566786 7.8526483894450223 0 0 0 0 12.668999093753882 -48.840686623188958 0 -48.840686623188958 151.49815219588345 0 0 0 0 39.48996421601089 -98.623397477014805 0 -98.623397477014805 2.9086055582156405 0 0 0 0 19.926079211343222 -45.057066176716035 0 -45.057066176716035 153.37351823491917 0 0 0 0 3.8443010414557648 -21.264322673654533 0 -21.264322673654533 175.2600063133832 0 0 0 0 17.840934329881748 -31.129627809837984 0 -31.129627809837984 136.82698161901499 0 0 0 0 14.09427936262864 -56.28817231622179 0 -56.28817231622179 183.35003544688516 0 0 0 0 18.306566620678133 -50.94282124027427 0 -50.94282124027427 7.3758647017614809 0 0 0 0 42.72784716767228 -78.055145728714706 0 -78.055145728714706 114.17304998720647 0 0 0 0 60.56053970620269 -142.78100561501924 0 -142.78100561501924 252.56783840073462 0 0 0 0 17.559911878001003 -34.810107341952971 0 -34.810107341952971 176.61774954578141 0 0 0 0 40.68908257710882 10.060952966341574 0 10.060952966341574 253.65480848115112 0 0 0 0 13.980559782458158 -20.781380293810798 0 -20.781380293810798 139.47176582788234 0 0 0 0 25.827036068491907 2.1474654333287617 0 2.1474654333287617 174.62506861008933 0 0 0 0 2.3261725575957826 5.0104958549636649 0 5.0104958549636649 144.77226526737104 0 0 0 0 -3.0457788580573428 -7.7956220648719636 0 -7.7956220648719636 34.709094548481062 0 0 0 0 5.413666067505801 0.55329269199864939 0 0.55329269199864939 126.83466827977099 0 0 0 0 -14.570106694508468 -11.506434171067667 0 -11.506434171067667 142.16179763668333 0 0 0 0 -6.9298543366935519 -23.900840588015853 0 -23.900840588015853 136.84325616688147 0 0 0 0 0.55587506363463035 -51.510537791575189 0 -51.510537791575189 168.2236147178337 0 0 0 0 10.447067024410899 -31.521995438204613 0 -31.521995438204613 128.40160772007948 0 0 0 0 -8.2708161254852257 -24.978630563869956 0 -24.978630563869956 143.84598359144002 0 0 0 0 -8.5293253174027086 -31.562765180802671 0 -31.562765180802671 210.01917675005097 0 0 0 0 3.4980426699403324 -56.422818108119827 0 -56.422818108119827 162.68421060236869 0 0 0 0 0.14760775373031265 -60.273473718287278 0 -60.273473718287278 184.60525819801842 0 0 0 0 -83.560540135330712 -64.515601886734657 0 -64.515601886734657 206.64276063779835 0 0 0 0 44.275070814257674 -55.779018483128311 0 -55.779018483128311 143.71433967151097 0 0 0 0 8.490478099946813 -62.372113301637 0 -62.372113301637 169.59704004901323 0 0 0 0 -30.165664516745892 -90.548384215479018 0 -90.548384215479018 303.88675091977348 0 0 0 0 137.46698621102314 -66.733214294610661 0 -66.733214294610661 169.68947905872847 0 0 0 0 3.8130947196316014 -18.421654734436459 0 -18.421654734436459 11.914955054702034 0 0 0 0 40.522388065446989 63.724894557890366 0 63.724894557890366 184.84395662238239 0 0 0 0 6.3443616201779598 -23.057132824647852 0 -23.057132824647852 33.3902739230343 0 0 0 0 -2.7254626925100638 -6.8052920567279216 0 -6.8052920567279216 106.90106940302758 0 0 0 0 -106.16590664119425 2.4716063127852976 0 2.4716063127852976 211.85029252759705 0 0 0 0 24.986371820424552 -61.00960690118518 0 -61.00960690118518 145.81659658356511 0 0 0 0 -31.8754704020687 -42.355528313495597 0 -42.355528313495597 152.19363707292359 0 0 0 0 144.23169300859081 -93.277764284292061 0 -93.277764284292061 152.89996091122703 0 0 0 0 13.643744586839603 -283.47570467622427 0 -283.47570467622427 209.98195561216562 0 0 0 0 -5.7278051432906141 -44.100047998184003 0 -44.100047998184003 150.16741130287369 0 0 0 0 -197.85308222643107 -108.90029845703066 0 -108.90029845703066 300.83093591275974 0 0 0 0 355.06224146765089 -131.33034146902355 0 -131.33034146902355 171.28966671148373 0 0 0 0 17.67725668496314 -113.58180672576054 0 -113.58180672576054 327.92330323919305 0 0 0 0 7.2937348015548196 -195.44062192869023 0 -195.44062192869023 15.142419257143047 0 0 0 0 -2.2345103743068364 -30.629108967895007 0 -30.629108967895007 41.211043102171772 0 0 0 0 17.373798043703573 -257.89777666602458 0 -257.89777666602458 668.13542996169417 0 0 0 0 336.43017534141654 -668.01589722923381 0 -668.01589722923381 458.08198897866896 0 0 0 0 24.5928202988698 -3.4143895778582021 0 -3.4143895778582021 -33.606816097585551 0 0 0 0 331.82871482314306 -447.79134447597335 0 -447.79134447597335 346.95197290187207 0 0 0 0 56.433901818330696 -221.98359994363636 0 -221.98359994363636 455.486622554934 0 0 0 0 -61.183942310995917 119.81369182758499 0 119.81369182758499 204.64520922927113 0 0 0 0 -11.88981518527083 -33.009165042283911 0 -33.009165042283911 176.35738094111682 0 0 0 0 -281.00892065409062 -92.791604505022406 0 -92.791604505022406 355.46241672824544 0 0 0 0 -21.660282912692686 -28.546777152078892 0 -28.546777152078892 201.15765631983959 0 0 0 0 -240.16581101592965 127.11249722714274 0 127.11249722714274 277.47103427230468 0 0 0 0 -5.7852646012655669 -52.571362329748808 0 -52.571362329748808 177.01872068059311 0 0 0 0 -66.006198458704418 18.022935987849124 0 18.022935987849124 41.415322184867698 0 0 0 0 41.039306955468419 15.411765611595911 0 15.411765611595911 210.85195086005842 0 0 0 0 -115.13081787835108 43.079865308671287 0 43.079865308671287 271.68225019595047 0 0 0 0 -111.36229636246435 -48.227068425931066 0 -48.227068425931066 167.35122315822082 0 0 0 0 -189.38811733292573 -17.868177649190329 0 -17.868177649190329 362.76471209614829 0 0 0 0 -139.62742391133906 10.712896620825632 0 10.712896620825632 264.31866614075989 0 0 0 0 -12.350552421105091 24.556101196751108 0 24.556101196751108 179.87874106787262 0 0 0 0 -130.37064564981938 78.752473332111549 0 78.752473332111549 285.17768234122195 0 0 0 0 2.7218731202517938 19.38404021887553 0 19.38404021887553 163.37018273533374 0 0 0 0 -61.103283168587041 107.27985766242637 0 107.27985766242637 175.19897695186955 0 0 0 0 -151.2090110167303 26.13022826078668 0 26.13022826078668 467.43753031478263 0 0 0 0 103.77611866679092 -172.29849107327027 0 -172.29849107327027 101.47624616516987 0 0 0 0 15.299489670027469 -8.0050814904971048 0 -8.0050814904971048 24.037181344989222 0 0 0 0 -77.276215880594464 224.26617972424219 0 224.26617972424219 492.30833784158312 0 0 0 0 472.4303430569812 341.71100036581993 0 341.71100036581993 4.9426296160017955 0 0 0 0 -97.241395431646197 95.924160339589434 0 95.924160339589434 176.33102346073792 0 0 0 0 69.372378858664888 157.13353272875247 0 157.13353272875247 176.13146412474816 0 0 0 0 -121.031886867715 -6.5561358797422145 0 -6.5561358797422145 315.75769398904231 0 0 0 0 -57.511147989502206 -48.333384617915726 0 -48.333384617915726 108.17398475906521 0 0 0 0 -3.0697928581173279 11.488583765275294 0 11.488583765275294 42.324474403637907 0 0 0 0 -138.59282717735914 105.93277249772291 0 105.93277249772291 83.13447110717243 0 0 0 0 2.2759394980812138 -1.3965050681824991 0 -1.3965050681824991 54.419839918836942 0 0 0 0 66.479688453773633 65.759786838053515 0 65.759786838053515 87.523398397985147 0 0 0 0 17.197071092865372 22.42056120964844 0 22.42056120964844 85.356954116283305 0 0 0 0 -8.8142881337876133 37.123612343420973 0 37.123612343420973 39.990467164694564 0 0 0 0 -6.4840109775909696 23.382082601114234 0 23.382082601114234 25.066926529631019 0 0 0 0 0.54624836029324797 34.768519445438869 0 34.768519445438869 32.228598854970187 0 0 0 0 16.819209433975665 32.843135322351046 0 32.843135322351046 20.894599958135302 0 0 0 0 4.7348154576312957 7.5934725983586588 0 7.5934725983586588 107.60626492504215 0 0 0 0 -17.606256416096585 36.714886228844989 0 36.714886228844989 28.750330996292178 0 0 0 0 16.427046886558642 70.079088585295523 0 70.079088585295523 56.959672411523911 0 0 0 0 10.684111860951248 14.306854289214698 0 14.306854289214698 81.218286089060712 0 0 0 0 22.652968874130238 20.812997697139508 0 20.812997697139508 92.442487491716747 0 0 0 0 16.559902919800152 34.455742803198518 0 34.455742803198518 78.130169573822059 0 0 0 0 0.99117853474192175 28.738561802868126 0 28.738561802868126 52.448058889041192 0 0 0 0 -11.682951109879525 11.376730084080037 0 11.376730084080037 113.10126500755788 0 0 0 0 16.17405688450993 17.322118329914861 0 17.322118329914861 34.177754544350762 0 0 0 0 10.116275704753946 17.619176168576658 0 17.619176168576658 56.163033596110893 0 0 0 0 -9.7910733030544179 22.685560578029254 0 22.685560578029254 26.611479494240484 0 0 0 0 14.956830522005134 21.829335668564454 0 21.829335668564454 77.546025726987864 0 0 0 0 -24.989911270885386 -6.1054956353254966 0 -6.1054956353254966 34.761934270267375 0 0 0 0 1.5845011737770096 3.9977897475239317 0 3.9977897475239317 77.181589878589364 0 0 0 0 -72.129367425282908 14.803075068964972 0 14.803075068964972 185.6363930565276 0 0 0 0 2.1303257540938896 -9.4824826171655587 0 -9.4824826171655587 50.224791388678227 0 0 0 0 -0.84728217352039792 -47.401218122162391 0 -47.401218122162391 -50.461245191283524 0 0 0 0 -0.36987257518226446 20.548807765894054 0 20.548807765894054 160.28108316770482 0 0 0 0 -12.656802173307971 -21.375932516214064 0 -21.375932516214064 21.790832386288059 0 0 0 0 114.96089662674098 106.28535250985442 0 106.28535250985442 136.66207561045303 0 0 0 0 41.121127150348912 2.7733101316480315 0 2.7733101316480315 118.33611106991884 0 0 0 0 4.1052379716616088 73.16159653570503 0 73.16159653570503 303.90079696039902 0 0 0 0 7.8648387336087424 -10.985426529894113 0 -10.985426529894113 35.181439447750165 0 0 0 0 -3.2716998505025003 40.915464708581567 0 40.915464708581567 182.66996766083867 0 0 0 0 -6.2061290921810723 16.006649427756201 0 16.006649427756201 181.22071360782365 0 0 0 0 30.196400826127842 17.316984494445478 0 17.316984494445478 80.58553089571069 0 0 0 0 14.565761502971835 24.571552419763123 0 24.571552419763123 26.385012981711483 0 0 0 0 9.8715972426708269 -10.580188908888658 0 -10.580188908888658 38.090692417658204 0 0 0 0 27.727710446174569 -2.1911348776848172 0 -2.1911348776848172 119.83532594409917 0 0 0 0 12.043905073316065 10.411856190184437 0 10.411856190184437 20.53312164881082 0 0 0 0 8.7403906635986459 27.003107807337074 0 27.003107807337074 68.076745604586904 0 0 0 0 46.969588938030938 -22.210732929888763 0 -22.210732929888763 62.00616167276894 0 0 0 0 -0.57075232411561316 7.3423490921990293 0 7.3423490921990293 7.6828741155453599 0 0 0 0 14.841818277058337 82.644245042843977 0 82.644245042843977 226.62945132973255 0 0 0 0 -6.0862001593343962 17.83853375844501 0 17.83853375844501 207.44413279209402 0 0 0 0 2.5530918467538868 39.185952320229262 0 39.185952320229262 196.84220631950302 0 0 0 0 37.465618158353038 36.581946027983577 0 36.581946027983577 154.48320759413764 0 0 0 0 -7.4125554550228117 -31.508392934018048 0 -31.508392934018048 235.83371365681523 0 0 0 0 45.945776966058929 -34.906949431338944 0 -34.906949431338944 160.44418443762697 0 0 0 0 9.2244240158925095 -7.5046899099834263 0 -7.5046899099834263 140.00266931405349 0 0 0 0 -20.722731317687931 -20.244618134704069 0 -20.244618134704069 134.93872017328977 0 0 0 0 0.063895736782342283 29.547988782924222 0 29.547988782924222 93.403448513825424 0 0 0 0 -58.093938249928442 2.2562645481193613 0 2.2562645481193613 124.05384606705047 0 0 0 0 -38.096325084650744 47.736931563475082 0 47.736931563475082 91.080185542639811 0 0 0 0 22.106382726995434 37.542469290987356 0 37.542469290987356 40.947522040078184 0 0 0 0 4.4258088614245708 27.623498810309684 0 27.623498810309684 142.93404053110862 0 0 0 0 -0.12081911810764723 9.3782855338504305 0 9.3782855338504305 137.36084702442167 0 0 0 0 -6.5323505372994077 20.289029583989759 0 20.289029583989759 159.40920987882419 0 0 0 0 -10.409177072773787 25.287707317933382 0 25.287707317933382 208.04588795281597 0 0 0 0 -5.008497804239596 -40.522621296870057 0 -40.522621296870057 150.17451249882288 0 0 0 0 -19.990459770491043 -56.18676622203202 0 -56.18676622203202 348.90684109946596 0 0 0 0 54.787506779665932 -94.367935855618271 0 -94.367935855618271 78.761737207212718 0 0 0 0 21.504046143078085 -14.214234820741694 0 -14.214234820741694 124.4743961388449 0 0 0 0 21.918738953779211 -16.016094992723083 0 -16.016094992723083 72.40306816593511 0 0 0 0 1.9826163252057158 1.4543087803311607 0 1.4543087803311607 -3.3788151704563916 0 0 0 0 63.378392208480363 -35.595659738348331 0 -35.595659738348331 1.3808816053642659 0 0 0 0 115.0347189572276 107.3265760577633 0 107.3265760577633 634.35160770639777 0 0 0 0 -183.91228819023536 92.702151619305369 0 92.702151619305369 634.21609412938756 0 0 0 0 63.079990292510274 -65.290067578047456 0 -65.290067578047456 282.11439876400982 0 0 0 0 -0.91960792154309612 -2.0622461765711932 0 -2.0622461765711932 62.029524221925755 0 0 0 0 1.7127536291172873 -35.12941630876594 0 -35.12941630876594 118.06559937920247 0 0 0 0 0.23889849074761038 0.56932842077841883 0 0.56932842077841883 2.4155326747839183 0 0 0 0 -329.06579720279706 330.06337549159798 0 330.06337549159798 642.04179741159896 0 0 0 0 -0.93605492414646818 1.9276408746034974 0 1.9276408746034974 2.7856470846874402 0 0 0 0 162.47956987833277 181.3718935877987 0 181.3718935877987 213.70549246529117 0 0 0 0 181.5127806030514 -195.47733084936044 0 -195.47733084936044 841.69121597424964 0 0 0 0 67.439292585955627 -51.803344212821685 0 -51.803344212821685 33.365860220772447 0 0 0 0 20.288797718469596 -15.312520855135517 0 -15.312520855135517 85.382646932455827 0 0 0 0 -50.453741779701431 -82.791569303604774 0 -82.791569303604774 388.88445422401128 0 0 0 0 -5.7199526555792772 0.71883658568393116 0 0.71883658568393116 0.078232656168083281 0 0 0 0 1.544085698068546 0.57983321400098475 0 0.57983321400098475 -0.38791990041380586 0 0 0 0 -50.229973755270294 -29.357227272339514 0 -29.357227272339514 214.00082097267659 0 0 0 0 -13.600695200602626 11.662963520607121 0 11.662963520607121 137.54111004405536 0 0 0 0 175.54896675833334 -133.07049364472914 0 -133.07049364472914 387.32217393795145 0 0 0 0 -8.9151508826216741 -28.777355136000551 0 -28.777355136000551 116.60000955440773 0 0 0 0 -0.29853927812038705 -1.1331449313366875 0 -1.1331449313366875 24.327615928253636 0 0 0 0 -5.1003806439666732 -20.452283489023102 0 -20.452283489023102 120.19895003561396 0 0 0 0 -8.2925148299109424 -34.947172005209723 0 -34.947172005209723 157.321692972444 0 0 0 0 -14.142216933125383 -8.8528504756468465 0 -8.8528504756468465 142.05958911748894 0 0 0 0 -16.298588336467219 -6.6022163866873598 0 -6.6022163866873598 166.12837472852698 0 0 0 0 -16.535240399662143 -7.5188641463391832 0 -7.5188641463391832 163.91425938758766 0 0 0 0 -2.7022930690986442 15.010490033629509 0 15.010490033629509 37.85365592446621 0 0 0 0 16.692419986526147 50.308160003318335 0 50.308160003318335 71.643061548777041 0 0 0 0 6.4286601478707439 3.2364259408495855 0 3.2364259408495855 72.305363520572428 0 0 0 0 2.2405257459863739 7.8758850822906226 0 7.8758850822906226 49.95492237825016 0 0 0 0 0.88886655268470349 8.6102706381498137 0 8.6102706381498137 37.488880271168455 0 0 0 0 0.17185396500394745 10.617293064831756 0 10.617293064831756 77.570984879042953 0 0 0 0 16.795676819830987 18.008492559252772 0 18.008492559252772 55.439001644495875 0 0 0 0 -1.4826532002470811 10.673517967539652 0 10.673517967539652 35.087257561336969 0 0 0 0 23.809048810261466 -20.856106613748793 0 -20.856106613748793 49.12984356706977 0 0 0 0 -2.027144965666821 8.0110380621699733 0 8.0110380621699733 90.205131745009567 0 0 0 0 -0.54968981486820212 14.566365597391268 0 14.566365597391268 72.481316809689815 0 0 0 0 -2.7423311134707546 -2.5998545153852319 0 -2.5998545153852319 87.263031887312536 0 0 0 0 -0.87243974709229377 3.8521418815250854 0 3.8521418815250854 28.260895774330152 0 0 0 0 -3.0724929865671129 -4.8555384338760632 0 -4.8555384338760632 83.930710292304866 0 0 0 0 -9.7896649784797098 7.7949078178870934 0 7.7949078178870934 85.938617608626714 0 0 0 0 -3.8847794556595745 0.85459913864561798 0 0.85459913864561798 68.659644204905305 0 0 0 0 -0.92970263510540896 6.6819328472192865 0 6.6819328472192865 40.091187917758361 0 0 0 0 -40.572049392143143 -17.623416615359019 0 -17.623416615359019 96.967852082947502 0 0 0 0 -3.420539886016289 5.2699527899524554 0 5.2699527899524554 57.834435383473931 0 0 0 0 1.2476660703955531 -1.9448105426272377 0 -1.9448105426272377 72.915944378706627 0 0 0 0 0.15690989435304226 -2.1854995877687315 0 -2.1854995877687315 13.765256761689841 0 0 0 0 -0.0065499403103634665 3.6731843245142954 0 3.6731843245142954 20.50214434825466 0 0 0 0 0.11748433319471091 201.33049993595341 0 201.33049993595341 115.65855314849614 0 0 0 0 0.94025991871419834 -0.066351466064872966 0 -0.066351466064872966 0.52406923593224519 0 0 0 0 17.563263883064266 -70.37212725111749 0 -70.37212725111749 143.89885363573558 0 0 0 0 -0.73867737772794861 -1.9931381521670346 0 -1.9931381521670346 14.571557770884922 0 0 0 0 -0.30241969927710599 5.0231260504369857 0 5.0231260504369857 128.26058317015122 0 0 0 0 -0.028950984439774272 -10.671723879872507 0 -10.671723879872507 168.8471814491204 0 0 0 0 3.0623383532699044 -9.0147762461419916 0 -9.0147762461419916 148.58453631857992 0 0 0 0 13.978519793931179 15.761014066141797 0 15.761014066141797 199.97840988985263 0 0 0 0 2.2935554578375559 -3.6054961892950814 0 -3.6054961892950814 68.867082475451753 0 0 0 0 1.1720636183445095 -2.0775273270264734 0 -2.0775273270264734 80.277443735918496 0 0 0 0 6.5504363441703406 -31.520651197348911 0 -31.520651197348911 41.368732183911703 0 0 0 0 5.9375103775162543 9.8620873274921905 0 9.8620873274921905 221.62462686633808 0 0 0 0 1.0304795621623271 -4.3384795937236049 0 -4.3384795937236049 77.724427579611074 0 0 0 0 24.347037233363451 -28.689460159133887 0 -28.689460159133887 294.78383087467228 0 0 0 0 -1.3165378183366634 -3.559761961517097 0 -3.559761961517097 10.169658357516795 0 0 0 0 14.427240001410272 -21.648998286844289 0 -21.648998286844289 187.24286727615981 0 0 0 0 3.7307591179662802 -22.066134612388851 0 -22.066134612388851 190.92196171707474 0 0 0 0 9.5510371603514415 -0.41856090762303211 0 -0.41856090762303211 217.46022072708001 0 0 0 0 0.007468658941391761 -12.808851046218479 0 -12.808851046218479 152.96873799321475 0 0 0 0 0.55373213994078974 -23.663443483470473 0 -23.663443483470473 161.80520617665024 0 0 0 0 -3.1256250788562774 -17.149401501636021 0 -17.149401501636021 165.12484023487195 0 0 0 0 -1.6807005787354967 -9.123958196505555 0 -9.123958196505555 173.13669965775625 0 0 0 0 52.59246171992072 -29.637364856280328 0 -29.637364856280328 91.121230113123602 0 0 0 0 -17.51501703676422 -91.422120256553171 0 -91.422120256553171 301.33708395154952 0 0 0 0 43.079415835508371 -0.18204369834711542 0 -0.18204369834711542 297.20133711678 0 0 0 0 19.160339394165931 -95.496150629223848 0 -95.496150629223848 200.20458526791481 0 0 0 0 25.700505909740968 -22.300428439290044 0 -22.300428439290044 220.52483216460678 0 0 0 0 5.6123072315031095 -1.6447467960315407 0 -1.6447467960315407 395.32039307412924 0 0 0 0 21.682519162513927 81.97674927461776 0 81.97674927461776 446.02331076636619 0 0 0 0 63.80149772554978 121.22191386915802 0 121.22191386915802 363.73047029922236 0 0 0 0 -13.704695967299813 111.50863616519928 0 111.50863616519928 555.36363109831655 0 0 0 0 -21.45528208731821 104.1958629549772 0 104.1958629549772 650.24600196444953 0 0 0 0 -93.261393891857551 -23.746167592034908 0 -23.746167592034908 611.75900048981202 0 0 0 0 -48.567292681681465 -38.372588125948823 0 -38.372588125948823 481.93646251766768 0 0 0 0 -37.864399789374374 25.387603993284301 0 25.387603993284301 553.56336123096116 0 0 0 0 -109.5120883208433 -16.497380683809752 0 -16.497380683809752 857.63323435876737 0 0 0 0 154.1131279222368 -221.78948695189683 0 -221.78948695189683 501.69075730293116 0 0 0 0 490.74122776422996 84.724736276330077 0 84.724736276330077 712.11555927809786 0 0 0 0 -7.1790708794437705 85.833130817503843 0 85.833130817503843 736.99068507966149 0 0 0 0 165.47427579226633 11.208533337467088 0 11.208533337467088 -71.791394063184271 0 0 0 0 -67.644103910581293 -219.01247935028726 0 -219.01247935028726 384.63346687560988 0 0 0 0 -2.9552129510489067 -177.12866209406639 0 -177.12866209406639 321.31927674556209 0 0 0 0 -90.550395160171774 -20.55083293338248 0 -20.55083293338248 387.24856112071939 0 0 0 0 -4.6172819255855 -1.80816892510515 0 -1.80816892510515 0.15636791678731754 0 0 0 0 49.668296065218101 -198.32784644254571 0 -198.32784644254571 876.86934132471924 0 0 0 0 78.149386750074427 -226.66080548367972 0 -226.66080548367972 740.10705053864876 0 0 0 0 12.24391579877414 -115.79811022662943 0 -115.79811022662943 710.019267757747 0 0 0 0 -3.7641947178772823 -0.85597663342524299 0 -0.85597663342524299 1.2781801052735489 0 0 0 0 44.984444621997909 -376.89383863850162 0 -376.89383863850162 629.2010418863938 0 0 0 0 -14.882317909672494 -6.379137583493744 0 -6.379137583493744 -0.088086174640963577 0 0 0 0 -157.88805003281345 -244.53527240706899 0 -244.53527240706899 752.71009284140746 0 0 0 0 183.36735958756913 -291.03225290559385 0 -291.03225290559385 156.88214502835035 0 0 0 0 -27.505007907226968 -7.9618451726775135 0 -7.9618451726775135 -6.7463324278613896 0 0 0 0 -6.2164823620496463 -116.41633079307212 0 -116.41633079307212 228.89163785210076 0 0 0 0 -18.942201893556671 -314.05184504851968 0 -314.05184504851968 484.90779613261111 0 0 0 0 104.67830121810147 -248.25884922713249 0 -248.25884922713249 630.15886396358837 0 0 0 0 129.59184137076909 -419.90067512017413 0 -419.90067512017413 532.46687464245406 0 0 0 0 1.9065513928385371 -174.69183544979387 0 -174.69183544979387 519.16091820091151 0 0 0 0 126.04672592992756 -422.56967716760118 0 -422.56967716760118 379.32868549703562 0 0 0 0 394.5791567094916 106.36259126079131 0 106.36259126079131 -216.67211612855317 0 0 0 0 99.481051199844842 25.651592770864227 0 25.651592770864227 -172.06852039960359 0 0 0 0 -56.540238732382932 309.49841803628078 0 309.49841803628078 84.559396947141067 0 0 0 0 -150.67709984897556 -40.224234664285177 0 -40.224234664285177 257.46834160551225 0 0 0 0 -41.08071960526064 -18.783518729328236 0 -18.783518729328236 39.511534236922984 0 0 0 0 -132.89474198145945 -38.120853307864309 0 -38.120853307864309 314.76170984468627 0 0 0 0 -15.109547345928149 -18.201374639269488 0 -18.201374639269488 243.62211428918818 0 0 0 0 -3.0890679297044699 -129.59013930949732 0 -129.59013930949732 192.74190820578951 0 0 0 0 51.236978045100841 -387.72607898301794 0 -387.72607898301794 231.9968724004284 0 0 0 0 -92.125316110483254 -124.50396069131966 0 -124.50396069131966 283.57594021956902 0 0 0 0 -71.217644936557917 -112.29003607518098 0 -112.29003607518098 266.33577565319138 0 0 0 0 -213.8713100529676 -71.110453090805095 0 -71.110453090805095 272.70907957351301 0 0 0 0 5.8379029471761896 -51.772296182985883 0 -51.772296182985883 179.79127101693302 0 0 0 0 29.777740232355427 -123.98491393035511 0 -123.98491393035511 196.01499995047925 0 0 0 0 148.99769333530276 -339.60972267438774 0 -339.60972267438774 277.35321241104248 0 0 0 0 -64.9590433444464 -185.57738361359225 0 -185.57738361359225 341.08983696205541 0 0 0 0 119.84405812725163 -51.587100949283922 0 -51.587100949283922 -6.8974391240044497 0 0 0 0 216.61679807102337 -156.9213552713627 0 -156.9213552713627 37.340695315273479 0 0 0 0 -795.80586096207026 607.57047842309839 0 607.57047842309839 138.87170004266954 0 0 0 0 -12.010478261163181 -28.058773830419796 0 -28.058773830419796 28.104618458307925 0 0 0 0 -20.498880928032705 -17.490176650281114 0 -17.490176650281114 164.68806932350958 0 0 0 0 -368.43240798760871 19.486829328950989 0 19.486829328950989 26.057899445673684 0 0 0 0 -304.56546872851686 50.416360931143572 0 50.416360931143572 227.41366291229497 0 0 0 0 -187.04781918100434 57.008886133604392 0 57.008886133604392 67.479251440992812 0 0 0 0 -195.44461979104381 -119.97401793845347 0 -119.97401793845347 -128.7712435539579 0 0 0 0 -65.739739865020965 37.225793904130114 0 37.225793904130114 61.273784462129697 0 0 0 0 3.4733135566133271 -15.033357819603424 0 -15.033357819603424 30.502118548728859 0 0 0 0 -26.209334044965114 4.1722728558063871 0 4.1722728558063871 134.00836426305202 0 0 0 0 112.24792541579427 -88.181370446498477 0 -88.181370446498477 230.14298966011847 0 0 0 0 85.14622336634784 -61.394580947933719 0 -61.394580947933719 124.58396845572861 0 0 0 0 -61.591446488553515 -9.488721582968985 0 -9.488721582968985 173.06665372284743 0 0 0 0 -2.6352993225156123 34.399979315474219 0 34.399979315474219 -10.388364663247671 0 0 0 0 -52.158780046887841 -49.708762065929477 0 -49.708762065929477 232.78633544262266 0 0 0 0 66.417156405375863 -174.25751940745977 0 -174.25751940745977 391.83840347392834 0 0 0 0 38.301431174488243 -157.61614736020056 0 -157.61614736020056 285.00565187336178 0 0 0 0 24.91845346034097 -102.12390224359115 0 -102.12390224359115 268.44028002275445 0 0 0 0 -27.482885055054794 -137.30459837353555 0 -137.30459837353555 327.64277436287375 0 0 0 0 -63.127324302418856 -42.992890913388692 0 -42.992890913388692 241.71401329987566 0 0 0 0 -103.91886432369938 -56.673789034190122 0 -56.673789034190122 305.24506264973024 0 0 0 0 -71.269912854870199 35.870947134186281 0 35.870947134186281 116.7961826070823 0 0 0 0 -48.995722021631082 -6.9245910075260326 0 -6.9245910075260326 126.09911083854968 0 0 0 0 -76.462616766813881 34.338362730515655 0 34.338362730515655 122.9278086568811 0 0 0 0 -146.15037991597819 11.019027952919714 0 11.019027952919714 207.20368741534185 0 0 0 0 -90.537665727264994 -227.71148028286552 0 -227.71148028286552 190.04406303865835 0 0 0 0 515.17107131970261 -256.06336887792713 0 -256.06336887792713 88.441926139683346 0 0 0 0 218.91472415820863 -23.674092473025667 0 -23.674092473025667 316.44419348570227 0 0 0 0 -2.0464150751595298 -172.38734600038515 0 -172.38734600038515 489.21066877886187 0 0 0 0 365.39680790738748 -678.86120367042258 0 -678.86120367042258 962.21508391644602 0 0 0 0 477.01345990783943 -353.53979526055991 0 -353.53979526055991 411.34174691332009 0 0 0 0 125.60788490492996 -295.8022536214703 0 -295.8022536214703 410.34488474005047 0 0 0 0 101.82235366326313 -88.558239139971192 0 -88.558239139971192 260.84588772599818 0 0 0 0 24.747983331877997 -5.348035752596445 0 -5.348035752596445 -32.092107611540541 0 0 0 0 241.6154407871727 -208.16101264030294 0 -208.16101264030294 218.21313180724974 0 0 0 0 250.36922391166854 -126.58901918567426 0 -126.58901918567426 107.78763805510243 0 0 0 0 -251.39420444339885 -106.89266477234196 0 -106.89266477234196 1180.0713556265218 0 0 0 0 1748.092720397588 -50.776326616782171 0 -50.776326616782171 -1461.3885678211664 0 0 0 0 -710.27211793956303 334.96969059646653 0 334.96969059646653 135.28862262242183 0 0 0 0 325.43042954220073 -598.57249473596312 0 -598.57249473596312 810.65313708331087 0 0 0 0 -1119.0263280727711 -447.74667458284603 0 -447.74667458284603 1208.3261935245828 0 0 0 0 -69.417601204857192 -13.446794612404119 0 -13.446794612404119 662.36963215142896 0 0 0 0 -17.590896690041863 7.1484187988513241 0 7.1484187988513241 -7.6876765250563892 0 0 0 0 972.30184502781776 -1252.7345502421522 0 -1252.7345502421522 -177.64246009630006 0 0 0 0 220.616782760349 -268.06135178011391 0 -268.06135178011391 817.01013016180514 0 0 0 0 2.4412662006943719 -114.90731213894469 0 -114.90731213894469 184.75644598604822 0 0 0 0 -42.760709804730141 21.355834911533748 0 21.355834911533748 193.28647913596342 0 0 0 0 -178.16395134524646 114.84602090086992 0 114.84602090086992 35.653744235496561 0 0 0 0 -117.78909024080349 -39.842822993305163 0 -39.842822993305163 154.51427318254719 0 0 0 0 -45.105066407555569 -97.486463608001941 0 -97.486463608001941 195.19900962316024 0 0 0 0 -39.651069451568219 -77.616650311967533 0 -77.616650311967533 91.964019656996243 0 0 0 0 -138.62217130620138 -100.57178040804138 0 -100.57178040804138 87.475818163977237 0 0 0 0 -146.06794500078468 -70.643558831063274 0 -70.643558831063274 222.63464335480239 0 0 0 0 -102.08171676842176 24.928926850130665 0 24.928926850130665 -101.69086075863743 0 0 0 0 -31.168635551016244 -17.48264533837893 0 -17.48264533837893 77.343653501201032 0 0 0 0 45.333343436049276 2.5809288850356111 0 2.5809288850356111 -26.3185766282499 0 0 0 0 -406.75391672008118 191.36133585467906 0 191.36133585467906 240.66161074180854 0 0 0 0 927.21209055286454 -1290.0459595809589 0 -1290.0459595809589 832.47464161834796 0 0 0 0 222.73519972333452 -152.31689403382188 0 -152.31689403382188 139.00323124241913 0 0 0 0 -143.42480491210335 163.06936138150922 0 163.06936138150922 -68.22051539138738 0 0 0 0 266.61054108284588 -691.01595560042188 0 -691.01595560042188 772.68794012261787 0 0 0 0 1475.9934002211926 -1227.3275609081556 0 -1227.3275609081556 -170.79726962189307 0 0 0 0 -456.11944464668159 -15.134877693220915 0 -15.134877693220915 333.61647201413871 0 0 0 0 -350.07401907272833 102.44046371675722 0 102.44046371675722 297.00218120231875 0 0 0 0 -87.777168800945219 -0.33635163983854 0 -0.33635163983854 278.58290552068502 0 0 0 0 -86.310663078274956 31.356199588270101 0 31.356199588270101 202.56958807222691 0 0 0 0 -126.39320284725773 -7.5278819753220887 0 -7.5278819753220887 249.57622981969325 0 0 0 0 -84.981917760680517 15.111497134719684 0 15.111497134719684 330.79622932084021 0 0 0 0 80.643774704833049 83.691353105430608 0 83.691353105430608 265.21759108946571 0 0 0 0 -97.238992931982011 37.270097639775486 0 37.270097639775486 356.59838323382428 0 0 0 0 75.747470042879286 149.3704553433563 0 149.3704553433563 398.77562830457464 0 0 0 0 107.77217961897622 166.54386965440062 0 166.54386965440062 305.83528545300942 0 0 0 0 -14.984926882571017 -44.790655153054104 0 -44.790655153054104 159.57630100473762 0 0 0 0 316.59553759310074 521.6152902716567 0 521.6152902716567 533.55150003702147 0 0 0 0 194.94772686108536 227.05554254625531 0 227.05554254625531 238.87658964807633 0 0 0 0 -2.1288066421911935 343.57671304405085 0 343.57671304405085 1178.7995530048211 0 0 0 0 92.535787012789115 343.69188441469669 0 343.69188441469669 1167.764897488727 0 0 0 0 -69.715709979802341 254.96541459406581 0 254.96541459406581 1790.8523101143073 0 0 0 0 125.21781128702969 -171.0790381387269 0 -171.0790381387269 2611.2929101762129 0 0 0 0 112.15240339838783 -420.48241825611331 0 -420.48241825611331 2106.9311279549729 0 0 0 0 86.781619235104813 -171.83482093608563 0 -171.83482093608563 1510.3288058229082 0 0 0 0 925.76644398174176 -247.72451321379049 0 -247.72451321379049 2519.1111844651459 0 0 0 0 1552.329455688563 -142.66701545909746 0 -142.66701545909746 1363.3832990587252 0 0 0 0 1108.3615748607735 -136.35672011824499 0 -136.35672011824499 2095.6824205879238 0 0 0 0 962.50481565889277 -793.60847390715207 0 -793.60847390715207 2001.3560630458451 0 0 0 0 593.74276991080114 3.9749925733485725 0 3.9749925733485725 2324.033169812421 0 0 0 0 2620.2499264401704 -166.43798859929666 0 -166.43798859929666 2084.7391456171099 0 0 0 0 26.339436643524095 1258.0829880541278 0 1258.0829880541278 1312.2639924935793 0 0 0 0 1125.1384292109979 -1273.8130723092909 0 -1273.8130723092909 4323.7207270988147 0 0 0 0 13.357105813894286 -7.9824952826206186 0 -7.9824952826206186 4.832067831462922 0 0 0 0 206.72070232051192 293.47513085589162 0 293.47513085589162 4009.594239294307 0 0 0 0 1284.8512219609147 312.24797268383554 0 312.24797268383554 3258.0581141292932 0 0 0 0 10.363547425099402 -5.5996530492274275 0 -5.5996530492274275 7.0491457075310393 0 0 0 0 2161.4706340689936 -2058.8437414292639 0 -2058.8437414292639 3472.6179880682321 0 0 0 0 20.331595196083072 -67.51964109527762 0 -67.51964109527762 -581.79538607846189 0 0 0 0 61.457187061412696 1189.0611117980297 0 1189.0611117980297 -783.19010956052807 0 0 0 0 119.46571185506036 265.83534592908109 0 265.83534592908109 237.59803599919542 0 0 0 0 -395.47766794919335 -170.00578718302131 0 -170.00578718302131 105.86765847634524 0 0 0 0 -223.82827846278815 52.265872565563768 0 52.265872565563768 306.8116921335677 0 0 0 0 780.3066642019694 -837.1702539325488 0 -837.1702539325488 1494.4774013620336 0 0 0 0 499.30856244046572 -1029.7742336652045 0 -1029.7742336652045 1472.1924791943165 0 0 0 0 1305.7749648813988 -755.78935334809648 0 -755.78935334809648 1490.8068771608278 0 0 0 0 21.939529192957707 -753.38948462103144 0 -753.38948462103144 1145.8099532065971 0 0 0 0 428.56646870705663 -757.16548102357774 0 -757.16548102357774 798.65857342882373 0 0 0 0 564.56415193174507 -967.14092356471519 0 -967.14092356471519 1036.9577697156346 0 0 0 0 250.31921523377969 -617.79637008614372 0 -617.79637008614372 1510.3231521400303 0 0 0 0 246.5103507339627 -681.01507440745627 0 -681.01507440745627 975.64004975100397 0 0 0 0 -12.615266494501157 -288.70115011288362 0 -288.70115011288362 1293.7193846158043 0 0 0 0 116.74320266238101 -486.56969911407214 0 -486.56969911407214 1545.1720763828343 0 0 0 0 431.69535478684338 -577.47110624183551 0 -577.47110624183551 1267.3114436693286 0 0 0 0 629.84927807399072 -814.42823071021849 0 -814.42823071021849 2304.6095430802961 0 0 0 0 460.32035229053872 -470.69661513976462 0 -470.69661513976462 1661.1650603706839 0 0 0 0 890.76192005541816 106.56150223121222 0 106.56150223121222 1600.0456625423903 0 0 0 0 485.85818775708503 -63.604426821802917 0 -63.604426821802917 1575.8117632452195 0 0 0 0 965.48610979385739 10.687633976987854 0 10.687633976987854 771.61262586421799 0 0 0 0 153.69741328151758 -48.633597464726336 0 -48.633597464726336 795.53845183241356 0 0 0 0 455.80942880554471 151.42240053053592 0 151.42240053053592 906.76377872395096 0 0 0 0 331.91214920172933 366.67000468215701 0 366.67000468215701 358.03033395715465 0 0 0 0 451.5675542814588 38.288616654204816 0 38.288616654204816 467.45529906780575 0 0 0 0 550.34440371304663 208.4969870070563 0 208.4969870070563 733.69316729843558 0 0 0 0 160.22513017163328 -71.555013735611283 0 -71.555013735611283 804.96137328253099 0 0 0 0 672.06886649317858 -194.14391990963486 0 -194.14391990963486 763.82650940069288 0 0 0 0 -4.2126491283888754 -93.386546242072654 0 -93.386546242072654 1460.0166330981447 0 0 0 0 696.04631930479263 -556.18522468078299 0 -556.18522468078299 1293.3732167489652 0 0 0 0 556.57337782999821 -326.12833810032316 0 -326.12833810032316 926.46538351844356 0 0 0 0 578.52694539607546 -284.33615055075643 0 -284.33615055075643 1357.2326415527205 0 0 0 0 785.87456022122933 -251.3063968194183 0 -251.3063968194183 1348.3142186636724 0 0 0 0 808.42013657934967 -34.310610787648329 0 -34.310610787648329 871.05771542357979 0 0 0 0 -0.14810009332855145 -2.4188753057497223 0 -2.4188753057497223 10.290047524470509 0 0 0 0 490.37899736855297 837.18510857880028 0 837.18510857880028 243.86908626573222 0 0 0 0 -783.33518812038915 -952.01544869539885 0 -952.01544869539885 663.63562235681457 0 0 0 0 -349.45172241111379 -680.11531035101689 0 -680.11531035101689 -119.3833438873553 0 0 0 0 -686.23372709234536 -689.47849434134696 0 -689.47849434134696 1157.1245634126681 0 0 0 0 -454.17208238865078 -806.30811623099726 0 -806.30811623099726 946.48226872154919 0 0 0 0 -93.618539594732283 -481.4946557420626 0 -481.4946557420626 902.21627908775554 0 0 0 0 -267.23872450175259 -379.49641083431925 0 -379.49641083431925 870.35978706068636 0 0 0 0 -86.718326418935249 -492.39986011604378 0 -492.39986011604378 775.80719522597792 0 0 0 0 5.4559920064589278 224.41706999614325 0 224.41706999614325 462.34889222600032 0 0 0 0 -219.5714069410883 -4.3083495556165872 0 -4.3083495556165872 386.03698016612179 0 0 0 0 0.34198166803793928 -8.0224677071294437 0 -8.0224677071294437 26.884791580679916 0 0 0 0 -734.59749735446894 -61.011589631845709 0 -61.011589631845709 200.13365736776177 0 0 0 0 -368.35921883384526 255.74610673267671 0 255.74610673267671 -39.842393685893512 0 0 0 0 -164.07788766881731 95.750127584949951 0 95.750127584949951 86.345793445769232 0 0 0 0 15.697587906083754 357.22375090415881 0 357.22375090415881 119.00708005445085 0 0 0 0 -245.38595417085571 190.0117116136862 0 190.0117116136862 82.109479982602352 0 0 0 0 88.114715791239632 272.53453281334623 0 272.53453281334623 -291.69273243696807 0 0 0 0 -81.016747768901951 179.8153760329842 0 179.8153760329842 81.258223279076446 0 0 0 0 1.7903072113525216 43.47686932017109 0 43.47686932017109 27.893876736723414 0 0 0 0 -147.26594768101222 99.572400778812153 0 99.572400778812153 90.777503284600243 0 0 0 0 423.03448766258828 -274.00827105719918 0 -274.00827105719918 411.5997311919491 0 0 0 0 495.34055537778295 76.288100349138404 0 76.288100349138404 420.487665424429 0 0 0 0 420.01205242822562 -63.340869053194183 0 -63.340869053194183 216.00836075842381 0 0 0 0 284.53620678674542 167.84227771537189 0 167.84227771537189 -10.179371249585529 0 0 0 0 319.68806045948804 273.39350185804506 0 273.39350185804506 236.6452795704754 0 0 0 0 7.7985401445486673 230.633437744297 0 230.633437744297 332.65284669064567 0 0 0 0 0.64348408341356844 295.12973196493112 0 295.12973196493112 -38.328938978654151 0 0 0 0 82.056842938829504 -53.417737885796669 0 -53.417737885796669 -179.21675796261115 0 0 0 0 267.35686337546576 139.87218954387936 0 139.87218954387936 14.951798605499789 0 0 0 0 240.48094974255957 -169.35119824790058 0 -169.35119824790058 -7.2857576087553753 0 0 0 0 13.379379994452393 93.051633951356052 0 93.051633951356052 -128.84538267623975 0 0 0 0 48.608786821064314 -147.3870066974705 0 -147.3870066974705 -50.076217015368456 0 0 0 0 126.27958913175644 -142.82070689729881 0 -142.82070689729881 -29.732957427506335 0 0 0 0 46.572266214331648 -109.07502248433593 0 -109.07502248433593 -38.846283536746341 0 0 0 0 72.89046514837537 -71.483903457774431 0 -71.483903457774431 45.189770817531098 0 0 0 0 66.518920554934397 -91.053960541747642 0 -91.053960541747642 -14.567970739466546 0 0 0 0 68.647975875726829 -30.472071441631783 0 -30.472071441631783 507.95054599806463 0 0 0 0 190.80044181402718 -18.564198437106825 0 -18.564198437106825 288.22084941271896 0 0 0 0 174.12122443662611 -214.11980978419524 0 -214.11980978419524 115.69512495149684 0 0 0 0 -3.3361259943662844 -89.001875681806268 0 -89.001875681806268 701.09280858178681 0 0 0 0 22.674721245880392 -188.64202034173104 0 -188.64202034173104 1082.3107520608028 0 0 0 0 -11.374119932501344 -1.1084579092785134 0 -1.1084579092785134 902.60021057371341 0 0 0 0 -148.44154786336685 148.36663187369231 0 148.36663187369231 731.79687713458407 0 0 0 0 -9.3989731105058922 -1.7422863544902611 0 -1.7422863544902611 690.74455302508431 0 0 0 0 -14.874257984655742 36.401099672228156 0 36.401099672228156 508.06673497169197 0 0 0 0 -112.65373433558125 35.30556226796034 0 35.30556226796034 840.88804893760243 0 0 0 0 -143.13935160634082 90.679722650980693 0 90.679722650980693 949.81548981272499 0 0 0 0 -132.051055970589 148.75653872261319 0 148.75653872261319 889.02850193805352 0 0 0 0 -14.791319487394503 297.94329984309297 0 297.94329984309297 774.68345584459166 0 0 0 0 20.194519450824373 240.10644224542193 0 240.10644224542193 706.8793251109455 0 0 0 0 159.40973467941922 323.08269544940413 0 323.08269544940413 542.60023963214189 0 0 0 0 -124.9021579957639 105.78558073098247 0 105.78558073098247 1065.1349222978315 0 0 0 0 55.753591914441586 -235.84621190144026 0 -235.84621190144026 1072.9118974167941 0 0 0 0 -171.36086108615245 226.96508708831243 0 226.96508708831243 1215.1359671456385 0 0 0 0 132.45568265278735 470.63952692203384 0 470.63952692203384 638.70750476596731 0 0 0 0 177.76339020042087 259.38263452184037 0 259.38263452184037 146.14991252020263 0 0 0 0 135.33315315375285 23.088755694225256 0 23.088755694225256 2.2427256723603932 0 0 0 0 44.108830752239101 171.42015649718451 0 171.42015649718451 437.14113496169739 0 0 0 0 0.72687685030976823 -0.57804764580340873 0 -0.57804764580340873 -0.26935706715826768 0 0 0 0 -41.481072920794304 -9.2317207158084784 0 -9.2317207158084784 333.23843641253552 0 0 0 0 35.573834209769018 -17.842368589764192 0 -17.842368589764192 -94.250118678959552 0 0 0 0 71.585398610546463 -154.56646177361654 0 -154.56646177361654 17.433595380127372 0 0 0 0 60.293196454826557 -138.14975830928597 0 -138.14975830928597 -5.4939318001415813 0 0 0 0 -0.64904354824558919 -1.1165683327047589 0 -1.1165683327047589 -1.4942240613298097 0 0 0 0 129.09001305627453 18.769183314718248 0 18.769183314718248 -302.76738898966869 0 0 0 0 56.511513712570149 -122.28125130253829 0 -122.28125130253829 -110.24492168625875 0 0 0 0 147.3644969017987 -157.55215034315188 0 -157.55215034315188 -10.945981266522722 0 0 0 0 66.200122846197701 -31.922902153361065 0 -31.922902153361065 59.461599939226289 0 0 0 0 135.21203261086339 -146.79543146354263 0 -146.79543146354263 56.134207710057808 0 0 0 0 84.182792371051164 -102.39038482123578 0 -102.39038482123578 296.55575780651998 0 0 0 0 69.503226452412491 -146.00983273144811 0 -146.00983273144811 287.55905951768364 0 0 0 0 153.58741800302869 -243.28144648684247 0 -243.28144648684247 219.20090152692865 0 0 0 0 15.319206051238325 -45.987310390624771 0 -45.987310390624771 -17.514606764321798 0 0 0 0 101.28670024856092 -139.56460091503686 0 -139.56460091503686 -12.440094858684461 0 0 0 0 227.07285410303848 -62.246769446661347 0 -62.246769446661347 88.66595660962048 0 0 0 0 192.61095543489455 -225.19527841899981 0 -225.19527841899981 67.850526855909266 0 0 0 0 18.915247099384032 26.82590929674916 0 26.82590929674916 257.82314826936499 0 0 0 0 2.9918125205925747 10.031455240976555 0 10.031455240976555 21.072890557698827 0 0 0 0 25.763983809478304 -152.33684514134075 0 -152.33684514134075 267.390640695201 0 0 0 0 48.697186670666269 42.634416765213246 0 42.634416765213246 -60.17343949485803 0 0 0 0 -68.887337305655819 -6.5801610035996418 0 -6.5801610035996418 220.81019040459068 0 0 0 0 -68.887337305637629 -6.5801610035996418 0 -6.5801610035996418 220.81019040418323 0 0 0 0 59.569549247423311 -127.44658810654801 0 -127.44658810654801 131.70015228446573 0 0 0 0 -68.887337305603069 -6.5801610035123304 0 -6.5801610035123304 220.81019040447427 0 0 0 0 19.390492232000398 2.5178958761264738 0 2.5178958761264738 18.133989075762845 0 0 0 0 123.61240299607471 -54.941062975893146 0 -54.941062975893146 153.44552588285296 0 0 0 0 17.734669216121006 14.948585734782682 0 14.948585734782682 328.94027556915535 0 0 0 0 -0.86677282445489823 6.6220942927811279 0 6.6220942927811279 55.612260376740267 0 0 0 0 3.1208796263159897 5.1596275868123342 0 5.1596275868123342 62.60828968974144 0 0 0 0 -2.7751258673160919 6.3089008812166867 0 6.3089008812166867 38.797434639825951 0 0 0 0 -1.8530461204800304 5.6063088166920352 0 5.6063088166920352 105.54065810440807 0 0 0 0 -4.0717563556717522 22.808511421775506 0 22.808511421775506 87.811653124957047 0 0 0 0 9.7660927022549835 9.5919190390672107 0 9.5919190390672107 48.225018196668969 0 0 0 0 -75.936381511090076 67.573463168959279 0 67.573463168959279 86.907978725415887 0 0 0 0 181.92650335682174 -44.715528371030814 0 -44.715528371030814 99.607119363674428 0 0 0 0 206.62378095631743 -131.55592101644288 0 -131.55592101644288 151.43293941701995 0 0 0 0 0.87440004078598577 9.9892354356998112 0 9.9892354356998112 64.471568198895511 0 0 0 0 1.6080004224862456 21.766692198972606 0 21.766692198972606 37.954841722791642 0 0 0 0 13.835179132002189 12.753833781338791 0 12.753833781338791 43.834756965910373 0 0 0 0 10.100126649160757 5.2463539429299999 0 5.2463539429299999 55.587408079212764 0 0 0 0 129.00915028838199 42.659926051455841 0 42.659926051455841 126.8201360414896 0 0 0 0 173.15271164808644 -326.75630117041146 0 -326.75630117041146 620.98657951682253 0 0 0 0 -16.283645531904568 -55.102614797200658 0 -55.102614797200658 349.05109979190456 0 0 0 0 6.6823210358720146 0.82292692142793555 0 0.82292692142793555 0.70852857344041098 0 0 0 0 -2.1293062837977716 1.7945532176093195 0 1.7945532176093195 18.526482866406326 0 0 0 0 25.885526733184633 -125.08168122302595 0 -125.08168122302595 383.57685463943199 0 0 0 0 90.439034970508146 -65.872207926862757 0 -65.872207926862757 150.99970337129116 0 0 0 0 24.702639121534048 -89.436768344523443 0 -89.436768344523443 216.25716187052603 0 0 0 0 35.513530388308027 68.100024977291469 0 68.100024977291469 157.29219919953903 0 0 0 0 238.38677212181526 21.178405059610668 0 21.178405059610668 99.053949518231093 0 0 0 0 -54.579924948862526 87.512503031393862 0 87.512503031393862 72.831362643250031 0 0 0 0 -6.1210553801356582 58.307091450267762 0 58.307091450267762 172.49179200854269 0 0 0 0 -0.011342423859979078 23.535556739184003 0 23.535556739184003 103.02143046416873 0 0 0 0 -2.3443791273939496 95.836967982257192 0 95.836967982257192 61.005232246239757 0 0 0 0 -26.678187791844721 77.157854217519343 0 77.157854217519343 58.549403165230615 0 0 0 0 146.92860131016448 -13.439222101569612 0 -13.439222101569612 61.61901195408791 0 0 0 0 71.72980597720759 -31.679500184334756 0 -31.679500184334756 87.639541242206178 0 0 0 0 83.146122898429667 85.69085051206639 0 85.69085051206639 41.23445624402666 0 0 0 0 21.789536756458801 80.999802549122251 0 80.999802549122251 44.921550879451388 0 0 0 0 7.4530079177430935 79.504921234391077 0 79.504921234391077 46.040286865114467 0 0 0 0 6.4035787971670288 36.758891626246623 0 36.758891626246623 77.359732914628694 0 0 0 0 2.3440551046672908 10.427222068923584 0 10.427222068923584 5.4654217865609098 0 0 0 0 -6.1094582805920981 7.8146641349360664 0 7.8146641349360664 1.9179572515846246 0 0 0 0 -2.017971397881638 26.477714998621195 0 26.477714998621195 22.989718508746591 0 0 0 0 -55.738006692980434 50.696022784133675 0 50.696022784133675 137.1072038251441 0 0 0 0 79.994398560139075 -34.484121127185063 0 -34.484121127185063 18.102170339334407 0 0 0 0 1.0573950120821838 -1.3026253088422379 0 -1.3026253088422379 -0.65717617145845608 0 0 0 0 -122.14908549105996 -67.49231767164747 0 -67.49231767164747 360.12731819230248 0 0 0 0 2.3816311999496591 0.86956450291884835 0 0.86956450291884835 15.355964931816285 0 0 0 0 37.802806532754403 74.722429459616251 0 74.722429459616251 139.91763055757474 0 0 0 0 2.5203261447567584 1.2769535044786551 0 1.2769535044786551 6.2893370844291958 0 0 0 0 -5.8572469147293305 -4.9722109973372426 0 -4.9722109973372426 175.69422016340104 0 0 0 0 13.507304206947083 7.3545627733692527 0 7.3545627733692527 94.964102798898239 0 0 0 0 -5.5268541013933739 0.82519910515455308 0 0.82519910515455308 49.354573670144106 0 0 0 0 88.682571510691105 9.3132721302554273 0 9.3132721302554273 -224.79595363753469 0 0 0 0 110.54721779450801 -128.39906874721055 0 -128.39906874721055 -159.38841402281832 0 0 0 0 27.165372953616803 43.59031098028882 0 43.59031098028882 17.021872329220855 0 0 0 0 -60.431614988882757 19.705902411549687 0 19.705902411549687 97.117203218047507 0 0 0 0 84.38436544984279 -158.339789113601 0 -158.339789113601 -11.519437526119873 0 0 0 0 228.09219455541734 85.87398665404362 0 85.87398665404362 -513.28528260147141 0 0 0 0 183.81517564578644 134.28979765224358 0 134.28979765224358 58.823826500087307 0 0 0 0 24.276597474532949 46.617466492838957 0 46.617466492838957 16.671331022041329 0 0 0 0 -20.258591412074566 62.948699033742741 0 62.948699033742741 179.29199449892621 0 0 0 0 -24.011759256776998 -1.85799166857214 0 -1.85799166857214 63.488437958003487 0 0 0 0 -38.758114882750675 17.213975465190742 0 17.213975465190742 136.31977025500964 0 0 0 0 -3.3808984216673252 63.780393687724427 0 63.780393687724427 111.17114742242848 0 0 0 0 -12.59192857833591 78.94523924614623 0 78.94523924614623 89.701780500879977 0 0 0 0 12.567257859862195 84.142407263905625 0 84.142407263905625 158.33117870069691 0 0 0 0 -6.1667765143860152 104.98361773011129 0 104.98361773011129 152.57036652389252 0 0 0 0 39.715635097379163 16.898287282703677 0 16.898287282703677 -38.789204975392295 0 0 0 0 0.79135721044318963 -1.8964446019842569 0 -1.8964446019842569 -0.085520881317598274 0 0 0 0 91.998081811921111 156.8531341568596 0 156.8531341568596 182.99836703463097 0 0 0 0 111.85232784540494 124.85390348058718 0 124.85390348058718 149.32810753380181 0 0 0 0 11.270191651041841 32.267007327638566 0 32.267007327638566 39.173812014392752 0 0 0 0 -1.3315615515357422 33.718278630592977 0 33.718278630592977 40.295078342776833 0 0 0 0 9.4301988923880344 37.104927558371855 0 37.104927558371855 44.27356462671014 0 0 0 0 17.047160247476768 25.990089213133615 0 25.990089213133615 4.4904600382469653 0 0 0 0 15.222122372770389 45.724361631215686 0 45.724361631215686 15.374975644448227 0 0 0 0 -2.4478178392023437 55.994826228932652 0 55.994826228932652 76.461536369431997 0 0 0 0 23.564113066207483 79.005341752577806 0 79.005341752577806 78.27428423537549 0 0 0 0 22.029691982651229 59.301641402729729 0 59.301641402729729 55.418219820971899 0 0 0 0 12.380736059767173 36.745658257070318 0 36.745658257070318 44.315118111335323 0 0 0 0 27.753662441307824 50.894066759967245 0 50.894066759967245 56.487659924925538 0 0 0 0 43.9917105500856 35.546202136221837 0 35.546202136221837 44.962416569163906 0 0 0 0 11.612868957593946 26.018347398039623 0 26.018347398039623 43.154799323252519 0 0 0 0 -6.1498452854493735 28.299031733040465 0 28.299031733040465 45.417387322988361 0 0 0 0 58.796653231306323 39.046149059950039 0 39.046149059950039 40.604668125044554 0 0 0 0 -145.75032246117917 316.17104055175878 0 316.17104055175878 136.53726797213312 0 0 0 0 53.327488188160714 58.163314551500662 0 58.163314551500662 46.386508557949128 0 0 0 0 7.277636790268839 18.168418873151971 0 18.168418873151971 44.503967980351888 0 0 0 0 91.758362649968674 110.69533196449447 0 110.69533196449447 11.842508478846867 0 0 0 0 26.600885838384784 58.589904422358813 0 58.589904422358813 47.24187444562267 0 0 0 0 75.14671003522443 52.217101193781673 0 52.217101193781673 39.403433183411835 0 0 0 0 267.53916842078479 -26.730438826365571 0 -26.730438826365571 -23.107152004606178 0 0 0 0 -56.9113278570494 -347.13477245404283 0 -347.13477245404283 543.54671906337899 0 0 0 0 13.39551181609022 26.991721579965088 0 26.991721579965088 30.249504516286834 0 0 0 0 60.808227584111393 41.803740838458452 0 41.803740838458452 -10.303281141765183 0 0 0 0 50.17875086729272 137.66670567081701 0 137.66670567081701 95.821353731356794 0 0 0 0 8.4354071650358264 86.819111251090362 0 86.819111251090362 89.265975752685335 0 0 0 0 17.388603776973838 120.20272991619277 0 120.20272991619277 62.973362573116901 0 0 0 0 26.669909579485022 97.181394344297587 0 97.181394344297587 40.190468945525936 0 0 0 0 -14.613527242999339 169.8551263699992 0 169.8551263699992 -0.6653481433968409 0 0 0 0 -94.793583986743442 99.732470541355724 0 99.732470541355724 53.335146835775959 0 0 0 0 -58.947452769074971 0.55189710329796071 0 0.55189710329796071 21.652546953149795 0 0 0 0 -3.2209317490669482 1.230819527484627 0 1.230819527484627 -1.1745321457462126 0 0 0 0 66.35436485075229 34.558393811901624 0 34.558393811901624 -66.210203226874 0 0 0 0 158.57901207226359 222.20469768151816 0 222.20469768151816 -22.200485522495001 0 0 0 0 -54.204842508890351 -39.072199800781164 0 -39.072199800781164 123.79738547320449 0 0 0 0 466.91516160447657 262.95204712054692 0 262.95204712054692 275.97151113626023 0 0 0 0 189.67899694995617 117.22382938142982 0 117.22382938142982 -95.796883034628991 0 0 0 0 -187.00626003057013 -134.08890672488997 0 -134.08890672488997 373.33165882475441 0 0 0 0 4.3770249083988571 11.156330425687493 0 11.156330425687493 30.15611063982999 0 0 0 0 130.51710643089473 -226.01051977351017 0 -226.01051977351017 129.1942708423594 0 0 0 0 479.20629714620924 -578.23149202321656 0 -578.23149202321656 590.73175229047774 0 0 0 0 1.5929527423234453 2.9682144983210463 0 2.9682144983210463 10.898488401020529 0 0 0 0 215.3689252744723 -216.78837881299114 0 -216.78837881299114 125.35048930412449 0 0 0 0 -30.601328721078062 38.305174599382099 0 38.305174599382099 166.39303412646404 0 0 0 0 4.3005235810708911 -150.91467956100223 0 -150.91467956100223 971.51004495682719 0 0 0 0 272.32174459400437 344.77408464788459 0 344.77408464788459 435.91045412127642 0 0 0 0 -72.276634268717316 -38.690176067277207 0 -38.690176067277207 827.7938348581265 0 0 0 0 644.4241935846967 -27.89433087476209 0 -27.89433087476209 129.46174023780623 0 0 0 0 341.37790604935992 -340.24133368776165 0 -340.24133368776165 481.81162888081963 0 0 0 0 -66.654047111694126 -14.818739274240215 0 -14.818739274240215 438.91922739126312 0 0 0 0 -22.356094446734915 45.978396232757405 0 45.978396232757405 329.61864084629633 0 0 0 0 -33.77225771995154 55.313710191432619 0 55.313710191432619 348.22287163601868 0 0 0 0 -41.213229284364843 90.176038899589912 0 90.176038899589912 236.74814472915386 0 0 0 0 -59.043479037920406 -39.490020978893881 0 -39.490020978893881 280.62392208933124 0 0 0 0 -165.61616695526527 66.657763355411589 0 66.657763355411589 206.93887881845149 0 0 0 0 -56.529831705459173 2.1006550390520715 0 2.1006550390520715 164.05550574426161 0 0 0 0 -89.604213872780747 -6.0677745361463167 0 -6.0677745361463167 262.40206330976798 0 0 0 0 -66.861326696788183 81.259220208510669 0 81.259220208510669 90.68774694239255 0 0 0 0 150.47946540878726 68.851352476247484 0 68.851352476247484 145.48642208179808 0 0 0 0 -151.64907338867374 112.72698352911175 0 112.72698352911175 132.46273512752668 0 0 0 0 1.9092470746835715 25.507198057163265 0 25.507198057163265 119.34249567323971 0 0 0 0 10.283220177561816 131.98417031859572 0 131.98417031859572 68.880103451572722 0 0 0 0 3.2427446093988692 113.20883690822666 0 113.20883690822666 64.195810555393109 0 0 0 0 25.140169011703165 197.43167395799537 0 197.43167395799537 300.45339932505158 0 0 0 0 -71.233876194939057 83.793682050890311 0 83.793682050890311 242.01810596615542 0 0 0 0 -0.31326627744179991 -49.274764341316768 0 -49.274764341316768 418.45611986976292 0 0 0 0 -20.733383297213564 98.501698524327367 0 98.501698524327367 277.85931722256646 0 0 0 0 -24.640826612720858 126.15539045867627 0 126.15539045867627 623.80258223224723 0 0 0 0 -0.17611873317117704 -0.7564379580295082 0 -0.7564379580295082 3.5262571922141888 0 0 0 0 -293.14080918253194 -503.40852209430159 0 -503.40852209430159 1108.7083433173248 0 0 0 0 12.909119125879442 -299.73864088230766 0 -299.73864088230766 614.01772143051221 0 0 0 0 -7.9035104289863796 -113.49407396276365 0 -113.49407396276365 304.48267982533434 0 0 0 0 359.36357045163408 -323.45206813246477 0 -323.45206813246477 61.702200445899507 0 0 0 0 119.07820624001165 34.561598976474158 0 34.561598976474158 -60.82580070279073 0 0 0 0 119.75731502308398 -150.91281342334577 0 -150.91281342334577 225.80644383822801 0 0 0 0 6.8662724346999369 12.566725244381814 0 12.566725244381814 59.439760935725644 0 0 0 0 -20.617670990765504 -46.913967565138591 0 -46.913967565138591 319.7559857515007 0 0 0 0 -6.6052809938881936 -121.00746188328958 0 -121.00746188328958 289.83371915802127 0 0 0 0 0.005051161087888451 4.5504135853843763 0 4.5504135853843763 22.571528935681272 0 0 0 0 0.26779217069435485 -0.12729455584675975 0 -0.12729455584675975 0.32859930214880251 0 0 0 0 1.316112636735137 8.1968025374953868 0 8.1968025374953868 29.876982612040592 0 0 0 0 -2.0793447357889985 2.4579136238462524 0 2.4579136238462524 29.214100707700709 0 0 0 0 4.6760215799376006 7.1196237533731619 0 7.1196237533731619 28.773690714151599 0 0 0 0 0.33348030676635165 6.2187639119618723 0 6.2187639119618723 24.754505180222623 0 0 0 0 1.5933074389906912 6.4630224390093645 0 6.4630224390093645 29.502087262051646 0 0 0 0 -33.128261773672818 48.462942322352319 0 48.462942322352319 48.037731390009867 0 0 0 0 0.66972792363562084 1.5453856859168127 0 1.5453856859168127 5.797770905813195 0 0 0 0 24.088563597763429 -26.492007586581167 0 -26.492007586581167 -5.527671062387526 0 0 0 0 0.86161785935785284 4.5645518611727525 0 4.5645518611727525 17.214280028712778 0 0 0 0 0.63512021268957142 6.1862932886760973 0 6.1862932886760973 22.731825606897473 0 0 0 0 1.7069136019272264 2.1267009293223964 0 2.1267009293223964 14.69844698702218 0 0 0 0 0.92527020167494811 8.2594740853674011 0 8.2594740853674011 25.820761612732895 0 0 0 0 -2.3819701777210156 5.6418344548292225 0 5.6418344548292225 27.681381570087979 0 0 0 0 -1.0991948115773922 4.2861080657804962 0 4.2861080657804962 16.925469354462052 0 0 0 0 -3.3943551674665291 11.409481073939446 0 11.409481073939446 27.455257174902385 0 0 0 0 3.1066252224288746 12.093294603342656 0 12.093294603342656 25.801780722653461 0 0 0 0 5.0957614756680414 10.28064348269254 0 10.28064348269254 16.605863783042878 0 0 0 0 -140.74271731394742 69.748566069618391 0 69.748566069618391 -31.395332555111963 0 0 0 0 -188.87250054769947 10.062144041090505 0 10.062144041090505 4.6013250065880129 0 0 0 0 -51.742734514145923 -12.61594003267237 0 -12.61594003267237 41.856863984372467 0 0 0 0 -18.300918434423711 1.229645886355371 0 1.229645886355371 59.43523755934109 0 0 0 0 -37.591480217399791 31.84422171587704 0 31.84422171587704 70.125003198317728 0 0 0 0 -1.4522184873786852 2.7172779729862668 0 2.7172779729862668 68.099879066547146 0 0 0 0 -5.0185776785261407 22.80531684514699 0 22.80531684514699 5.5932414192022293 0 0 0 0 -3.0743350125725457 6.6936629120482678 0 6.6936629120482678 26.166084356988449 0 0 0 0 0.074055718986983265 22.751152948098024 0 22.751152948098024 31.813095492689172 0 0 0 0 7.5522016376738916 13.012848870214725 0 13.012848870214725 5.3419666574480402 0 0 0 0 3.228378176228853 0.10506043283442068 0 0.10506043283442068 -0.730150144843833 0 0 0 0 49.366764791057676 93.785815743583953 0 93.785815743583953 139.7310881591402 0 0 0 0 223.78766928498317 302.66556352342013 0 302.66556352342013 160.67347581798094 0 0 0 0 50.993821727799059 113.60068895823497 0 113.60068895823497 336.42963265613071 0 0 0 0 -2.0594834506771873 2.2240201873685095 0 2.2240201873685095 12.390386486720899 0 0 0 0 110.05944449062008 160.80482246911561 0 160.80482246911561 35.712345786334481 0 0 0 0 153.69704176271148 -49.014908313700289 0 -49.014908313700289 -109.92939955060137 0 0 0 0 76.380025720118738 127.77428363641957 0 127.77428363641957 52.502133876958396 0 0 0 0 -22.478198867931724 159.86204261316743 0 159.86204261316743 140.2224409285991 0 0 0 0 229.37387801174862 137.41932603363239 0 137.41932603363239 2.2834597023320384 0 0 0 0 0.67305280796563238 3.4599311822967138 0 3.4599311822967138 12.991526052996051 0 0 0 0 -1.7174693276544204 1.3123312408437187 0 1.3123312408437187 10.963192308472458 0 0 0 0 202.36893098416931 107.58259166422795 0 107.58259166422795 45.693809385440545 0 0 0 0 -15.721536824632892 260.43652573568397 0 260.43652573568397 -275.02471299178433 0 0 0 0 0.38538949688353125 -0.48605049950396051 0 -0.48605049950396051 10.592417058096544 0 0 0 0 0.86090579219637919 2.7081913384708187 0 2.7081913384708187 7.7365751740017004 0 0 0 0 181.39661417544323 -286.26475014151947 0 -286.26475014151947 446.78069989015057 0 0 0 0 308.37933152800747 89.173606847063638 0 89.173606847063638 48.049115475376311 0 0 0 0 697.35553037937257 379.84339557311614 0 379.84339557311614 264.06698366829369 0 0 0 0 43.058547200474038 287.88324266246491 0 287.88324266246491 972.49331293455907 0 0 0 0 -72.306507537037987 53.02318150344945 0 53.02318150344945 501.38205191031011 0 0 0 0 -81.522542731683643 101.46975593610114 0 101.46975593610114 256.5822094832547 0 0 0 0 282.01528365860383 353.45002946796012 0 353.45002946796012 259.9268850251101 0 0 0 0 -264.59066036893228 10.585567157861078 0 10.585567157861078 262.62543249347073 0 0 0 0 -334.19547737190919 93.897564572649571 0 93.897564572649571 266.85941949440166 0 0 0 0 -73.557782426946687 132.01053547990159 0 132.01053547990159 250.82900764850638 0 0 0 0 -7.9838145096837767 30.910310535230053 0 30.910310535230053 167.86296941652097 0 0 0 0 -5.6451675193482753 12.311884036705905 0 12.311884036705905 43.205108825640423 0 0 0 0 27.664488126630658 0.89621224120128318 0 0.89621224120128318 134.27670665390906 0 0 0 0 -14.249995393852259 212.00597227734124 0 212.00597227734124 90.784759579430101 0 0 0 0 -103.44212074817551 3.4330269955680706 0 3.4330269955680706 250.09707171137416 0 0 0 0 -5.8191939420975132 26.132140742558931 0 26.132140742558931 148.20533990438844 0 0 0 0 -378.01071215470483 166.72864769403532 0 166.72864769403532 138.00455884024268 0 0 0 0 467.92007151687358 117.86985001403082 0 117.86985001403082 -293.74284492305014 0 0 0 0 -22.142689707450245 416.93856563867303 0 416.93856563867303 167.32182197738439 0 0 0 0 -9.4072563127232876 17.733523612413222 0 17.733523612413222 125.59947573263685 0 0 0 0 29.138188713600812 -15.78350673154273 0 -15.78350673154273 110.88538595964201 0 0 0 0 33.628919935186786 8.4010957533610053 0 8.4010957533610053 88.218108394728915 0 0 0 0 71.473296409440081 -28.726966434820497 0 -28.726966434820497 61.869104441517266 0 0 0 0 36.330826554927626 -34.070743612472143 0 -34.070743612472143 142.57979596490622 0 0 0 0 -12.900083767256547 -46.832316560117761 0 -46.832316560117761 142.343520470371 0 0 0 0 18.581215739302934 -138.37235135106857 0 -138.37235135106857 333.64536913682241 0 0 0 0 -35.030738157511223 99.311175952225312 0 99.311175952225312 5.005995835410431 0 0 0 0 234.51532765137654 -163.55244559561834 0 -163.55244559561834 49.853627928368951 0 0 0 0 157.09855876414895 55.749774541829538 0 55.749774541829538 -299.26014018809656 0 0 0 0 48.334769093242357 5.1461532705434365 0 5.1461532705434365 16.503049046954402 0 0 0 0 14.643917113684438 4.4430790320620872 0 4.4430790320620872 54.74798109306721 0 0 0 0 -73.100679463205097 31.618136875062191 0 31.618136875062191 42.835419456503587 0 0 0 0 24.561296748252062 13.88345255315653 0 13.88345255315653 55.696157617552672 0 0 0 0 12.677264810290126 -0.73875286895781755 0 -0.73875286895781755 49.914100971538574 0 0 0 0 21.729862028815432 3.5501600658826646 0 3.5501600658826646 36.189303110761102 0 0 0 0 22.485202896541523 23.840286616818048 0 23.840286616818048 36.084082577172467 0 0 0 0 22.901768568036459 31.883759591015405 0 31.883759591015405 61.437328492465895 0 0 0 0 10.520491516631409 23.612423162107007 0 23.612423162107007 60.184626580390614 0 0 0 0 0.4031620937494873 8.6186153604004971 0 8.6186153604004971 8.4235935111892104 0 0 0 0 23.141709696912585 16.090221698046662 0 16.090221698046662 69.736478270380758 0 0 0 0 34.036376839976583 14.179762655621744 0 14.179762655621744 50.798064797039842 0 0 0 0 11.426350583121735 25.56626133990958 0 25.56626133990958 49.913282732298285 0 0 0 0 -7.6399677744407199 35.758072246739175 0 35.758072246739175 43.778589623114385 0 0 0 0 -19.003980808245956 54.027748663345847 0 54.027748663345847 77.575347412741394 0 0 0 0 17.020113865306929 35.952303480091089 0 35.952303480091089 20.540245804988047 0 0 0 0 3.841536575168897 4.123423440193676 0 4.123423440193676 27.216553523409289 0 0 0 0 152.77033895357022 86.726958271734475 0 86.726958271734475 -155.42904924697359 0 0 0 0 289.17472371677627 -263.35104038834106 0 -263.35104038834106 712.1209644714254 0 0 0 0 -40.177582963955956 -151.11365311669215 0 -151.11365311669215 215.51733761494688 0 0 0 0 -0.30409927414991111 -0.9294718718116215 0 -0.9294718718116215 10.782154966204132 0 0 0 0 457.10019763754826 96.276363942131866 0 96.276363942131866 -78.45266504707979 0 0 0 0 33.035316387572493 161.22294583782787 0 161.22294583782787 1115.4452618442083 0 0 0 0 524.54363786245153 -732.71044484723825 0 -732.71044484723825 96.584550416679122 0 0 0 0 57.156105477062738 77.829541929117113 0 77.829541929117113 295.70075805404304 0 0 0 0 8.0939950382773915 -3.1112912561600439 0 -3.1112912561600439 -4.1200950739254267 0 0 0 0 -183.49660812276124 164.4491939417785 0 164.4491939417785 440.73046800391603 0 0 0 0 156.0671786228379 -610.4295552952608 0 -610.4295552952608 -77.638528508483432 0 0 0 0 287.08821857101384 310.42707527556195 0 310.42707527556195 2.2064661141121178 0 0 0 0 332.63602724056682 -420.95811947483162 0 -420.95811947483162 261.53309316856758 0 0 0 0 475.36917561325799 29.059279187440552 0 29.059279187440552 118.92022380413255 0 0 0 0 -360.96980749973682 -183.22525750196291 0 -183.22525750196291 152.85169839741138 0 0 0 0 -284.4928602596101 148.15223617938136 0 148.15223617938136 281.75310993762105 0 0 0 0 -129.22511154987069 -86.182158800913385 0 -86.182158800913385 282.11189765468589 0 0 0 0 -102.43569677063738 -198.33297866728026 0 -198.33297866728026 459.07157100606128 0 0 0 0 -0.16403969480745584 43.658203394053928 0 43.658203394053928 191.82543216953326 0 0 0 0 -489.89953900084492 342.78375820548536 0 342.78375820548536 278.0295969494473 0 0 0 0 8.889441399936004 -28.48796498333104 0 -28.48796498333104 -202.6498925104388 0 0 0 0 -2.605147234184062 36.020852597361653 0 36.020852597361653 170.3943811139157 0 0 0 0 -323.42747561765736 143.75618109717107 0 143.75618109717107 142.89483469465995 0 0 0 0 -150.44480392708101 205.36772919556824 0 205.36772919556824 -101.97573258573539 0 0 0 0 -53.485927330785671 55.107643352599553 0 55.107643352599553 117.06329427576566 0 0 0 0 -8.6458597554400285 12.841203559313726 0 12.841203559313726 -69.447106227904442 0 0 0 0 -0.31913628462552879 -8.5271361284831073 0 -8.5271361284831073 -14.660562683882745 0 0 0 0 58.361051706817079 11.385649445866875 0 11.385649445866875 -75.35166449630924 0 0 0 0 72.378594006226649 134.72250038965331 0 134.72250038965331 101.33765574809513 0 0 0 0 75.372409334991971 70.59766801942169 0 70.59766801942169 -47.083153257492086 0 0 0 0 -44.835087759896624 114.71201572004793 0 114.71201572004793 130.53055155012953 0 0 0 0 -8.1353664009288664 18.038387375072531 0 18.038387375072531 150.18420264355296 0 0 0 0 -19.988589327893671 3.8526853926582305 0 3.8526853926582305 63.980923860714483 0 0 0 0 -288.14385344997737 -112.75644949366324 0 -112.75644949366324 460.50410852924688 0 0 0 0 -285.66889844225295 -153.25950044410365 0 -153.25950044410365 141.96626461733831 0 0 0 0 402.49356038060023 -446.80087888389971 0 -446.80087888389971 490.44001031463267 0 0 0 0 569.67552528810154 232.14271272211954 0 232.14271272211954 -234.75294333003694 0 0 0 0 135.99062973320514 -56.282594733864244 0 -56.282594733864244 -72.408348369033774 0 0 0 0 -111.06106242433953 -208.59346534410724 0 -208.59346534410724 -75.956801733103248 0 0 0 0 -20.610047260214149 -3.6201300288744847 0 -3.6201300288744847 28.436667933086028 0 0 0 0 83.20818820169734 76.621311944938498 0 76.621311944938498 0.89999840784003027 0 0 0 0 39.57099130910683 -9.9715713786426932 0 -9.9715713786426932 7.5350742674781941 0 0 0 0 -23.736354581975448 7.0934435540981724 0 7.0934435540981724 23.293562114327585 0 0 0 0 -27.647058033653991 -86.92456354983733 0 -86.92456354983733 -106.8011562109059 0 0 0 0 67.827030918679128 152.99055343530199 0 152.99055343530199 -10.997071780177066 0 0 0 0 179.99189884055278 58.084956895399955 0 58.084956895399955 -101.18210618000012 0 0 0 0 36.829371216341372 126.35114531718136 0 126.35114531718136 28.456414227200185 0 0 0 0 71.763526117125139 57.128885152153089 0 57.128885152153089 129.56288697564742 0 0 0 0 254.85544644015039 25.766825987026095 0 25.766825987026095 10.956839683873113 0 0 0 0 59.856216323236367 -4.2378266864398029 0 -4.2378266864398029 18.687409342281171 0 0 0 0 4.7859315310918191 34.386788200099545 0 34.386788200099545 -0.19071848805469926 0 0 0 0 49.410635648767112 -6.2674626363732386 0 -6.2674626363732386 -106.77347507752711 0 0 0 0 90.91067777985063 111.77771813125946 0 111.77771813125946 62.982844005338848 0 0 0 0 -8.0732735005850742 12.427910347483703 0 12.427910347483703 32.569816769137105 0 0 0 0 -0.14426819070773009 0.30479463405609408 0 0.30479463405609408 1.63292999397828 0 0 0 0 -0.5563497082013793 95.968984406041272 0 95.968984406041272 107.06415540049784 0 0 0 0 321.90887671248333 216.6258144697058 0 216.6258144697058 -3.2733598894556053 0 0 0 0 87.496706365117547 216.36806857406918 0 216.36806857406918 150.45075331919361 0 0 0 0 0.084321086027618369 -8.8350138536843588 0 -8.8350138536843588 -10.402918519561354 0 0 0 0 -21.554469124635133 -11.669853935971332 0 -11.669853935971332 -6.8181795077107381 0 0 0 0 -28.367206323016909 -16.993883139381069 0 -16.993883139381069 39.51448087823519 0 0 0 0 -0.54913333107928541 -0.2058944865882637 0 -0.2058944865882637 5.3813474933664338 0 0 0 0 -6.4544182468305067 164.1842749749776 0 164.1842749749776 40.18228872056352 0 0 0 0 30.596063242875939 226.35112812400621 0 226.35112812400621 -63.657996833790094 0 0 0 0 0.13001773376917175 -35.783034678078124 0 -35.783034678078124 47.412172313255724 0 0 0 0 1.1839854512900962 -87.196526759158587 0 -87.196526759158587 596.04136513639241 0 0 0 0 -3.7929631247274642 56.33815695309022 0 56.33815695309022 585.30287102128204 0 0 0 0 -70.409571821204565 -4.3900418541161343 0 -4.3900418541161343 840.28678320435574 0 0 0 0 188.61582651999973 442.58729636704084 0 442.58729636704084 900.18564802616493 0 0 0 0 2.0391387936776137 2.399794590761303 0 2.399794590761303 17.009700495633297 0 0 0 0 -0.44002434333026397 -0.92175720305726827 0 -0.92175720305726827 3.7408098703989481 0 0 0 0 0.013550315445620471 3.9830769015577343 0 3.9830769015577343 17.077319988660747 0 0 0 0 0.037697371612623425 -0.395400041529399 0 -0.395400041529399 0.065923096293204253 0 0 0 0 6.862084075286802 2.7055412007757695 0 2.7055412007757695 10.962670871143928 0 0 0 0 257.77734696075942 18.751720686050248 0 18.751720686050248 102.41712134319823 0 0 0 0 -0.008781003477099052 5.1451250788522884 0 5.1451250788522884 13.409555172111141 0 0 0 0 4.8141642781320115 5.4508716887939954 0 5.4508716887939954 7.3625255476217717 0 0 0 0 -0.98680506888635988 3.101252782142808 0 3.101252782142808 5.5860286124518765 0 0 0 0 3.7137436665759846 -1.3089580813215207 0 -1.3089580813215207 8.7809601653968912 0 0 0 0 6.8620840752834038 14.074149123741305 0 14.074149123741305 20.09068586488138 0 0 0 0 45.611498095925924 168.41725649775981 0 168.41725649775981 380.85921904996212 0 0 0 0 35.393048348823527 5.2438429280238097 0 5.2438429280238097 3.5595623915334702 0 0 0 0 69.670355572879828 99.833202597917989 0 99.833202597917989 253.21141549160529 0 0 0 0 69.100896717526211 122.87647882573219 0 122.87647882573219 376.53420192532849 0 0 0 0 18.565037782618219 79.536648969020462 0 79.536648969020462 411.60733987663116 0 0 0 0 11.827992293540547 109.10605085496718 0 109.10605085496718 416.56488852959592 0 0 0 0 -43.352338941247467 13.302888538921252 0 13.302888538921252 559.7708629127842 0 0 0 0 3.8806071293398645 131.32356900518062 0 131.32356900518062 556.16190671396907 0 0 0 0 -21.74050594329492 -13.873912081573508 0 -13.873912081573508 497.44789513555588 0 0 0 0 -45.819866266908207 -27.810542982566403 0 -27.810542982566403 465.99328551895815 0 0 0 0 10.384863321425883 12.037371008271293 0 12.037371008271293 430.51553267167765 0 0 0 0 -4.5684399003785074 9.566640467637626 0 9.566640467637626 473.27857294975547 0 0 0 0 36.067585491005048 -0.38856879677041434 0 -0.38856879677041434 397.13235421520221 0 0 0 0 66.493274285854113 -48.055417918862076 0 -48.055417918862076 420.84826261973649 0 0 0 0 34.115603032167655 -9.9266746583452914 0 -9.9266746583452914 417.13853963799193 0 0 0 0 -3.5303651159001674 -52.822841944143875 0 -52.822841944143875 368.26403620028941 0 0 0 0 60.646055302636341 4.8929324890632415 0 4.8929324890632415 355.47503365509692 0 0 0 0 56.518745018036498 76.317739355406957 0 76.317739355406957 434.27005081724201 0 0 0 0 55.648725765852987 63.51960972129018 0 63.51960972129018 335.78813609377539 0 0 0 0 57.713745606522593 2.4591695448325481 0 2.4591695448325481 378.30216614785604 0 0 0 0 73.453110889254731 97.524105806856824 0 97.524105806856824 402.85379065087182 0 0 0 0 38.744146050847121 113.06650342160719 0 113.06650342160719 462.94922417748603 0 0 0 0 21.646495025819007 0.69146505505847244 0 0.69146505505847244 0.21733046837175607 0 0 0 0 69.272495611601244 121.11919227582985 0 121.11919227582985 676.31527156103402 0 0 0 0 7.1938053685947976 -0.51129357356427363 0 -0.51129357356427363 0.59552519338815202 0 0 0 0 -6.472596931271255 272.16253701053211 0 272.16253701053211 966.18905831612938 0 0 0 0 120.18114902850857 128.29301803800627 0 128.29301803800627 395.06802437864826 0 0 0 0 251.60503291042687 208.26210489920049 0 208.26210489920049 186.89622028701706 0 0 0 0 104.16934972404994 1.304090062184514 0 1.304090062184514 177.92315277192392 0 0 0 0 205.53626052750269 367.31805045966757 0 367.31805045966757 566.10589880784391 0 0 0 0 -604.29507309377709 744.83138467017488 0 744.83138467017488 786.1549911776965 0 0 0 0 202.0966141176275 55.089734930243765 0 55.089734930243765 -173.4215843109705 0 0 0 0 0.78759743070959942 46.596547767133046 0 46.596547767133046 202.35645094428276 0 0 0 0 -574.66724299191355 105.4478739898841 0 105.4478739898841 244.93565567335463 0 0 0 0 -27.539592674515063 27.294004878720443 0 27.294004878720443 68.474441948579624 0 0 0 0 -141.16597143880244 -124.63606306459405 0 -124.63606306459405 193.29249705110851 0 0 0 0 -374.93302817942822 97.25528937933268 0 97.25528937933268 254.09105734786135 0 0 0 0 -40.708063359755215 4.1919972166724619 0 4.1919972166724619 272.72408324334538 0 0 0 0 37.867598484096789 -45.832044316906831 0 -45.832044316906831 242.98941966285929 0 0 0 0 -10.416908946201147 -44.67722011229489 0 -44.67722011229489 396.97918876605399 0 0 0 0 -43.864374899757422 -92.515580443709041 0 -92.515580443709041 351.52561073766265 0 0 0 0 -52.617067767093204 -37.057859323817866 0 -37.057859323817866 272.07016540365294 0 0 0 0 -42.400616503603942 -149.92872970009921 0 -149.92872970009921 379.43114286565105 0 0 0 0 -38.049528897857272 -228.4037830441921 0 -228.4037830441921 928.14706360420678 0 0 0 0 34.779819514524206 60.598776732076658 0 60.598776732076658 319.11546053901839 0 0 0 0 99.401195057035238 218.85399580386002 0 218.85399580386002 627.49456725615892 0 0 0 0 -108.32438836706478 -44.53241754170449 0 -44.53241754170449 531.72753232884315 0 0 0 0 -88.709974971564407 -103.69525162945502 0 -103.69525162945502 527.35664828596055 0 0 0 0 -89.588103642894225 -88.916082972478762 0 -88.916082972478762 447.9424200898502 0 0 0 0 -107.51696499062496 -36.189482804467843 0 -36.189482804467843 481.66696846968262 0 0 0 0 -19.92793485881748 -33.966364681284176 0 -33.966364681284176 33.489919183400161 0 0 0 0 -51.124530407983457 -18.701257651802734 0 -18.701257651802734 145.96187371003907 0 0 0 0 -84.482454747104157 -58.007364823293756 0 -58.007364823293756 106.49313991400413 0 0 0 0 9.4865946806289916 -54.017714812018596 0 -54.017714812018596 91.32836384008931 0 0 0 0 -20.049362430917238 -41.352384253769856 0 -41.352384253769856 12.757346691773321 0 0 0 0 -66.033467122592242 -135.43357618657546 0 -135.43357618657546 -1.4609444097441155 0 0 0 0 -77.769273487509963 -144.55064253027376 0 -144.55064253027376 119.26398742644233 0 0 0 0 -47.093816289246661 -105.906803879785 0 -105.906803879785 130.96889757673489 0 0 0 0 -14.836419490070966 12.582044109294657 0 12.582044109294657 196.66195160828647 0 0 0 0 -7.5252892776802582 -117.04651511162228 0 -117.04651511162228 69.001933199102496 0 0 0 0 -17.398161716670529 -69.667737690222566 0 -69.667737690222566 80.235352703093668 0 0 0 0 1.818256360017358 83.069636124317185 0 83.069636124317185 147.42409609770402 0 0 0 0 -26.961190960528896 11.477892350464089 0 11.477892350464089 64.533934613556511 0 0 0 0 180.8330843695403 89.31671870482387 0 89.31671870482387 62.509548883856041 0 0 0 0 -141.53499235512072 -110.83322977619173 0 -110.83322977619173 279.0526489802578 0 0 0 0 -1.6906782715807669 -33.976556526742243 0 -33.976556526742243 139.32146580801799 0 0 0 0 -108.38999499493548 37.212061915866798 0 37.212061915866798 202.04962568625342 0 0 0 0 -51.802930248662157 -24.444529897017219 0 -24.444529897017219 193.12427256112429 0 0 0 0 -78.450615294802219 5.4026886108986218 0 5.4026886108986218 140.7314842576161 0 0 0 0 29.757663637253245 -50.746094698202796 0 -50.746094698202796 74.407344484905479 0 0 0 0 -30.251133732003815 -5.2151930511171543 0 -5.2151930511171543 17.182312043166945 0 0 0 0 -5.9764658922305509 -4.7463517020396466 0 -4.7463517020396466 19.065877385349893 0 0 0 0 -42.345896356383491 -94.051622701066663 0 -94.051622701066663 150.8844604799815 0 0 0 0 -10.127108572469297 -43.812354357010918 0 -43.812354357010918 155.29453634216043 0 0 0 0 113.4200165121415 -99.691395139918313 0 -99.691395139918313 121.34352150757331 0 0 0 0 89.085038195236848 -212.96325902662647 0 -212.96325902662647 200.0876982419577 0 0 0 0 0.64990010659306385 0.48785048249911256 0 0.48785048249911256 -0.94110415650101231 0 0 0 0 -104.04268008887084 93.982092719510547 0 93.982092719510547 19.554837266759478 0 0 0 0 31.812468254951341 -25.462311685536406 0 -25.462311685536406 23.442902473267168 0 0 0 0 -17.931887367883569 -1.035785161379664 0 -1.035785161379664 -3.4393508436669222 0 0 0 0 -52.739980403466916 -28.889131093903416 0 -28.889131093903416 182.67083481470763 0 0 0 0 -63.973700363971261 -30.387727010893286 0 -30.387727010893286 165.87935378472321 0 0 0 0 -15.647515477326039 7.8160486696870066 0 7.8160486696870066 98.002818771128659 0 0 0 0 -53.358744155925024 -15.076758733885072 0 -15.076758733885072 95.854707418009639 0 0 0 0 2.5083616198639049 -4.5757091521294626 0 -4.5757091521294626 -10.619033782040162 0 0 0 0 -37.164361079094689 -37.743831936845709 0 -37.743831936845709 112.89155185039272 0 0 0 0 -11.426053983416516 -38.521194120677336 0 -38.521194120677336 10.569663171263887 0 0 0 0 -11.229647389393449 -140.20343543174386 0 -140.20343543174386 226.38354109607462 0 0 0 0 58.126028972065797 -161.83307086164132 0 -161.83307086164132 257.57536974821596 0 0 0 0 36.135410559941192 -30.126466655463446 0 -30.126466655463446 84.802988867393651 0 0 0 0 116.9431264738746 -42.246209470758913 0 -42.246209470758913 415.28085267239203 0 0 0 0 -51.447438044519345 20.667156951094512 0 20.667156951094512 429.51523805738543 0 0 0 0 42.765536168656126 -94.281189261499094 0 -94.281189261499094 535.61808199269581 0 0 0 0 -8.9684726720611252 -28.693166285796906 0 -28.693166285796906 462.11907198930567 0 0 0 0 16.571420015609647 108.53406814807386 0 108.53406814807386 592.54744897881756 0 0 0 0 -48.066887732572923 36.269987740990473 0 36.269987740990473 424.65479101192977 0 0 0 0 -4.8510921354440768 -24.898853245973442 0 -24.898853245973442 416.72870759488433 0 0 0 0 -21.053000729444136 -55.576931088784477 0 -55.576931088784477 402.87381680087128 0 0 0 0 -25.841612232236301 14.819011810352094 0 14.819011810352094 455.13933147193165 0 0 0 0 -22.418106456109399 16.08986421712325 0 16.08986421712325 322.43543856721953 0 0 0 0 8.9381337377591308 11.677600152092054 0 11.677600152092054 138.32318857959763 0 0 0 0 3.5024483514267786 -58.851068001429667 0 -58.851068001429667 213.22736949721002 0 0 0 0 -47.886732475536292 -5.4323948516394012 0 -5.4323948516394012 232.51319250511006 0 0 0 0 -36.027175191222184 -45.971474871949795 0 -45.971474871949795 71.719974762847414 0 0 0 0 -4.8999421151935518 -33.977185730223908 0 -33.977185730223908 51.830204317949153 0 0 0 0 -15.320595661399466 -31.888728267731494 0 -31.888728267731494 67.425862739453805 0 0 0 0 -4.2912329383775614 -14.731258883926785 0 -14.731258883926785 233.67110944443266 0 0 0 0 5.4281937947730512 30.872774685951299 0 30.872774685951299 300.40810233188677 0 0 0 0 -0.12392564343050783 -0.67002995067957727 0 -0.67002995067957727 13.94873147713507 0 0 0 0 -5.2943826147844675 -27.318525728071108 0 -27.318525728071108 117.1265738268412 0 0 0 0 9.4591194291396903 -23.808058033013367 0 -23.808058033013367 68.258493523597281 0 0 0 0 -9.895775961805839 -17.809103111540026 0 -17.809103111540026 162.76262562315969 0 0 0 0 -3.7893592302659691 -1.8529505323292881 0 -1.8529505323292881 17.586249366847298 0 0 0 0 8.367108337103673 -10.038951022725087 0 -10.038951022725087 131.68423820345197 0 0 0 0 1.0538924929030258 -20.814712585256501 0 -20.814712585256501 64.493563145557346 0 0 0 0 -0.67608528019217085 -34.325512132660691 0 -34.325512132660691 58.770767863625622 0 0 0 0 -12.918714135534515 -70.073841128498316 0 -70.073841128498316 70.821328926569549 0 0 0 0 33.315946977625572 -77.08456957450835 0 -77.08456957450835 71.709958505496616 0 0 0 0 31.404407389643673 -3.8078383800080928 0 -3.8078383800080928 98.117085814330494 0 0 0 0 11.217372127168304 -39.722255451386445 0 -39.722255451386445 84.532975769296172 0 0 0 0 -0.40892741745189271 -2.9459661629840923 0 -2.9459661629840923 5.1984626750260645 0 0 0 0 30.335235743386022 -29.929828734944749 0 -29.929828734944749 12.547767838113941 0 0 0 0 -11.468472557902032 -5.0084544609417208 0 -5.0084544609417208 59.246358871168923 0 0 0 0 -420.65198049775825 292.96034930246242 0 292.96034930246242 -155.12099887491786 0 0 0 0 -3.3686608282905519 -19.020546752929306 0 -19.020546752929306 35.886051991836368 0 0 0 0 -176.52442881631123 -63.801169382204534 0 -63.801169382204534 36.321329540456645 0 0 0 0 -9.2761904315915409 4.4377773207526729 0 4.4377773207526729 44.834631069374041 0 0 0 0 -5.7247238394815119 10.230157997452267 0 10.230157997452267 15.547046165582628 0 0 0 0 -1.7306833606645204 -0.38162340959615904 0 -0.38162340959615904 4.8440148384198807 0 0 0 0 -181.22785875736093 345.39407632575603 0 345.39407632575603 -269.19623792095808 0 0 0 0 -248.81538831285434 424.6245359069726 0 424.6245359069726 -99.341361326594779 0 0 0 0 -3.3398769538646578 442.33818211041216 0 442.33818211041216 -245.06791166630865 0 0 0 0 -4.1400284456465588 -9.4154131151299225 0 -9.4154131151299225 32.184319080661226 0 0 0 0 0.022833612785210705 3.4898251281920238 0 3.4898251281920238 9.8067188654677011 0 0 0 0 0.22466584035832896 -0.065396853007968048 0 -0.065396853007968048 -0.10968757201658264 0 0 0 0 21.00243640638854 -57.501966157018614 0 -57.501966157018614 300.94290343737521 0 0 0 0 50.466950763941327 -83.857276053866372 0 -83.857276053866372 161.11319836729672 0 0 0 0 -14.900773004164215 -24.550574816646986 0 -24.550574816646986 310.91362274880521 0 0 0 0 -6.6254997527866522 -66.2514236863517 0 -66.2514236863517 444.10881880536908 0 0 0 0 7.8611043377399028 -16.014607477482059 0 -16.014607477482059 309.50650637425315 0 0 0 0 -0.21658262140320739 -96.037795303673192 0 -96.037795303673192 328.63411687269399 0 0 0 0 11.289628734092492 14.888511745961296 0 14.888511745961296 515.3190375684062 0 0 0 0 6.127257380948322 -60.786166321246128 0 -60.786166321246128 133.77084447172092 0 0 0 0 22.976254633620101 -87.779390107174549 0 -87.779390107174549 176.85882363265409 0 0 0 0 10.419366883828388 -50.219331011558097 0 -50.219331011558097 112.59388356069394 0 0 0 0 7.290581184125358 -95.662456044025021 0 -95.662456044025021 97.866854178006179 0 0 0 0 -114.26760688121431 -61.303304797242163 0 -61.303304797242163 223.10997137602681 0 0 0 0 -16.231783370447239 -70.57761270468778 0 -70.57761270468778 131.1750553730914 0 0 0 0 -316.54649180010438 -117.45478677094798 0 -117.45478677094798 209.73949609085048 0 0 0 0 -315.36716165444733 9.5740202818889841 0 9.5740202818889841 523.0457850797211 0 0 0 0 -88.281242577667399 180.54914458693111 0 180.54914458693111 303.79143443862995 0 0 0 0 -178.5739746610036 -690.22465908082086 0 -690.22465908082086 199.60896710643283 0 0 0 0 -14.949434743949329 -70.960317263543828 0 -70.960317263543828 128.11337867337562 0 0 0 0 -22.983433268437921 -109.98917837589761 0 -109.98917837589761 142.58690561308322 0 0 0 0 -35.848813833841746 -60.491243009562822 0 -60.491243009562822 194.03967739320069 0 0 0 0 -58.919971158642056 -52.263907086460677 0 -52.263907086460677 211.46010981195286 0 0 0 0 -42.727468681392111 -71.938575411297279 0 -71.938575411297279 200.43641949165612 0 0 0 0 -51.717369481515789 -74.208599045818119 0 -74.208599045818119 259.41883151083312 0 0 0 0 -22.423218412601727 -80.017412289405911 0 -80.017412289405911 208.22132710862206 0 0 0 0 -20.521610427224289 -91.119488172783349 0 -91.119488172783349 268.12199880248227 0 0 0 0 72.384136094139876 -82.962804760652944 0 -82.962804760652944 177.16307378814963 0 0 0 0 51.68439397399402 -143.59966365774017 0 -143.59966365774017 305.2173239476906 0 0 0 0 91.206158929629623 -98.785514000941475 0 -98.785514000941475 252.73875496938126 0 0 0 0 253.77651865730741 -44.76491744863597 0 -44.76491744863597 109.97201437610056 0 0 0 0 102.50946187274735 -128.80074296531529 0 -128.80074296531529 241.88995263041579 0 0 0 0 50.738164166417619 71.904355068814766 0 71.904355068814766 119.79474986171408 0 0 0 0 135.84619782803281 86.36445823305985 0 86.36445823305985 73.431420652879751 0 0 0 0 112.92915177363443 65.91282895639597 0 65.91282895639597 131.84899196561616 0 0 0 0 -215.19024766251937 317.23352660367527 0 317.23352660367527 108.20360989498317 0 0 0 0 -75.767875780884197 169.33798599643342 0 169.33798599643342 88.120604550163989 0 0 0 0 2.6822571172171727 48.673997558665008 0 48.673997558665008 202.17428520644933 0 0 0 0 52.054085357338749 70.719026172922895 0 70.719026172922895 132.57361618972209 0 0 0 0 -345.9365075341093 610.1018534933537 0 610.1018534933537 -87.285553824622184 0 0 0 0 530.29530141976011 -209.02584164583823 0 -209.02584164583823 -137.52528470043035 0 0 0 0 573.50607926859539 229.53058196598431 0 229.53058196598431 -313.91634990333114 0 0 0 0 106.31515546198534 -68.956331852787116 0 -68.956331852787116 115.56695127610874 0 0 0 0 93.477426479211999 14.392309246970399 0 14.392309246970399 90.280416423054703 0 0 0 0 37.912265987318506 11.672735594118421 0 11.672735594118421 113.48892148428422 0 0 0 0 32.780159449715086 -36.224854322972533 0 -36.224854322972533 118.90500533665909 0 0 0 0 -2.8662343797163166 -25.995835246591426 0 -25.995835246591426 40.566494359172964 0 0 0 0 10.328807718145356 8.6791995330804639 0 8.6791995330804639 122.34140005781956 0 0 0 0 -9.4129891236933165 -28.864299567702943 0 -28.864299567702943 31.871197379077309 0 0 0 0 -1.8315128556243963 12.06111909430183 0 12.06111909430183 135.905933540962 0 0 0 0 23.890737127400314 8.9309744266283815 0 8.9309744266283815 118.71690953646612 0 0 0 0 -33.2658461991698 -3.8420627269551915 0 -3.8420627269551915 227.03413637958874 0 0 0 0 -31.328536483167113 -40.500535824139661 0 -40.500535824139661 169.48153234213532 0 0 0 0 -13.735331260683893 -18.136104928422355 0 -18.136104928422355 191.08964385906438 0 0 0 0 2.3651885174322289 -23.1804092658125 0 -23.1804092658125 -6.7550984528874096 0 0 0 0 135.53349521506397 -209.73585725497833 0 -209.73585725497833 68.429435528742033 0 0 0 0 -669.91472545359682 -9.0295841005281545 0 -9.0295841005281545 950.75004062711378 0 0 0 0 -9.2274481701160767 23.955483502737479 0 23.955483502737479 120.49864451331086 0 0 0 0 -44.809482444574314 52.875232791186136 0 52.875232791186136 131.2837485040327 0 0 0 0 -10.489643910680849 33.2585643958855 0 33.2585643958855 208.46999799280189 0 0 0 0 -5.8991665442154044 -57.307546245850972 0 -57.307546245850972 140.40999321229174 0 0 0 0 -17.284508420303496 -21.996102628102165 0 -21.996102628102165 96.735371340950479 0 0 0 0 40.217744494955696 -31.918177458283026 0 -31.918177458283026 158.46992579096695 0 0 0 0 -21.744169455387155 -48.258751975117846 0 -48.258751975117846 143.04217742006369 0 0 0 0 1.8009439954957998 -65.302296569439932 0 -65.302296569439932 147.13035717821913 0 0 0 0 0.49736553958409324 2.8122921942247103 0 2.8122921942247103 -4.9049188002398978 0 0 0 0 -16.557893490273273 -73.648887069983175 0 -73.648887069983175 162.06693555806123 0 0 0 0 -69.003737897916153 -217.49292222603242 0 -217.49292222603242 -266.73710205915268 0 0 0 0 -17.25550914334632 -73.733973569455372 0 -73.733973569455372 44.413454140628502 0 0 0 0 3.8101425086606469 -74.946877085021697 0 -74.946877085021697 128.94212974768016 0 0 0 0 8.3798848218120838 -85.087930583220441 0 -85.087930583220441 137.18736116940272 0 0 0 0 -51.098916776002625 -98.649003323705983 0 -98.649003323705983 153.82147731061559 0 0 0 0 -36.799587231906685 -92.021374142437708 0 -92.021374142437708 154.46238479476597 0 0 0 0 -25.985201810689432 -112.49538211239269 0 -112.49538211239269 118.26541214867029 0 0 0 0 20.011341474149049 -42.714245134571684 0 -42.714245134571684 85.917077448120835 0 0 0 0 -0.62735678859894506 -49.005985645679175 0 -49.005985645679175 249.96389486404951 0 0 0 0 26.358615582630136 -75.191556735953782 0 -75.191556735953782 106.33162001072196 0 0 0 0 13.038660645769596 -66.402171203619218 0 -66.402171203619218 155.12039982061833 0 0 0 0 30.320911526005148 -74.168890669272514 0 -74.168890669272514 123.91662809910486 0 0 0 0 21.139615755416798 -62.268988024276041 0 -62.268988024276041 204.84671782964142 0 0 0 0 24.728790514912362 -60.979972760149394 0 -60.979972760149394 149.48592531797476 0 0 0 0 -13.026475100069547 -18.391953384567387 0 -18.391953384567387 136.06096652775886 0 0 0 0 59.521504907177587 -69.581580273763393 0 -69.581580273763393 133.80439573031617 0 0 0 0 20.977335453008891 -50.983775519485789 0 -50.983775519485789 126.86881042743335 0 0 0 0 81.635238217614642 -103.94441681055832 0 -103.94441681055832 114.41289670321567 0 0 0 0 36.656357790468974 -20.53286073146046 0 -20.53286073146046 112.53299504201277 0 0 0 0 33.565577149174715 -104.52591619253508 0 -104.52591619253508 193.58873095144008 0 0 0 0 -12.316496391485764 8.0987155250949456 0 8.0987155250949456 39.591068255243329 0 0 0 0 80.665990542528561 79.348075521314968 0 79.348075521314968 298.46761232268182 0 0 0 0 34.741571520672551 -147.62398536449109 0 -147.62398536449109 293.16426422289805 0 0 0 0 61.181448474132822 -8.4633322820809553 0 -8.4633322820809553 174.43892490716826 0 0 0 0 -38.665088052659144 -49.800424334447598 0 -49.800424334447598 336.12560103597934 0 0 0 0 -36.616405958955511 -36.000752429812565 0 -36.000752429812565 402.68934882599569 0 0 0 0 -36.782644375361997 -97.263636889096233 0 -97.263636889096233 301.27979402978963 0 0 0 0 -25.246676688312277 -135.297418803857 0 -135.297418803857 426.66721954682725 0 0 0 0 -4.2191530555311658 -3.7402405670246708 0 -3.7402405670246708 6.9300939685738285 0 0 0 0 -29.149691919677707 -21.29224678738683 0 -21.29224678738683 256.05391579985735 0 0 0 0 -40.188664455803519 -3.4178979091957444 0 -3.4178979091957444 379.6676600652645 0 0 0 0 -0.44322792076303585 -12.16873216912677 0 -12.16873216912677 210.14853592373402 0 0 0 0 -5.3481030483480936 -33.725214269586104 0 -33.725214269586104 155.2156781224985 0 0 0 0 -13.366978156729715 -73.313402500192751 0 -73.313402500192751 113.77294257431549 0 0 0 0 -15.7729381041612 -45.642290795463751 0 -45.642290795463751 111.21596141012387 0 0 0 0 -25.836359313791782 7.214652411031409 0 7.214652411031409 174.55715938652725 0 0 0 0 -47.464129699952537 -6.4911426551625482 0 -6.4911426551625482 352.21218483970733 0 0 0 0 -5.9774891951801692 -30.352287102632545 0 -30.352287102632545 207.97653745043499 0 0 0 0 -23.757642541227142 -38.142069661458663 0 -38.142069661458663 205.89998799002569 0 0 0 0 -24.151804977307677 -36.696159392249683 0 -36.696159392249683 234.00337157167814 0 0 0 0 -48.198673768618391 -60.269514354753483 0 -60.269514354753483 257.72295652038565 0 0 0 0 -51.413571082846147 -18.921258635104095 0 -18.921258635104095 262.41019467097067 0 0 0 0 -49.750445248582764 -18.056668214780075 0 -18.056668214780075 222.75261298176338 0 0 0 0 -125.4721585891175 205.18903935003618 0 205.18903935003618 586.3785861713186 0 0 0 0 -183.98764958679021 -251.19515980829965 0 -251.19515980829965 429.04886590480601 0 0 0 0 -72.727788015269994 -150.08861701136379 0 -150.08861701136379 125.26043161720008 0 0 0 0 -76.780707923262241 -116.81780015337495 0 -116.81780015337495 164.59119308878144 0 0 0 0 -67.064248702849909 -170.60083402775854 0 -170.60083402775854 101.92647073223634 0 0 0 0 -45.294097621856508 -65.764072355770622 0 -65.764072355770622 200.44017038507809 0 0 0 0 9.6099767649366186 -50.981055000229389 0 -50.981055000229389 133.12990180869201 0 0 0 0 22.098888667477695 -21.627755918725597 0 -21.627755918725597 131.28124158720038 0 0 0 0 2.1705433438883119 -43.102448674895641 0 -43.102448674895641 135.53716171398264 0 0 0 0 -13.088410458890159 -51.162573973015355 0 -51.162573973015355 79.942617136893745 0 0 0 0 19.459138908081513 -34.567027508961473 0 -34.567027508961473 131.21951170566899 0 0 0 0 -17.394110905265734 -82.179892907464819 0 -82.179892907464819 97.414555608760566 0 0 0 0 -3.7287969341562075 -90.537754018889245 0 -90.537754018889245 11.596412847611646 0 0 0 0 -53.115897773321194 -58.787624186385074 0 -58.787624186385074 157.28278145127842 0 0 0 0 45.385896841668 -31.020047904945386 0 -31.020047904945386 79.565826470974571 0 0 0 0 -22.823551200226689 -24.073555875595048 0 -24.073555875595048 166.15506245463621 0 0 0 0 -26.199294156635915 37.363731100413133 0 37.363731100413133 267.67799503610149 0 0 0 0 31.57596595189375 -98.845662695099236 0 -98.845662695099236 176.02889953534032 0 0 0 0 -16.623451390730704 -70.58086054546169 0 -70.58086054546169 127.60871062701293 0 0 0 0 98.482284513358081 21.870423057174776 0 21.870423057174776 171.44994550551928 0 0 0 0 53.5506521154457 -6.8601458667544648 0 -6.8601458667544648 252.51724335143808 0 0 0 0 0.47694108289024939 4.6397995272526131 0 4.6397995272526131 48.452595619630081 0 0 0 0 -187.66258963538257 -20.143984674008607 0 -20.143984674008607 35.771690969617339 0 0 0 0 -195.25520320914711 -41.098086936792242 0 -41.098086936792242 226.3245373791724 0 0 0 0 -121.1747958540027 32.885512979053601 0 32.885512979053601 156.44884467203519 0 0 0 0 -185.88625975047466 14.634188673037897 0 14.634188673037897 -16.938311068719486 0 0 0 0 -148.7271238035637 -59.249841476634174 0 -59.249841476634174 99.089571423657617 0 0 0 0 -39.287235693032017 -76.029316469715923 0 -76.029316469715923 89.927052785365959 0 0 0 0 -348.16641635838778 -125.24487888653493 0 -125.24487888653493 105.70530829088966 0 0 0 0 -866.30710936752519 -275.3524802729462 0 -275.3524802729462 743.70653442631738 0 0 0 0 0.20524100297699821 -5.1996400377381811 0 -5.1996400377381811 16.335580793966955 0 0 0 0 90.878615810639786 413.13979051283832 0 413.13979051283832 148.70509101384232 0 0 0 0 261.0371357142742 10.505431841258542 0 10.505431841258542 -0.91223028802323824 0 0 0 0 -73.588325479566265 -130.10156710421143 0 -130.10156710421143 -145.61043865576357 0 0 0 0 -0.43091421150845477 -1.4487832852200242 0 -1.4487832852200242 8.1860997127365351 0 0 0 0 -187.86512159823405 -312.90892694376635 0 -312.90892694376635 67.621451490815161 0 0 0 0 114.6280191197111 495.51438226181563 0 495.51438226181563 434.22332320996065 0 0 0 0 -133.42666760028624 187.29077125512413 0 187.29077125512413 819.74289873373709 0 0 0 0 -35.031185555810282 115.8895334936833 0 115.8895334936833 75.596093135667616 0 0 0 0 2.3467877323859252 -7.9403685683785472 0 -7.9403685683785472 33.319493358075178 0 0 0 0 125.38505159958953 313.09327796345497 0 313.09327796345497 274.43613732305494 0 0 0 0 -155.91637119082026 -61.010581994411041 0 -61.010581994411041 34.929765128005783 0 0 0 0 -65.245412036852485 -52.953832684520421 0 -52.953832684520421 20.93873997342962 0 0 0 0 208.72444806019712 -210.92353810909481 0 -210.92353810909481 -233.87632673922053 0 0 0 0 35.393062873279177 -232.26544687309797 0 -232.26544687309797 326.99385179709498 0 0 0 0 79.922456894466919 26.072291962972599 0 26.072291962972599 -23.527256473629677 0 0 0 0 89.905419946774714 -84.910412559772226 0 -84.910412559772226 165.5031565007921 0 0 0 0 -109.53235870862773 -36.247742387347898 0 -36.247742387347898 222.09212670710622 0 0 0 0 -73.233922319706835 313.63154475529882 0 313.63154475529882 -245.92212136696435 0 0 0 0 194.52250779157248 -335.56383394001477 0 -335.56383394001477 -753.32715984158494 0 0 0 0 274.24722788707186 -41.926272563494422 0 -41.926272563494422 -852.50157430466243 0 0 0 0 40.348562333759219 107.99974314544124 0 107.99974314544124 -127.94571682426886 0 0 0 0 -35.613351891234515 -16.46297057806396 0 -16.46297057806396 148.24891441811997 0 0 0 0 -81.282917996794822 139.90002745250786 0 139.90002745250786 215.72266057658908 0 0 0 0 -31.249432725170664 467.84402693909124 0 467.84402693909124 1284.6189567012407 0 0 0 0 -67.333025025092866 -394.60361791593823 0 -394.60361791593823 1098.9258539559414 0 0 0 0 -146.48597387726068 -9.5963558144703711 0 -9.5963558144703711 785.35114194260677 0 0 0 0 -268.02589419870446 -122.98989634094505 0 -122.98989634094505 793.31827387799092 0 0 0 0 -166.67488418704374 -107.54714799747671 0 -107.54714799747671 282.91767593080294 0 0 0 0 164.79370341665708 -298.10786146557075 0 -298.10786146557075 150.25311479906213 0 0 0 0 1.4929707951877245 -2.6186695135432352 0 -2.6186695135432352 10.970783904571064 0 0 0 0 -422.84651234466082 597.38861800397353 0 597.38861800397353 1106.5031355306201 0 0 0 0 1027.9744032206202 878.44463270683627 0 878.44463270683627 386.93306953249703 0 0 0 0 -19.901667795692447 -322.21745816436305 0 -322.21745816436305 756.47527038434782 0 0 0 0 654.95452040706527 11.422910635556946 0 11.422910635556946 70.343084472126066 0 0 0 0 -253.24402658616646 -161.18146601009721 0 -161.18146601009721 872.43741102799322 0 0 0 0 802.00187309808916 -549.69125570825781 0 -549.69125570825781 -307.26968917012346 0 0 0 0 199.57250689669559 -712.61345249507576 0 -712.61345249507576 -20.031371243543617 0 0 0 0 1.4393046232543454 -3.8196837342195629 0 -3.8196837342195629 7.9173390608876417 0 0 0 0 486.51439887876973 143.69308610496773 0 143.69308610496773 -103.96638006312969 0 0 0 0 -88.47944140691834 -230.45984763920933 0 -230.45984763920933 469.48538764735349 0 0 0 0 78.812702867436201 -94.763853837041097 0 -94.763853837041097 81.407820347922097 0 0 0 0 -206.81788368193156 14.040988032799305 0 14.040988032799305 341.03265956347605 0 0 0 0 433.59452245739681 -407.22590444577872 0 -407.22590444577872 291.47812704542594 0 0 0 0 -1.4245770517028085 -0.40950467038851812 0 -0.40950467038851812 -4.1022235301127239 0 0 0 0 -86.776051437138449 -233.0573361155366 0 -233.0573361155366 197.32197084164909 0 0 0 0 -252.88154554604762 -62.463543663819109 0 -62.463543663819109 87.936890706463601 0 0 0 0 64.29554815168558 -97.922050476927325 0 -97.922050476927325 40.738710707912105 0 0 0 0 -96.323462729762468 -115.39974645734401 0 -115.39974645734401 40.24343490101819 0 0 0 0 -51.253790551620114 -85.997752609699091 0 -85.997752609699091 42.155486353149172 0 0 0 0 -89.910254831073871 -117.44862113189083 0 -117.44862113189083 35.177655051942565 0 0 0 0 -118.03068583675304 -146.47887987819922 0 -146.47887987819922 8.3244051294641395 0 0 0 0 -132.92554355584844 -106.60908791110796 0 -106.60908791110796 42.462585305067478 0 0 0 0 -106.79865627562685 -80.613944175333017 0 -80.613944175333017 64.239563114942939 0 0 0 0 -75.966254506094629 -76.812962839845568 0 -76.812962839845568 0.33192222981597297 0 0 0 0 45.244417077889466 -108.94791705234093 0 -108.94791705234093 36.942132819567632 0 0 0 0 4.919783476462726 -64.258387767091335 0 -64.258387767091335 -8.4326318024923239 0 0 0 0 -20.802713022651005 -138.19322954519612 0 -138.19322954519612 -31.084630959790957 0 0 0 0 -340.9108677738368 -154.14155106045291 0 -154.14155106045291 46.559120344907569 0 0 0 0 -57.904206201581474 -78.095985127758468 0 -78.095985127758468 63.717607145459624 0 0 0 0 -74.924243137124449 -152.49184515813522 0 -152.49184515813522 -218.66819753820891 0 0 0 0 -114.73473620046389 58.833538937786216 0 58.833538937786216 -7.8725160575922928 0 0 0 0 -30.126222985813001 14.006119046891399 0 14.006119046891399 -21.66708104020654 0 0 0 0 -86.332354028997543 -23.582458731401857 0 -23.582458731401857 152.77132755217463 0 0 0 0 -30.190868014548414 -34.928886365198196 0 -34.928886365198196 210.8065478900462 0 0 0 0 9.5620259301165333 2.0603458017158118 0 2.0603458017158118 101.95652142206382 0 0 0 0 85.873766097966836 40.834807435770927 0 40.834807435770927 239.72771737748553 0 0 0 0 135.64176049667253 -25.089502488739527 0 -25.089502488739527 273.94374128707568 0 0 0 0 110.5945724589385 -56.029968911181641 0 -56.029968911181641 335.03036875727412 0 0 0 0 41.078318846533875 -83.579428194683715 0 -83.579428194683715 323.73569138917446 0 0 0 0 160.2816470031421 -14.36032308677386 0 -14.36032308677386 69.961995690995536 0 0 0 0 -8.6172030229176482 6.8719024165101246 0 6.8719024165101246 29.587969702394489 0 0 0 0 -73.419866090470805 -13.861883364290406 0 -13.861883364290406 219.19652642818255 0 0 0 0 -16.833108440795968 -5.22838946608681 0 -5.22838946608681 219.18032132611916 0 0 0 0 -13.692833114657523 -61.742466353758999 0 -61.742466353758999 135.0302525156155 0 0 0 0 -4.031103920878409 -19.755163204845942 0 -19.755163204845942 -1.002807338055419 0 0 0 0 29.002672917975815 -91.674450848333436 0 -91.674450848333436 -214.68626726587536 0 0 0 0 34.812993700545576 -38.128256066253016 0 -38.128256066253016 66.565605816416792 0 0 0 0 -33.077338003874019 -6.9506191243248328 0 -6.9506191243248328 16.864943297985398 0 0 0 0 -160.17401680551393 -99.003000208042977 0 -99.003000208042977 12.686339907455249 0 0 0 0 -85.198835256917391 61.224166138654937 0 61.224166138654937 -55.24824189139963 0 0 0 0 -502.28558158822989 88.688335283210563 0 88.688335283210563 615.93164336930749 0 0 0 0 -399.15082393558441 310.72724104390818 0 310.72724104390818 610.67713637838642 0 0 0 0 -7.440649261685869 -0.3706332313911993 0 -0.3706332313911993 -1.6831352578985261 0 0 0 0 888.61554445994659 57.275519073246869 0 57.275519073246869 -551.94222016612093 0 0 0 0 165.63297225304376 60.38873035183542 0 60.38873035183542 -217.49797355976989 0 0 0 0 1613.4237461617886 -845.4855777009434 0 -845.4855777009434 -37.354621002665681 0 0 0 0 345.29085269347831 200.42883594455407 0 200.42883594455407 103.06038542129954 0 0 0 0 -22.640725527479162 20.364791894885684 0 20.364791894885684 14.937862208206298 0 0 0 0 -182.73936864928555 91.485595785811711 0 91.485595785811711 166.8992090463671 0 0 0 0 -24.334822236151272 133.59052086351758 0 133.59052086351758 30.782641560567754 0 0 0 0 -69.626111523999384 -26.64718176251381 0 -26.64718176251381 60.324968810862629 0 0 0 0 -6.8837685967336419 -17.199838439353748 0 -17.199838439353748 62.465121680142389 0 0 0 0 3.6764148800411549 -23.046060331898943 0 -23.046060331898943 60.529296820490146 0 0 0 0 -218.68178275234322 42.844420867444114 0 42.844420867444114 102.02901303691351 0 0 0 0 -69.36525502131326 -25.329144998213451 0 -25.329144998213451 61.497882760203765 0 0 0 0 -185.16901698265065 -291.19795031867034 0 -291.19795031867034 -45.020402316124091 0 0 0 0 -257.21293835202414 -210.34713540305893 0 -210.34713540305893 -9.6629089290800039 0 0 0 0 -278.09068424497309 -233.58065244080353 0 -233.58065244080353 80.328698792396608 0 0 0 0 -1.8717802628495193 -2.2570059713544453 0 -2.2570059713544453 22.126269984612733 0 0 0 0 -193.84569043332885 -220.09206618594908 0 -220.09206618594908 -201.60240466155665 0 0 0 0 -176.98667847158868 39.84230599491093 0 39.84230599491093 101.16859660762566 0 0 0 0 -44.885290949474438 -24.77885924250586 0 -24.77885924250586 63.7146157795205 0 0 0 0 -15.831847037704243 -19.765338877040136 0 -19.765338877040136 72.239880987612906 0 0 0 0 -49.476172151868951 52.3388112364525 0 52.3388112364525 213.3921468201861 0 0 0 0 28.601268285208448 -88.312487035425534 0 -88.312487035425534 24.233545461771428 0 0 0 0 -7.3319215865365948 1.0023592820744263 0 1.0023592820744263 38.867682058707828 0 0 0 0 -56.194651531277486 21.185664776028716 0 21.185664776028716 34.295860220434406 0 0 0 0 -1.5976228034198421 -11.210438296636728 0 -11.210438296636728 61.253324270972506 0 0 0 0 -137.03110946250126 -48.021206738529145 0 -48.021206738529145 59.71214895270532 0 0 0 0 -70.994870972037461 -30.7003231110466 0 -30.7003231110466 64.130105790558446 0 0 0 0 -142.32939279803031 10.404888154454966 0 10.404888154454966 103.78837613725955 0 0 0 0 -27.660717526918233 -8.9830418861592989 0 -8.9830418861592989 81.06569954249062 0 0 0 0 -70.442895992187914 -39.809136169922567 0 -39.809136169922567 76.008229534163547 0 0 0 0 1.5987947533137072 -7.4273966735233508 0 -7.4273966735233508 41.718274656384722 0 0 0 0 915.57186461660513 617.73398197778624 0 617.73398197778624 151.9743525048616 0 0 0 0 1.294118667819937 4.3098665466084078 0 4.3098665466084078 13.220105037612896 0 0 0 0 210.23841043654465 -214.84838777390269 0 -214.84838777390269 55.114051975651819 0 0 0 0 250.34437381520183 207.52659558996311 0 207.52659558996311 147.27933331995882 0 0 0 0 -167.95749467700989 460.86948757349273 0 460.86948757349273 521.69579943989811 0 0 0 0 185.12826313402184 460.54071449803632 0 460.54071449803632 329.02677580528871 0 0 0 0 -99.862905617987053 328.34452964921456 0 328.34452964921456 280.64224116340483 0 0 0 0 47.828127633731128 105.8583565610561 0 105.8583565610561 116.92292033495551 0 0 0 0 -92.554396539336722 381.22596220587229 0 381.22596220587229 467.87938828570805 0 0 0 0 -216.68519679920428 245.0469929549854 0 245.0469929549854 406.17481385052906 0 0 0 0 422.55821645636019 459.41356597618642 0 459.41356597618642 398.49095571062935 0 0 0 0 202.68734731505174 666.52232878946779 0 666.52232878946779 863.95444236686672 0 0 0 0 -123.52477546427326 258.15738199967564 0 258.15738199967564 1318.2238936759286 0 0 0 0 -98.815574555640978 234.8972718182431 0 234.8972718182431 588.01485124362807 0 0 0 0 -116.22585498682383 485.6616338347394 0 485.6616338347394 774.70446438203635 0 0 0 0 42.047766069742011 415.97446127254807 0 415.97446127254807 492.00407158154485 0 0 0 0 -39.006298742777744 356.04494999944018 0 356.04494999944018 328.15376280334021 0 0 0 0 71.129512750450886 497.36456763303431 0 497.36456763303431 497.82214635749278 0 0 0 0 217.333607812222 266.98188697419573 0 266.98188697419573 233.88662981899324 0 0 0 0 -70.493865994791577 166.2126249643643 0 166.2126249643643 221.74138609332113 0 0 0 0 210.47981576026223 53.480761325443382 0 53.480761325443382 9.9820180070910283 0 0 0 0 -38.194218594066569 358.12941162893003 0 358.12941162893003 326.32706996841625 0 0 0 0 -146.08856546703373 218.63016239859826 0 218.63016239859826 196.5858288084346 0 0 0 0 -274.39431246344691 -202.95416448690935 0 -202.95416448690935 -24.744050354889623 0 0 0 0 -24.627819675361778 5.3671355996641559 0 5.3671355996641559 27.028320614041363 0 0 0 0 -90.496724636530871 108.51634264005224 0 108.51634264005224 175.40848722021929 0 0 0 0 -385.6330206142361 209.74490193572706 0 209.74490193572706 288.44507979031914 0 0 0 0 -183.30525494809808 237.8466180896512 0 237.8466180896512 -9.2708039307144645 0 0 0 0 -230.9813448830846 147.37192424604473 0 147.37192424604473 295.67743208656975 0 0 0 0 -624.6586289245497 -856.74475208914737 0 -856.74475208914737 -37.087212760401997 0 0 0 0 -8.5786053077833451 -3.297774608473425 0 -3.297774608473425 10.158660798712177 0 0 0 0 -8.1873266533730202 218.80496028137804 0 218.80496028137804 349.11762554071174 0 0 0 0 25.240235622596856 -23.047426997375055 0 -23.047426997375055 140.7150076329599 0 0 0 0 -104.24588198715946 94.27975043333754 0 94.27975043333754 57.801980141903186 0 0 0 0 431.25462668346518 -332.44656770949041 0 -332.44656770949041 161.50335236844012 0 0 0 0 1.1766329592667786 -2.7265114735376805 0 -2.7265114735376805 15.850003235948734 0 0 0 0 364.82799255711325 929.89242360670869 0 929.89242360670869 1034.6623390548611 0 0 0 0 -90.203402890194411 760.17810179069261 0 760.17810179069261 1016.4703416573393 0 0 0 0 711.04969661547693 -241.01658167386267 0 -241.01658167386267 541.68627415773153 0 0 0 0 10.78914173785688 -1211.6825966291026 0 -1211.6825966291026 -846.45100304763673 0 0 0 0 -761.96609677013566 357.98514619056618 0 357.98514619056618 455.18512502522208 0 0 0 0 550.27078086879828 1014.9681000655601 0 1014.9681000655601 753.73898504720273 0 0 0 0 -250.22481555082231 -647.97022046912389 0 -647.97022046912389 1370.5838917491437 0 0 0 0 892.24188766361567 -88.27442879073169 0 -88.27442879073169 -4.4011397135836887 0 0 0 0 -279.51340811472619 -2.2216746873600641 0 -2.2216746873600641 0.51412262229609951 0 0 0 0 -3.3788253846364569 -2.3742742261891365 0 -2.3742742261891365 6.2474852979604663 0 0 0 0 -7.2893427506123771 641.10399528735843 0 641.10399528735843 614.99511314461051 0 0 0 0 276.7203119302103 -213.89434837563749 0 -213.89434837563749 -819.2606917813464 0 0 0 0 -63.399758012948951 -843.29533301059564 0 -843.29533301059564 919.95238640401976 0 0 0 0 -49.998641864073761 -70.731452247155175 0 -70.731452247155175 288.37846961063224 0 0 0 0 7.0318166400594748 -12.008574303838458 0 -12.008574303838458 2.9923818378387832 0 0 0 0 10.897264557245578 -7.8307169024411998 0 -7.8307169024411998 2.2213672223868954 0 0 0 0 285.04445731026135 -30.658014172404364 0 -30.658014172404364 -1382.9497041921959 0 0 0 0 -157.35596516023782 342.6941359084376 0 342.6941359084376 -514.34238297709089 0 0 0 0 -37.099012152134719 -166.3465109964809 0 -166.3465109964809 -152.94414366706769 0 0 0 0 -204.58930495024606 -138.17456757886976 0 -138.17456757886976 182.96232346411671 0 0 0 0 285.11696563242663 6.6263623731281314 0 6.6263623731281314 203.42094682589595 0 0 0 0 -268.68182745949525 -91.95706701068957 0 -91.95706701068957 446.27644096118638 0 0 0 0 8.1524026851684539 -44.52108706753188 0 -44.52108706753188 90.165594136073196 0 0 0 0 -7.0620080883437666 -11.140294197126391 0 -11.140294197126391 15.328203420793045 0 0 0 0 -1.5280159675245599 -7.8282858884568167 0 -7.8282858884568167 28.729937449705837 0 0 0 0 -32.398673624757976 46.978819571373151 0 46.978819571373151 246.54223687341772 0 0 0 0 54.238682018384679 -67.579267468263879 0 -67.579267468263879 3.4287248976493174 0 0 0 0 1.2560094354139437 58.195567791291523 0 58.195567791291523 158.46474949254298 0 0 0 0 -38.318177415672835 -5.0787981098707178 0 -5.0787981098707178 66.224919436461818 0 0 0 0 -43.488926631167416 -11.6184478604318 0 -11.6184478604318 58.156835729819022 0 0 0 0 -13.952090773268729 -3.5973209321314137 0 -3.5973209321314137 26.90202872331642 0 0 0 0 -2.842757399341417 -9.7305618410927543 0 -9.7305618410927543 54.258259669210688 0 0 0 0 -13.162995924994508 3.5173143637806152 0 3.5173143637806152 65.873475427179827 0 0 0 0 -27.077557201075251 -4.183000937138786 0 -4.183000937138786 68.686069638987192 0 0 0 0 -21.959838444761743 1.4681720852980202 0 1.4681720852980202 77.310546876672674 0 0 0 0 -92.526745921659312 -436.89780479003093 0 -436.89780479003093 -439.13776322476042 0 0 0 0 -111.33083955355687 381.00842114778061 0 381.00842114778061 503.75589838950509 0 0 0 0 -39.803493703196651 19.363659643433792 0 19.363659643433792 113.45132735871246 0 0 0 0 217.83991460685914 330.86564513861617 0 330.86564513861617 -127.76963929365411 0 0 0 0 -9.0853555098133256 -30.150382594170424 0 -30.150382594170424 237.91526216718012 0 0 0 0 -218.19819455833982 145.3604254116326 0 145.3604254116326 89.252386229326703 0 0 0 0 -1.3548370961207774 11.481939987776981 0 11.481939987776981 0.91931068116846149 0 0 0 0 37.810766272876208 -95.007329020481848 0 -95.007329020481848 19.895481920946622 0 0 0 0 56.801085224189592 65.94066475800355 0 65.94066475800355 6.5194799795717699 0 0 0 0 -25.397170371531196 17.69807678998086 0 17.69807678998086 174.35786686745288 0 0 0 0 -164.19133440559017 53.795781586537487 0 53.795781586537487 332.06606901416671 0 0 0 0 0.035763277270234539 63.704247333167586 0 63.704247333167586 326.64519840741195 0 0 0 0 -143.05468910625177 76.148251757666003 0 76.148251757666003 345.1167755293136 0 0 0 0 4.5398287089979217 7.7980342771392088 0 7.7980342771392088 10.667192856577444 0 0 0 0 -183.62664132902091 -267.15804350704616 0 -267.15804350704616 -210.39474109935691 0 0 0 0 -183.90626419582151 -141.67689284166286 0 -141.67689284166286 -34.47855279489886 0 0 0 0 -11.621839193459891 -95.211882872623391 0 -95.211882872623391 -136.26903790690994 0 0 0 0 -54.48325412253871 76.918469182965055 0 76.918469182965055 170.955171384805 0 0 0 0 5.6244078200209682 45.895679656167545 0 45.895679656167545 84.283540986854064 0 0 0 0 7.4813635976106525 -49.067155183307477 0 -49.067155183307477 352.33060409661448 0 0 0 0 -42.048345740915465 51.475393823478953 0 51.475393823478953 169.12079519429244 0 0 0 0 -27.942629862701846 -30.25012196135026 0 -30.25012196135026 88.12489130596876 0 0 0 0 -96.028329978843431 -22.464945395982795 0 -22.464945395982795 -30.531766721673193 0 0 0 0 32.140637149499526 -233.73292524482531 0 -233.73292524482531 -218.74177705096372 0 0 0 0 27.238691348351495 66.856626727814728 0 66.856626727814728 27.799725097109331 0 0 0 0 329.56664751239759 -6.9071523039019667 0 -6.9071523039019667 -198.03785821004931 0 0 0 0 -77.201418091201049 286.53430649513029 0 286.53430649513029 223.30632421225891 0 0 0 0 -36.070392657943557 66.682519893893186 0 66.682519893893186 -8.9244550851290114 0 0 0 0 -16.05355206022108 -7.3830872281307265 0 -7.3830872281307265 18.101228828185754 0 0 0 0 -40.651739919881948 119.23290586088115 0 119.23290586088115 172.1124558072479 0 0 0 0 -71.902180400931684 127.99791427767195 0 127.99791427767195 433.46833055235038 0 0 0 0 2.0917800500537851 -12.709143320214935 0 -12.709143320214935 260.54789109519334 0 0 0 0 -3.3961325169304004 -4.6963353452668031 0 -4.6963353452668031 41.289395448659548 0 0 0 0 -81.556804398300301 -2.9520489666319918 0 -2.9520489666319918 -189.82138446131012 0 0 0 0 -70.499739419414254 -79.123236632414773 0 -79.123236632414773 -82.796909805605537 0 0 0 0 -301.64103050117774 -278.96842836917858 0 -278.96842836917858 188.26178172052096 0 0 0 0 -30.753266610858191 90.94511205001254 0 90.94511205001254 330.10983918487909 0 0 0 0 -146.42966354042801 -235.19169274870364 0 -235.19169274870364 264.46713428045769 0 0 0 0 -105.11632280869344 -206.04695502688264 0 -206.04695502688264 267.05227749204641 0 0 0 0 -203.03542708040914 -165.12254543906056 0 -165.12254543906056 309.6702448747601 0 0 0 0 -162.32008376424255 -447.08339208994221 0 -447.08339208994221 524.82819762534928 0 0 0 0 115.15643820322271 257.81391544650614 0 257.81391544650614 441.77624545295112 0 0 0 0 -118.72576945569381 -243.17717354183333 0 -243.17717354183333 661.98769579480177 0 0 0 0 -2.4937624079591387 -326.7854536746845 0 -326.7854536746845 213.67754840973066 0 0 0 0 10.475154262893838 -5.257830835700382 0 -5.257830835700382 -3.8726564526716771 0 0 0 0 -14.35542079449408 -261.29294656813545 0 -261.29294656813545 -49.973495707752591 0 0 0 0 14.717625538643006 -232.20219992899547 0 -232.20219992899547 118.27776287776942 0 0 0 0 -12.415555561059591 -166.61859883851139 0 -166.61859883851139 -11.493017894383229 0 0 0 0 -53.510743226162504 -119.16400288016848 0 -119.16400288016848 83.015438996793819 0 0 0 0 -59.132985983107574 -122.96181800329214 0 -122.96181800329214 90.632381384006294 0 0 0 0 -90.324339235543107 -93.261303808211778 0 -93.261303808211778 70.919710555586789 0 0 0 0 -88.555050063055205 -87.305924062231497 0 -87.305924062231497 58.243922587917041 0 0 0 0 -112.74121069149805 -138.79989081072017 0 -138.79989081072017 301.56673668607982 0 0 0 0 -87.345544621879526 -227.47657976506162 0 -227.47657976506162 275.76474091885029 0 0 0 0 -120.5566700566942 -173.40730561133751 0 -173.40730561133751 207.21220846603683 0 0 0 0 -56.90967215521232 -137.98879088919057 0 -137.98879088919057 199.36378860071818 0 0 0 0 -41.670347389230301 -143.20587231587706 0 -143.20587231587706 111.39280315005453 0 0 0 0 -58.800507384425146 -123.75518853991707 0 -123.75518853991707 157.16677979829547 0 0 0 0 -32.877119210075762 -78.147639641480055 0 -78.147639641480055 236.07897960903938 0 0 0 0 211.30396902604116 -52.835314373984147 0 -52.835314373984147 174.54189799791493 0 0 0 0 7.0154977826023242 -93.398639223094506 0 -93.398639223094506 159.26120595679822 0 0 0 0 20.5064612658025 -83.571139044201118 0 -83.571139044201118 148.34461924773495 0 0 0 0 10.323896753905501 -80.985070567930052 0 -80.985070567930052 168.73600452265237 0 0 0 0 -46.83230441905107 36.111666175267601 0 36.111666175267601 278.61577453227073 0 0 0 0 -130.15015281934757 -104.05257602401616 0 -104.05257602401616 233.59936695227179 0 0 0 0 103.43654393048928 -108.68685856080265 0 -108.68685856080265 174.97573351038591 0 0 0 0 130.85350777360873 -60.836853716777114 0 -60.836853716777114 168.40918593875494 0 0 0 0 68.277758552494561 -115.81013337537206 0 -115.81013337537206 175.5875245928255 0 0 0 0 83.977814221565495 -59.876643908246479 0 -59.876643908246479 168.42369101748307 0 0 0 0 39.149499476516212 -67.383322067391418 0 -67.383322067391418 160.41557510710481 0 0 0 0 67.841846332950809 -97.595440077679086 0 -97.595440077679086 159.98438090943091 0 0 0 0 -34.434915508687354 -25.147105445553439 0 -25.147105445553439 133.88513814954234 0 0 0 0 -7.8099692726189396 -27.299087878938849 0 -27.299087878938849 79.919447259996815 0 0 0 0 114.86420078200899 -89.318228706923037 0 -89.318228706923037 140.9186699137681 0 0 0 0 65.389196967807948 -91.84815271403204 0 -91.84815271403204 173.01784523953393 0 0 0 0 -32.554595152410002 19.104705300006572 0 19.104705300006572 39.170351178647252 0 0 0 0 -10.673555289105604 -10.470765738711272 0 -10.470765738711272 36.604221707927152 0 0 0 0 -181.65125336682468 -22.807853073607475 0 -22.807853073607475 213.55311652927958 0 0 0 0 -12.991931540048052 2.8173818378632216 0 2.8173818378632216 66.316628072175405 0 0 0 0 -93.9306267027725 8.6862086891071968 0 8.6862086891071968 51.931459229963991 0 0 0 0 -7.4787867926825129 81.766390327113186 0 81.766390327113186 24.17132559158199 0 0 0 0 -40.074835030987742 -82.124066116650283 0 -82.124066116650283 106.58061429450754 0 0 0 0 -418.46702567853208 58.758795319805358 0 58.758795319805358 482.71316342034697 0 0 0 0 128.80885963625769 90.817550612184277 0 90.817550612184277 294.94383228777588 0 0 0 0 -86.397364093219949 102.07656483797109 0 102.07656483797109 364.62557133585506 0 0 0 0 55.826828934699734 29.327552558221214 0 29.327552558221214 260.53150740764977 0 0 0 0 -30.185765079496893 8.9170949795457233 0 8.9170949795457233 -2.6319712471976402 0 0 0 0 -18.337451818014415 29.123582386913768 0 29.123582386913768 132.52086063905881 0 0 0 0 -50.428933512391268 63.569612834839063 0 63.569612834839063 213.29474002793722 0 0 0 0 -175.61085615330194 -1.0960726906487253 0 -1.0960726906487253 253.31211099627035 0 0 0 0 -97.231025311171834 27.980241562981973 0 27.980241562981973 260.21722040035093 0 0 0 0 -81.264525909336953 -120.98886807683448 0 -120.98886807683448 87.953110489906976 0 0 0 0 85.099725281881547 27.605174950193032 0 27.605174950193032 190.31620910345373 0 0 0 0 64.468803111427405 108.04813352911151 0 108.04813352911151 2.1427695504389703 0 0 0 0 17.358389464137872 191.4981949445355 0 191.4981949445355 200.42799260147876 0 0 0 0 -30.189690347875967 36.739035735949074 0 36.739035735949074 339.4384152640705 0 0 0 0 20.038435404535448 -72.04842509885566 0 -72.04842509885566 257.05021064248285 0 0 0 0 -35.902115847457026 7.2228986801783321 0 7.2228986801783321 187.05963324096956 0 0 0 0 -103.70121313859318 -4.2175714775021333 0 -4.2175714775021333 237.25369787553791 0 0 0 0 -5.4481093824342679 -25.571975409824518 0 -25.571975409824518 177.63078442931874 0 0 0 0 -33.637279716793273 53.146648318401276 0 53.146648318401276 114.63609734046622 0 0 0 0 127.10659124915401 51.324077386649151 0 51.324077386649151 124.18968062063504 0 0 0 0 6.1165099449099216 5.1473130987287732 0 5.1473130987287732 106.5716562754169 0 0 0 0 -15.32732740463598 97.536486106728262 0 97.536486106728262 239.13281429446943 0 0 0 0 18.911324084632724 -166.06324359468999 0 -166.06324359468999 188.33111496684978 0 0 0 0 1.412166169025161 -22.479205770456804 0 -22.479205770456804 -1.1532469080083843 0 0 0 0 -17.229342993579376 -39.895687421562997 0 -39.895687421562997 105.30374375574758 0 0 0 0 -61.126359759968182 -534.89704477844316 0 -534.89704477844316 -8.3290733723406447 0 0 0 0 -8.1466971058226996 -4.206913649504564 0 -4.206913649504564 154.891335341108 0 0 0 0 -533.69157657161031 42.940018885212339 0 42.940018885212339 471.28530261453852 0 0 0 0 -194.64424967915465 48.988340455027355 0 48.988340455027355 937.61338264058213 0 0 0 0 -80.311000678369055 48.759521963358566 0 48.759521963358566 24.16139582815731 0 0 0 0 314.9826843785072 585.63700583023092 0 585.63700583023092 588.98313618284192 0 0 0 0 -116.90006113638537 232.97319742740365 0 232.97319742740365 232.79009786319602 0 0 0 0 -11.718742822412747 -4.9208880599628202 0 -4.9208880599628202 172.01945873293522 0 0 0 0 -202.88684405841468 -82.849367574082862 0 -82.849367574082862 101.92140651307272 0 0 0 0 -182.41806406988644 4.0484442417400714 0 4.0484442417400714 -22.97285692508467 0 0 0 0 3.8055763269852516 3.53551472485087 0 3.53551472485087 34.502953782501805 0 0 0 0 154.69986703559584 -113.50468363775053 0 -113.50468363775053 73.378183638975315 0 0 0 0 -434.54370610292244 -83.43565226301871 0 -83.43565226301871 703.80847769924731 0 0 0 0 97.759488280476944 7.8220149210246745 0 7.8220149210246745 7.8081926152226515 0 0 0 0 14.661074230909435 173.46453381741594 0 173.46453381741594 953.19035716773578 0 0 0 0 109.67747156754513 -109.8946275654971 0 -109.8946275654971 533.40785703400616 0 0 0 0 -79.974278608395252 15.997014126420254 0 15.997014126420254 937.08894391480135 0 0 0 0 88.228210930452406 191.64283403907757 0 191.64283403907757 629.00391621390008 0 0 0 0 186.29951103320127 177.29501815195545 0 177.29501815195545 27.456671747349901 0 0 0 0 -121.33523216202389 176.72283222755686 0 176.72283222755686 89.066401690099156 0 0 0 0 1.2968274896548273 1.0754504139143108 0 1.0754504139143108 24.362933689423443 0 0 0 0 -348.46466590257842 -313.25643462223525 0 -313.25643462223525 323.72254281945061 0 0 0 0 20.311239641245265 77.182349442489794 0 77.182349442489794 -5.5371595294272993 0 0 0 0 172.18067170889117 57.65965646035329 0 57.65965646035329 -23.107003329656436 0 0 0 0 252.92020700055946 -137.36314320937527 0 -137.36314320937527 68.467727755341912 0 0 0 0 6.048308537428511 6.4778545058761665 0 6.4778545058761665 283.67076748233376 0 0 0 0 -368.1192224395736 148.62999648367986 0 148.62999648367986 795.95643621784984 0 0 0 0 -166.70287347778594 -448.71637669430129 0 -448.71637669430129 -569.8811074475816 0 0 0 0 -0.23715020897086703 -2.7020489067188294 0 -2.7020489067188294 3.5925524704913983 0 0 0 0 -248.20803035678182 -79.015736091110739 0 -79.015736091110739 -803.21681591996457 0 0 0 0 110.89579437651355 137.00520816475546 0 137.00520816475546 757.32957207137952 0 0 0 0 0.76906808680111283 -2.4181629193759591 0 -2.4181629193759591 1.5123404000510448 0 0 0 0 166.0059034747901 159.4275302667229 0 159.4275302667229 745.10915640354506 0 0 0 0 0.046735556856958738 -5.5830876878641789 0 -5.5830876878641789 7.4538452395896115 0 0 0 0 -170.33831018152705 -597.96087714712485 0 -597.96087714712485 434.23089293068915 0 0 0 0 -55.59390099238226 -102.43177333123458 0 -102.43177333123458 147.72294775667251 0 0 0 0 25.475600382672383 -47.828264809926623 0 -47.828264809926623 151.10020800308848 0 0 0 0 -4.1154016535849074 -0.65491355608270396 0 -0.65491355608270396 0.82091072446579005 0 0 0 0 -159.37142508031502 -240.76808142567461 0 -240.76808142567461 -117.59384436656546 0 0 0 0 45.602174116473179 201.73725712801388 0 201.73725712801388 206.04628219878941 0 0 0 0 2.9284394987562834 -5.9970590111659021 0 -5.9970590111659021 7.5589308625834519 0 0 0 0 -69.942395979171124 -59.766911780563532 0 -59.766911780563532 -150.12435427435776 0 0 0 0 82.663145938793605 131.4563124992419 0 131.4563124992419 232.93017438713287 0 0 0 0 -102.68824630502968 195.48537652488994 0 195.48537652488994 211.76743427701876 0 0 0 0 95.914223693918757 48.922289217822254 0 48.922289217822254 32.060752941622923 0 0 0 0 5.859872533732414 239.97697443178185 0 239.97697443178185 137.00618281180505 0 0 0 0 107.58590457472019 149.56225820787222 0 149.56225820787222 217.03539011607063 0 0 0 0 208.83685707420955 336.4549426533631 0 336.4549426533631 814.89413624384906 0 0 0 0 -1.2164854294521916 -2.6390141874332471 0 -2.6390141874332471 5.7096739167633928 0 0 0 0 64.473820771603641 -4.4532887091772864 0 -4.4532887091772864 616.14162689849036 0 0 0 0 282.17695213554725 265.61186202452518 0 265.61186202452518 293.25891252561996 0 0 0 0 -4.618661104603234 -205.39554667408811 0 -205.39554667408811 -294.53724322498601 0 0 0 0 5.6055502890794742 43.619941199991445 0 43.619941199991445 23.216340073133324 0 0 0 0 -30.230135005602719 -20.323538153097495 0 -20.323538153097495 103.95337353085449 0 0 0 0 -275.0545204744999 -47.660829009450026 0 -47.660829009450026 100.38470188170322 0 0 0 0 -112.38076070388843 -38.934235721553705 0 -38.934235721553705 99.83656063136732 0 0 0 0 -63.176613250534501 -42.671118844762532 0 -42.671118844762532 90.679075163385278 0 0 0 0 -40.429354512937152 -69.239218514281674 0 -69.239218514281674 -84.762184043502202 0 0 0 0 -32.838407064097524 -5.217980021060967 0 -5.217980021060967 124.55279147461547 0 0 0 0 -168.88437479591448 -375.52720021546702 0 -375.52720021546702 -204.73344218346756 0 0 0 0 -296.51898324429476 -252.29678120772587 0 -252.29678120772587 77.229815551952925 0 0 0 0 0.22310098256485378 -37.300282302563268 0 -37.300282302563268 90.858368488499821 0 0 0 0 -168.12245240858613 -96.419590089426038 0 -96.419590089426038 80.90517588648072 0 0 0 0 -175.42988775430194 -90.310148769587613 0 -90.310148769587613 103.94456381341479 0 0 0 0 -176.45043533721685 -84.472800279948387 0 -84.472800279948387 86.072993257235794 0 0 0 0 -197.15228410676878 -85.141467111205202 0 -85.141467111205202 82.698977296026897 0 0 0 0 -198.79498880327094 -142.67844906834603 0 -142.67844906834603 44.22310577511962 0 0 0 0 -432.32386163624142 -223.65111309305894 0 -223.65111309305894 29.288001040111794 0 0 0 0 -1508.7085372475758 -982.57821566788778 0 -982.57821566788778 1432.1557065058685 0 0 0 0 -79.090731453959961 -115.64030483223468 0 -115.64030483223468 -361.49989127445065 0 0 0 0 -112.62810656824831 -51.483259008283085 0 -51.483259008283085 -29.022951314918998 0 0 0 0 -4.8795003172107814 -24.224810795502151 0 -24.224810795502151 158.89597204391589 0 0 0 0 -106.53384804937014 -51.043760947293777 0 -51.043760947293777 180.22658318277172 0 0 0 0 -119.37868917640168 -35.756008768411903 0 -35.756008768411903 131.46615592700255 0 0 0 0 -79.157961355478619 -10.06510718672871 0 -10.06510718672871 133.16529632480888 0 0 0 0 2.570467682221599 -26.371295933731059 0 -26.371295933731059 127.23244029639423 0 0 0 0 -56.749171331560319 -8.8826344746539689 0 -8.8826344746539689 118.00776956795016 0 0 0 0 -70.020119091924471 -28.131168210403303 0 -28.131168210403303 125.90349529812374 0 0 0 0 -94.180705367255541 -123.07944752822004 0 -123.07944752822004 42.92100467250566 0 0 0 0 -14.293357863355595 35.77340435421138 0 35.77340435421138 192.45592622259574 0 0 0 0 -112.48206587395543 -41.173846555997443 0 -41.173846555997443 282.08704563351785 0 0 0 0 -119.85600283682743 -14.505718528187572 0 -14.505718528187572 211.54997326510784 0 0 0 0 -1.5242310966782497 9.4312263955798699 0 9.4312263955798699 122.85987740544078 0 0 0 0 -32.017297550428665 -24.828483983888304 0 -24.828483983888304 106.17765479148056 0 0 0 0 -12.588229548489551 3.958475950805564 0 3.958475950805564 38.368281909151762 0 0 0 0 -36.633012707814487 -103.91817486235959 0 -103.91817486235959 477.65714487202058 0 0 0 0 -38.50409082709141 -37.157785886086828 0 -37.157785886086828 53.472885929807774 0 0 0 0 -83.254104562285647 -95.727292596180632 0 -95.727292596180632 137.13014464803564 0 0 0 0 -59.104131165592662 -41.207203199533978 0 -41.207203199533978 177.43911345477682 0 0 0 0 -178.58990604847713 -9.63791989244055 0 -9.63791989244055 169.11940868097008 0 0 0 0 -146.43487505851726 26.06744803087895 0 26.06744803087895 10.102896490425337 0 0 0 0 -198.11345974820142 -103.975784557515 0 -103.975784557515 239.19709425255132 0 0 0 0 126.68829072962835 -197.76227124147999 0 -197.76227124147999 211.40095250757736 0 0 0 0 15.28501938979025 -46.160926713739173 0 -46.160926713739173 76.112046512265806 0 0 0 0 412.54023915527159 463.7531974754902 0 463.7531974754902 175.85330782962137 0 0 0 0 270.19363151528057 203.41458977084585 0 203.41458977084585 1.8828033928739387 0 0 0 0 10.57915157348873 185.50743680689357 0 185.50743680689357 472.22991359128969 0 0 0 0 39.35829364377264 431.98456131214061 0 431.98456131214061 389.39654387113978 0 0 0 0 7.6601650228773845 -0.95226108330439629 0 -0.95226108330439629 14.974243578369247 0 0 0 0 -29.077074064536191 431.66492302319875 0 431.66492302319875 693.04912296498151 0 0 0 0 53.789048778624078 -175.7714851388323 0 -175.7714851388323 1013.1991366055855 0 0 0 0 89.290061657800337 -281.488545479104 0 -281.488545479104 740.74792418639549 0 0 0 0 71.847283343981118 -198.83704296071437 0 -198.83704296071437 443.48921154082052 0 0 0 0 -194.8001139977552 282.54838346382166 0 282.54838346382166 649.91088751048756 0 0 0 0 341.52164822549867 191.17629361251056 0 191.17629361251056 152.71463976965606 0 0 0 0 7.0189084727888709 -2.2558627478222957 0 -2.2558627478222957 9.1400970127559251 0 0 0 0 -211.64348530395714 251.85938503834086 0 251.85938503834086 982.34564345160834 0 0 0 0 -8.8493435646296348 83.273443025180313 0 83.273443025180313 810.24141823282025 0 0 0 0 -529.91351087164287 49.250416808759837 0 49.250416808759837 1515.1555066039236 0 0 0 0 66.83629904378904 -104.05651377405229 0 -104.05651377405229 129.63230521724654 0 0 0 0 87.689209102944005 -108.52627245790063 0 -108.52627245790063 127.34931181639695 0 0 0 0 33.165827576318406 -73.552678097024909 0 -73.552678097024909 111.47071242427774 0 0 0 0 47.490270658298179 -50.292966369347283 0 -50.292966369347283 61.290173967438463 0 0 0 0 79.971686201683042 -82.856680552611579 0 -82.856680552611579 143.34151728292636 0 0 0 0 35.45229593575641 -93.641178805548407 0 -93.641178805548407 141.26533800993639 0 0 0 0 37.619179949882891 -87.503535156904036 0 -87.503535156904036 124.17170155265194 0 0 0 0 29.286370451689436 -74.401679092046834 0 -74.401679092046834 121.18721590336645 0 0 0 0 32.909781093374477 -82.732075634412467 0 -82.732075634412467 130.20126169455762 0 0 0 0 29.54153449095611 -78.691078682008083 0 -78.691078682008083 103.09530344687482 0 0 0 0 9.3436939922685269 -67.839984784422995 0 -67.839984784422995 107.04689248503564 0 0 0 0 -5.1562921146978624 -92.806135124571028 0 -92.806135124571028 133.9710873397853 0 0 0 0 11.666610009982833 -74.804124035334098 0 -74.804124035334098 153.03264135457357 0 0 0 0 -34.421935788552219 -90.962332861774485 0 -90.962332861774485 157.64291939836852 0 0 0 0 -4.5514433719922636 -86.477695024113018 0 -86.477695024113018 105.5215420507302 0 0 0 0 -41.362069884702578 -112.79110290303652 0 -112.79110290303652 99.718315166901448 0 0 0 0 -63.758439573541182 -94.8524341492448 0 -94.8524341492448 110.74060543546159 0 0 0 0 -27.858349932808778 -77.345494944234815 0 -77.345494944234815 86.24109355773362 0 0 0 0 -55.177156478794132 -104.33484269861947 0 -104.33484269861947 59.765876166904491 0 0 0 0 -26.772706099032803 -93.915690083154914 0 -93.915690083154914 104.41674494008475 0 0 0 0 9.1409246910629918 -72.398592052009462 0 -72.398592052009462 51.441100911419198 0 0 0 0 -96.72104118783227 -71.819345112100564 0 -71.819345112100564 59.285321081810253 0 0 0 0 -101.61267256244992 -87.685530673665198 0 -87.685530673665198 87.72393686349551 0 0 0 0 -69.754039548053697 -108.56047454314285 0 -108.56047454314285 79.779568483842013 0 0 0 0 -68.154511970515159 -77.361778989285085 0 -77.361778989285085 71.192166937090406 0 0 0 0 -16.57641124188558 -70.77753423711647 0 -70.77753423711647 -13.865410318542445 0 0 0 0 -115.23222697774872 -92.579529294622262 0 -92.579529294622262 73.978713469325157 0 0 0 0 -116.52822586935258 -106.47622694178278 0 -106.47622694178278 56.613962058800098 0 0 0 0 -45.751983190864848 -104.69067198686935 0 -104.69067198686935 -18.785340620997886 0 0 0 0 2.5122363657583264 -75.750093566028227 0 -75.750093566028227 -3.707622240010096 0 0 0 0 15.372721583975931 -44.796436455801768 0 -44.796436455801768 58.40671926856885 0 0 0 0 -26.997702493345059 -67.393860447620682 0 -67.393860447620682 45.728321020418662 0 0 0 0 33.884575720223118 -29.984684901731853 0 -29.984684901731853 26.22802623450319 0 0 0 0 -16.860232745822941 -72.243098693469165 0 -72.243098693469165 -3.5828503957283857 0 0 0 0 -63.455381046674347 277.91222952371231 0 277.91222952371231 709.65242323772964 0 0 0 0 101.91467423815971 241.01484468951321 0 241.01484468951321 715.87137988051927 0 0 0 0 -42.003289403143299 -144.2303391428859 0 -144.2303391428859 -126.11170914469767 0 0 0 0 11.774752268892858 -8.604206684774697 0 -8.604206684774697 7.8688147773741521 0 0 0 0 -59.521879431382132 906.6488282452101 0 906.6488282452101 857.53875490761925 0 0 0 0 35.557501222702513 -103.9655943492744 0 -103.9655943492744 409.14593679719331 0 0 0 0 156.62957333765064 -4.5777345262831659 0 -4.5777345262831659 -52.942421134092797 0 0 0 0 4.1864802693987713 308.87686313825338 0 308.87686313825338 430.1557377908855 0 0 0 0 138.80897363169629 -313.68595046290926 0 -313.68595046290926 208.3668633496909 0 0 0 0 -0.25128398484729614 -1.6249674186739953 0 -1.6249674186739953 3.602753382793292 0 0 0 0 110.76774832705826 -247.10420495440758 0 -247.10420495440758 51.186595157866577 0 0 0 0 258.73259938118508 80.457861105644042 0 80.457861105644042 635.12424151711275 0 0 0 0 155.93216336116336 160.77526461890466 0 160.77526461890466 -17.903605363347197 0 0 0 0 247.83143407219086 591.63633761132314 0 591.63633761132314 826.67696218343053 0 0 0 0 167.22715540126592 573.87122083045733 0 573.87122083045733 545.19581911942714 0 0 0 0 120.13624440228364 -78.266793417015833 0 -78.266793417015833 -206.60764214744006 0 0 0 0 -61.235644746440471 612.58386576871771 0 612.58386576871771 551.58127908342658 0 0 0 0 1.4113404533049461 1.3470521552481953 0 1.3470521552481953 0.3280533067940874 0 0 0 0 -581.60632945904536 757.12698079515258 0 757.12698079515258 879.10923474225638 0 0 0 0 -207.86916879521891 -657.86075438566741 0 -657.86075438566741 1001.7194743250803 0 0 0 0 -921.36576038183875 564.29256834298576 0 564.29256834298576 1410.7292172032312 0 0 0 0 -250.46936739574369 670.8269202590709 0 670.8269202590709 617.17095771933782 0 0 0 0 28.457661926215906 -275.33140118302117 0 -275.33140118302117 131.81586650199893 0 0 0 0 -45.638173961216921 -171.44908292861965 0 -171.44908292861965 55.775914376773471 0 0 0 0 -93.037066852653766 -186.27557158396621 0 -186.27557158396621 78.163946696816311 0 0 0 0 -103.87920290960778 -130.92888321280543 0 -130.92888321280543 95.918311958736012 0 0 0 0 511.19634276623162 -402.82090785766695 0 -402.82090785766695 180.7802694475904 0 0 0 0 2.841384397579418 -132.91815582700451 0 -132.91815582700451 55.949164692769045 0 0 0 0 70.689233031357503 -220.41152368350913 0 -220.41152368350913 75.93344445041248 0 0 0 0 72.158072615912943 -220.22405576433721 0 -220.22405576433721 32.490399650509517 0 0 0 0 -202.21279562232243 -190.26314372782235 0 -190.26314372782235 588.65781144784251 0 0 0 0 20.542427165988244 393.53928880373473 0 393.53928880373473 76.680354639518555 0 0 0 0 402.3129862375003 222.74916394048921 0 222.74916394048921 -45.226754546407847 0 0 0 0 1.3422418671912466 -2.1437153981029398 0 -2.1437153981029398 9.3036603043308652 0 0 0 0 -35.462011361649346 -66.345094751907936 0 -66.345094751907936 97.098242519012274 0 0 0 0 -87.790523020264459 -0.68333338277307121 0 -0.68333338277307121 50.00045833401964 0 0 0 0 -3.5544540097305353 1.7869300438835105 0 1.7869300438835105 79.587499809974005 0 0 0 0 -189.57088297938893 35.73285005668231 0 35.73285005668231 166.87929180287165 0 0 0 0 -90.78111290901893 32.228558285207328 0 32.228558285207328 138.37038612884498 0 0 0 0 -309.70246642097663 -111.33283564386579 0 -111.33283564386579 -3.6922818205712247 0 0 0 0 -0.46323376378728964 7.991221557142179 0 7.991221557142179 6.5382654884226818 0 0 0 0 -295.11935625838794 14.409787056918958 0 14.409787056918958 251.44395343102678 0 0 0 0 -379.96622540165038 171.88695762894872 0 171.88695762894872 12.897361957171597 0 0 0 0 -1.4094944408638748 0.52936885430363834 0 0.52936885430363834 14.680450915959128 0 0 0 0 57.321111331072643 68.734561767376363 0 68.734561767376363 97.339918529617535 0 0 0 0 -14.36787418409228 34.304828612190995 0 34.304828612190995 10.66123573275158 0 0 0 0 -0.24948269799883604 16.837919129345984 0 16.837919129345984 -35.465415087637894 0 0 0 0 -19.142604223163289 54.017391437297192 0 54.017391437297192 193.41465804646123 0 0 0 0 42.480526828087932 98.4356745779005 0 98.4356745779005 146.08703183431498 0 0 0 0 18.71874885804209 -12.109280489004504 0 -12.109280489004504 47.887768910411978 0 0 0 0 -77.339565803994446 -25.363413751952066 0 -25.363413751952066 177.52976650392156 0 0 0 0 -1.4185067203981596 3.5140443386397457 0 3.5140443386397457 7.8639449938157568 0 0 0 0 -69.219497169426177 12.49132696360175 0 12.49132696360175 155.10167282866132 0 0 0 0 -39.63518398965607 14.885530989591643 0 14.885530989591643 88.288834787494125 0 0 0 0 -5.2013384398642302 -22.911494985710306 0 -22.911494985710306 129.0954373614004 0 0 0 0 -3.3972464778089488 -11.466745921999973 0 -11.466745921999973 98.840753340371066 0 0 0 0 -0.60335908703864405 -0.33956925600978849 0 -0.33956925600978849 0.22759816355039142 0 0 0 0 -3.7705691060154436 -16.112477714165379 0 -16.112477714165379 51.36963952723454 0 0 0 0 -10.165325676245629 -4.888327297289834 0 -4.888327297289834 112.41866941425178 0 0 0 0 -1.6673653480435551 0.1934550919431004 0 0.1934550919431004 10.056390588330771 0 0 0 0 -24.610612481968413 21.682308292419677 0 21.682308292419677 33.062705602527345 0 0 0 0 -7.4617392077443583 26.81825990402649 0 26.81825990402649 43.915834785206243 0 0 0 0 -16.621242975974383 8.0353810196647828 0 8.0353810196647828 51.145913828149787 0 0 0 0 -6.1547428757659155 29.392141947252533 0 29.392141947252533 16.849695320408351 0 0 0 0 -12.61678032833378 11.446574930858588 0 11.446574930858588 30.87194253131813 0 0 0 0 -22.177248839418539 3.6172073690975139 0 3.6172073690975139 70.388063392856012 0 0 0 0 -2.5933558976848872 35.179576929908762 0 35.179576929908762 46.071628642544965 0 0 0 0 -49.08848230669355 36.235147155757659 0 36.235147155757659 66.297698274380309 0 0 0 0 -97.631797315378876 55.191711435314801 0 55.191711435314801 107.83302770301043 0 0 0 0 -63.389118301973213 13.122963781539511 0 13.122963781539511 103.46444987595351 0 0 0 0 -7.1246312614035094 3.2166265860971945 0 3.2166265860971945 77.029388717108233 0 0 0 0 -49.862421827349408 -6.3267867908671178 0 -6.3267867908671178 97.572824784705517 0 0 0 0 -36.691620373618946 8.2837731325427058 0 8.2837731325427058 45.6187910139179 0 0 0 0 -1.3461708457420503 -4.4212165168215476 0 -4.4212165168215476 30.320610120401398 0 0 0 0 2.1621869029552272 -17.760390459165933 0 -17.760390459165933 63.52820314877431 0 0 0 0 -12.155755296083042 -14.732650085094523 0 -14.732650085094523 64.514324531106354 0 0 0 0 68.609294215231429 -28.493694061944325 0 -28.493694061944325 30.128312599948913 0 0 0 0 51.303218973241769 63.676501668024343 0 63.676501668024343 44.35063571353021 0 0 0 0 -29.635922982550397 105.4289188666778 0 105.4289188666778 89.148940930232129 0 0 0 0 -49.844265458257382 -9.261913237099634 0 -9.261913237099634 87.504092610444786 0 0 0 0 -36.8241188386055 -42.802515190556733 0 -42.802515190556733 31.981338947354743 0 0 0 0 -142.73324919724791 -30.993637032321203 0 -30.993637032321203 108.19800051166749 0 0 0 0 -188.47658886447425 -30.835698664221127 0 -30.835698664221127 164.87238394152155 0 0 0 0 -7.3174855398301588 -146.52472663560911 0 -146.52472663560911 165.57813627747964 0 0 0 0 45.910962697678769 114.6686401447223 0 114.6686401447223 180.95889892124978 0 0 0 0 -19.606124954822008 197.19437354468391 0 197.19437354468391 110.69137651481287 0 0 0 0 -11.951197312024162 -32.284469520562268 0 -32.284469520562268 103.64878624930137 0 0 0 0 -226.59584488789915 -136.51830311403864 0 -136.51830311403864 199.37183539842954 0 0 0 0 -3.3892609283229831 -132.87847048059484 0 -132.87847048059484 144.92880674604385 0 0 0 0 66.357098832553675 -27.52530085874605 0 -27.52530085874605 235.19677534764924 0 0 0 0 -36.58468936052941 -121.38252142951023 0 -121.38252142951023 227.78029153245734 0 0 0 0 -53.405253778527367 -74.138718606107432 0 -74.138718606107432 106.7012069143384 0 0 0 0 3.0951496398092786 -128.32825914249588 0 -128.32825914249588 127.03570897506143 0 0 0 0 -65.477209862937343 10.896057401834696 0 10.896057401834696 87.310435182407673 0 0 0 0 -149.57101706938511 107.61642662514396 0 107.61642662514396 -17.210908884335367 0 0 0 0 -1.3620684563988252 -1.1144774289449799 0 -1.1144774289449799 -0.45532383354854744 0 0 0 0 -6.8114912474853053 6.0435225729000219 0 6.0435225729000219 98.265459768348208 0 0 0 0 -20.567621946232975 2.0235026844347885 0 2.0235026844347885 142.64537137177831 0 0 0 0 -7.457611903960121 -4.2237389805529375 0 -4.2237389805529375 18.519327350359717 0 0 0 0 -56.482003076422188 22.076178763672942 0 22.076178763672942 45.805534607869049 0 0 0 0 -55.226818087538049 -28.577697921959043 0 -28.577697921959043 176.6338678333268 0 0 0 0 -67.018880287193042 34.313495990130832 0 34.313495990130832 132.82866076023492 0 0 0 0 -103.57334888570131 -11.919262668779993 0 -11.919262668779993 173.02381181112287 0 0 0 0 -0.1654048063274729 -3.9885949293792606 0 -3.9885949293792606 44.432609466750698 0 0 0 0 -139.57406158469257 -84.022225430800063 0 -84.022225430800063 148.96928220047266 0 0 0 0 -11.33186852772269 4.3545654859481147 0 4.3545654859481147 99.630601783178463 0 0 0 0 -26.233545408343488 32.78083900683928 0 32.78083900683928 29.84374933671014 0 0 0 0 1456.9327940810945 -251.43712674337257 0 -251.43712674337257 -404.41811841533138 0 0 0 0 -30.474446529851775 16.847323682606657 0 16.847323682606657 106.00173043917675 0 0 0 0 -13.352747096081657 39.208840167593735 0 39.208840167593735 106.53862644134307 0 0 0 0 -21.641921634055251 9.0437372920632697 0 9.0437372920632697 111.55460714994842 0 0 0 0 -7.6834519800659304 23.009065766043683 0 23.009065766043683 34.724865331414165 0 0 0 0 -33.032956278359052 29.488316084782127 0 29.488316084782127 55.928197729066596 0 0 0 0 -1.6694252520935855 13.6799675196647 0 13.6799675196647 17.796613637245883 0 0 0 0 -2.7978815001715702 6.0443922215999919 0 6.0443922215999919 41.581657924602041 0 0 0 0 16.148443861429769 18.726212909612514 0 18.726212909612514 14.966623448319297 0 0 0 0 -0.60501503107091992 -2.3933855709439342 0 -2.3933855709439342 27.182881211977104 0 0 0 0 -116.13025324789851 -37.340187716959917 0 -37.340187716959917 119.42961762436607 0 0 0 0 -2.4193488450205223 35.876921655543356 0 35.876921655543356 48.744179826499021 0 0 0 0 -154.83947396854273 64.142522701579765 0 64.142522701579765 245.64921980758663 0 0 0 0 216.24467602389359 -52.164054720153217 0 -52.164054720153217 -86.787725256028352 0 0 0 0 10.391007060168704 73.173536520080233 0 73.173536520080233 187.23421510496883 0 0 0 0 -25.799646001396468 -42.460759098863491 0 -42.460759098863491 226.48230513532326 0 0 0 0 0.18162829176887385 2.0810927357159414 0 2.0810927357159414 3.8175800914153477 0 0 0 0 38.003151787092065 -32.1272720356028 0 -32.1272720356028 47.130220650273259 0 0 0 0 51.78150876813379 -66.255865141898539 0 -66.255865141898539 105.12873072530783 0 0 0 0 109.001015398042 115.70822360810416 0 115.70822360810416 107.61465192421019 0 0 0 0 1.1017746171673819 1.6688035860872397 0 1.6688035860872397 1.8776981276474203 0 0 0 0 -1.9878541291847356 8.6491324744132427 0 8.6491324744132427 31.893010448601615 0 0 0 0 -46.896475877816556 -13.236248931214504 0 -13.236248931214504 32.079347955557751 0 0 0 0 -2.5479720628599125 11.948709985702635 0 11.948709985702635 46.106683397258166 0 0 0 0 -53.744053297989012 -17.686400369806506 0 -17.686400369806506 84.900200932060216 0 0 0 0 -46.369426198629299 -11.884514992947516 0 -11.884514992947516 89.420492693268898 0 0 0 0 -18.43785237470729 9.1351228683597583 0 9.1351228683597583 55.843795487046009 0 0 0 0 -49.450556297600997 6.6689281117578503 0 6.6689281117578503 132.79400985221582 0 0 0 0 -26.832552509874404 -22.183964847852621 0 -22.183964847852621 128.40232361698872 0 0 0 0 -71.634668374588273 -40.994140718544259 0 -40.994140718544259 121.09159566164453 0 0 0 0 0.279819813542872 -16.27836779228528 0 -16.27836779228528 67.143910428978415 0 0 0 0 -32.505312454454725 -41.335069958036911 0 -41.335069958036911 120.14221450625337 0 0 0 0 72.951561230378047 -32.486581885350461 0 -32.486581885350461 91.360995990755328 0 0 0 0 6.0483067514824143 -24.850628741382025 0 -24.850628741382025 22.576823582792713 0 0 0 0 -4.0452874196489574 -24.286222126156645 0 -24.286222126156645 69.138541440945119 0 0 0 0 -45.64007399174352 0.019729514431674033 0 0.019729514431674033 57.369961916854663 0 0 0 0 1.458486761921904 -11.628436849541686 0 -11.628436849541686 -3.4281312897364842 0 0 0 0 -29.463203950556817 -66.449005318241689 0 -66.449005318241689 7.2033172647979882 0 0 0 0 41.073930459466197 -169.09820686348257 0 -169.09820686348257 -296.7614591545389 0 0 0 0 9.9420603540003096 -19.131351472516172 0 -19.131351472516172 32.433404014955073 0 0 0 0 135.48783917398941 94.596518230808215 0 94.596518230808215 15.96499506022883 0 0 0 0 6.9027820424184068 -14.775480879203919 0 -14.775480879203919 24.29312833241454 0 0 0 0 -39.719058624669742 -134.00381345345158 0 -134.00381345345158 -10.565111568226712 0 0 0 0 49.162352225970608 19.705436680798812 0 19.705436680798812 -5.7979126406899013 0 0 0 0 41.688743595479536 22.673499463009648 0 22.673499463009648 47.6800927252973 0 0 0 0 62.632989313876351 111.18133997067116 0 111.18133997067116 66.695289508104906 0 0 0 0 74.615237378424354 51.140483422936086 0 51.140483422936086 -15.053799257260835 0 0 0 0 122.90975551178053 150.70573570127999 0 150.70573570127999 -19.695442029140395 0 0 0 0 68.873256096434943 198.21858205466833 0 198.21858205466833 195.5282308662172 0 0 0 0 80.801624503248604 156.7885380103944 0 156.7885380103944 270.1104382684789 0 0 0 0 5.7883035997765546 113.51119851435578 0 113.51119851435578 249.06690603623792 0 0 0 0 65.253159619700455 96.85324209286955 0 96.85324209286955 480.64598482387191 0 0 0 0 131.27466092956729 165.8185432398077 0 165.8185432398077 286.01601543250217 0 0 0 0 88.354529701964907 172.72435982288061 0 172.72435982288061 908.57098845868313 0 0 0 0 151.30025668764483 291.42282141988107 0 291.42282141988107 321.67405648610384 0 0 0 0 370.57521532133995 174.10642221773833 0 174.10642221773833 -275.72349403214685 0 0 0 0 423.86007541465256 449.61091023647714 0 449.61091023647714 179.28655713253102 0 0 0 0 8.1678865510378902 -20.758094224342571 0 -20.758094224342571 37.164669394204026 0 0 0 0 -1084.0402882224344 635.44680243824405 0 635.44680243824405 866.62671146628418 0 0 0 0 -35.747601334085743 -914.85190783558983 0 -914.85190783558983 544.21263406991784 0 0 0 0 -3.1219254806975067 -10.836105360066522 0 -10.836105360066522 11.290786998941542 0 0 0 0 10.051385182899139 -54.296768707290539 0 -54.296768707290539 14.359841248744488 0 0 0 0 -82.116485240396287 39.443031130562304 0 39.443031130562304 74.828413943958367 0 0 0 0 -208.83947987677311 13.390926665568259 0 13.390926665568259 120.26144685512554 0 0 0 0 -169.29920832823154 -13.048614486549923 0 -13.048614486549923 108.33051130113631 0 0 0 0 -26.045347877409846 -56.827344862827886 0 -56.827344862827886 53.359541095036548 0 0 0 0 -51.385159455699068 -27.380863847372439 0 -27.380863847372439 66.094973878072551 0 0 0 0 -64.766787100849001 -19.93920472433939 0 -19.93920472433939 95.002301538852407 0 0 0 0 -32.998131539588329 -74.691248309125967 0 -74.691248309125967 68.572762348929245 0 0 0 0 3.3193709136445806 -26.207891443305712 0 -26.207891443305712 85.887908482742191 0 0 0 0 -13.261484199392575 -12.160883572349892 0 -12.160883572349892 97.058562791724654 0 0 0 0 -115.51902933400947 41.124209332432883 0 41.124209332432883 93.795268139372638 0 0 0 0 -13.951739207637729 50.858034467531979 0 50.858034467531979 71.938749954257219 0 0 0 0 -8.89540686532564 56.505344473362129 0 56.505344473362129 45.829199241448805 0 0 0 0 -0.23266665622031724 65.554594835210082 0 65.554594835210082 46.964544849302001 0 0 0 0 -16.275112518974765 102.91658380923536 0 102.91658380923536 97.557869622731232 0 0 0 0 -88.060050826106817 54.817198798637037 0 54.817198798637037 77.85587641424172 0 0 0 0 -74.04642914132819 79.565608678740318 0 79.565608678740318 101.74523568429231 0 0 0 0 -123.37767960478959 98.759479228219789 0 98.759479228219789 192.57033082176349 0 0 0 0 19.313904974780598 118.01629756223338 0 118.01629756223338 65.764927506914319 0 0 0 0 -25.367315420290652 153.86989267804711 0 153.86989267804711 190.90926940656209 0 0 0 0 -86.437215624246164 99.737172593115247 0 99.737172593115247 205.50427797636939 0 0 0 0 -32.085094417499931 168.63159970690231 0 168.63159970690231 281.73514606870958 0 0 0 0 -109.68791245987541 132.20387521565317 0 132.20387521565317 250.38760848375023 0 0 0 0 -202.30686604491711 55.086350908746681 0 55.086350908746681 194.18671591245447 0 0 0 0 -331.53302719685962 66.871269290997589 0 66.871269290997589 273.81624561033459 0 0 0 0 -268.41305161352102 -39.852230088279612 0 -39.852230088279612 153.22992623118625 0 0 0 0 -330.63908794579038 45.952587252799276 0 45.952587252799276 383.88863375417714 0 0 0 0 -343.55918375073452 -85.825011740296759 0 -85.825011740296759 301.07679366114098 0 0 0 0 -23.458175418872802 32.109086743997835 0 32.109086743997835 11.952780136914257 0 0 0 0 -208.10403098279312 46.549000101273123 0 46.549000101273123 274.56389331760874 0 0 0 0 1.2646966424140134 -30.211860917516209 0 -30.211860917516209 86.267810976417081 0 0 0 0 -204.85185133656887 48.843829751802332 0 48.843829751802332 141.81769877777697 0 0 0 0 -164.94352285007881 23.137524085445875 0 23.137524085445875 119.30960490268626 0 0 0 0 -239.64571260977209 33.384224278363035 0 33.384224278363035 143.86364941640568 0 0 0 0 -181.59426793671491 -73.670417884794006 0 -73.670417884794006 165.91586693584395 0 0 0 0 -8.550155958473848 -10.556323913476705 0 -10.556323913476705 106.5335702622581 0 0 0 0 -107.30755683151972 -119.47862235966022 0 -119.47862235966022 182.98696617614769 0 0 0 0 -4.1929724363034859 -39.442421320961834 0 -39.442421320961834 188.86847612749014 0 0 0 0 -299.32944491725596 -68.022540725704403 0 -68.022540725704403 239.92469360608084 0 0 0 0 -498.0883697031386 19.182961084810813 0 19.182961084810813 429.74291366848047 0 0 0 0 -131.4091926572637 -44.679959282522759 0 -44.679959282522759 177.34426827541347 0 0 0 0 -76.3375316714951 -108.19063328410266 0 -108.19063328410266 84.509818384965001 0 0 0 0 -45.378381062655535 36.938319876753667 0 36.938319876753667 229.18501687875687 0 0 0 0 -83.684716748100556 -32.381871040790429 0 -32.381871040790429 128.28065491785628 0 0 0 0 -41.630794510697683 -1.3627981037379868 0 -1.3627981037379868 603.59163219794573 0 0 0 0 -148.44028986775135 -98.99699240801192 0 -98.99699240801192 339.49306746722868 0 0 0 0 150.30515439596729 -284.44216372710798 0 -284.44216372710798 403.63103296645568 0 0 0 0 0.8891654902089412 -3.0413594925785836 0 -3.0413594925785836 8.9818528062323111 0 0 0 0 378.6039166021219 218.14854323777126 0 218.14854323777126 -79.600366999729886 0 0 0 0 335.03790825690703 -174.74219816076857 0 -174.74219816076857 104.120710700161 0 0 0 0 160.80085468533889 -35.708230860938784 0 -35.708230860938784 -6.6588284432145883 0 0 0 0 9.5440701062921107 -164.47608929056878 0 -164.47608929056878 226.43505356813694 0 0 0 0 40.506669107772723 -120.59815461004928 0 -120.59815461004928 167.63495148755464 0 0 0 0 81.947695123839367 -173.16104866885871 0 -173.16104866885871 160.83685999862178 0 0 0 0 -107.59047827760043 -117.69680413518518 0 -117.69680413518518 207.87850102264929 0 0 0 0 48.803992838349586 -113.61516222324826 0 -113.61516222324826 79.54696716062972 0 0 0 0 -18.047706416857068 -80.618657109785545 0 -80.618657109785545 63.595217400230467 0 0 0 0 32.153991474795475 -73.804426148915809 0 -73.804426148915809 52.176617601018734 0 0 0 0 4.0195132281241968 -20.075239044577756 0 -20.075239044577756 25.613592584457365 0 0 0 0 42.747393974437728 -27.68640875001438 0 -27.68640875001438 25.494890370311623 0 0 0 0 4.2065118478926706 286.4438750083018 0 286.4438750083018 -5.015495357583859 0 0 0 0 -1.4390371995219269 -10.404027043238219 0 -10.404027043238219 22.544727248212183 0 0 0 0 -21.42269702698718 -23.191822941262217 0 -23.191822941262217 58.155775947617713 0 0 0 0 -11.135037845607794 -11.171817072164423 0 -11.171817072164423 0.050244669870799896 0 0 0 0 -23.825746122673376 -44.067385565641871 0 -44.067385565641871 63.273956860741237 0 0 0 0 -1.7197272280284235 -3.4731751571450689 0 -3.4731751571450689 53.951056546352191 0 0 0 0 -66.489122423763092 -27.427664977927634 0 -27.427664977927634 70.742095770727246 0 0 0 0 -4.9342197448020411 -12.988678876500316 0 -12.988678876500316 9.643307292308041 0 0 0 0 10.232914837931503 -48.230873588956456 0 -48.230873588956456 53.44048190920148 0 0 0 0 13.58077226959756 -41.265153950760578 0 -41.265153950760578 67.757061045423598 0 0 0 0 -20.536443129373083 -61.456371337956625 0 -61.456371337956625 67.862672666156868 0 0 0 0 -323.30866630630067 262.40148654754921 0 262.40148654754921 375.50654585086886 0 0 0 0 18.957663947428046 -311.38626773812211 0 -311.38626773812211 -15.415015690199652 0 0 0 0 -0.20839829081004557 0.15502882537267038 0 0.15502882537267038 4.9097133165923452 0 0 0 0 220.25677417969564 -1.3407654207621817 0 -1.3407654207621817 -205.44311114563607 0 0 0 0 199.22588441987955 -118.62335851197531 0 -118.62335851197531 -274.38039419081906 0 0 0 0 -505.97286801129576 -259.64111302200035 0 -259.64111302200035 702.28054644510848 0 0 0 0 3.4580114160917219 336.53253811990362 0 336.53253811990362 -172.91860280107358 0 0 0 0 -534.49194509166045 33.983689721861083 0 33.983689721861083 304.54611447640491 0 0 0 0 -113.68908843657937 -320.89553877420622 0 -320.89553877420622 371.0338751614072 0 0 0 0 4.5955673734198692 -18.226022329513725 0 -18.226022329513725 61.679272225764052 0 0 0 0 -246.44581937472958 -65.507577258569654 0 -65.507577258569654 30.616167078143917 0 0 0 0 -513.59390444488099 6.9613348562452302 0 6.9613348562452302 312.98702762160246 0 0 0 0 63.819168353509212 257.88504001276306 0 257.88504001276306 181.05982456438505 0 0 0 0 80.191577507432726 9.3882871197720306 0 9.3882871197720306 -90.154426994093228 0 0 0 0 48.040333224349524 -56.505488572747709 0 -56.505488572747709 169.48721079732604 0 0 0 0 50.004613030453584 12.12999852179928 0 12.12999852179928 -501.42866501859316 0 0 0 0 -462.80247704170597 243.9736718373897 0 243.9736718373897 679.16070501768627 0 0 0 0 -720.73737963625672 -233.91755726177871 0 -233.91755726177871 412.73241330307792 0 0 0 0 5.7505200865335588 -20.287918117309935 0 -20.287918117309935 55.062505143521918 0 0 0 0 -7.0261921987804659 3.7070054407478068 0 3.7070054407478068 3.0281284898320138 0 0 0 0 4.2720891417185953 46.600886478245229 0 46.600886478245229 -31.129636138175556 0 0 0 0 37.401350496628538 -92.952085035914934 0 -92.952085035914934 -54.14273646887159 0 0 0 0 -116.62268902011988 55.946570686250197 0 55.946570686250197 94.367095341127424 0 0 0 0 0.23600568424218604 -0.58753402587011294 0 -0.58753402587011294 -0.44466494392703737 0 0 0 0 3.5693417797160691 51.566756449035893 0 51.566756449035893 -22.920892236325017 0 0 0 0 -4.7899149981863047 56.315295406646328 0 56.315295406646328 28.029754045121081 0 0 0 0 -15.689003956765191 -30.010125271342986 0 -30.010125271342986 107.78517426136386 0 0 0 0 -38.255359341403619 22.816475041647209 0 22.816475041647209 59.33922643481128 0 0 0 0 -368.11348255419989 105.23019983947052 0 105.23019983947052 145.41679970387486 0 0 0 0 -1.2802954317570476 6.0698341020651512 0 6.0698341020651512 21.553390571443089 0 0 0 0 -10.113469317283943 28.66936405794695 0 28.66936405794695 14.857858991961621 0 0 0 0 51.754116528004829 113.91973772144547 0 113.91973772144547 12.520557319207001 0 0 0 0 -6.0236999233102324 19.538424859420047 0 19.538424859420047 -11.943238877787735 0 0 0 0 -4.7275161579505287 5.8479742244492883 0 5.8479742244492883 -2.2130019288337479 0 0 0 0 192.08924269577099 -51.068847198294861 0 -51.068847198294861 139.16878408966295 0 0 0 0 230.30552742806799 -116.30658791432506 0 -116.30658791432506 -18.00778370599437 0 0 0 0 136.29202907990702 203.29629422705511 0 203.29629422705511 -3.319579030314344 0 0 0 0 -232.90142563235463 397.28268040221155 0 397.28268040221155 -39.075458040999365 0 0 0 0 -0.049784229739716856 9.8172365668990125 0 9.8172365668990125 24.545212215400454 0 0 0 0 -264.62428148446713 271.80703304956114 0 271.80703304956114 73.30081480165245 0 0 0 0 -24.667427639515154 23.039069113998266 0 23.039069113998266 -187.00552165707632 0 0 0 0 -224.5009837883506 -6.1105467650777427 0 -6.1105467650777427 -176.9929420871631 0 0 0 0 -166.63480622207612 168.3982758369566 0 168.3982758369566 290.94574784301221 0 0 0 0 -59.475246284693185 -43.876704168113065 0 -43.876704168113065 143.50523121081642 0 0 0 0 -30.805695551018744 33.986403326533036 0 33.986403326533036 354.82858775617206 0 0 0 0 195.63902359277563 -65.404722198349191 0 -65.404722198349191 295.00836249939312 0 0 0 0 4.5746208851051051 91.956024392362451 0 91.956024392362451 -23.19074092768642 0 0 0 0 63.791048940524888 255.15949500533316 0 255.15949500533316 424.7730241807003 0 0 0 0 190.61508671004771 104.74334958242252 0 104.74334958242252 405.85901688359445 0 0 0 0 603.43205937186849 262.84835730094346 0 262.84835730094346 322.3637102824141 0 0 0 0 305.87197712084071 -4.958793827550835 0 -4.958793827550835 115.84751294604212 0 0 0 0 199.29808038755559 -8.8051660533092218 0 -8.8051660533092218 1029.2874334848602 0 0 0 0 1061.5896095784935 -309.08425167012319 0 -309.08425167012319 236.58776480237429 0 0 0 0 106.76819225524599 24.048894170802669 0 24.048894170802669 244.56688678226783 0 0 0 0 656.28244971156369 364.93630271444636 0 364.93630271444636 280.94947307402617 0 0 0 0 649.04408571364706 -275.80912899660325 0 -275.80912899660325 210.85497405588831 0 0 0 0 369.37675117263757 -114.53325015952578 0 -114.53325015952578 26.82087992077868 0 0 0 0 228.93642868753727 13.961416291211208 0 13.961416291211208 108.97290517687725 0 0 0 0 525.17625428231031 65.065323829992849 0 65.065323829992849 117.46325015027105 0 0 0 0 300.11716492832466 -58.161170456081891 0 -58.161170456081891 83.924588087735174 0 0 0 0 350.32524808739367 -140.30184618852218 0 -140.30184618852218 210.27346370604391 0 0 0 0 61.750394760897962 -249.74930185750782 0 -249.74930185750782 281.31025811961445 0 0 0 0 -281.44898178535368 -21.082333819722407 0 -21.082333819722407 225.1763043948522 0 0 0 0 -21.804314745239026 -103.68711251872992 0 -103.68711251872992 69.623441700154217 0 0 0 0 -220.24355078509507 -98.54832816949056 0 -98.54832816949056 88.209709589256818 0 0 0 0 48.833875278643461 -292.25892131769024 0 -292.25892131769024 -150.16458673487796 0 0 0 0 1.8395042703864544 -1.0485987434722261 0 -1.0485987434722261 0.37855690135972964 0 0 0 0 72.853685181810775 -171.4367838043695 0 -171.4367838043695 101.01793476239982 0 0 0 0 146.26337635152706 -33.904740610989393 0 -33.904740610989393 270.1064698219634 0 0 0 0 291.84357740053065 38.242654639634566 0 38.242654639634566 27.32304237794051 0 0 0 0 -0.21514705197625528 2.1539185955900066 0 2.1539185955900066 3.0833123482471194 0 0 0 0 -247.52457739937836 -0.14115188248979393 0 -0.14115188248979393 -21.508380608873267 0 0 0 0 2.1833245741840983 -28.793494491539604 0 -28.793494491539604 319.79106145412516 0 0 0 0 -223.82249355696194 -144.18039385785232 0 -144.18039385785232 -2.3465864743484417 0 0 0 0 1.06651191633211 -1.3506011508823121 0 -1.3506011508823121 6.4619737343378745 0 0 0 0 31.22026367770718 253.54528089918313 0 253.54528089918313 568.01777348808537 0 0 0 0 -31.540802324416291 122.07008771883557 0 122.07008771883557 351.82243496721185 0 0 0 0 -112.18907723313464 -184.06136728802085 0 -184.06136728802085 66.1554280640039 0 0 0 0 161.04785712050813 132.32579387554642 0 132.32579387554642 116.51747140989028 0 0 0 0 -41.205802978510292 41.43298878623682 0 41.43298878623682 -13.968257411775994 0 0 0 0 -83.706854570759788 -119.22779619667563 0 -119.22779619667563 -239.56981357363838 0 0 0 0 -15.535682811473016 4.8077078199773666 0 4.8077078199773666 3.5976135999521119 0 0 0 0 94.040926733517267 82.198812381200696 0 82.198812381200696 238.91883961139865 0 0 0 0 139.23060435619794 82.815640138036542 0 82.815640138036542 144.16823024188488 0 0 0 0 114.22394867984508 106.39216681330618 0 106.39216681330618 120.27348979912495 0 0 0 0 11.777410314253075 -147.2287117767446 0 -147.2287117767446 304.52417604500079 0 0 0 0 -27.709253708387678 -290.00608366589586 0 -290.00608366589586 -438.34897568621818 0 0 0 0 -181.61993591618352 -28.95150201505021 0 -28.95150201505021 119.70185791372205 0 0 0 0 106.19991721638974 -21.374804915049026 0 -21.374804915049026 3.3582706708293699 0 0 0 0 111.76406233587704 38.558428960852325 0 38.558428960852325 182.76379911772165 0 0 0 0 4.5910902531250493 31.407077655605459 0 31.407077655605459 131.12010521481579 0 0 0 0 239.49098956026143 204.20413596446997 0 204.20413596446997 -208.45222265471966 0 0 0 0 407.99357820210975 -115.49358269878212 0 -115.49358269878212 -39.737459140360443 0 0 0 0 165.12504168435049 -203.86166183370369 0 -203.86166183370369 291.66326700016361 0 0 0 0 -146.31852924083731 34.313643357043134 0 34.313643357043134 331.41509188295458 0 0 0 0 -164.32207670693066 -267.11126464379515 0 -267.11126464379515 359.7033052742554 0 0 0 0 26.548859970866033 0.80635164316481678 0 0.80635164316481678 335.5468195749927 0 0 0 0 -0.65004353790144531 28.714709694825338 0 28.714709694825338 155.4275335847496 0 0 0 0 -84.214551820152792 18.01481405397044 0 18.01481405397044 404.03726854455454 0 0 0 0 24.227990032001799 -79.314061338856845 0 -79.314061338856845 131.68357164305053 0 0 0 0 -3.2673932897102329 2.5451687605606423 0 2.5451687605606423 -2.3206393742409261 0 0 0 0 -70.897972359700361 43.049596134149397 0 43.049596134149397 340.26748641640734 0 0 0 0 -70.409863249462433 53.082065691338357 0 53.082065691338357 298.80677174642369 0 0 0 0 -33.867015635590178 49.325880149590375 0 49.325880149590375 320.97105101002671 0 0 0 0 -54.719568441717456 122.94784151842759 0 122.94784151842759 305.14514600182156 0 0 0 0 -29.058869354199487 73.941397015587427 0 73.941397015587427 196.03584570235898 0 0 0 0 -45.292200195119221 68.479237900275621 0 68.479237900275621 150.37012071424203 0 0 0 0 3.3699522873012029 198.61879150184541 0 198.61879150184541 391.47129884047172 0 0 0 0 160.85146612962762 -235.579864333773 0 -235.579864333773 33.21570182821597 0 0 0 0 -6.0158020408211899 -1.5203337585298939 0 -1.5203337585298939 5.4601560100309428 0 0 0 0 110.55118301614584 128.4609408641445 0 128.4609408641445 53.693189377547242 0 0 0 0 6.4765653456534427 -27.434519991987944 0 -27.434519991987944 62.740838104598069 0 0 0 0 -3.1579266840891167 -12.308273167583796 0 -12.308273167583796 66.192280074975002 0 0 0 0 -457.3220346606995 71.26957189355744 0 71.26957189355744 438.60689093504334 0 0 0 0 -281.2512635734912 -34.689239207387772 0 -34.689239207387772 166.29139756112636 0 0 0 0 -166.01000839189442 -33.655141233555696 0 -33.655141233555696 59.830574235224049 0 0 0 0 -184.83064648290519 -142.06453317947125 0 -142.06453317947125 246.44077124245996 0 0 0 0 -63.951740503376413 -19.82399815812596 0 -19.82399815812596 64.186968794475433 0 0 0 0 -66.529386148838512 -5.0538773381390456 0 -5.0538773381390456 514.52546778843589 0 0 0 0 302.67765014782861 -170.48021258195286 0 -170.48021258195286 109.75140111101246 0 0 0 0 67.662437846141302 -22.71575264807052 0 -22.71575264807052 39.102162999890425 0 0 0 0 78.282444277167315 -125.85215715461345 0 -125.85215715461345 38.45382695776425 0 0 0 0 -69.785832155037497 -134.37057867701969 0 -134.37057867701969 64.413207826007238 0 0 0 0 -3.6413221005182095 -78.432187131791579 0 -78.432187131791579 32.50421545370591 0 0 0 0 -66.851393263082457 -76.682224478412394 0 -76.682224478412394 48.858250259987472 0 0 0 0 -110.7966664508333 -99.344622952531608 0 -99.344622952531608 21.88407115314476 0 0 0 0 -102.85256643878938 -57.101951802933399 0 -57.101951802933399 51.156422887046574 0 0 0 0 32.653601221083022 -54.775300789795438 0 -54.775300789795438 34.319672559116952 0 0 0 0 19.942941081759955 -47.513022369352257 0 -47.513022369352257 44.265778474493345 0 0 0 0 29.847411536738491 -45.58157233487691 0 -45.58157233487691 24.410043465170929 0 0 0 0 8.6883100627805234 -36.951000645750128 0 -36.951000645750128 35.383362505988771 0 0 0 0 -20.138572412236499 -43.411883876233333 0 -43.411883876233333 48.243429618161827 0 0 0 0 -13.575477768950805 -50.816343034903184 0 -50.816343034903184 46.446465868757514 0 0 0 0 18.642939506156154 -31.474395675849792 0 -31.474395675849792 50.121764605915814 0 0 0 0 16.696391758485362 -30.361628040873256 0 -30.361628040873256 65.387022608862253 0 0 0 0 -58.411081380501628 -14.211969712183873 0 -14.211969712183873 76.372949714066635 0 0 0 0 -119.96627886409533 3.8180597206483071 0 3.8180597206483071 110.80520324893587 0 0 0 0 -87.32978286551679 -61.617467636966467 0 -61.617467636966467 56.433576081268257 0 0 0 0 -2.9808018390418995 -0.057765848621421867 0 -0.057765848621421867 20.839207826420846 0 0 0 0 -27.164362384053675 -56.832180395678733 0 -56.832180395678733 33.771305553806087 0 0 0 0 -30.766611692128208 -35.516472935705679 0 -35.516472935705679 68.132605987924762 0 0 0 0 -26.291509136985042 158.14086638989829 0 158.14086638989829 8.2358362519553339 0 0 0 0 -13.295321168624209 -1.2909609826166726 0 -1.2909609826166726 15.788823635763265 0 0 0 0 -3.1554375752475838 -3.3078122069623177 0 -3.3078122069623177 59.098340240885769 0 0 0 0 -95.050349584531432 -12.68955480270597 0 -12.68955480270597 10.207895301864482 0 0 0 0 -103.88984202577103 -40.845267976863397 0 -40.845267976863397 119.84860369465605 0 0 0 0 -205.52998250130565 26.544656367683274 0 26.544656367683274 90.124203244835371 0 0 0 0 -351.91270697280061 -248.55683104708442 0 -248.55683104708442 148.72933940367147 0 0 0 0 -3.8303489134476325 -15.492211087245808 0 -15.492211087245808 53.232484983348527 0 0 0 0 -166.323850341053 -102.62243282711006 0 -102.62243282711006 74.647847445397929 0 0 0 0 -10.46622413901189 -10.932265692529315 0 -10.932265692529315 60.413415389728939 0 0 0 0 -5.8814867682379628 -23.597148661891715 0 -23.597148661891715 66.43968606691331 0 0 0 0 -90.619064933661775 -15.000243771159148 0 -15.000243771159148 23.727371557266451 0 0 0 0 -171.16494935471565 97.760330664135836 0 97.760330664135836 100.40755512855321 0 0 0 0 -54.38272086751428 26.659762800338655 0 26.659762800338655 10.741248792026866 0 0 0 0 -41.758675465861586 -0.39729617770032633 0 -0.39729617770032633 128.22780918169164 0 0 0 0 
</DataArray>
<DataArray type="Float64" Name="cross_section_updated" format="ascii">
1 1 1 1 1 1 0.0095953900543655525 1 1 1 1 1 0.0090893561997057379 1 1 0.0095505303837627141 1 1 1 0.0090444965291028648 1 1 1 1 1 1 1 1 1 1 1 1 1 1 1 1 1 1 1 1 1 1 1 1 1 1 1 1 1 1 0.0076606875162444146 1 0.01029039461877667 1 1 1 0.023404752828450268 1 1 1 1 1 1 1 0.021688104649726488 1 1 0.0093345670988627932 1 1 1 1 1 1 1 0.010085872404007086 1 1 1 1 0.010388672967986883 1 1 1 1 1 0.010727428169340102 1 1 1 0.0103046311550146 1 1 1 1 1 1 1 1 1 1 1 1 1 1 1 1 1 0.0098290218010909109 1 1 1 1 0.0097201385186063763 1 1 1 1 1 1 0.0077691798608613017 1 1 1 0.017626504910119543 1 0.013027676847617117 1 0.011024266859689259 1 1 0.022809800404174393 1 1 1 1 1 1 1 0.010658677393002013 1 1 1 1 1 1 1 1 1 1 1 1 0.010159714415580289 1 1 1 1 1 1 1 0.0056812294470854983 1 1 1 1 1 1 1 1 0.0099183358931044172 1 1 1 1 1 1 0.010123194654068891 1 1 1 1 1 0.0097786239957551157 1 0.0054095525874366746 1 1 1 1 1 0.0050237245933607028 1 0.022478758489207579 1 0.01011144985969633 0.010096991379944067 1 1 0.0095548602345483218 1 1 1 1 1 1 1 1 1 1 1 1 1 1 1 1 1 1 1 1 1 1 1 1 1 1 1 1 1 1 1 1 1 1 1 1 1 0.0092139336777054947 1 0.0097964929843089316 1 1 1 1 1 1 1 1 1 0.01743776884233882 1 0.018767120329739942 1 1 1 1 1 0.010040562456965808 1 1 1 1 0.022465429358989295 1 1 1 1 1 1 1 1 1 1 1 0.010071072349503728 1 1 0.010194267003572625 1 1 1 1 1 1 1 1 1 1 1 1 1 1 1 1 1 1 1 1 1 1 1 1 1 1 1 1 1 1 1 1 1 1 1 1 1 1 1 1 1 1 0.013995140013300322 1 1 1 0.011686362696598271 1 1 1 0.016624222108183498 1 1 1 1 0.016664222710873186 1 1 1 1 0.027751601054890676 1 1 1 1 1 1 1 1 1 1 1 0.029826913899863722 1 1 1 1 1 1 1 1 1 1 1 1 1 1 1 1 1 1 1 1 1 1 1 1 0.014747199563495558 0.02462547194946681 1 1 1 1 1 1 1 1 1 1 0.011587253147611989 1 1 1 1 1 1 1 1 1 1 1 1 1 1 1 1 1 1 1 1 1 1 1 0.010494486337688562 1 1 1 0.0103007871472642 1 1 1 1 1 1 1 0.009793117041447634 1 1 1 1 1 1 1 1 1 0.010193699190424371 1 1 1 0.011872711679739141 1 1 1 1 1 1 1 0.012178738071899023 1 1 1 1 1 1 1 1 1 1 1 1 1 1 1 1 1 1 0.011298108634521013 1 1 1 1 1 1 1 1 1 1 1 1 1 1 1 1 1 1 1 1 0.019503092053176664 1 1 1 0.009949852082225201 1 1 0.014902937397075378 1 0.013063660647970737 1 1 1 0.013796434166489187 1 1 1 1 0.011020494569959627 1 1 1 0.01154203062265078 1 1 1 1 1 0.010117096488089977 1 1 1 1 1 1 1 1 0.0096247154069758981 1 1 1 1 1 1 1 1 1 1 1 1 1 1 1 1 1 1 1 1 1 1 1 1 0.0075868818629486329 1 0.01769446284569072 1 1 1 1 1 1 1 1 0.012840054679197375 1 1 1 1 1 0.030158528753184637 1 1 1 1 1 1 0.039562086177908656 1 0.011756224278235685 1 1 1 1 1 1 1 1 1 1 1 1 1 1 1 1 1 1 1 1 1 1 0.010082382942057898 0.010306870503447085 1 1 1 0.019268217070435727 1 1 1 1 0.010742040341629573 1 1 1 1 1 1 1 1 0.0093604472678037853 1 1 1 0.0091923219064797314 1 1 1 1 1 1 1 1 0.010948308302723579 0.0097126538641022428 1 0.012108975221139233 1 1 0.01090998368458905 1 0.013952766211276821 1 1 1 1 1 1 0.010034933560357708 1 1 1 1 1 0.01000789466939115 1 1 0.012752018228134272 1 1 0.020687370568821702 1 1 1 0.010143609008802491 1 1 1 1 1 1 1 1 1 1 1 1 1 1 0.011639702835411408 1 1 1 1 1 0.015665688910221291 1 1 1 0.011278200830427874 1 1 0.0099980198110597024 0.010482848809953184 1 1 1 1 1 1 1 0.013812387445194155 1 1 1 1 0.033461100254107576 1 1 1 1 0.029266196283457002 1 1 1 1 1 1 1 1 1 0.025664549915840672 1 1 1 1 1 1 0.013770722833840308 1 1 0.014760783780228886 1 1 1 1 1 0.037802189859624656 1 1 0.01238475597482076 1 1 1 1 1 1 1 1 0.015280679119284924 0.014054545336055838 1 1 1 1 1 1 0.012015577521651222 1 1 1 1 1 1 0.010345741094141275 1 1 1 1 1 1 0.037494960759100637 1 1 1 1 1 1 1 1 1 1 0.031355886078317616 1 1 1 1 1 0.010328897093969856 1 1 0.011617670248108813 1 1 1 1 1 1 0.011593328744083441 1 0.0099987616281622411 1 1 1 0.0018960506716819581 1 1 0.0075046729122894822 1 1 1 1 1 1 1 1 1 1 1 1 1 0.010450192098861529 1 1 1 0.009871202757671213 1 1 1 1 1 1 1 1 1 1 0.010723374708708489 1 1 1 1 1 1 1 1 1 1 1 1 1 1 1 1 1 1 0.010961588335474334 1 1 0.010511396236612805 1 1 1 1 1 1 1 1 1 1 1 1 1 1 1 1 1 0.01072150215949743 1 1 1 1 1 1 1 1 1 1 1 1 1 0.013352574367081396 1 1 1 1 1 1 1 1 1 1 1 1 1 1 1 1 0.01131360655267679 1 1 1 0.011329655593175128 1 1 1 1 1 1 1 0.035259188283055007 1 1 0.010923012983257249 1 0.010052669566959112 1 0.008793214510396271 1 0.010432246790918018 1 1 1 1 0.010093041208467809 1 1 1 1 1 1 0.0097124241647855904 1 1 0.010132775609482125 1 1 1 1 1 0.01959309808698783 0.02255334999648902 1 1 1 1 1 1 1 1 1 1 1 1 1 1 1 1 1 1 1 1 1 1 1 1 0.01031094165420884 1 1 1 1 1 1 1 1 1 1 1 1 1 1 1 1 1 1 1 1 1 1 1 1 1 1 1 1 1 0.011101321840918586 1 1 1 1 1 1 1 1 1 1 1 0.0076457731066006248 1 1 1 1 1 1 0.0080741896190799477 1 1 0.015685326498153063 1 0.010070886071566205 1 1 1 0.013584935795551945 1 1 1 0.010487090411630312 1 1 0.0090260806839049107 1 0.021320166472752422 1 1 0.022745541327277831 1 1 0.0098921485442510677 1 0.0092038909290309955 1 1 1 1 1 0.009940788340300391 1 0.012146185183406804 1 1 1 1 0.016022631820368304 0.016425529420068759 1 1 0.010190314184548618 1 1 0.010398307956073981 1 0.014959607357330287 1 1 0.010050245696535703 1 1 1 0.013685738654769703 1 1 0.0099664654446779063 0.0070430886627389664 1 1 1 0.020355399101104444 0.01071572013735329 1 1 1 1 1 1 1 1 0.011187526231898949 1 0.012794481244306542 1 0.011350920528175405 1 0.011235643799132264 1 0.021327915101356655 1 0.011820237344073836 1 1 1 0.01038915588980854 1 1 0.015184180548552894 1 1 0.010121825721634429 1 0.014321066255541878 0.011550478176212287 1 0.01430309546892191 0.01001741386084082 1 1 0.01685839598263842 1 0.013950924350880292 1 1 1 1 1 1 1 0.010563341699771647 1 1 1 1 0.0094822026888127225 1 1 1 1 1 1 1 1 1 0.0075295194097610291 1 0.0080906174475499255 1 1 1 1 1 1 1 1 1 1 1 1 1 0.016022353332090421 1 0.0099601583738455745 1 1 0.013719502984598293 1 1 1 0.0083637446083709693 1 1 1 1 1 1 1 0.016082028083849981 1 1 1 1 1 0.0076107969197516234 0.016157297758439014 1 1 1 1 1 1 1 0.011380885823703703 1 1 1 0.015061917345441884 1 1 1 1 1 1 1 1 1 0.0092496638394260859 1 1 1 1 1 1 1 1 1 1 1 0.019885116066691626 1 1 1 1 1 1 0.024802215018562231 1 1 1 1 0.011394695028432177 1 1 1 1 1 1 1 1 1 1 1 1 1 1 1 1 1 1 1 0.0090208394167040178 1 1 1 1 0.012767632905159502 1 1 1 1 1 1 1 1 1 1 1 1 1 1 1 0.040200267876794052 1 1 0.014509984101536665 1 0.0089073075501620424 1 1 1 1 1 1 0.041139170130770619 1 1 1 1 1 0.010407137903959611 1 1 1 1 1 0.010646508749788092 0.010767711520182468 1 1 1 1 1 1 1 1 1 1 1 1 1 1 1 1 1 1 1 1 1 0.010609911147918124 1 1 1 1 1 1 1 1 1 1 1 0.010284586007207325 1 0.010006092560817661 1 1 1 1 0.0079706852933491036 1 1 0.012762053241141416 1 1 0.012413031110859302 1 1 0.0089420353744368714 1 1 1 1 1 1 0.0084808132600608602 1 1 1 1 1 1 1 0.012075965475880758 1 1 0.0058672009459961819 1 1 0.014503014113311449 1 1 1 1 1 0.031818609884145199 1 1 1 1 1 1 1 1 1 1 1 1 0.03732871992810724 1 1 1 1 1 1 1 1 1 1 1 1 1 1 0.011891184686567562 0.0054752453260721954 1 1 0.008699161967671995 1 0.012827189950725014 1 0.028688824256896988 0.0095613098525392862 1 1 1 1 0.011219186996217777 0.010175827032222379 0.014281943744189618 1 1 0.015984667535326902 1 1 0.011642664007100866 1 1 1 1 0.009997132567241997 1 1 1 1 1 1 1 0.016628351257062135 1 1 0.010027670034736933 0.01336803369767086 1 1 0.010465434969541706 1 0.016218183767657077 1 1 1 1 1 1 1 1 1 1 1 1 1 1 1 1 1 1 1 1 1 0.014234729570880128 0.011088651571602427 1 1 1 1 1 1 1 1 1 1 0.012723350624096888 1 1 1 1 0.013830641888168557 1 1 1 1 1 1 0.010030357212340971 1 1 1 0.010180051848709275 1 1 1 1 1 1 0.0090539896183832579 1 1 1 1 1 1 0.011270431031396275 1 1 0.010543766880411391 1 1 1 1 1 1 1 1 1 1 1 1 1 1 1 1 1 1 1 1 1 1 1 1 0.010513168180485602 1 1 1 1 1 1 1 1 1 1 1 1 1 0.010695829458810579 1 0.012147981803663379 1 1 1 1 1 1 1 1 1 1 1 1 1 1 1 1 1 0.010261522200129115 1 1 1 0.010754046772218008 1 1 1 0.011243790219095152 1 1 1 1 0.01130334582371457 1 1 1 1 1 1 1 1 1 1 1 1 1 1 1 1 1 1 1 1 1 1 1 1 1 1 1 1 1 1 1 1 1 1 1 1 1 0.011158381238099152 1 1 1 1 1 1 1 0.0093437214489199404 1 1 0.0095430147989338972 1 0.013035529755689224 1 1 1 1 1 0.010350050634979834 1 1 1 0.011441953369851154 1 1 1 1 1 1 1 1 1 1 1 1 1 1 1 1 1 1 1 1 0.010255209415479929 1 1 1 1 1 1 1 1 1 1 1 1 1 1 1 1 1 1 1 1 1 1 1 1 1 1 1 0.020912552990346951 0.010248970129270622 1 1 1 1 1 1 0.010016357315791423 1 1 1 1 1 1 1 0.017269457623216043 0.01010668497085279 1 1 0.017545231301557308 0.016889020606222639 1 1 1 1 0.018133419850376351 0.012869782231582047 1 1 1 1 1 0.007484404703281048 1 1 1 0.0092122859523159645 1 1 1 1 1 1 1 1 1 0.010619123762754142 1 1 1 0.0076257464854537702 1 1 0.024950146624959642 1 0.018099167572979229 1 0.0089520740939622 1 0.022664269054150067 0.011749370344554203 1 1 0.022199110674200377 0.013088910920013533 1 1 1 1 1 1 0.039163843361367523 1 0.0097436500136204134 1 1 1 1 0.011012201419121863 1 1 1 1 1 1 1 0.04121427349184198 1 0.010453612575866184 1 1 1 1 1 1 1 1 1 1 1 1 1 0.010795434788956389 1 0.01019882652745541 1 1 1 1 1 1 1 1 1 1 1 1 1 0.010526286666183634 1 1 1 1 1 1 1 1 1 1 0.0090743995275034024 1 1 1 1 1 1 1 1 1 1 1 1 1 1 0.0099986513959965679 1 0.012861562973613839 1 1 1 0.011252744190292364 1 1 1 1 1 1 1 1 1 1 1 1 1 1 1 0.011635027634521736 0.010085017849465132 1 1 1 1 1 1 1 1 1 1 1 1 1 1 0.0064398612851826915 1 1 1 1 1 0.010548588869709554 1 1 1 1 1 1 0.017645933605748829 1 1 1 1 1 1 1 1 1 1 1 1 0.0084471134492825825 1 1 1 1 1 1 0.010028048924445705 1 1 1 0.0098351929311796642 1 1 1 1 1 0.010403801955854252 1 1 1 0.0078546855157742203 1 1 1 1 1 1 1 1 1 0.010728947257568854 1 1 1 1 1 1 1 1 1 1 0.010240391857597239 1 1 1 0.013572994991596161 1 1 1 1 1 1 1 1 1 1 1 1 1 1 1 1 1 1 1 1 1 1 1 0.014247798865384324 1 1 1 1 1 1 1 1 1 1 1 1 1 1 1 1 1 1 1 1 1 1 1 1 0.010112993028581284 1 1 1 1 1 1 1 0.010569581173330758 1 1 1 0.0099032240395454437 1 1 1 1 1 1 1 1 0.009242661231982148 1 0.010428917702845403 1 1 0.010127279360801688 1 0.012728865078445294 1 1 1 1 1 1 0.011396699998146654 1 1 1 0.010969212435735339 0.010843744500190036 1 0.01184162945444469 1 1 1 1 1 0.011702883265558333 1 1 1 1 1 1 1 1 1 1 1 1 1 1 1 0.0095636846238893389 1 1 0.029498683357966543 1 1 1 0.0088210416661405732 1 0.018100506959143694 1 0.017128490537040575 1 0.016682707204922483 1 1 0.0092050639191951587 0.014979954236714032 1 1 1 0.011681829853917585 1 0.0092326191476796559 1 1 1 1 1 1 1 1 1 0.012707770369696999 1 1 1 0.010897105881736233 1 1 1 1 1 1 1 1 1 1 1 0.030914595503282419 1 1 1 0.0091151316482463544 1 1 1 1 1 1 1 1 1 0.010286929307010431 1 1 0.011014870956775263 1 1 1 0.01349127015870509 1 1 0.0099965308621917034 1 1 1 1 1 1 1 1 1 1 1 1 1 1 1 1 1 1 1 1 1 1 0.01199323503302643 1 1 0.0093847760831823196 1 1 1 1 1 1 1 0.013066394541203947 1 1 1 1 1 1 1 1 1 1 1 1 0.018060900746333198 1 1 1 0.013797735802015236 1 1 0.0099465275658322787 0.0094775509099540509 1 0.0097007542906275019 1 1 1 1 1 0.013885600035098261 1 1 1 1 1 0.013756680757836851 1 1 1 0.014120217992787953 0.013611396392857893 1 1 1 0.014268435037924035 1 1 1 0.013397964100452875 1 1 1 0.0099597314088732559 0.011821698478639203 1 1 0.011164309146154973 1 1 1 1 1 1 0.010228924608316354 0.012233946829081764 1 1 1 1 1 1 1 1 1 1 1 0.01083535524890058 1 1 1 1 1 1 1 1 1 1 1 1 1 1 1 1 0.010519094013372336 1 1 1 0.011614844295893765 1 1 1 1 1 1 1 1 1 1 0.01689849361621025 0.014307272244106361 1 1 1 1 0.019093447496825823 1 1 1 1 1 1 0.015484492995344587 1 0.014033850565674898 1 1 1 1 1 1 0.0088491765382736655 0.018605593500824788 1 1 1 1 1 1 1 1 0.021071072219203901 0.019866012273164382 1 1 1 1 1 1 0.013770524499000026 1 1 1 1 0.0090217464090597589 1 0.013765016103397016 1 1 1 1 1 0.0099983829043255625 1 0.016049235170935764 0.010355516330830152 1 1 0.017508457764377053 0.010540740604042776 1 1 0.014226554605136643 1 0.011326528986100639 0.011436171279149841 1 1 1 0.014798575565528452 0.013229214163044831 1 1 1 1 1 1 1 1 1 1 0.012534113929721129 1 1 1 0.012429382712680039 0.011917660883248783 1 0.01716886184222324 0.019474876894778712 1 1 1 1 1 0.010812431962534466 1 0.017976087314122625 1 0.012156171028227806 1 1 1 0.011324783910504593 1 0.0092778205558617551 0.015996617772811285 1 1 0.01001377048886495 1 1 0.0101586610433382 1 1 1 1 0.0097179819993389194 1 1 1 1 1 1 1 1 1 1 1 1 0.012256191986215942 1 1 1 1 1 0.014620147089141998 1 0.012666944157153784 1 0.010179741781138178 1 0.010185514818656359 1 0.011669966426250252 1 0.013186725928838001 1 1 1 1 1 0.013331480986368993 0.01220072789085714 1 0.01088756487652571 0.010114177741701674 0.009953057242594222 1 1 1 1 0.011632544557074926 1 1 1 1 1 0.009282883640626861 1 1 1 1 1 1 0.013026994917075351 1 1 1 1 0.017226001331341494 1 1 0.009730638962496322 1 0.010122780241977448 0.011086100951500616 1 1 1 1 1 1 0.013791144339618226 0.0094213130691301345 0.014776067888975604 0.010153801825516909 1 1 0.010550196571980341 1 0.0089734976569056917 1 0.013937316969315187 0.014126381990063904 1 1 1 1 1 1 1 1 1 1 1 1 0.0095083511749557859 1 1 0.0083330278077193131 1 1 1 1 1 1 1 1 1 1 1 0.010351536362871836 1 1 1 1 0.0098315695367133457 1 1 0.014575619459264322 1 1 1 0.016654316007170433 1 0.0097190235821048403 1 1 1 1 1 1 1 1 1 0.013009005283330573 1 1 1 1 1 0.010048310527845538 1 1 1 1 1 1 1 1 1 1 1 1 1 1 1 0.012452406771445332 1 1 1 1 0.011468823865828313 1 1 1 1 0.010508963075152337 1 1 1 1 1 1 1 1 1 1 1 1 1 1 1 1 1 1 0.010487150839097533 1 1 1 1 0.011468426369667172 1 1 1 1 1 1 1 1 1 1 1 0.018108524664300907 1 1 1 0.01304968682387235 0.0099511828440136379 1 1 1 0.0056103666884105398 0.012309122269813004 0.013679247265229554 1 0.012693163712829438 1 1 0.0085755126184156386 1 1 0.009958445431859371 1 1 0.010044403393589084 1 0.0099920910514888581 1 1 1 1 1 1 1 1 1 1 1 1 1 1 1 1 1 1 1 1 0.011063916793920266 0.010955756893072939 1 1 1 0.012193368884063849 1 0.011191290299971502 1 1 1 1 1 1 1 1 1 1 0.0099904932259284301 1 1 1 1 1 1 1 1 1 0.010154189359528391 1 1 1 1 1 1 0.010793255042924544 1 1 1 1 1 1 1 1 1 1 1 1 0.010318260094419067 1 0.010141305583018781 1 1 1 1 1 1 1 1 1 1 1 1 1 1 1 1 1 1 0.0095334892376735831 1 0.0098657808137744673 1 0.0097093187075198185 1 1 0.011901055310260547 1 0.012447399592328068 1 1 0.01076001896017386 1 1 0.014309245147314248 1 1 1 1 1 1 0.0096871099933703089 1 1 0.0092695980342262663 0.010142678920806478 1 1 0.0095316536640066285 1 1 0.0088524448134748805 1 0.012558768371130919 0.011166501128749531 1 1 1 1 1 1 0.010712086086854082 1 1 1 1 1 1 1 1 1 1 0.0132597564167777 1 1 0.013262600962027579 1 1 1 0.012705262265915439 1 1 1 1 1 1 1 0.011024257010819979 1 1 1 0.012343479525228863 1 1 0.013517866447759899 1 1 1 1 1 1 1 1 1 1 1 1 1 1 1 1 1 1 1 1 1 1 1 1 1 1 1 1 1 1 1 1 1 1 1 1 1 1 1 1 1 1 1 1 1 1 0.012414791584673365 1 1 1 1 1 1 1 1 1 1 1 1 1 1 1 1 1 1 1 1 0.011026670028492253 1 0.012661601420500743 1 1 1 1 1 1 1 0.011969404659561911 1 1 1 1 1 1 1 0.011321037299391407 1 1 1 1 1 1 0.011075929513166258 1 0.014600599263687829 1 1 1 0.011030195233674793 1 1 1 1 1 1 1 1 1 1 1 1 0.01970235946141622 1 1 1 1 0.010107090772751216 1 1 1 0.02165520821509043 0.011244681128428101 1 1 1 0.015934135957714861 0.0099569671646963891 1 1 1 1 1 1 1 1 1 1 1 1 1 1 1 1 1 1 1 1 0.0065319136207613792 1 1 1 1 0.0060554224356622749 1 1 1 0.0058407200209805625 1 1 1 1 1 1 1 1 1 1 0.011314732267953754 0.010481137714932257 1 1 1 1 0.010190963665406429 1 1 1 1 1 1 0.012057569190175407 1 1 0.010232116116802728 1 1 0.01251173701360354 1 1 1 1 1 1 1 1 1 1 1 1 1 1 1 1 1 1 1 1 1 1 1 1 1 1 1 1 1 1 1 1 1 1 1 1 1 1 1 1 1 1 1 1 1 1 1 1 0.0095120961504824228 1 1 1 1 1 0.013957620687773894 1 1 0.011818043974669217 1 1 0.010501988157901409 1 1 1 1 1 1 1 1 1 1 1 1 1 1 1 1 1 1 1 0.011189427050067301 1 1 1 1 1 0.012477209478497819 1 1 1 1 1 1 1 1 1 1 1 1 0.0128847291949317 1 1 1 1 1 0.011377055989936918 1 1 1 0.011987999952252859 1 1 1 1 1 1 0.012993355534397637 1 1 1 1 0.014460350180918298 1 1 1 1 0.011157631764954863 1 1 1 0.011048451703550684 1 1 1 0.011387679893375519 1 1 0.014720425673052852 1 1 1 1 1 1 1 1 1 1 1 1 1 1 1 1 1 1 1 1 1 1 1 0.010905377423093627 1 1 1 0.010240371833228918 1 1 1 1 1 1 1 1 1 1 1 1 1 1 1 1 1 0.0096229741728686511 0.010546528028811276 1 1 0.01601775804324608 1 1 0.010467707697675365 1 0.015696568685881429 1 0.010348963868430129 1 1 1 1 0.008847363140091347 1 1 1 1 0.01091295069837382 1 0.010062493312393776 1 1 1 1 1 1 1 1 1 1 1 1 1 1 0.01025367474370735 1 1 1 1 1 1 1 1 1 1 0.010277721042386063 1 1 1 1 1 1 1 1 1 1 0.010044769428643872 1 1 1 1 1 0.010365194611946803 1 1 1 1 1 0.010102220652439563 1 1 1 1 0.013812313708737126 1 1 1 1 1 1 1 1 1 1 1 1 0.0097655842253362053 1 1 1 1 1 0.018242306467083108 1 1 1 1 1 1 0.020751467790912137 1 1 1 1 1 1 0.010617259292192626 1 1 1 1 1 1 1 1 1 1 1 1 1 1 1 1 1 1 1 1 1 1 1 1 1 0.015094421781926007 1 1 1 1 1 1 0.016162059406655105 1 1 1 1 0.02093111064614999 1 1 0.015080124770212811 1 1 1 1 1 1 1 1 1 0.023064072608446104 1 1 0.0065915321322001456 1 1 1 0.023017447849913317 1 1 1 1 0.0090203049603349642 1 1 1 1 1 1 1 1 1 0.010070154596977923 1 1 1 1 1 1 1 1 1 1 1 1 1 1 1 1 1 1 1 1 1 1 1 1 0.011240235279536354 1 1 1 1 1 1 1 1 1 1 0.011105245588246796 1 1 1 1 1 1 1 0.012904361236717852 1 1 1 1 0.013329530846836673 1 1 1 1 1 1 1 1 1 1 1 1 1 1 1 1 1 1 1 1 1 1 1 1 1 1 1 1 1 1 1 1 1 1 1 1 1 1 1 1 1 1 1 1 1 1 1 0.0075840555195366682 1 1 1 1 1 1 1 1 1 1 1 1 1 1 0.022590134408507996 1 1 1 1 1 1 1 1 0.029541597057294155 1 1 1 1 0.0062150358309194112 0.023488230522256917 1 1 0.014700545983932747 0.0079177821725483974 1 1 1 1 1 1 1 1 1 1 1 1 1 1 1 1 0.01400504724831763 1 1 1 1 1 1 1 1 1 1 1 0.010193137727416413 1 1 1 1 1 1 1 1 1 0.022136138878496903 0.0057237100728968603 1 1 0.0099720235786850703 1 1 1 1 1 1 0.0080653726411272497 1 1 1 1 0.010988765000401112 1 1 1 1 1 1 1 1 1 1 1 1 0.010814351647033801 1 1 1 1 0.0097691014259636 1 1 1 1 1 1 1 1 1 0.012697552060540209 0.0079506152627252299 1 1 1 1 0.010886053752005317 1 1 1 1 1 1 0.0094172579394640708 1 1 1 1 1 1 1 1 1 1 1 1 1 1 1 0.014474582299699463 1 1 1 1 1 1 1 1 1 1 1 1 1 1 1 1 1 1 1 1 1 1 1 1 1 1 1 0.01309934809230353 1 1 1 0.016302869230248165 1 1 1 1 1 1 1 1 1 0.019039818353934437 1 1 1 1 1 1 1 1 1 0.019209334300620266 1 1 1 1 1 1 1 1 1 1 1 1 1 1 1 0.0097330122374287044 1 1 1 1 1 1 1 0.0088267601265083623 1 1 1 1 1 1 1 1 1 1 1 1 1 1 1 1 1 1 1 1 1 1 1 1 1 1 1 1 1 1 0.017428253379545289 1 1 1 1 0.0098796954703902068 1 1 1 1 1 0.011957279061207006 1 0.016046979728155303 1 1 1 1 1 1 0.012104326594750064 1 1 1 0.015991645928586658 1 1 1 1 1 1 1 1 1 1 1 1 1 1 1 1 1 1 1 1 1 1 1 1 1 1 1 1 1 0.010070870857122407 1 1 1 1 1 0.017565098969451534 1 1 1 1 1 1 1 0.018105556310682426 1 1 1 1 1 1 1 0.012366002607577836 1 0.015413899327518729 1 1 1 1 1 0.010879754443462644 0.010926950643103483 1 1 0.010175843101082728 1 1 0.010192111103742681 1 0.0088972176235179428 0.013992545147663271 0.010218015819248511 1 0.014097616277104891 1 0.019408284190844421 0.009743761007556374 0.010513250705762256 1 1 0.011552859404085375 0.010150843593339686 1 1 0.017119832292826008 1 1 1 1 1 0.007773318175832173 1 1 0.02016087637149757 1 0.018498998604137562 1 1 1 1 1 0.0076266985959530728 1 1 0.020131591103718781 1 0.020097725014050681 1 0.010006053614879468 0.0074883289612117637 1 1 1 1 1 0.010599483659498667 1 1 0.010077064683076108 1 1 1 1 1 1 0.009731742085712692 1 1 1 1 1 1 1 1 1 1 1 1 1 1 1 0.023411037800992431 1 1 1 1 1 0.010107667926746597 1 0.011087973578401595 0.0089941019503277722 1 1 1 1 1 1 1 1 1 1 1 1 1 1 1 1 1 1 1 1 1 0.0071987357350643284 1 1 1 0.01586618407514688 1 1 0.0090769502515390885 1 1 1 1 1 1 1 1 1 1 0.0052624573692335004 1 0.012031420910308087 1 1 1 1 1 0.016900205713581071 1 1 1 1 0.012866383947603867 1 1 1 1 1 1 1 1 1 1 1 1 1 1 1 1 1 1 1 1 1 1 1 1 1 1 1 1 1 1 1 1 0.0099367702408325667 1 0.016895234198353801 1 0.011433069288422408 1 0.0037429168430364364 1 1 1 0.013920298297115045 0.0088208459068235146 1 0.0080349394389567716 0.014325133226625722 1 1 1 0.0036140893255330632 1 1 1 1 1 1 1 1 1 1 1 1 1 1 1 1 1 1 1 1 1 1 1 1 1 1 1 1 1 1 1 1 1 1 1 1 1 1 1 1 1 1 1 1 1 1 1 1 1 1 1 1 1 1 1 1 1 1 1 1 1 1 1 0.0048427155448522545 1 1 1 1 1 1 0.009960100622785472 0.010009772405145841 1 1 1 1 1 1 0.01144051785952092 1 1 1 1 0.011289725680921868 1 1 1 1 1 0.0060927813158384502 1 0.018367073825747475 1 1 1 1 0.01317719663583005 1 1 1 1 1 1 1 1 1 1 1 1 1 1 1 1 1 1 1 1 1 1 1 1 1 0.017604669740920564 1 1 1 1 1 1 1 1 1 0.011569498243453906 0.011070070757941782 1 1 1 0.012924749289048529 0.0052374063949314452 1 1 1 1 1 0.016393081077838906 1 0.010484547222984746 1 1 0.010076344673954046 1 1 1 1 1 1 1 1 1 1 1 1 0.0069461480941599447 1 1 1 1 0.027711951474542737 1 1 1 1 1 1 1 0.030056288513553728 1 1 1 1 1 1 1 1 1 1 1 1 1 1 1 1 1 1 0.007631544606445247 1 1 1 0.0094136672007067001 1 1 1 1 1 1 1 1 1 1 1 1 1 1 0.010436873737268286 0.012006371980722184 1 1 1 1 1 1 1 1 1 1 1 0.013171684924148795 1 1 1 1 1 1 1 0.010039943371328207 1 1 1 1 1 1 1 1 1 1 1 1 1 1 1 1 1 1 1 0.0098670400840599574 0.010033862341169632 1 1 1 1 1 1 0.010073805463926042 1 1 1 1 1 1 1 1 1 1 1 1 1 1 1 1 1 1 1 1 1 1 1 1 1 1 1 1 0.0099294798230281228 0.031954065015016533 1 1 1 1 1 0.010080057079426517 1 1 0.010050080983831901 1 1 1 1 0.009872716671887034 1 1 1 0.018522414435508339 0.014773258787987083 1 0.01514342257512314 0.017042014684895475 1 1 1 1 0.010484208484286717 1 1 1 1 1 1 1 0.0095608778309122337 1 0.015383945022293698 1 0.018011952326455118 1 1 0.011662490791045081 0.020750581904487704 1 1 1 0.021859956131611784 1 0.01054248574937755 1 1 1 1 1 1 1 1 1 0.0096621893208089869 1 1 1 1 1 0.0099949728363506046 1 1 1 1 1 1 1 1 1 1 1 1 0.0094618306174985827 1 1 1 1 1 1 1 1 1 0.020335265113955996 1 1 1 1 1 1 1 1 0.010430464729511146 0.016215869075186989 0.015707123219691609 1 1 1 0.022616688367482721 1 1 0.0049933768850285044 1 1 1 1 1 1 0.020400745731338425 1 1 1 0.0091965595798944328 0.021295987508283119 1 0.0082181048642488968 1 1 1 1 0.018372186091647504 0.0082924803179834083 1 1 0.0098326400280051747 1 1 0.010299680722060355 1 1 1 1 1 1 1 0.018864207801680043 1 0.010292825986396418 1 0.011286868700445114 0.016268434154402062 1 1 1 1 1 1 1 1 0.010005959688841541 1 1 1 1 1 0.0099842946893607728 1 1 1 1 1 1 1 1 1 1 1 1 1 1 1 1 1 1 1 1 1 1 1 1 1 1 1 1 1 1 1 1 1 1 1 1 1 1 1 1 1 1 1 1 1 1 1 1 1 1 1 1 1 1 1 1 1 1 1 1 1 1 1 1 0.010121984042631885 1 1 1 1 1 1 1 1 1 1 1 1 1 1 1 1 1 1 1 1 1 1 1 1 1 1 1 1 1 1 0.0092052510101278337 1 1 1 0.010230646847181626 0.01543321316597189 0.008452555387065212 1 1 1 1 1 1 1 0.020075423531051691 0.016416476840055261 1 1 1 0.010301294899247887 1 0.010087276267579638 1 1 1 1 1 1 0.0069404626802125544 1 1 0.008734156685283807 1 1 1 1 1 1 1 1 1 1 1 1 0.010293909564559944 1 1 1 1 1 1 1 0.011130649957092658 1 0.0071208982662951219 0.021104612098424534 1 1 1 1 0.0088708347383550622 1 0.017329760373291522 0.0098927881923770427 1 1 1 1 0.010408393466255519 1 1 0.021677812873245446 0.01119586810024562 1 1 1 1 0.021938312127995699 1 1 0.0099049232533218578 1 1 1 1 1 1 1 1 1 1 0.0097884563018371118 1 0.01047597489449429 1 1 1 1 0.010249553042203478 1 1 1 1 1 0.015830537552896443 1 1 1 1 1 1 1 1 1 1 1 1 1 1 1 0.010386347693817112 1 1 1 0.023052720441314019 0.010010032474536995 1 1 1 1 1 1 1 1 1 1 1 1 1 0.0065271500124938417 1 0.0093985305564710884 1 1 1 0.0099789704040524341 1 1 1 0.015970647988373061 1 1 1 1 0.014303461800857044 1 1 1 1 1 0.010458581182230087 1 1 1 1 1 1 0.010966960312675203 1 1 1 1 1 1 1 1 1 1 0.01045806714428936 0.0099989079947502765 1 0.010880391882320943 1 1 1 1 0.010129463266376308 1 1 0.013418280911375733 1 1 0.016299944219248089 1 1 1 0.012830186252750217 0.011432889295084105 1 0.011626419938579914 0.010011374382124537 1 1 1 1 1 0.010003906736104493 1 1 0.011368726598221496 1 1 1 0.011279496271128266 1 0.010874031971740791 1 1 1 1 1 1 1 0.009977572683140784 1 1 1 1 1 1 1 1 1 1 1 1 0.011669397934237633 1 1 1 1 1 0.010106536639386758 1 1 0.010803877362545457 1 0.012570625576943134 1 1 0.0098576753077016695 1 0.0099451921418761014 1 1 0.013248357804626867 0.010468162638616316 1 1 1 0.012754537940012946 0.009674605524799304 1 1 0.01402959108108405 1 1 1 1 1 0.012322789829018486 0.013636321030947952 0.010039070801980812 0.010388059403941375 0.015406422021227148 0.0117945580432871 1 1 1 0.013292834019466009 1 0.010958563014235933 0.010018280956664488 0.01135500006089659 1 1 1 0.0099667532627933653 1 1 0.01013455731248341 1 1 1 0.010898922126132631 1 1 0.01269541385548386 1 1 1 1 0.010976746292762636 0.01577499631545793 1 1 1 1 1 0.010947123766886238 1 1 1 1 1 1 0.018738963066223836 0.010057740735120412 1 1 0.0137932639247089 1 0.013454780043315753 1 1 1 1 1 1 1 1 1 1 1 1 1 1 1 1 1 1 1 0.010890763489565004 1 1 1 1 0.010392399643225025 1 0.009922634392701208 1 1 1 0.010468179637947486 1 1 1 0.01155475756447906 1 1 1 1 1 1 1 1 1 1 1 1 1 1 0.010144812988781981 0.010971396840033378 1 1 1 1 1 1 1 1 1 1 1 1 1 1 1 0.010448637847905583 1 1 1 1 0.0099230316547262859 1 0.010023077788551856 1 1 1 1 1 1 1 1 1 1 1 1 1 1 1 1 1 1 1 1 1 1 1 1 1 1 1 1 1 1 1 1 1 1 0.0098664462529029218 0.011213009345882041 1 1 0.0099055802665422767 1 0.0090520977444160863 1 0.010401361175397727 0.011455786360202469 1 1 1 1 1 1 0.010247341962738826 0.0099998030223561376 1 1 0.010354820380310922 1 1 1 0.010145597198078886 1 1 1 1 1 1 1 0.010980502769911395 1 1 1 1 1 1 0.010067797015360841 1 1 1 1 1 1 1 1 1 1 1 0.01006781764198908 1 1 1 1 1 1 1 1 1 0.010009507954154718 1 1 1 1 0.010512716483854568 1 1 1 1 1 0.01019769720798063 1 1 1 1 1 1 1 1 1 1 1 1 1 1 1 1 1 1 1 1 1 1 1 1 1 0.010331267656521415 1 1 1 1 1 1 1 1 1 1 1 1 1 1 0.010906748461972988 1 1 1 1 1 1 0.010318630226182651 1 0.010709585741999766 1 1 1 1 0.010120187042115442 1 0.010271902735661703 1 1 1 1 1 1 1 0.011186560753864816 1 1 1 1 1 1 1 1 0.013209947283232847 1 1 1 1 1 1 1 0.011145281796981273 1 1 1 1 1 1 1 1 1 1 1 1 1 1 0.01324562261957233 1 1 1 1 0.010684125282911768 0.019257523235846966 1 1 1 1 1 1 1 0.014355958881060331 1 0.009070432178249814 1 0.013516929957325839 1 1 0.0091196109894424379 0.01420749760605507 1 0.010744434323112461 1 1 1 1 1 1 1 1 0.011207518613848265 1 0.0082744392931098434 1 1 1 1 0.01112845462400814 1 1 0.014333300353938736 1 1 1 1 1 0.01164386570013002 1 1 1 1 1 1 1 1 1 1 1 1 1 0.0099166682372469894 1 1 0.023132837944744977 1 1 1 0.010057912856688936 1 1 1 1 1 0.019189154493935452 1 1 0.021013048294404951 1 0.020322791883353952 1 1 1 1 1 1 1 0.020527988147147694 1 1 0.0099955739319854096 1 1 1 0.010197397600875589 1 1 1 1 1 1 1 1 1 1 0.010615532150099838 1 1 1 0.0099683398439513807 1 1 1 1 0.009126885737854841 1 1 1 1 1 1 1 1 1 1 1 1 1 1 1 1 1 1 1 1 0.0095355821956275948 1 1 1 0.0098817292179693983 1 1 1 1 1 1 1 1 1 0.019363105392602404 1 1 1 1 1 0.0097353536826442558 1 1 1 1 1 1 1 1 1 1 1 1 1 1 1 1 1 1 1 1 1 0.0099620509561492016 1 1 1 1 1 0.0098446052458002562 0.019643840115887164 1 1 1 1 0.0083793622286360663 1 1 1 1 1 1 1 1 0.008431557477396795 1 1 1 1 1 1 1 0.0099454248783956718 0.0083485313329099992 1 1 1 1 1 0.0093410046764265918 1 1 1 1 1 1 1 1 1 1 0.0098687193889978077 1 0.0071744591547674066 1 0.0086356885682940168 1 0.0085895496945207483 1 1 1 1 0.0097402751120545805 1 1 1 1 1 1 1 1 1 1 1 1 1 1 1 1 1 1 1 1 0.0098009714060488806 1 1 0.0087958227348990045 1 1 1 1 1 1 1 1 1 0.0090787317331321241 1 1 0.0099192421880794808 1 1 1 1 0.0099815313314449653 1 1 1 1 1 1 1 1 1 1 1 1 1 1 1 1 1 1 1 1 1 1 0.010754477208931168 1 1 1 1 1 1 1 1 1 1 1 1 1 1 1 1 1 1 1 1 1 1 1 1 1 0.012045983535730298 1 1 1 1 1 1 1 1 1 1 1 1 1 1 1 0.010128665047809599 1 1 1 1 1 1 1 1 1 1 1 1 0.009859123414844127 1 1 1 1 0.009882599161876263 0.010348242353117709 1 1 1 0.022064562037210904 1 0.0094906463226033713 1 1 1 0.010787735037281809 1 1 1 1 0.012355139152428481 0.019413277045617464 1 1 0.013386699931691566 1 1 1 1 1 1 1 1 0.010017685665103013 1 1 1 1 1 1 1 1 1 1 1 1 1 0.024320204715234633 1 0.0098079486190657608 1 1 1 1 1 1 1 0.010215493006880856 1 1 1 1 1 0.027105389310370417 0.0084239907128638714 1 1 1 1 1 1 1 0.010922623769516054 1 1 1 1 1 0.0096081888099700946 1 1 1 1 1 0.0099765242529678642 1 1 1 1 1 0.010983673645300444 1 1 1 1 1 1 1 1 1 1 1 1 1 1 1 1 1 1 1 1 1 1 1 1 1 0.011337735271536007 1 1 1 1 1 1 1 1 1 1 1 1 0.013346966550057701 1 0.0088075940086813423 0.01306094488302866 1 1 1 1 1 0.0086636281717082653 1 1 1 1 1 1 0.010618522148234789 1 0.0096334566593960572 1 1 1 1 1 1 1 1 1 1 1 1 1 1 1 0.010221662340035683 1 0.010604841665408494 1 1 1 1 1 0.010235077356918145 1 1 1 1 1 1 1 1 1 1 1 1 1 1 1 1 1 1 1 1 1 0.010772065442122673 1 1 1 1 1 1 1 1 1 0.010310230343606824 1 1 1 1 1 0.010660297459114558 1 1 1 1 0.010273531439863303 1 1 1 1 1 0.011732185214312163 1 1 1 1 1 0.010652319225572054 1 1 1 1 1 1 1 1 1 1 1 0.0095798594617029446 1 1 1 0.007674209063187964 1 1 1 1 1 0.0087437419439256349 1 1 1 0.0087710787988629756 0.0087533484772279804 1 1 1 1 1 1 1 0.0090091928657941821 1 1 1 1 1 1 1 0.010612558263362538 1 1 1 1 1 0.010192024336993429 1 1 1 1 1 1 1 1 1 1 1 1 1 0.0099931545175972886 1 1 1 1 1 1 1 1 1 1 1 0.0061044022564005485 1 1 1 1 1 1 1 1 1 1 1 1 1 1 1 1 1 1 1 1 1 1 1 1 0.011371975372899367 1 0.0056962979812079546 1 0.010073898396298055 1 1 1 1 0.007489350431933892 1 0.0098125172101182767 1 1 0.010016082925336782 1 1 1 1 1 1 1 1 1 1 1 1 1 1 1 1 1 1 0.011101533391456621 1 1 1 1 1 1 1 1 1 1 1 1 1 1 0.010242781118122518 1 1 1 1 1 1 1 0.0085501461083973707 0.010720119785638634 1 1 1 1 1 0.0099949894652364615 1 1 1 1 1 1 1 1 1 1 1 1 1 1 1 0.0097684733739467639 1 1 1 1 1 1 1 1 1 1 0.010916760048071987 1 1 1 1 0.010725771439649265 1 1 1 1 1 1 1 1 1 1 1 1 1 1 1 1 1 1 1 0.010437565375289379 1 1 1 0.0093459617934839069 1 1 1 0.0095722608799435199 1 1 1 1 1 1 1 1 1 1 1 1 1 1 1 0.0089834311537290417 1 1 1 1 1 1 1 0.0096463910350405909 1 1 1 1 1 1 1 1 1 1 1 1 1 1 1 1 1 1 1 1 1 1 1 1 1 1 1 1 1 1 0.013136049634631657 1 0.010768180638419582 1 1 1 1 1 1 1 1 0.013864747157999666 1 1 1 1 1 1 1 1 1 1 1 0.022230080730462145 1 1 1 1 1 1 1 0.018284478350866745 1 1 1 1 1 1 1 0.0097524327792908663 1 1 1 1 1 0.024330758612572986 1 1 1 0.020206500563268621 1 1 1 1 1 1 1 1 1 1 1 1 1 1 1 1 1 0.012530240691337324 1 1 0.010909397866299384 1 1 1 0.010092031674978748 1 1 1 1 1 1 0.013893392440605699 1 1 0.014944319815536676 1 1 1 1 1 1 0.010455082925310021 1 1 1 0.014654171647132466 1 1 1 1 1 1 1 1 1 0.0045368142609274829 1 1 0.0082108295060004492 1 1 1 1 1 1 1 1 1 0.011782813050065009 0.010707507562029853 1 1 1 1 1 1 1 0.012609715907177351 0.010921215229781973 1 1 1 1 1 1 1 1 1 1 1 1 1 1 1 1 1 1 0.012341372269381687 1 1 1 1 1 1 1 1 1 1 1 1 1 1 1 1 1 0.012725954170756818 1 1 0.010308803646490986 1 1 1 1 1 1 1 1 1 1 1 1 0.014664073636104917 1 1 1 1 1 0.011795089974584684 1 1 1 1 1 1 1 1 1 1 1 1 1 1 1 1 1 1 1 1 1 1 1 1 1 1 1 0.0082525564778992439 1 1 1 1 1 0.009031478243987992 1 1 1 1 1 1 1 1 0.010700090252537349 1 1 1 1 1 1 1 0.00967918502675005 1 1 1 1 1 1 1 1 1 0.0077741237355648321 1 1 1 1 1 1 0.010834725112581645 1 1 1 1 1 1 1 1 1 0.016454187885313897 1 1 1 0.01870017477199843 1 0.01329377253029705 1 1 1 1 1 0.014637080119105687 1 1 0.012054464110659038 1 0.00760249168958399 1 1 1 1 1 1 -1.3877787807814457e-17 0.017136747318263888 1 1 0.014499530653138344 1 0.012786770142539372 1 1 1 1 1 1 1 1 1 1 1 1 1 0.016179724586579094 1 0.010837465282507647 1 1 1 0.012533339468547417 1 1 1 1 0.0037488955107279759 1 1 1 1 1 1 1 1 1 1 1 0.010906663666848015 1 1 1 1 1 1 0.011145250198975684 1 1 1 0.012592476669512645 1 1 0.011603114627870559 1 1 1 1 1 1 1 1 1 1 1 1 1 1 1 1 1 1 1 1 1 1 1 1 1 1 1 0.0087475860319400807 1 1 1 1 1 0.0074003528706450567 1 1 1 1 1 1 1 1 1 1 1 1 1 1 0.0078475961525912279 1 1 1 1 1 1 0.0082160037104297926 1 1 1 0.010475341454093469 1 1 1 1 1 1 1 1 1 1 1 1 1 1 1 1 1 1 1 1 1 1 1 1 1 0.010836365940706394 1 1 1 1 1 1 1 1 0.0080964480909036865 0.020387053697945235 1 1 1 1 1 1 1 1 1 0.0068255370948311633 1 1 0.0077630478421758589 1 0.0051612491083105096 1 0.010125866408703707 1 1 1 1 1 1 0.0097274518490123585 1 1 1 1 0.01003397218235586 1 1 0.020475990023298585 1 1 1 1 1 0.0097515138682584997 1 1 1 1 1 1 1 1 1 1 1 1 1 1 0.0096891340349227195 0.01140631617209387 1 1 1 1 1 1 1 1 1 1 1 1 0.0093339241574074555 1 1 0.0100043196873905 1 1 0.013747923232938858 0.0096769156040104054 1 1 1 0.0081930626487389385 1 1 1 1 0.015404308846706776 0.019836786961293096 1 1 0.008505307747200673 1 1 1 0.01535401315191889 1 1 1 1 1 1 1 1 0.02090874989411376 1 1 1 1 1 0.017173297460220293 1 1 1 0.010581596827342216 1 1 1 0.010028194606279184 1 1 1 1 0.021195781261894458 1 1 0.020117804388629805 0.020672433983906828 1 1 1 1 1 1 0.021872821110229104 1 1 1 1 1 1 1 1 1 1 1 1 1 1 1 1 1 0.010011907973999104 1 1 1 1 1 1 1 0.01296587868972874 1 1 1 0.0049542061652496066 1 1 0.0086343177067273579 1 1 1 1 1 0.010003469832746498 0.0099888276664305883 1 1 1 1 1 0.00762628554292831 1 1 1 1 0.010063272533120123 1 0.0062448217035220768 1 1 1 1 1 1 1 0.010346284704169808 1 1 0.0089207907255779567 1 1 1 0.011070229082249692 1 1 0.0098625693807257442 0.0099896425898811283 1 1 1 1 1 1 1 0.0099896643294436812 1 1 0.0095839940602742632 1 1 1 0.0097213535411288833 1 1 1 1 1 1 1 1 1 1 1 1 1 1 1 1 1 1 1 1 1 1 1 1 1 1 1 1 1 1 1 1 1 1 1 1 1 1 1 1 1 1 1 1 1 1 1 1 1 1 1 1 1 1 1 1 1 1 1 1 1 1 1 1 1 1 1 1 1 1 1 1 1 1 1 1 1 1 1 1 1 1 0.011165237532941234 1 0.01009631489885477 1 1 1 0.0097212558723813874 1 1 1 1 1 1 1 1 1 1 1 1 1 1 0.01074972253401249 1 1 1 1 1 0.01155694834370561 0.011798152547835658 0.011785747023365149 1 1 1 1 1 0.010447594210211162 0.010659364042879572 1 1 1 1 0.012953600184698787 1 1 1 1 1 1 1 1 0.010097400057792989 1 0.0099826628065703606 1 1 1 1 1 1 1 1 1 1 1 1 1 1 1 1 1 1 1 1 1 1 1 1 1 1 1 1 1 1 1 1 1 1 1 1 1 1 0.010986558068806093 1 1 1 1 1 1 1 0.011684157106892377 1 1 1 1 1 1 1 1 0.01223741090327285 1 1 1 0.010250215988950057 1 1 1 1 1 1 1 1 1 1 1 1 1 1 1 1 1 1 1 1 1 1 1 1 1 0.010676123686272174 1 1 0.011099724314507474 1 1 1 1 1 1 1 1 1 1 1 1 0.0049346916254449924 1 1 1 1 1 0.010256433328644864 1 1 1 1 0.014220738111167953 1 0.012382262659332248 1 1 1 0.012944329514383221 1 1 1 0.0095110065818516751 1 0.011596373818357833 1 1 0.0099636377164855766 0.0075673389552816158 0.0093870240249944777 1 1 1 0.0071299696140243694 1 1 0.010578578179903174 0.0065553792078161446 1 1 1 1 1 1 1 1 1 1 1 1 1 1 1 1 0.023817801339583722 1 1 0.02132079236253543 1 1 1 1 1 1 1 1 1 0.01111487864896149 1 1 0.025442040972542081 1 1 0.0092355667917470505 1 1 1 1 1 1 1 1 1 1 1 1 1 1 1 0.0098495438677357952 1 1 1 0.023819077504350888 1 1 1 0.023407374138529405 1 0.012124446729908561 1 1 1 1 1 1 1 1 0.010850151371625757 1 1 1 1 1 1 1 1 1 1 1 1 1 0.011160316592794185 1 1 1 1 1 1 1 1 0.016228227579194308 1 1 1 1 1 0.012467876175557009 1 1 1 1 1 1 1 0.011588241846904442 1 0.010023883266831745 1 1 1 1 1 1 1 1 1 1 1 1 1 0.010210307171494279 1 1 1 1 1 1 1 0.0090399573451545607 1 1 1 1 1 1 1 1 1 1 1 1 1 1 1 1 1 1 1 1 1 1 1 1 1 1 1 1 1 0.0098851528348274618 1 1 1 0.0099258824582409907 1 0.012698347781809664 0.011520816638929975 1 1 0.011324166803980172 0.012654595533276788 1 1 1 1 1 0.010196856272192939 1 1 1 1 1 1 1 1 1 1 0.015164732246813237 1 0.0095215336258101628 1 1 1 1 0.01016160430661716 1 1 1 1 1 1 1 1 1 1 0.01097560416047289 1 1 1 1 1 1 1 1 1 1 1 1 0.022342840816089494 1 1 1 1 0.010450798274519023 1 1 1 1 1 1 0.0097412493189618782 1 1 1 0.017339570254060598 1 0.027818981390448277 1 1 1 1 0.0095004100112875481 1 1 1 1 1 1 1 1 1 1 1 1 1 1 1 1 1 1 1 1 1 1 1 1 1 1 1 1 1 1 1 1 1 1 1 1 1 1 0.010268163593277582 1 1 1 1 0.0105815186649871 1 1 1 1 1 1 1 1 1 1 0.010671281355476785 1 1 1 1 1 1 1 1 1 1 1 1 0.012184459803011839 1 1 1 0.013956979440303809 1 1 1 1 1 1 1 0.0099360529502965523 1 1 1 1 1 0.0097663801640856026 1 1 1 1 1 1 1 1 1 1 1 1 1 1 1 1 1 1 1 1 1 1 1 1 1 1 1 1 1 1 1 1 1 1 1 1 1 0.010313716274246276 1 1 1 1 1 1 1 1 1 1 1 1 1 1 1 1 0.020888013240012292 1 1 0.024381471714521163 1 1 1 1 1 1 1 1 1 1 1 1 1 1 1 1 1 1 1 1 1 1 1 1 1 1 1 1 1 1 1 1 1 1 1 1 1 1 1 1 1 1 0.0096875915254215177 1 1 1 0.021382336691456911 1 1 1 1 0.014041544889971041 1 1 1 0.027350815634459846 1 1 1 1 1 1 1 1 1 1 1 1 1 1 0.013249435976602955 1 1 1 1 0.011142472329932665 0.026750790084895351 1 1 1 1 1 1 1 1 1 0.011313800013324826 1 0.011448648650362298 1 1 1 1 1 1 1 1 1 1 1 1 1 1 0.010574669681237703 1 1 1 1 1 1 1 1 1 1 1 1 1 1 0.010446056130683402 1 1 1 1 0.011077708630103544 1 1 1 1 0.012205392423755363 1 0.023887452642250624 1 1 1 0.0096037279807834365 1 1 0.0090604578003902602 1 1 1 1 0.0052047600091258573 1 1 1 1 1 0.015842558998282567 1 1 0.013827645972660936 1 1 1 1 0.011355872486787559 1 1 1 1 1 1 1 0.01016884304339008 1 1 1 1 0.010187899170492282 1 1 0.024162981725282542 1 1 0.0018146177536145901 1 0.0099564953758030737 1 1 1 1 0.0013813888222140476 1 1 1 0.0064210142684465767 1 1 1 1 1 1 1 0.013083844649236084 1 1 1 1 1 1 1 1 1 1 1 1 1 1 1 1 1 0.014986556556052674 1 1 1 0.012978007307132736 1 1 1 1 1 1 1 1 1 1 1 1 1 1 1 1 1 1 1 1 1 1 1 1 1 1 1 1 1 1 1 1 1 1 1 1 1 0.011355153399106636 1 1 1 0.017427518004749835 1 1 0.015473344370790031 0.0089490634661973951 1 1 1 1 1 1 1 1 1 1 0.012068938856777876 1 1 1 1 1 1 1 1 1 1 1 1 1 1 1 0.011894205286502722 1 1 1 1 1 1 1 1 1 1 1 1 1 0.01504643543057891 1 1 1 1 1 0.021395741225789182 1 1 1 1 0.022267423807873311 1 1 1 1 1 0.013306029125100052 1 1 1 1 1 1 1 1 1 1 0.011411823838597353 1 0.013662798625859028 1 1 1 1 0.0097665961837058862 1 0.0058968890313364081 1 1 1 1 1 1 0.020398921359361548 0.0096464847981200669 1 1 0.008130041075710354 1 1 1 1 1 1 1 1 0.010094735556083312 1 1 1 1 1 1 1 1 1 1 1 1 1 1 1 1 0.0089377262290103992 1 0.0093533367433169291 1 1 1 1 1 1 1 1 1 1 1 1 1 1 1 1 1 1 1 1 1 0.0095843894856934807 1 1 1 1 1 1 1 1 1 1 1 1 1 1 1 1 1 1 1 1 1 1 1 1 1 1 1 1 1 1 1 1 1 1 0.016404109455919531 1 1 1 1 1 1 1 1 1 1 0.015378976911736036 1 1 1 0.0065032023076437981 1 0.0081728824990928151 1 1 1 1 1 1 1 1 1 1 0.0099604900862570525 1 1 0.0099761452464965511 1 1 1 1 1 1 1 1 1 1 1 1 1 1 1 1 1 1 1 1 1 1 1 1 1 1 1 1 1 1 1 1 1 1 1 1 1 1 1 1 1 1 1 1 1 1 1 1 1 1 1 1 1 1 1 1 1 1 1 1 0.012294245417587054 1 1 1 1 1 1 0.013740698053125912 0.011285950109457387 1 1 1 1 1 1 1 1 1 0.0138093629634171 1 1 1 1 1 1 1 1 1 1 1 1 1 1 1 1 1 1 1 1 1 1 1 1 1 1 1 1 1 1 1 1 1 1 1 1 1 1 1 1 1 1 1 1 1 1 1 1 1 1 1 1 1 1 1 1 1 1 0.013456045526844254 1 0.012328676472711853 1 1 1 1 1 1 1 1 0.018402173993670487 1 1 1 1 1 1 1 1 1 0.013826144773380329 1 1 1 1 1 1 1 0.01149746830066849 1 1 1 1 1 1 1 1 1 1 1 1 0.010777525317515548 1 1 0.011684188984363551 1 1 1 1 1 1 1 1 1 1 1 1 1 1 1 1 1 1 1 1 1 1 1 1 1 1 1 1 1 1 1 1 1 1 1 1 1 1 1 1 1 1 1 1 1 1 1 0.021664475527462011 1 1 1 1 0.010002465767161401 1 1 0.01130386413689473 1 1 1 1 1 0.0028918389459237359 1 1 1 1 0.0092437190983124529 1 1 1 1 0.010261178009043165 1 1 0.010402210177015245 1 1 1 0.013192905293183651 1 1 1 1 1 1 1 1 1 1 1 1 1 1 1 1 1 1 1 1 1 1 1 1 1 1 1 0.010085729416959148 0.013032301033136913 1 0.0038873739192368216 1 1 1 0.009959052783198849 1 1 1 1 1 1 1 1 1 0.009067700071730701 1 0.014138866901543722 1 1 0.0032416704927978653 1 1 0.01284669365812037 1 1 1 1 1 1 1 1 1 1 1 1 1 1 1 1 1 1 1 1 1 1 1 1 1 0.011056823459579267 1 1 1 1 1 0.007772066868268538 1 1 1 1 1 1 1 0.021845475018543219 0.012288990529301708 1 1 1 0.012839328973170057 1 1 1 1 0.029996114925879544 1 1 1 0.0099353967240383336 1 1 1 1 1 1 1 1 1 0.012761862487938189 1 1 1 1 1 1 1 1 1 0.014401129313734416 1 1 1 0.009960339380118503 1 1 1 1 0.028752828444777279 1 1 0.010020430178725826 1 1 1 1 1 1 1 0.011987832448828265 1 1 1 1 1 1 0.015240160403807849 1 1 1 1 1 1 0.012527310662485214 1 1 1 1 1 1 1 1 0.013049380422824683 1 1 1 0.011581916788481732 1 1 1 1 1 1 1 1 1 1 1 1 1 1 1 1 1 1 1 1 1 1 1 1 1 1 1 1 1 1 1 1 1 1 1 1 1 1 1 1 1 1 1 1 1 1 1 1 1 1 1 1 1 0.0094213336626240082 1 1 0.01331417741112218 1 0.010664510502851391 1 1 0.0069847233318826602 1 1 1 1 1 1 1 1 1 0.010126310276566743 1 1 1 1 1 1 0.011450103904843141 1 1 1 1 1 1 0.010046493221107157 1 0.0097261487135659169 1 1 0.0086515869210973834 1 1 0.014098566405546114 1 1 0.011543823983762316 1 1 1 1 1 1 1 1 1 1 1 1 1 0.010501223752807038 1 0.012799117384178852 1 1 0.015776868563742521 1 1 1 1 1 0.012983088114183349 1 1 1 1 1 1 1 1 1 1 1 1 1 1 1 0.010502744768296133 1 1 0.011003968521103169 1 1 1 1 0.01490234085796277 1 1 1 1 1 1 1 1 1 0.013754516221505151 1 1 1 1 1 1 1 1 1 1 0.012749000512191418 1 1 1 1 1 0.019246989143713179 0.01695744810544806 1 1 1 1 1 1 1 0.014350275694711387 0.01057958600961567 1 1 1 1 1 1 1 1 0.011749789747734154 1 1 0.0122706091613657 1 0.013921257137882247 1 1 0.011559587730724309 1 1 1 1 1 1 0.016393537640456972 1 1 1 1 1 1 1 1 1 1 0.019454882631735896 1 1 1 1 1 1 0.0098407579400726537 0.021575353956494112 1 1 1 1 0.021048815761052671 1 1 1 1 1 1 1 1 1 1 1 1 1 1 1 1 1 1 0.014378898439646893 1 1 1 1 0.011518310063540746 1 1 1 1 1 1 1 1 1 1 1 1 1 0.016818095355736626 1 1 1 1 1 1 1 1 0.010077651350249302 1 1 1 0.0099570064237105935 1 1 1 1 1 0.01623045141120693 1 0.010219142655747986 1 1 1 1 1 1 1 1 1 1 1 1 1 1 0.013624848191054802 1 1 1 1 1 1 1 1 1 1 0.017209946768903254 1 1 1 1 1 1 1 0.027371311937352448 0.0097355306164509155 1 1 1 1 1 1 0.0094922238864656363 1 1 1 1 1 1 1 1 1 1 0.01829259987219229 1 1 1 1 0.020736994918735024 0.0031893707268226199 1 0.008124342125066672 1 1 1 1 1 1 1 0.010513738958661161 1 0.027398451626321919 1 1 1 1 1 1 1 1 1 0.028120392871305959 1 1 1 1 1 1 1 1 1 1 1 1 1 1 1 1 1 1 1 1 1 1 1 1 0.011446452635538855 1 1 1 1 1 1 1 1 1 1 1 1 1 1 1 1 1 1 1 1 1 1 1 1 1 1 1 1 1 1 1 1 1 1 1 1 1 1 1 1 1 1 1 1 1 1 1 0.011089666753905051 1 1 1 1 0.012755731950718172 1 1 1 1 1 1 1 0.0093270697822249744 1 1 0.0098999342213114388 1 1 1 1 1 1 1 1 1 1 1 1 1 1 1 0.0099132821878865664 0.010292045572852262 1 1 1 1 1 1 1 1 0.013955775079436485 1 1 1 1 1 1 1 1 1 1 0.0096610218700014776 1 0.01130779812136589 1 1 1 1 1 1 1 1 1 1 1 1 1 1 1 1 1 1 1 1 1 1 1 1 1 1 1 1 1 1 1 1 1 1 1 1 1 1 1 1 1 1 1 1 1 1 1 1 1 1 1 1 1 1 1 1 1 1 1 1 1 0.012185090047200335 1 1 0.012200856082966617 1 1 1 1 1 1 1 1 1 0.0094549646769397765 1 1 1 1 1 1 1 1 1 1 1 1 0.0090072865873548486 1 1 1 0.0088384514500191944 1 1 1 1 1 1 1 1 1 1 1 1 1 1 1 1 1 1 1 1 1 0.0088082976097800126 1 1 1 0.0096870628209559263 1 1 1 1 1 1 0.011723458891471973 0.013924314974438589 1 1 1 1 1 1 1 1 1 1 1 1 1 1 1 1 1 1 1 1 1 1 1 1 1 1 1 1 1 1 1 1 1 1 1 0.010410996445418657 1 1 1 1 1 1 1 1 1 1 1 1 1 1 1 1 1 1 1 1 1 1 1 1 0.010410798898462239 1 1 1 1 1 1 1 1 1 1 1 1 1 0.011678425397251046 0.010736930852730751 1 1 1 0.010947672068337487 0.020190110529171808 1 1 1 1 1 1 1 1 1 1 1 1 1 0.026378728187352915 1 1 1 1 0.023979030354114708 1 1 1 1 1 0.011681646151290689 1 1 1 1 1 1 1 1 0.013717548996866467 1 1 1 0.019193609221952859 1 1 0.0066851794561873928 1 1 0.012546341723827832 1 1 1 0.016631292333913535 1 1 0.023136380512352811 1 1 1 1 1 1 0.0092434393969067566 1 1 1 1 0.0263304668675341 1 1 1 1 1 1 1 1 1 1 1 0.012641357978492538 1 1 1 1 1 1 1 1 1 1 1 1 1 1 1 1 1 1 1 1 1 1 1 1 0.0096546134446843703 1 0.019338860696029223 0.0021681681245671841 1 1 1 0.0010873087070729331 1 1 1 1 0.018533173294823273 1 1 1 1 1 1 1 1 0.012412195168340336 1 1 1 0.01214767332378431 1 1 1 1 1 1 1 1 1 1 1 1 1 1 1 1 1 1 1 1 0.0095413764963073189 1 1 1 1 1 1 1 1 1 1 1 1 0.010679511087410151 1 1 1 1 1 1 0.017261606971262278 1 0.0099545246485265027 0.023782136618438074 1 1 1 1 1 1 1 1 1 1 0.015161772569126777 1 1 1 1 0.015314827005336346 1 1 1 0.016082298583257319 1 1 0.016694943648380374 1 1 1 1 1 1 1 1 1 1 0.010014336385794843 1 0.01004258584809953 1 1 1 0.020301760000252488 1 0.018697683056372837 1 1 1 1 0.0099365476459010935 0.0099952406597412728 0.014086632993058238 1 1 1 1 1 1 0.01216538659952964 1 1 1 1 1 1 1 0.0095786322880628046 1 1 1 1 1 1 1 1 1 1 1 1 1 1 0.010135638011419826 1 0.010789419210043482 1 1 1 1 1 1 0.02361779063523476 1 1 1 1 0.0099832466329988004 1 1 0.0092033755163756798 1 1 1 0.026467884158445004 1 0.02900452780685811 1 1 0.0031651875521731109 1 1 1 1 1 0.028296070234244332 1 0.026565274309793489 1 1 1 1 1 1 1 1 1 1 0.0098293561738870758 1 0.014525139077273631 1 1 1 1 1 0.014377085343572342 0.011128511214594777 1 0.0093208782121678348 1 1 1 0.015898239122326907 0.009707091215924819 0.013833584229341722 0.016183231793835975 1 1 1 0.017693590088194096 1 0.013620238451810256 1 0.012184436792359402 0.010131656879380092 1 1 1 0.01241629689410753 1 1 1 0.012416304778021582 0.012604392162979155 1 0.011623637684480177 1 1 0.010056199061784697 1 1 1 1 1 1 1 1 1 1 1 1 1 1 1 1 1 1 1 1 1 0.010143446711424687 1 1 1 1 0.01034202978280286 1 0.010009907196361368 1 0.010043631158427123 1 1 1 1 1 0.009515780962063649 0.010117715107207626 1 0.022176383764573933 1 1 0.010058333428902697 1 1 1 1 1 0.010436487421089474 1 1 0.014805795794037305 1 1 1 0.012032050907297968 0.012971457658536967 1 1 1 0.010161768653555734 1 0.017624578553584111 0.016636224341039764 1 1 0.015757619571518049 1 0.010227889389772982 1 1 0.010075287283844249 1 0.0099070567487060945 1 1 1 1 1 1 0.011662101694501308 1 1 1 0.0099988775755992954 1 1 1 1 1 1 1 1 1 1 1 1 1 1 1 1 1 1 1 1 1 1 1 1 1 1 1 1 0.0094937423975139865 1 1 1 0.0096237998142754376 1 0.008349551868059758 1 1 0.007052771902110332 1 1 1 1 1 1 1 1 1 1 0.0055068746730751131 1 1 1 1 1 1 1 1 1 1 1 1 1 1 0.0096216027729758985 0.025542887807194534 1 1 1 1 1 0.0099454509349926681 0.020630028778316607 1 1 0.026506692085780936 0.0099915856218466548 1 1 1 1 1 1 1 1 1 1 1 1 1 1 1 1 1 1 1 0.0090936095010536282 1 1 1 1 1 1 1 1 0.0079710366052276275 1 1 1 1 1 1 1 1 1 1 1 0.01425316748191665 0.01120330785225248 1 1 1 1 1 1 1 1 1 1 1 1 1 1 1 1 1 1 1 1 1 1 1 1 1 1 1 1 1 1 1 1 1 0.010110552976008696 1 1 0.010326620861674704 1 1 1 1 1 1 1 1 1 1 1 1 1 1 1 1 1 1 1 1 1 1 1 1 1 1 1 1 1 1 1 1 1 1 1 0.011015692088097918 1 1 1 1 1 1 1 1 1 1 0.01280354510330757 1 1 1 1 1 1 1 0.011895924827317789 1 1 1 1 1 1 1 1 1 1 1 1 1 1 1 1 1 1 1 1 1 1 1 1 1 1 1 1 1 1 1 1 1 1 1 1 1 1 1 0.010024201125833352 1 1 1 1 0.0098539152527636273 1 1 1 1 1 1 1 1 1 1 1 1 1 0.01012532384780675 1 1 1 1 1 1 0.011981480174787441 1 1 0.010069593429537907 0.012513980668704764 1 1 0.019104607725166818 0.014960956192071891 1 1 1 1 0.010210448668604367 0.014850449653338952 1 1 1 1 0.010677942488933459 0.0097913880930972433 1 1 1 1 1 1 1 0.02052588027420521 1 1 1 1 1 1 1 1 1 0.0089770363412119188 1 1 1 0.010082020885185096 1 0.01026283692001325 1 0.010254966169975628 1 1 0.011870723938296466 1 1 0.014306718359277666 1 1 1 1 0.01413998636988964 1 1 1 1 1 1 1 1 0.010074839268847686 1 1 1 1 1 1 0.013229234578382758 1 1 1 1 1 1 1 1 1 1 1 0.015189395643802499 1 1 1 1 1 1 1 1 1 1 1 1 1 1 0.0096487190445830318 1 1 1 1 1 1 0.0134254309372017 1 1 0.011162047882563045 1 1 1 1 1 1 1 1 1 1 1 1 1 1 1 1 1 1 0.022099521351488585 1 1 1 1 1 1 1 0.010355730408425863 1 1 1 1 1 1 1 1 1 1 0.010039300191367263 1 1 1 0.012619537384024021 1 1 0.010060967035190403 1 0.011832921613432135 1 1 1 1 0.0099680518739272278 0.011646515153825802 1 1 1 1 1 0.01445229946456511 0.0061680691872783872 1 0.0086175376931506564 0.0098414909770327269 1 0.011884834989084228 0.010212307712254426 1 1 1 0.01080862395581101 1 1 1 1 1 1 0.010754008622345566 1 1 0.011003792415896468 0.0108501163891934 1 1 1 1 1 1 1 1 1 1 0.026225755537860079 0.010981760675848471 1 1 1 0.02426027077548449 1 1 1 0.021688565389551044 1 1 1 1 1 1 1 1 1 1 1 1 1 1 1 1 1 1 0.0099984817288635633 1 1 0.016240451459219034 1 1 0.0091239870878135412 0.01278842934665024 1 1 1 0.011035569874404065 1 1 1 1 0.010426046572271724 1 1 1 1 1 1 1 1 1 0.029299246996884083 1 1 0.026900549644286682 1 1 1 1 1 1 1 1 1 0.023793822225114912 0.012374798758744719 1 1 1 1 1 1 0.011075514063709137 1 1 0.0095867784624668398 1 1 1 1 1 1 1 1 1 1 1 0.010120120072716267 1 1 1 1 1 1 0.010475850481142114 1 1 1 1 1 1 1 1 0.010284135285006595 1 0.010002105495653743 1 1 1 1 0.009914674185865795 0.010788089134764527 1 1 0.013559980183098522 1 1 1 1 1 1 1 1 1 1 1 1 1 1 1 1 1 1 1 1 0.012166611139340065 1 0.010716934075507337 1 1 1 1 1 1 1 0.030414054557857374 1 1 1 1 1 1 1 1 1 1 1 1 1 1 1 1 1 1 1 1 0.021510635680554842 0.0083051754239066699 1 1 1 1 1 1 1 0.0077364555195336146 1 1 0.024593501594589198 1 0.014027326914391569 1 1 0.0069229087488489041 0.010119340424352533 1 1 1 1 0.010038046081992082 1 1 0.0082039394610820687 1 1 1 1 0.010100888807696044 1 0.0091451032726304129 1 1 1 1 1 1 1 1 1 1 1 1 1 1 1 1 1 0.015517381402259209 1 1 1 0.0099944838350567167 1 1 1 0.0096086925581200661 1 0.015110194501412086 0.016099946023474136 1 1 1 1 0.0099519737667092822 1 1 1 0.0092497298159835949 1 0.012289127545196378 0.009389765235012254 0.0098278369999831236 1 1 1 1 1 0.0099987937729438259 1 1 1 1 1 1 1 1 1 1 1 1 0.021485439122033597 1 1 1 1 0.021470220516958984 1 1 1 1 1 1 1 1 1 1 1 1 1 1 1 1 1 0.030582055224204645 1 1 1 1 1 1 1 1 0.010660386990900406 1 0.010091925275537806 1 1 1 1 1 0.010757086988359192 1 1 1 1 0.029764460687050326 1 0.016219006740940387 1 0.0098052839945565393 1 0.009945433357182544 1 1 0.0085121473080785603 1 1 1 1 1 1 1 1 1 1 1 1 1 1 1 1 1 1 0.010134810091905561 1 1 1 1 1 1 1 0.010069167464997197 1 1 1 1 1 0.018220637435932569 0.024757328991307972 1 1 1 1 1 1 1 1 1 1 1 1 1 1 1 1 0.017617057647730035 1 1 1 1 1 1 1 1 0.02131417312263658 1 1 0.010025453589255055 1 1 1 1 1 1 1 1 0.011747251692188532 1 1 1 0.010778621423435266 1 1 1 1 0.013504204937339202 1 1 1 1 1 1 1 1 1 1 1 1 1 1 1 1 1 1 1 1 0.011160816066242335 1 1 1 1 1 1 1 0.010968630268753266 1 1 1 1 1 0.0095977279291781029 1 1 1 1 1 1 1 1 1 1 1 1 1 1 1 1 1 1 1 1 1 1 1 1 1 1 0.010054180411360667 1 1 0.020922946604573302 0.0085139822441960347 1 1 0.0066106500853596673 1 1 1 1 0.0092538153556368588 1 1 1 1 1 1 1 1 0.016348798014912822 0.016656117605425978 1 1 1 1 1 0.0097919327841648959 1 1 1 0.0081458059396452565 1 1 0.013875730634940426 1 0.016319263126480001 1 1 1 1 1 0.014304616785181686 1 0.011293419174974003 1 1 1 1 1 1 1 1 1 1 1 1 1 1 1 1 1 1 1 1 1 1 0.0093320330865684174 1 1 1 1 1 0.010315094052373412 1 1 1 1 0.011633898457547165 1 1 1 1 1 1 1 1 1 0.010332399619930434 1 1 1 1 0.011161390138329827 0.011363921431980673 1 1 1 1 1 1 1 0.0098252991216992089 0.013063007931545065 1 1 1 1 1 0.0089133223843995447 0.015541681898182697 0.016221440482455211 1 0.016250552578133508 1 1 0.005878270313119837 1 1 1 0.010657637889199567 1 1 0.025537654640340142 1 1 1 0.0099310652406568341 1 1 1 1 0.018746956004059241 1 1 0.014622311576640401 1 1 1 1 1 1 0.0092265074838534609 1 1 1 0.010027958307340056 1 1 1 1 1 1 1 1 1 1 1 0.010640824745646175 1 1 1 1 1 1 1 1 1 1 1 1 1 1 1 1 1 1 1 1 1 1 1 1 1 1 0.018851968379195661 0.014586923969578103 1 1 1 0.012804854331809092 1 0.016103669733310608 1 1 1 1 1 1 1 0.0067304855139037403 1 1 1 1 1 1 1 1 1 1 1 1 1 1 1 1 1 1 0.010146389337659822 0.016881605250697512 1 0.025482881006151099 1 1 1 1 1 0.027196986373612078 1 1 0.011992933750619616 1 1 1 1 1 1 1 1 1 0.010913768918785146 1 1 1 1 1 1 1 0.010359993630275482 1 1 0.010340914865921466 1 0.010780527556644571 1 1 1 0.0096157529136436694 1 1 0.011074660168182269 1 1 1 1 1 1 1 0.010424299905312975 1 1 1 1 0.017467703676950132 1 1 1 1 0.017229519287660373 1 1 0.019488053482722239 1 1 1 1 1 1 1 1 1 0.026115382206267943 1 1 1 0.022987148091619634 1 1 1 1 1 1 1 0.017977635895922266 0.010061358789992319 1 0.0050066711838188324 1 1 1 1 1 1 1 1 1 1 1 0.011310594708839727 1 1 1 1 1 1 0.010815229583412545 1 1 1 1 1 1 0.02037614028047827 1 1 1 1 1 1 1 1 1 1 1 1 1 1 1 1 1 1 1 1 1 1 1 1 1 1 1 1 0.016027208010948344 1 1 1 1 0.011857629008254466 1 1 1 1 1 0.010333999147423886 1 1 1 1 1 1 1 0.010163152599019808 1 1 1 1 1 1 1 1 1 1 1 1 1 1 1 0.01097807180569043 1 1 0.017939173143713284 1 1 1 0.010768649114704775 1 1 0.0098832076468064259 1 0.0092279716614893023 1 1 1 1 1 0.010103940539459674 1 1 1 1 0.0099499894683761844 1 1 0.009848601665033492 0.010364139652388426 1 1 0.012148983339563988 0.0085146578372206193 0.013267280468575339 1 1 1 1 0.017704038199495294 1 0.0085740097245456618 0.013090239243670964 1 0.0091017165720742969 1 1 1 1 1 1 1 1 1 1 0.019264492836576132 1 1 1 1 1 1 1 1 0.0097933205442674448 0.019720925436922464 1 0.0094223618489507263 1 1 1 1 0.0099482168183630693 1 1 0.0080403367972393652 1 1 1 1 0.011866860665151725 1 0.0095091958065637305 1 1 0.011921992246175007 1 1 1 1 1 1 0.0099700684599952245 1 1 1 0.01016814302106506 0.013077493036948556 1 1 1 1 1 1 1 1 1 1 1 1 1 1 1 1 1 0.014258844625169497 1 0.013212869545575687 1 1 1 1 1 1 1 1 1 1 1 1 1 1 1 0.014648508673102755 1 1 0.0098674705251194546 1 1 1 1 1 1 1 1 0.019210950525942135 0.019464013723924613 1 1 1 1 1 1 1 1 1 1 1 1 1 1 1 1 1 1 0.010072853096273794 1 0.018130842272847662 1 1 1 1 0.020688161790429857 1 0.028193849670359251 1 1 1 1 1 1 1 1 1 0.010976119900658077 1 1 1 1 1 1 1 1 1 1 1 1 1 0.012531533597166527 1 0.0082260901889556603 1 0.015352872049438563 1 0.0087626764550936646 1 1 1 1 1 0.010489469067149357 1 1 1 1 1 1 0.016636575041243558 1 1 1 1 1 1 1 1 0.016077127946070024 0.0094259698789620153 1 1 1 0.0099781558373400435 1 1 1 1 1 0.012069868160570018 1 1 1 0.0090673312448313129 1 1 1 1 0.012655219496436975 1 1 1 1 1 1 1 1 1 1 1 1 1 1 1 1 1 1 1 1 1 1 1 1 1 1 1 0.01021625961573764 1 1 1 0.010410001770470504 1 1 1 0.010509637892153456 1 1 1 1 1 1 0.0083605256146385646 1 1 1 1 1 1 1 1 0.023557299794744111 1 1 1 1 1 1 0.025409258077180735 1 1 0.0095211989278344827 1 1 1 1 1 1 1 1 0.010561887253529877 1 0.016442726217992205 0.016831177147827121 1 1 1 1 1 1 1 1 1 1 1 1 1 1 1 1 1 1 1 1 1 1 1 1 1 0.00998211181688596 1 1 1 0.011584146718299495 0.015843512231931416 1 1 1 1 0.015692061734548554 1 0.01620335854497968 0.016786604660003646 1 1 0.0036097509092469469 0.0078227067336383953 
</DataArray>
</CellData>
</Piece>
</UnstructuredGrid>
</VTKFile>
